<?xml version="1.0"?>
<VTKFile type="UnstructuredGrid" version="0.1" byte_order="LittleEndian">
<UnstructuredGrid>
<Piece NumberOfPoints="30469" NumberOfCells="10739">
<Points>
<DataArray type="Float64" NumberOfComponents="3" format="ascii">
-0.5 -0.5 0 -0.48737218499034718 -0.46936505912627757 0 -0.49999999999999872 -0.4537468450137353 0 -0.5 -0.5 0 -0.48213708854309001 -0.48877441876148892 0 -0.4609852154388589 -0.49999999999999922 0 -0.5 -0.5 0 -0.48737218499034718 -0.46936505912627757 0 -0.48213708854309001 -0.48877441876148892 0 -0.48737218499034718 -0.46936505912627757 0 -0.47622331792491529 -0.47709726044091438 0 -0.48213708854309001 -0.48877441876148892 0 -0.48737218499034718 -0.46936505912627757 0 -0.47622331792491529 -0.47709726044091438 0 -0.47821843143094028 -0.4671384261001148 0 -0.47622331792491529 -0.47709726044091438 0 -0.46902531577246392 -0.48704441371489859 0 -0.46182392915126669 -0.47708657266115168 0 -0.47622331792491529 -0.47709726044091438 0 -0.48213708854309001 -0.48877441876148892 0 -0.46902531577246392 -0.48704441371489859 0 -0.47622331792491529 -0.47709726044091438 0 -0.46182392915126669 -0.47708657266115168 0 -0.47200411442247159 -0.46492305362778791 0 -0.47622331792491529 -0.47709726044091438 0 -0.47200411442247159 -0.46492305362778791 0 -0.47821843143094028 -0.4671384261001148 0 -0.47622331792491529 -0.47709726044091438 0 -0.47200411442247159 -0.46492305362778791 0 -0.48213708854309001 -0.48877441876148892 0 -0.46902531577246392 -0.48704441371489859 0 -0.4609852154388589 -0.49999999999999922 0 -0.4609852154388589 -0.49999999999999922 0 -0.4570934178956696 -0.49730879104834619 0 -0.44264667174180228 -0.49999999999999878 0 -0.4609852154388589 -0.49999999999999922 0 -0.4516437438800579 -0.48925009169451239 0 -0.4609852154388589 -0.49999999999999922 0 -0.4570934178956696 -0.49730879104834619 0 -0.4516437438800579 -0.48925009169451239 0 -0.4609852154388589 -0.49999999999999922 0 -0.46063898777291379 -0.48936090125684728 0 -0.4516437438800579 -0.48925009169451239 0 -0.46063898777291379 -0.48936090125684728 0 -0.46182392915126669 -0.47708657266115168 0 -0.4516437438800579 -0.48925009169451239 0 -0.46902531577246392 -0.48704441371489859 0 -0.46063898777291379 -0.48936090125684728 0 -0.46182392915126669 -0.47708657266115168 0 -0.46902531577246392 -0.48704441371489859 0 -0.4609852154388589 -0.49999999999999922 0 -0.46063898777291379 -0.48936090125684728 0 -0.46182392915126669 -0.47708657266115168 0 -0.45965267104653479 -0.4656954867325811 0 -0.47200411442247159 -0.46492305362778791 0 -0.46182392915126669 -0.47708657266115168 0 -0.47200411442247159 -0.46492305362778791 0 -0.46182392915126669 -0.47708657266115168 0 -0.45099158654787319 -0.47625263310722937 0 -0.45965267104653479 -0.4656954867325811 0 -0.46182392915126669 -0.47708657266115168 0 -0.4516437438800579 -0.48925009169451239 0 -0.46182392915126669 -0.47708657266115168 0 -0.45099158654787319 -0.47625263310722937 0 -0.4516437438800579 -0.48925009169451239 0 -0.45099158654787319 -0.47625263310722937 0 -0.4516437438800579 -0.48925009169451239 0 -0.43447148976049732 -0.47057694299067399 0 -0.4516437438800579 -0.48925009169451239 0 -0.43447148976049732 -0.47057694299067399 0 -0.4516437438800579 -0.48925009169451239 0 -0.42702169712058408 -0.48411120095360832 0 -0.43447148976049732 -0.47057694299067399 0 -0.45099158654787319 -0.47625263310722937 0 -0.44709368373482578 -0.46829924187096411 0 -0.43447148976049732 -0.47057694299067399 0 -0.45099158654787319 -0.47625263310722937 0 -0.44709368373482578 -0.46829924187096411 0 -0.45965267104653479 -0.4656954867325811 0 -0.44817491777365892 -0.49339472474829948 0 -0.42702169712058408 -0.48411120095360832 0 -0.44264667174180228 -0.49999999999999878 0 -0.44817491777365892 -0.49339472474829948 0 -0.42702169712058408 -0.48411120095360832 0 -0.44817491777365892 -0.49339472474829948 0 -0.4516437438800579 -0.48925009169451239 0 -0.42702169712058408 -0.48411120095360832 0 -0.4570934178956696 -0.49730879104834619 0 -0.44264667174180228 -0.49999999999999878 0 -0.44817491777365892 -0.49339472474829948 0 -0.4570934178956696 -0.49730879104834619 0 -0.44817491777365892 -0.49339472474829948 0 -0.4570934178956696 -0.49730879104834619 0 -0.44817491777365892 -0.49339472474829948 0 -0.4516437438800579 -0.48925009169451239 0 -0.44264667174180228 -0.49999999999999878 0 -0.44817491777365892 -0.49339472474829948 0 -0.44817491777365892 -0.49339472474829948 0 -0.4516437438800579 -0.48925009169451239 0 -0.44242383457260342 -0.45224782063959218 0 -0.44295143895182948 -0.43006120276574261 0 -0.42926916732061082 -0.43849415085602589 0 -0.44242383457260342 -0.45224782063959218 0 -0.4611608245018487 -0.4336355241327296 0 -0.44295143895182948 -0.43006120276574261 0 -0.44242383457260342 -0.45224782063959218 0 -0.43847595334373651 -0.4587996405097074 0 -0.45965267104653479 -0.4656954867325811 0 -0.43847595334373651 -0.4587996405097074 0 -0.45965267104653479 -0.4656954867325811 0 -0.43847595334373651 -0.4587996405097074 0 -0.44709368373482578 -0.46829924187096411 0 -0.45965267104653479 -0.4656954867325811 0 -0.43847595334373651 -0.4587996405097074 0 -0.44709368373482578 -0.46829924187096411 0 -0.43447148976049732 -0.47057694299067399 0 -0.44242383457260342 -0.45224782063959218 0 -0.45965267104653479 -0.4656954867325811 0 -0.46784060883328582 -0.45290955911845721 0 -0.45965267104653479 -0.4656954867325811 0 -0.46784060883328582 -0.45290955911845721 0 -0.47200411442247159 -0.46492305362778791 0 -0.44242383457260342 -0.45224782063959218 0 -0.46784060883328582 -0.45290955911845721 0 -0.46784060883328582 -0.45290955911845721 0 -0.4611608245018487 -0.4336355241327296 0 -0.44242383457260342 -0.45224782063959218 0 -0.46784060883328582 -0.45290955911845721 0 -0.4611608245018487 -0.4336355241327296 0 -0.46784060883328582 -0.45290955911845721 0 -0.48392030441664219 -0.45332820206609681 0 -0.46784060883328582 -0.45290955911845721 0 -0.48160124324655201 -0.43929018029456168 0 -0.4611608245018487 -0.4336355241327296 0 -0.46784060883328582 -0.45290955911845721 0 -0.48160124324655201 -0.43929018029456168 0 -0.48392030441664219 -0.45332820206609681 0 -0.48737218499034718 -0.46936505912627757 0 -0.48392030441664219 -0.45332820206609681 0 -0.48079426569736589 -0.46319222806978277 0 -0.46784060883328582 -0.45290955911845721 0 -0.47366614195153411 -0.46293722498664203 0 -0.48392030441664219 -0.45332820206609681 0 -0.47200411442247159 -0.46492305362778791 0 -0.47366614195153411 -0.46293722498664203 0 -0.47821843143094028 -0.4671384261001148 0 -0.47200411442247159 -0.46492305362778791 0 -0.47366614195153411 -0.46293722498664203 0 -0.46784060883328582 -0.45290955911845721 0 -0.47200411442247159 -0.46492305362778791 0 -0.47366614195153411 -0.46293722498664203 0 -0.46784060883328582 -0.45290955911845721 0 -0.47200411442247159 -0.46492305362778791 0 -0.47366614195153411 -0.46293722498664203 0 -0.48392030441664219 -0.45332820206609681 0 -0.48079426569736589 -0.46319222806978277 0 -0.48737218499034718 -0.46936505912627757 0 -0.48079426569736589 -0.46319222806978277 0 -0.47821843143094028 -0.4671384261001148 0 -0.47366614195153411 -0.46293722498664203 0 -0.48079426569736589 -0.46319222806978277 0 -0.47821843143094028 -0.4671384261001148 0 -0.48737218499034718 -0.46936505912627757 0 -0.48392030441664219 -0.45332820206609681 0 -0.49999999999999872 -0.4537468450137353 0 -0.48392030441664219 -0.45332820206609681 0 -0.49999999999999872 -0.4537468450137353 0 -0.48160124324655201 -0.43929018029456168 0 -0.49999999999999872 -0.4537468450137353 0 -0.5 -0.42462381895082579 0 -0.48160124324655201 -0.43929018029456168 0 -0.48392030441664219 -0.45332820206609681 0 -0.49999999999999872 -0.4537468450137353 0 -0.48160124324655201 -0.43929018029456168 0 -0.5 -0.42462381895082579 0 -0.47668572172753709 -0.41749713248552489 0 -0.5 -0.42462381895082579 0 -0.47668572172753709 -0.41749713248552489 0 -0.5 -0.3955007928879164 0 -0.48160124324655201 -0.43929018029456168 0 -0.47668572172753709 -0.41749713248552489 0 -0.4611608245018487 -0.4336355241327296 0 -0.5 -0.3955007928879164 0 -0.47285889649255758 -0.37717554086932031 0 -0.46822970505635142 -0.39765805739765531 0 -0.47668572172753709 -0.41749713248552489 0 -0.5 -0.3955007928879164 0 -0.46822970505635142 -0.39765805739765531 0 -0.5 -0.3955007928879164 0 -0.47285889649255758 -0.37717554086932031 0 -0.5 -0.366377766825007 0 -0.47285889649255758 -0.37717554086932031 0 -0.46047328431697371 -0.3857260600490765 0 -0.45300327988001171 -0.37298318776805578 0 -0.47285889649255758 -0.37717554086932031 0 -0.46047328431697371 -0.3857260600490765 0 -0.46822970505635142 -0.39765805739765531 0 -0.46047328431697371 -0.3857260600490765 0 -0.44780125583897401 -0.39508745416127461 0 -0.45300327988001171 -0.37298318776805578 0 -0.46047328431697371 -0.3857260600490765 0 -0.46822970505635142 -0.39765805739765531 0 -0.44780125583897401 -0.39508745416127461 0 -0.46822970505635142 -0.39765805739765531 0 -0.44780125583897401 -0.39508745416127461 0 -0.45448104017041141 -0.4143614891470021 0 -0.44780125583897401 -0.39508745416127461 0 -0.45448104017041141 -0.4143614891470021 0 -0.44780125583897401 -0.39508745416127461 0 -0.44044274682912038 -0.41345593827618199 0 -0.42994419639944559 -0.40414899386571312 0 -0.43310846113056939 -0.38875732209885278 0 -0.45300327988001171 -0.37298318776805578 0 -0.43442129093722859 -0.37281287898628918 0 -0.44780125583897401 -0.39508745416127461 0 -0.43310846113056939 -0.38875732209885278 0 -0.45300327988001171 -0.37298318776805578 0 -0.4611608245018487 -0.4336355241327296 0 -0.45448104017041141 -0.4143614891470021 0 -0.47668572172753709 -0.41749713248552489 0 -0.4611608245018487 -0.4336355241327296 0 -0.45448104017041141 -0.4143614891470021 0 -0.47668572172753709 -0.41749713248552489 0 -0.46822970505635142 -0.39765805739765531 0 -0.45448104017041141 -0.4143614891470021 0 -0.45448104017041141 -0.4143614891470021 0 -0.44044274682912038 -0.41345593827618199 0 -0.44295143895182948 -0.43006120276574261 0 -0.44780125583897401 -0.39508745416127461 0 -0.45448104017041141 -0.4143614891470021 0 -0.44044274682912038 -0.41345593827618199 0 -0.4611608245018487 -0.4336355241327296 0 -0.45448104017041141 -0.4143614891470021 0 -0.44295143895182948 -0.43006120276574261 0 -0.44295143895182948 -0.43006120276574261 0 -0.42703580278494191 -0.4236205514411775 0 -0.42926916732061082 -0.43849415085602589 0 -0.44044274682912038 -0.41345593827618199 0 -0.44295143895182948 -0.43006120276574261 0 -0.42703580278494191 -0.4236205514411775 0 -0.42703580278494191 -0.4236205514411775 0 -0.41692769998175799 -0.43495509727289111 0 -0.42926916732061082 -0.43849415085602589 0 -0.44044274682912038 -0.41345593827618199 0 -0.42703580278494191 -0.4236205514411775 0 -0.42994419639944559 -0.40414899386571312 0 -0.42703580278494191 -0.4236205514411775 0 -0.41701368996011778 -0.41087883422885157 0 -0.42994419639944559 -0.40414899386571312 0 -0.41701368996011778 -0.41087883422885157 0 -0.41002488747834182 -0.42270112703966939 0 -0.40056861177949687 -0.411678039536369 0 -0.42703580278494191 -0.4236205514411775 0 -0.41701368996011778 -0.41087883422885157 0 -0.41002488747834182 -0.42270112703966939 0 -0.41002488747834182 -0.42270112703966939 0 -0.41692769998175799 -0.43495509727289111 0 -0.40062561445657502 -0.43377286018585243 0 -0.42703580278494191 -0.4236205514411775 0 -0.41002488747834182 -0.42270112703966939 0 -0.41692769998175799 -0.43495509727289111 0 -0.41749495135836279 -0.39224545926132909 0 -0.43442129093722859 -0.37281287898628918 0 -0.43310846113056939 -0.38875732209885278 0 -0.41749495135836279 -0.39224545926132909 0 -0.43442129093722859 -0.37281287898628918 0 -0.41749495135836279 -0.39224545926132909 0 -0.43442129093722859 -0.37281287898628918 0 -0.41423986092382259 -0.36905512519515671 0 -0.44780125583897401 -0.39508745416127461 0 -0.43310846113056939 -0.38875732209885278 0 -0.42994419639944559 -0.40414899386571312 0 -0.43310846113056939 -0.38875732209885278 0 -0.42994419639944559 -0.40414899386571312 0 -0.41749495135836279 -0.39224545926132909 0 -0.41701368996011778 -0.41087883422885157 0 -0.42994419639944559 -0.40414899386571312 0 -0.41749495135836279 -0.39224545926132909 0 -0.41749495135836279 -0.39224545926132909 0 -0.40056861177949687 -0.411678039536369 0 -0.41701368996011778 -0.41087883422885157 0 -0.41749495135836279 -0.39224545926132909 0 -0.40056861177949687 -0.411678039536369 0 -0.41749495135836279 -0.39224545926132909 0 -0.39105129183485499 -0.38360077071562598 0 -0.41423986092382259 -0.36905512519515671 0 -0.39105129183485499 -0.38360077071562598 0 -0.41423986092382259 -0.36905512519515671 0 -0.41749495135836279 -0.39224545926132909 0 -0.38878718556324038 -0.40001990422890832 0 -0.40056861177949687 -0.411678039536369 0 -0.41749495135836279 -0.39224545926132909 0 -0.39105129183485499 -0.38360077071562598 0 -0.38878718556324038 -0.40001990422890832 0 -0.39105129183485499 -0.38360077071562598 0 -0.38878718556324038 -0.40001990422890832 0 -0.3678627227458876 -0.3981464162360957 0 -0.38878718556324038 -0.40001990422890832 0 -0.38424416860123062 -0.41595963821097481 0 -0.3678627227458876 -0.3981464162360957 0 -0.39105129183485499 -0.38360077071562598 0 -0.3678627227458876 -0.3981464162360957 0 -0.39105129183485499 -0.38360077071562598 0 -0.37257503251095497 -0.37866515378961141 0 -0.3678627227458876 -0.3981464162360957 0 -0.40062561445657502 -0.43377286018585243 0 -0.39886582057891112 -0.42102791624321639 0 -0.38424416860123062 -0.41595963821097481 0 -0.40062561445657502 -0.43377286018585243 0 -0.38424416860123062 -0.41595963821097481 0 -0.40062561445657502 -0.43377286018585243 0 -0.38424416860123062 -0.41595963821097481 0 -0.3870579194659472 -0.43053465215785941 0 -0.40062561445657502 -0.43377286018585243 0 -0.3870579194659472 -0.43053465215785941 0 -0.38594120885298849 -0.44169257394488798 0 -0.41002488747834182 -0.42270112703966939 0 -0.40062561445657502 -0.43377286018585243 0 -0.39886582057891112 -0.42102791624321639 0 -0.38878718556324038 -0.40001990422890832 0 -0.40056861177949687 -0.411678039536369 0 -0.38424416860123062 -0.41595963821097481 0 -0.41002488747834182 -0.42270112703966939 0 -0.39886582057891112 -0.42102791624321639 0 -0.40056861177949687 -0.411678039536369 0 -0.39886582057891112 -0.42102791624321639 0 -0.40056861177949687 -0.411678039536369 0 -0.38424416860123062 -0.41595963821097481 0 -0.38424416860123062 -0.41595963821097481 0 -0.3678627227458876 -0.3981464162360957 0 -0.38424416860123062 -0.41595963821097481 0 -0.37742068595299472 -0.43071353628972242 0 -0.37091410425653681 -0.41832221773702177 0 -0.38424416860123062 -0.41595963821097481 0 -0.3870579194659472 -0.43053465215785941 0 -0.37742068595299472 -0.43071353628972242 0 -0.3870579194659472 -0.43053465215785941 0 -0.37742068595299472 -0.43071353628972242 0 -0.38594120885298849 -0.44169257394488798 0 -0.37742068595299472 -0.43071353628972242 0 -0.37588806535323638 -0.44294978010778219 0 -0.38594120885298849 -0.44169257394488798 0 -0.37588806535323638 -0.44294978010778219 0 -0.38296451804946652 -0.44971231068944573 0 -0.38594120885298849 -0.44169257394488798 0 -0.37588806535323638 -0.44294978010778219 0 -0.37523752162689022 -0.45211883853237111 0 -0.38296451804946652 -0.44971231068944573 0 -0.38296451804946652 -0.44971231068944573 0 -0.39062428613150468 -0.4508991933889509 0 -0.38594120885298849 -0.44169257394488798 0 -0.38594120885298849 -0.44169257394488798 0 -0.40110268655222781 -0.446629657216847 0 -0.40062561445657502 -0.43377286018585243 0 -0.38594120885298849 -0.44169257394488798 0 -0.40110268655222781 -0.446629657216847 0 -0.39062428613150468 -0.4508991933889509 0 -0.40110268655222781 -0.446629657216847 0 -0.41729923564093779 -0.45190379428683453 0 -0.39062428613150468 -0.4508991933889509 0 -0.41729923564093779 -0.45190379428683453 0 -0.39062428613150468 -0.4508991933889509 0 -0.40556780415349941 -0.45611534091546663 0 -0.41729923564093779 -0.45190379428683453 0 -0.39062428613150468 -0.4508991933889509 0 -0.38594120885298849 -0.44169257394488798 0 -0.40110268655222781 -0.446629657216847 0 -0.39594122041752422 -0.46297299186462931 0 -0.38471525581443489 -0.46554415336422539 0 -0.40586847646750962 -0.47482767715891683 0 -0.40255686325664758 -0.46062094354642441 0 -0.39594122041752422 -0.46297299186462931 0 -0.40586847646750962 -0.47482767715891683 0 -0.39062428613150468 -0.4508991933889509 0 -0.40556780415349941 -0.45611534091546663 0 -0.40255686325664758 -0.46062094354642441 0 -0.39062428613150468 -0.4508991933889509 0 -0.40255686325664758 -0.46062094354642441 0 -0.39594122041752422 -0.46297299186462931 0 -0.38296451804946652 -0.44971231068944573 0 -0.39062428613150468 -0.4508991933889509 0 -0.38471525581443489 -0.46554415336422539 0 -0.37523752162689022 -0.45211883853237111 0 -0.38296451804946652 -0.44971231068944573 0 -0.38471525581443489 -0.46554415336422539 0 -0.39062428613150468 -0.4508991933889509 0 -0.39594122041752422 -0.46297299186462931 0 -0.38471525581443489 -0.46554415336422539 0 -0.38471525581443489 -0.46554415336422539 0 -0.38924371913560041 -0.48392856869749779 0 -0.37282572789950708 -0.47948696161413512 0 -0.38471525581443489 -0.46554415336422539 0 -0.37282572789950708 -0.47948696161413512 0 -0.36766058993756012 -0.46887702239595569 0 -0.38924371913560041 -0.48392856869749779 0 -0.36723244912285202 -0.49999999999999939 0 -0.37282572789950708 -0.47948696161413512 0 -0.38924371913560041 -0.48392856869749779 0 -0.39237052332916889 -0.5 0 -0.36723244912285202 -0.49999999999999939 0 -0.39237052332916889 -0.5 0 -0.4064026027176697 -0.48857348936200462 0 -0.41750859753548553 -0.5 0 -0.38924371913560041 -0.48392856869749779 0 -0.39237052332916889 -0.5 0 -0.4064026027176697 -0.48857348936200462 0 -0.38924371913560041 -0.48392856869749779 0 -0.40586847646750962 -0.47482767715891683 0 -0.4064026027176697 -0.48857348936200462 0 -0.38471525581443489 -0.46554415336422539 0 -0.40586847646750962 -0.47482767715891683 0 -0.38471525581443489 -0.46554415336422539 0 -0.38924371913560041 -0.48392856869749779 0 -0.40586847646750962 -0.47482767715891683 0 -0.40586847646750962 -0.47482767715891683 0 -0.4064026027176697 -0.48857348936200462 0 -0.42702169712058408 -0.48411120095360832 0 -0.40586847646750962 -0.47482767715891683 0 -0.42702169712058408 -0.48411120095360832 0 -0.41949736039278152 -0.46855882032554358 0 -0.40586847646750962 -0.47482767715891683 0 -0.42702169712058408 -0.48411120095360832 0 -0.4064026027176697 -0.48857348936200462 0 -0.41750859753548553 -0.5 0 -0.42702169712058408 -0.48411120095360832 0 -0.44264667174180228 -0.49999999999999878 0 -0.41750859753548553 -0.5 0 -0.42702169712058408 -0.48411120095360832 0 -0.42702169712058408 -0.48411120095360832 0 -0.43447148976049732 -0.47057694299067399 0 -0.41949736039278152 -0.46855882032554358 0 -0.43847595334373651 -0.4587996405097074 0 -0.41729923564093779 -0.45190379428683453 0 -0.44242383457260342 -0.45224782063959218 0 -0.43847595334373651 -0.4587996405097074 0 -0.41729923564093779 -0.45190379428683453 0 -0.43447148976049732 -0.47057694299067399 0 -0.41729923564093779 -0.45190379428683453 0 -0.43447148976049732 -0.47057694299067399 0 -0.41729923564093779 -0.45190379428683453 0 -0.41949736039278152 -0.46855882032554358 0 -0.43847595334373651 -0.4587996405097074 0 -0.43447148976049732 -0.47057694299067399 0 -0.41729923564093779 -0.45190379428683453 0 -0.44242383457260342 -0.45224782063959218 0 -0.41729923564093779 -0.45190379428683453 0 -0.44242383457260342 -0.45224782063959218 0 -0.42926916732061082 -0.43849415085602589 0 -0.41729923564093779 -0.45190379428683453 0 -0.40062561445657502 -0.43377286018585243 0 -0.41729923564093779 -0.45190379428683453 0 -0.41692769998175799 -0.43495509727289111 0 -0.42926916732061082 -0.43849415085602589 0 -0.41729923564093779 -0.45190379428683453 0 -0.41692769998175799 -0.43495509727289111 0 -0.40062561445657502 -0.43377286018585243 0 -0.41729923564093779 -0.45190379428683453 0 -0.40110268655222781 -0.446629657216847 0 -0.41729923564093779 -0.45190379428683453 0 -0.40062561445657502 -0.43377286018585243 0 -0.40110268655222781 -0.446629657216847 0 -0.41729923564093779 -0.45190379428683453 0 -0.40556780415349941 -0.45611534091546663 0 -0.40255686325664758 -0.46062094354642441 0 -0.41282590297437838 -0.46137448623768512 0 -0.40556780415349941 -0.45611534091546663 0 -0.41729923564093779 -0.45190379428683453 0 -0.41282590297437838 -0.46137448623768512 0 -0.41729923564093779 -0.45190379428683453 0 -0.41282590297437838 -0.46137448623768512 0 -0.41949736039278152 -0.46855882032554358 0 -0.40255686325664758 -0.46062094354642441 0 -0.40586847646750962 -0.47482767715891683 0 -0.41282590297437838 -0.46137448623768512 0 -0.40586847646750962 -0.47482767715891683 0 -0.41282590297437838 -0.46137448623768512 0 -0.41949736039278152 -0.46855882032554358 0 -0.4480072613033349 -0.27259870076855908 0 -0.43208010054109969 -0.25864092592141369 0 -0.4526682049430118 -0.24965412602685361 0 -0.4480072613033349 -0.27259870076855908 0 -0.47378123335245098 -0.26798039500642562 0 -0.46067185002867711 -0.29158927425440861 0 -0.47378123335245098 -0.26798039500642562 0 -0.46067185002867711 -0.29158927425440861 0 -0.4480072613033349 -0.27259870076855908 0 -0.47378123335245098 -0.26798039500642562 0 -0.4526682049430118 -0.24965412602685361 0 -0.47378123335245098 -0.26798039500642562 0 -0.46812635542377801 -0.23995500628525609 0 -0.4526682049430118 -0.24965412602685361 0 -0.47378123335245098 -0.26798039500642562 0 -0.48689061667622502 -0.2443715157584426 0 -0.48787816707079312 -0.26036396198792372 0 -0.47378123335245098 -0.26798039500642562 0 -0.48689061667622502 -0.2443715157584426 0 -0.47378123335245098 -0.26798039500642562 0 -0.48689061667622502 -0.2443715157584426 0 -0.46812635542377801 -0.23995500628525609 0 -0.48787816707079312 -0.26036396198792372 0 -0.48689061667622502 -0.2443715157584426 0 -0.5 -0.24988566257336919 0 -0.48787816707079312 -0.26036396198792372 0 -0.5 -0.27900868863627859 0 -0.5 -0.24988566257336919 0 -0.48787816707079312 -0.26036396198792372 0 -0.5 -0.27900868863627859 0 -0.47378123335245098 -0.26798039500642562 0 -0.5 -0.27900868863627859 0 -0.47378123335245098 -0.26798039500642562 0 -0.48298178540314529 -0.29357020166773351 0 -0.47378123335245098 -0.26798039500642562 0 -0.48298178540314529 -0.29357020166773351 0 -0.46067185002867711 -0.29158927425440861 0 -0.5 -0.27900868863627859 0 -0.48298178540314529 -0.29357020166773351 0 -0.5 -0.3081317146991881 0 -0.48298178540314529 -0.29357020166773351 0 -0.5 -0.3081317146991881 0 -0.47602978970096199 -0.31789859264156928 0 -0.48298178540314529 -0.29357020166773351 0 -0.46067185002867711 -0.29158927425440861 0 -0.47602978970096199 -0.31789859264156928 0 -0.46067185002867711 -0.29158927425440861 0 -0.44756246670490307 -0.31519815350239172 0 -0.46067185002867711 -0.29158927425440861 0 -0.44756246670490307 -0.31519815350239172 0 -0.47602978970096199 -0.31789859264156928 0 -0.4480072613033349 -0.27259870076855908 0 -0.46067185002867711 -0.29158927425440861 0 -0.43433241180371152 -0.29752248645892448 0 -0.46067185002867711 -0.29158927425440861 0 -0.44756246670490307 -0.31519815350239172 0 -0.43433241180371152 -0.29752248645892448 0 -0.44756246670490307 -0.31519815350239172 0 -0.43445308338112909 -0.33880703275037483 0 -0.44756246670490307 -0.31519815350239172 0 -0.4606169991017578 -0.33996383415421788 0 -0.43445308338112909 -0.33880703275037483 0 -0.44756246670490307 -0.31519815350239172 0 -0.4606169991017578 -0.33996383415421788 0 -0.47602978970096199 -0.31789859264156928 0 -0.5 -0.3081317146991881 0 -0.47602978970096199 -0.31789859264156928 0 -0.5 -0.33725474076209749 0 -0.47602978970096199 -0.31789859264156928 0 -0.5 -0.33725474076209749 0 -0.48062033799715959 -0.34068934639068399 0 -0.4606169991017578 -0.33996383415421788 0 -0.47602978970096199 -0.31789859264156928 0 -0.48062033799715959 -0.34068934639068399 0 -0.4606169991017578 -0.33996383415421788 0 -0.48062033799715959 -0.34068934639068399 0 -0.46993460134421422 -0.35768171505029173 0 -0.48062033799715959 -0.34068934639068399 0 -0.46993460134421422 -0.35768171505029173 0 -0.5 -0.366377766825007 0 -0.5 -0.33725474076209749 0 -0.48062033799715959 -0.34068934639068399 0 -0.5 -0.366377766825007 0 -0.47285889649255758 -0.37717554086932031 0 -0.46993460134421422 -0.35768171505029173 0 -0.5 -0.366377766825007 0 -0.46993460134421422 -0.35768171505029173 0 -0.45134763051609461 -0.35338029871124937 0 -0.45300327988001171 -0.37298318776805578 0 -0.47285889649255758 -0.37717554086932031 0 -0.46993460134421422 -0.35768171505029173 0 -0.45300327988001171 -0.37298318776805578 0 -0.4606169991017578 -0.33996383415421788 0 -0.46993460134421422 -0.35768171505029173 0 -0.45134763051609461 -0.35338029871124937 0 -0.4606169991017578 -0.33996383415421788 0 -0.45134763051609461 -0.35338029871124937 0 -0.43742843001279008 -0.35450947967468738 0 -0.4606169991017578 -0.33996383415421788 0 -0.43742843001279008 -0.35450947967468738 0 -0.4606169991017578 -0.33996383415421788 0 -0.43742843001279008 -0.35450947967468738 0 -0.43445308338112909 -0.33880703275037483 0 -0.45134763051609461 -0.35338029871124937 0 -0.45300327988001171 -0.37298318776805578 0 -0.43442129093722859 -0.37281287898628918 0 -0.45134763051609461 -0.35338029871124937 0 -0.43442129093722859 -0.37281287898628918 0 -0.43742843001279008 -0.35450947967468738 0 -0.45134763051609461 -0.35338029871124937 0 -0.43442129093722859 -0.37281287898628918 0 -0.43742843001279008 -0.35450947967468738 0 -0.41423986092382259 -0.36905512519515671 0 -0.43442129093722859 -0.37281287898628918 0 -0.43742843001279008 -0.35450947967468738 0 -0.41423986092382259 -0.36905512519515671 0 -0.43742843001279008 -0.35450947967468738 0 -0.42164386323720249 -0.34936727436771081 0 -0.43445308338112909 -0.33880703275037483 0 -0.43742843001279008 -0.35450947967468738 0 -0.42164386323720249 -0.34936727436771081 0 -0.41423986092382259 -0.36905512519515671 0 -0.42164386323720249 -0.34936727436771081 0 -0.41423986092382259 -0.36905512519515671 0 -0.4054788616770636 -0.34413060567547882 0 -0.39105129183485499 -0.38360077071562598 0 -0.41423986092382259 -0.36905512519515671 0 -0.39310293792166318 -0.36049895372647911 0 -0.39310293792166318 -0.36049895372647911 0 -0.37267921285126682 -0.35967095936252769 0 -0.37257503251095497 -0.37866515378961141 0 -0.39105129183485499 -0.38360077071562598 0 -0.39310293792166318 -0.36049895372647911 0 -0.37257503251095497 -0.37866515378961141 0 -0.39310293792166318 -0.36049895372647911 0 -0.38008373841685122 -0.33359574130627823 0 -0.37267921285126682 -0.35967095936252769 0 -0.38008373841685122 -0.33359574130627823 0 -0.37267921285126682 -0.35967095936252769 0 -0.39310293792166318 -0.36049895372647911 0 -0.4054788616770636 -0.34413060567547882 0 -0.38008373841685122 -0.33359574130627823 0 -0.41423986092382259 -0.36905512519515671 0 -0.39310293792166318 -0.36049895372647911 0 -0.4054788616770636 -0.34413060567547882 0 -0.4054788616770636 -0.34413060567547882 0 -0.38008373841685122 -0.33359574130627823 0 -0.40098930065903993 -0.32602291106874581 0 -0.38008373841685122 -0.33359574130627823 0 -0.38748826398243558 -0.30752052325002871 0 -0.3677201975690142 -0.31904206908424798 0 -0.38008373841685122 -0.33359574130627823 0 -0.40098930065903993 -0.32602291106874581 0 -0.38748826398243558 -0.30752052325002871 0 -0.38008373841685122 -0.33359574130627823 0 -0.38748826398243558 -0.30752052325002871 0 -0.40098930065903993 -0.32602291106874581 0 -0.41405859945887552 -0.31301676097663578 0 -0.38748826398243558 -0.30752052325002871 0 -0.40098930065903993 -0.32602291106874581 0 -0.41405859945887552 -0.31301676097663578 0 -0.41783703975997333 -0.33185092413530709 0 -0.41405859945887552 -0.31301676097663578 0 -0.41783703975997333 -0.33185092413530709 0 -0.43021934419134372 -0.32017761173791093 0 -0.42164386323720249 -0.34936727436771081 0 -0.4054788616770636 -0.34413060567547882 0 -0.41783703975997333 -0.33185092413530709 0 -0.4054788616770636 -0.34413060567547882 0 -0.40098930065903993 -0.32602291106874581 0 -0.41783703975997333 -0.33185092413530709 0 -0.41783703975997333 -0.33185092413530709 0 -0.43445308338112909 -0.33880703275037483 0 -0.43021934419134372 -0.32017761173791093 0 -0.42164386323720249 -0.34936727436771081 0 -0.41783703975997333 -0.33185092413530709 0 -0.43445308338112909 -0.33880703275037483 0 -0.44756246670490307 -0.31519815350239172 0 -0.43445308338112909 -0.33880703275037483 0 -0.43021934419134372 -0.32017761173791093 0 -0.41405859945887552 -0.31301676097663578 0 -0.43021934419134372 -0.32017761173791093 0 -0.43433241180371152 -0.29752248645892448 0 -0.44756246670490307 -0.31519815350239172 0 -0.43021934419134372 -0.32017761173791093 0 -0.43433241180371152 -0.29752248645892448 0 -0.4480072613033349 -0.27259870076855908 0 -0.43433241180371152 -0.29752248645892448 0 -0.42232754865099542 -0.27615289487022621 0 -0.43433241180371152 -0.29752248645892448 0 -0.41244588686711958 -0.29329239894302178 0 -0.42232754865099542 -0.27615289487022621 0 -0.41244588686711958 -0.29329239894302178 0 -0.3948927895480201 -0.28144530519377903 0 -0.42232754865099542 -0.27615289487022621 0 -0.41405859945887552 -0.31301676097663578 0 -0.43433241180371152 -0.29752248645892448 0 -0.41244588686711958 -0.29329239894302178 0 -0.41405859945887552 -0.31301676097663578 0 -0.41244588686711958 -0.29329239894302178 0 -0.38748826398243558 -0.30752052325002871 0 -0.38748826398243558 -0.30752052325002871 0 -0.3948927895480201 -0.28144530519377903 0 -0.3713279988626691 -0.27790219231957902 0 -0.38748826398243558 -0.30752052325002871 0 -0.3948927895480201 -0.28144530519377903 0 -0.41244588686711958 -0.29329239894302178 0 -0.38748826398243558 -0.30752052325002871 0 -0.3948927895480201 -0.28144530519377903 0 -0.3948927895480201 -0.28144530519377903 0 -0.38106945471233178 -0.25792830927888799 0 -0.3713279988626691 -0.27790219231957902 0 -0.38106945471233178 -0.25792830927888799 0 -0.40974667659117497 -0.25491852591673608 0 -0.39379270280730833 -0.2426237641303024 0 -0.3948927895480201 -0.28144530519377903 0 -0.38106945471233178 -0.25792830927888799 0 -0.40974667659117497 -0.25491852591673608 0 -0.40974667659117497 -0.25491852591673608 0 -0.42232754865099542 -0.27615289487022621 0 -0.43208010054109969 -0.25864092592141369 0 -0.3948927895480201 -0.28144530519377903 0 -0.40974667659117497 -0.25491852591673608 0 -0.42232754865099542 -0.27615289487022621 0 -0.4480072613033349 -0.27259870076855908 0 -0.42232754865099542 -0.27615289487022621 0 -0.43208010054109969 -0.25864092592141369 0 -0.40974667659117497 -0.25491852591673608 0 -0.43208010054109969 -0.25864092592141369 0 -0.42765081121698162 -0.23988038202469389 0 -0.31852542310247378 -0.25450617829883249 0 -0.33333723668306442 -0.25315333067254109 0 -0.31738185613404718 -0.2443924588626166 0 -0.31994549642604031 -0.26383335327848489 0 -0.33333723668306442 -0.25315333067254109 0 -0.31852542310247378 -0.25450617829883249 0 -0.31994549642604031 -0.26383335327848489 0 -0.33333723668306442 -0.25315333067254109 0 -0.31852542310247378 -0.25450617829883249 0 -0.30942190389300139 -0.25698382624560279 0 -0.31066012073268828 -0.2486229655060174 0 -0.31852542310247378 -0.25450617829883249 0 -0.31526840326932493 -0.26107192537783819 0 -0.30942190389300139 -0.25698382624560279 0 -0.31526840326932493 -0.26107192537783819 0 -0.31330944174845571 -0.26912566126912929 0 -0.30942190389300139 -0.25698382624560279 0 -0.31852542310247378 -0.25450617829883249 0 -0.31526840326932493 -0.26107192537783819 0 -0.31994549642604031 -0.26383335327848489 0 -0.31526840326932493 -0.26107192537783819 0 -0.31994549642604031 -0.26383335327848489 0 -0.31330944174845571 -0.26912566126912929 0 -0.32234682907134887 -0.27886468550432519 0 -0.31130650139462718 -0.28679545980776999 0 -0.3065537561690162 -0.27451337588442881 0 -0.31330944174845571 -0.26912566126912929 0 -0.32234682907134887 -0.27886468550432519 0 -0.3065537561690162 -0.27451337588442881 0 -0.31994549642604031 -0.26383335327848489 0 -0.31330944174845571 -0.26912566126912929 0 -0.32234682907134887 -0.27886468550432519 0 -0.31994549642604031 -0.26383335327848489 0 -0.31330944174845571 -0.26912566126912929 0 -0.33333723668306442 -0.25315333067254109 0 -0.34613701454383339 -0.27957286820518212 0 -0.31994549642604031 -0.26383335327848489 0 -0.32234682907134887 -0.27886468550432519 0 -0.34613701454383339 -0.27957286820518212 0 -0.31994549642604031 -0.26383335327848489 0 -0.33333723668306442 -0.25315333067254109 0 -0.34613701454383339 -0.27957286820518212 0 -0.33333723668306442 -0.25315333067254109 0 -0.35880864564215847 -0.25758926764935441 0 -0.34613701454383339 -0.27957286820518212 0 -0.38106945471233178 -0.25792830927888799 0 -0.35880864564215847 -0.25758926764935441 0 -0.37399680437649641 -0.24103310080026069 0 -0.38106945471233178 -0.25792830927888799 0 -0.35880864564215847 -0.25758926764935441 0 -0.3713279988626691 -0.27790219231957902 0 -0.35880864564215847 -0.25758926764935441 0 -0.3713279988626691 -0.27790219231957902 0 -0.34613701454383339 -0.27957286820518212 0 -0.34613701454383339 -0.27957286820518212 0 -0.36073082154361891 -0.29953679559221807 0 -0.34251284688295358 -0.29991103468791408 0 -0.38748826398243558 -0.30752052325002871 0 -0.3713279988626691 -0.27790219231957902 0 -0.36073082154361891 -0.29953679559221807 0 -0.3713279988626691 -0.27790219231957902 0 -0.34613701454383339 -0.27957286820518212 0 -0.36073082154361891 -0.29953679559221807 0 -0.38748826398243558 -0.30752052325002871 0 -0.36073082154361891 -0.29953679559221807 0 -0.3677201975690142 -0.31904206908424798 0 -0.36073082154361891 -0.29953679559221807 0 -0.34251284688295358 -0.29991103468791408 0 -0.34860055680435692 -0.31986756538015371 0 -0.32929500003331519 -0.30885368068639868 0 -0.34251284688295358 -0.29991103468791408 0 -0.34860055680435692 -0.31986756538015371 0 -0.32929500003331519 -0.30885368068639868 0 -0.34251284688295358 -0.29991103468791408 0 -0.32780084148964339 -0.29172426357561831 0 -0.34613701454383339 -0.27957286820518212 0 -0.34251284688295358 -0.29991103468791408 0 -0.32780084148964339 -0.29172426357561831 0 -0.32234682907134887 -0.27886468550432519 0 -0.34613701454383339 -0.27957286820518212 0 -0.32780084148964339 -0.29172426357561831 0 -0.32234682907134887 -0.27886468550432519 0 -0.32780084148964339 -0.29172426357561831 0 -0.31130650139462718 -0.28679545980776999 0 -0.32780084148964339 -0.29172426357561831 0 -0.31415792769058681 -0.30069868657386589 0 -0.31130650139462718 -0.28679545980776999 0 -0.32929500003331519 -0.30885368068639868 0 -0.32780084148964339 -0.29172426357561831 0 -0.31415792769058681 -0.30069868657386589 0 -0.32929500003331519 -0.30885368068639868 0 -0.31415792769058681 -0.30069868657386589 0 -0.31301725913660089 -0.31499290558882193 0 -0.31301725913660089 -0.31499290558882193 0 -0.3298549917129116 -0.32907562801618567 0 -0.31082978517761922 -0.33437696614633861 0 -0.32929500003331519 -0.30885368068639868 0 -0.31301725913660089 -0.31499290558882193 0 -0.3298549917129116 -0.32907562801618567 0 -0.3298549917129116 -0.32907562801618567 0 -0.32617902436241059 -0.35281946655195467 0 -0.31082978517761922 -0.33437696614633861 0 -0.3298549917129116 -0.32907562801618567 0 -0.34860055680435692 -0.31986756538015371 0 -0.3480134274349635 -0.34719277330050252 0 -0.3298549917129116 -0.32907562801618567 0 -0.3480134274349635 -0.34719277330050252 0 -0.32617902436241059 -0.35281946655195467 0 -0.32929500003331519 -0.30885368068639868 0 -0.3298549917129116 -0.32907562801618567 0 -0.34860055680435692 -0.31986756538015371 0 -0.34860055680435692 -0.31986756538015371 0 -0.3677201975690142 -0.31904206908424798 0 -0.36169760709780818 -0.3346897198925613 0 -0.36073082154361891 -0.29953679559221807 0 -0.34860055680435692 -0.31986756538015371 0 -0.3677201975690142 -0.31904206908424798 0 -0.38008373841685122 -0.33359574130627823 0 -0.36169760709780818 -0.3346897198925613 0 -0.37267921285126682 -0.35967095936252769 0 -0.38008373841685122 -0.33359574130627823 0 -0.3677201975690142 -0.31904206908424798 0 -0.36169760709780818 -0.3346897198925613 0 -0.34860055680435692 -0.31986756538015371 0 -0.36169760709780818 -0.3346897198925613 0 -0.3480134274349635 -0.34719277330050252 0 -0.3480134274349635 -0.34719277330050252 0 -0.37267921285126682 -0.35967095936252769 0 -0.35746188398109641 -0.3672989538481386 0 -0.36169760709780818 -0.3346897198925613 0 -0.3480134274349635 -0.34719277330050252 0 -0.37267921285126682 -0.35967095936252769 0 -0.37267921285126682 -0.35967095936252769 0 -0.35746188398109641 -0.3672989538481386 0 -0.37257503251095497 -0.37866515378961141 0 -0.3480134274349635 -0.34719277330050252 0 -0.35746188398109641 -0.3672989538481386 0 -0.34007359049023578 -0.36792844978000222 0 -0.35746188398109641 -0.3672989538481386 0 -0.34007359049023578 -0.36792844978000222 0 -0.35396815661806103 -0.3830374330080496 0 -0.34007359049023578 -0.36792844978000222 0 -0.32617902436241059 -0.35281946655195467 0 -0.31981907923153419 -0.37252493527020741 0 -0.34007359049023578 -0.36792844978000222 0 -0.32617902436241059 -0.35281946655195467 0 -0.3480134274349635 -0.34719277330050252 0 -0.34007359049023578 -0.36792844978000222 0 -0.32617902436241059 -0.35281946655195467 0 -0.32617902436241059 -0.35281946655195467 0 -0.30402280542323579 -0.35379280960024861 0 -0.31082978517761922 -0.33437696614633861 0 -0.32617902436241059 -0.35281946655195467 0 -0.31981907923153419 -0.37252493527020741 0 -0.30402280542323579 -0.35379280960024861 0 -0.31981907923153419 -0.37252493527020741 0 -0.29845837627811661 -0.37035221287872222 0 -0.30402280542323579 -0.35379280960024861 0 -0.30402280542323579 -0.35379280960024861 0 -0.2760599035421647 -0.35567559105553531 0 -0.29279066394756992 -0.33700768569873391 0 -0.29845837627811661 -0.37035221287872222 0 -0.30402280542323579 -0.35379280960024861 0 -0.2760599035421647 -0.35567559105553531 0 -0.29845837627811661 -0.37035221287872222 0 -0.2760599035421647 -0.35567559105553531 0 -0.27748806523122233 -0.38367865895574232 0 -0.2760599035421647 -0.35567559105553531 0 -0.27748806523122233 -0.38367865895574232 0 -0.25192080741192058 -0.37019654152130138 0 -0.2760599035421647 -0.35567559105553531 0 -0.27748806523122233 -0.38367865895574232 0 -0.2760599035421647 -0.35567559105553531 0 -0.2543376441694648 -0.32935427057012212 0 -0.24984245054675561 -0.3492155874815136 0 -0.25192080741192058 -0.37019654152130138 0 -0.2760599035421647 -0.35567559105553531 0 -0.24984245054675561 -0.3492155874815136 0 -0.2760599035421647 -0.35567559105553531 0 -0.2543376441694648 -0.32935427057012212 0 -0.27463174185310713 -0.32767252315532819 0 -0.2760599035421647 -0.35567559105553531 0 -0.27463174185310713 -0.32767252315532819 0 -0.29279066394756992 -0.33700768569873391 0 -0.2760599035421647 -0.35567559105553531 0 -0.27463174185310713 -0.32767252315532819 0 -0.2543376441694648 -0.32935427057012212 0 -0.27433682651859659 -0.31069011240532401 0 -0.25878846463836352 -0.30385361529220389 0 -0.2543376441694648 -0.32935427057012212 0 -0.25878846463836352 -0.30385361529220389 0 -0.24190571814629139 -0.31262021440945742 0 -0.2543376441694648 -0.32935427057012212 0 -0.27463174185310713 -0.32767252315532819 0 -0.27433682651859659 -0.31069011240532401 0 -0.27463174185310713 -0.32767252315532819 0 -0.29363734653065582 -0.31802116296658978 0 -0.27433682651859659 -0.31069011240532401 0 -0.27463174185310713 -0.32767252315532819 0 -0.29363734653065582 -0.31802116296658978 0 -0.29279066394756992 -0.33700768569873391 0 -0.30402280542323579 -0.35379280960024861 0 -0.29279066394756992 -0.33700768569873391 0 -0.31082978517761922 -0.33437696614633861 0 -0.29363734653065582 -0.31802116296658978 0 -0.29279066394756992 -0.33700768569873391 0 -0.31082978517761922 -0.33437696614633861 0 -0.31301725913660089 -0.31499290558882193 0 -0.29363734653065582 -0.31802116296658978 0 -0.31082978517761922 -0.33437696614633861 0 -0.31301725913660089 -0.31499290558882193 0 -0.29363734653065582 -0.31802116296658978 0 -0.30175421521197132 -0.30667241600851658 0 -0.30175421521197132 -0.30667241600851658 0 -0.30177374887736308 -0.29515339377607008 0 -0.28820493690772531 -0.29902591001338069 0 -0.31415792769058681 -0.30069868657386589 0 -0.31301725913660089 -0.31499290558882193 0 -0.30175421521197132 -0.30667241600851658 0 -0.31415792769058681 -0.30069868657386589 0 -0.30175421521197132 -0.30667241600851658 0 -0.30177374887736308 -0.29515339377607008 0 -0.31130650139462718 -0.28679545980776999 0 -0.29389271089493552 -0.28388330774502568 0 -0.3065537561690162 -0.27451337588442881 0 -0.31415792769058681 -0.30069868657386589 0 -0.31130650139462718 -0.28679545980776999 0 -0.30177374887736308 -0.29515339377607008 0 -0.31130650139462718 -0.28679545980776999 0 -0.30177374887736308 -0.29515339377607008 0 -0.29389271089493552 -0.28388330774502568 0 -0.30177374887736308 -0.29515339377607008 0 -0.29389271089493552 -0.28388330774502568 0 -0.28820493690772531 -0.29902591001338069 0 -0.29389271089493552 -0.28388330774502568 0 -0.28820493690772531 -0.29902591001338069 0 -0.26889619323390579 -0.28457263268279109 0 -0.29363734653065582 -0.31802116296658978 0 -0.28820493690772531 -0.29902591001338069 0 -0.27433682651859659 -0.31069011240532401 0 -0.29363734653065582 -0.31802116296658978 0 -0.30175421521197132 -0.30667241600851658 0 -0.28820493690772531 -0.29902591001338069 0 -0.27433682651859659 -0.31069011240532401 0 -0.25878846463836352 -0.30385361529220389 0 -0.26889619323390579 -0.28457263268279109 0 -0.28820493690772531 -0.29902591001338069 0 -0.27433682651859659 -0.31069011240532401 0 -0.26889619323390579 -0.28457263268279109 0 -0.25878846463836352 -0.30385361529220389 0 -0.26889619323390579 -0.28457263268279109 0 -0.2469705392895381 -0.29434959033503899 0 -0.26889619323390579 -0.28457263268279109 0 -0.2460328823503313 -0.27921318886701568 0 -0.2469705392895381 -0.29434959033503899 0 -0.26889619323390579 -0.28457263268279109 0 -0.26008039725099868 -0.2617455913827097 0 -0.28663059345339142 -0.26535496753557192 0 -0.26008039725099868 -0.2617455913827097 0 -0.2460328823503313 -0.27921318886701568 0 -0.26889619323390579 -0.28457263268279109 0 -0.26008039725099868 -0.2617455913827097 0 -0.2460328823503313 -0.27921318886701568 0 -0.26008039725099868 -0.2617455913827097 0 -0.27031401188449561 -0.24902044658011899 0 -0.25085087840922649 -0.2406400513868247 0 -0.26008039725099868 -0.2617455913827097 0 -0.27031401188449561 -0.24902044658011899 0 -0.26008039725099868 -0.2617455913827097 0 -0.28663059345339142 -0.26535496753557192 0 -0.26008039725099868 -0.2617455913827097 0 -0.28663059345339142 -0.26535496753557192 0 -0.27031401188449561 -0.24902044658011899 0 -0.28663059345339142 -0.26535496753557192 0 -0.29971320121282291 -0.25751914336809922 0 -0.28841245959507189 -0.24873432956307159 0 -0.28663059345339142 -0.26535496753557192 0 -0.28841245959507189 -0.24873432956307159 0 -0.27031401188449561 -0.24902044658011899 0 -0.29971320121282291 -0.25751914336809922 0 -0.30092025946686501 -0.24755824980781679 0 -0.28841245959507189 -0.24873432956307159 0 -0.29389271089493552 -0.28388330774502568 0 -0.28663059345339142 -0.26535496753557192 0 -0.3065537561690162 -0.27451337588442881 0 -0.29389271089493552 -0.28388330774502568 0 -0.26889619323390579 -0.28457263268279109 0 -0.28663059345339142 -0.26535496753557192 0 -0.31330944174845571 -0.26912566126912929 0 -0.28663059345339142 -0.26535496753557192 0 -0.3065537561690162 -0.27451337588442881 0 -0.31330944174845571 -0.26912566126912929 0 -0.28663059345339142 -0.26535496753557192 0 -0.31330944174845571 -0.26912566126912929 0 -0.3065537561690162 -0.27451337588442881 0 -0.31330944174845571 -0.26912566126912929 0 -0.28663059345339142 -0.26535496753557192 0 -0.29971320121282291 -0.25751914336809922 0 -0.31330944174845571 -0.26912566126912929 0 -0.30942190389300139 -0.25698382624560279 0 -0.29971320121282291 -0.25751914336809922 0 -0.30942190389300139 -0.25698382624560279 0 -0.30092025946686501 -0.24755824980781679 0 -0.31066012073268828 -0.2486229655060174 0 -0.30942190389300139 -0.25698382624560279 0 -0.29971320121282291 -0.25751914336809922 0 -0.30092025946686501 -0.24755824980781679 0 -0.33257448839611953 -0.46605969969657968 0 -0.33530830761540342 -0.45278916411895442 0 -0.34970605172607949 -0.45427168285838981 0 -0.33257448839611953 -0.46605969969657968 0 -0.33530830761540342 -0.45278916411895442 0 -0.32670916225558039 -0.45451014379285581 0 -0.34155319933714412 -0.44173652965346971 0 -0.32570793232613371 -0.44506175555309779 0 -0.33241822660152781 -0.43410371351153382 0 -0.34155319933714412 -0.44173652965346971 0 -0.33530830761540342 -0.45278916411895442 0 -0.32570793232613371 -0.44506175555309779 0 -0.34155319933714412 -0.44173652965346971 0 -0.33530830761540342 -0.45278916411895442 0 -0.34970605172607949 -0.45427168285838981 0 -0.33530830761540342 -0.45278916411895442 0 -0.32570793232613371 -0.44506175555309779 0 -0.32670916225558039 -0.45451014379285581 0 -0.32570793232613371 -0.44506175555309779 0 -0.31586852154799289 -0.44320489477583419 0 -0.32075726865318971 -0.42870660369477209 0 -0.32570793232613371 -0.44506175555309779 0 -0.31878672430758542 -0.45079766063081161 0 -0.32670916225558039 -0.45451014379285581 0 -0.31586852154799289 -0.44320489477583419 0 -0.32075726865318971 -0.42870660369477209 0 -0.30627105378129998 -0.4426874693883221 0 -0.32570793232613371 -0.44506175555309779 0 -0.31586852154799289 -0.44320489477583419 0 -0.31878672430758542 -0.45079766063081161 0 -0.31586852154799289 -0.44320489477583419 0 -0.31878672430758542 -0.45079766063081161 0 -0.3096753272070269 -0.44932139880277477 0 -0.31878672430758542 -0.45079766063081161 0 -0.31346741948926038 -0.45450304454485912 0 -0.3096753272070269 -0.44932139880277477 0 -0.33257448839611953 -0.46605969969657968 0 -0.306445955418569 -0.46712397077412798 0 -0.33257448839611953 -0.46605969969657968 0 -0.32116835863266008 -0.45784243896483579 0 -0.31521295953789391 -0.46104016959249627 0 -0.33257448839611953 -0.46605969969657968 0 -0.306445955418569 -0.46712397077412798 0 -0.30882665563172979 -0.46929984688004728 0 -0.33257448839611953 -0.46605969969657968 0 -0.31521295953789391 -0.46104016959249627 0 -0.306445955418569 -0.46712397077412798 0 -0.31346741948926038 -0.45450304454485912 0 -0.31521295953789391 -0.46104016959249627 0 -0.30941455490779929 -0.45887098548317512 0 -0.31346741948926038 -0.45450304454485912 0 -0.32116835863266008 -0.45784243896483579 0 -0.31521295953789391 -0.46104016959249627 0 -0.31878672430758542 -0.45079766063081161 0 -0.31346741948926038 -0.45450304454485912 0 -0.32116835863266008 -0.45784243896483579 0 -0.31878672430758542 -0.45079766063081161 0 -0.32670916225558039 -0.45451014379285581 0 -0.32116835863266008 -0.45784243896483579 0 -0.33257448839611953 -0.46605969969657968 0 -0.32670916225558039 -0.45451014379285581 0 -0.32116835863266008 -0.45784243896483579 0 -0.32562169760998277 -0.48464992344002189 0 -0.30882665563172979 -0.46929984688004728 0 -0.32562169760998277 -0.48464992344002189 0 -0.32829525346210381 -0.47953323125336478 0 -0.30882665563172979 -0.46929984688004728 0 -0.32829525346210381 -0.47953323125336478 0 -0.30882665563172979 -0.46929984688004728 0 -0.32562169760998277 -0.48464992344002189 0 -0.30782662462896299 -0.48549700340026969 0 -0.30882665563172979 -0.46929984688004728 0 -0.33257448839611953 -0.46605969969657968 0 -0.32829525346210381 -0.47953323125336478 0 -0.30882665563172979 -0.46929984688004728 0 -0.32562169760998277 -0.48464992344002189 0 -0.3160077234139802 -0.5 0 -0.3424167395882346 -0.49999999999999778 0 -0.32562169760998277 -0.48464992344002189 0 -0.3160077234139802 -0.5 0 -0.30782662462896299 -0.48549700340026969 0 -0.32562169760998277 -0.48464992344002189 0 -0.3424167395882346 -0.49999999999999778 0 -0.32829525346210381 -0.47953323125336478 0 -0.34776385129247811 -0.48976661562668189 0 -0.32562169760998277 -0.48464992344002189 0 -0.3424167395882346 -0.49999999999999778 0 -0.34776385129247811 -0.48976661562668189 0 -0.32562169760998277 -0.48464992344002189 0 -0.32829525346210381 -0.47953323125336478 0 -0.34776385129247811 -0.48976661562668189 0 -0.33257448839611953 -0.46605969969657968 0 -0.32829525346210381 -0.47953323125336478 0 -0.34516670479263978 -0.47569058280170201 0 -0.32829525346210381 -0.47953323125336478 0 -0.34516670479263978 -0.47569058280170201 0 -0.34776385129247811 -0.48976661562668189 0 -0.33257448839611953 -0.46605969969657968 0 -0.34516670479263978 -0.47569058280170201 0 -0.35870302137367011 -0.46499542861903231 0 -0.34516670479263978 -0.47569058280170201 0 -0.35849690943882773 -0.47809793881285179 0 -0.34776385129247811 -0.48976661562668189 0 -0.34516670479263978 -0.47569058280170201 0 -0.35849690943882773 -0.47809793881285179 0 -0.35870302137367011 -0.46499542861903231 0 -0.34776385129247811 -0.48976661562668189 0 -0.36723244912285202 -0.49999999999999939 0 -0.3424167395882346 -0.49999999999999778 0 -0.34776385129247811 -0.48976661562668189 0 -0.36723244912285202 -0.49999999999999939 0 -0.35849690943882773 -0.47809793881285179 0 -0.34776385129247811 -0.48976661562668189 0 -0.36723244912285202 -0.49999999999999939 0 -0.35849690943882773 -0.47809793881285179 0 -0.36723244912285202 -0.49999999999999939 0 -0.37282572789950708 -0.47948696161413512 0 -0.35849690943882773 -0.47809793881285179 0 -0.36766058993756012 -0.46887702239595569 0 -0.35870302137367011 -0.46499542861903231 0 -0.35849690943882773 -0.47809793881285179 0 -0.37282572789950708 -0.47948696161413512 0 -0.36766058993756012 -0.46887702239595569 0 -0.37523752162689022 -0.45211883853237111 0 -0.38471525581443489 -0.46554415336422539 0 -0.36356203516136038 -0.456260629569534 0 -0.38471525581443489 -0.46554415336422539 0 -0.36766058993756012 -0.46887702239595569 0 -0.36356203516136038 -0.456260629569534 0 -0.38471525581443489 -0.46554415336422539 0 -0.36356203516136038 -0.456260629569534 0 -0.36356203516136038 -0.456260629569534 0 -0.35870302137367011 -0.46499542861903231 0 -0.35752712255006119 -0.45677322448287588 0 -0.36356203516136038 -0.456260629569534 0 -0.35752712255006119 -0.45677322448287588 0 -0.35813738193913502 -0.4515651568845474 0 -0.36766058993756012 -0.46887702239595569 0 -0.36356203516136038 -0.456260629569534 0 -0.35870302137367011 -0.46499542861903231 0 -0.33257448839611953 -0.46605969969657968 0 -0.35870302137367011 -0.46499542861903231 0 -0.33257448839611953 -0.46605969969657968 0 -0.35870302137367011 -0.46499542861903231 0 -0.34970605172607949 -0.45427168285838981 0 -0.35752712255006119 -0.45677322448287588 0 -0.34970605172607949 -0.45427168285838981 0 -0.35813738193913502 -0.4515651568845474 0 -0.35870302137367011 -0.46499542861903231 0 -0.35752712255006119 -0.45677322448287588 0 -0.34970605172607949 -0.45427168285838981 0 -0.34155319933714412 -0.44173652965346971 0 -0.35523264869329702 -0.44242611757466932 0 -0.34908428295657379 -0.43591926571482559 0 -0.34155319933714412 -0.44173652965346971 0 -0.34970605172607949 -0.45427168285838981 0 -0.35523264869329702 -0.44242611757466932 0 -0.34970605172607949 -0.45427168285838981 0 -0.35813738193913502 -0.4515651568845474 0 -0.35523264869329702 -0.44242611757466932 0 -0.35523264869329702 -0.44242611757466932 0 -0.36584688364561108 -0.44690571849839977 0 -0.36741418806057607 -0.43752299141915579 0 -0.35813738193913502 -0.4515651568845474 0 -0.35523264869329702 -0.44242611757466932 0 -0.36584688364561108 -0.44690571849839977 0 -0.36356203516136038 -0.456260629569534 0 -0.35813738193913502 -0.4515651568845474 0 -0.36584688364561108 -0.44690571849839977 0 -0.37588806535323638 -0.44294978010778219 0 -0.37523752162689022 -0.45211883853237111 0 -0.36584688364561108 -0.44690571849839977 0 -0.37523752162689022 -0.45211883853237111 0 -0.36356203516136038 -0.456260629569534 0 -0.36584688364561108 -0.44690571849839977 0 -0.37588806535323638 -0.44294978010778219 0 -0.36584688364561108 -0.44690571849839977 0 -0.36741418806057607 -0.43752299141915579 0 -0.37742068595299472 -0.43071353628972242 0 -0.37588806535323638 -0.44294978010778219 0 -0.36741418806057607 -0.43752299141915579 0 -0.37742068595299472 -0.43071353628972242 0 -0.36741418806057607 -0.43752299141915579 0 -0.36640631792222861 -0.42795192259151532 0 -0.35523264869329702 -0.44242611757466932 0 -0.36741418806057607 -0.43752299141915579 0 -0.35678489374318267 -0.43225699142312218 0 -0.36741418806057607 -0.43752299141915579 0 -0.36640631792222861 -0.42795192259151532 0 -0.35678489374318267 -0.43225699142312218 0 -0.36640631792222861 -0.42795192259151532 0 -0.3577475943350491 -0.42147109276438582 0 -0.35678489374318267 -0.43225699142312218 0 -0.36640631792222861 -0.42795192259151532 0 -0.37091410425653681 -0.41832221773702177 0 -0.3577475943350491 -0.42147109276438582 0 -0.37742068595299472 -0.43071353628972242 0 -0.36640631792222861 -0.42795192259151532 0 -0.37091410425653681 -0.41832221773702177 0 -0.37091410425653681 -0.41832221773702177 0 -0.3577475943350491 -0.42147109276438582 0 -0.3678627227458876 -0.3981464162360957 0 -0.38424416860123062 -0.41595963821097481 0 -0.37091410425653681 -0.41832221773702177 0 -0.3678627227458876 -0.3981464162360957 0 -0.3577475943350491 -0.42147109276438582 0 -0.34547407184062012 -0.41219029184136052 0 -0.3678627227458876 -0.3981464162360957 0 -0.3577475943350491 -0.42147109276438582 0 -0.34547407184062012 -0.41219029184136052 0 -0.33147047186345963 -0.41820797079490701 0 -0.3577475943350491 -0.42147109276438582 0 -0.33147047186345963 -0.41820797079490701 0 -0.3577475943350491 -0.42147109276438582 0 -0.34436577548225838 -0.42895668181352598 0 -0.33147047186345963 -0.41820797079490701 0 -0.34155319933714412 -0.44173652965346971 0 -0.34436577548225838 -0.42895668181352598 0 -0.34908428295657379 -0.43591926571482559 0 -0.34436577548225838 -0.42895668181352598 0 -0.34908428295657379 -0.43591926571482559 0 -0.35678489374318267 -0.43225699142312218 0 -0.35523264869329702 -0.44242611757466932 0 -0.34908428295657379 -0.43591926571482559 0 -0.35678489374318267 -0.43225699142312218 0 -0.3577475943350491 -0.42147109276438582 0 -0.34436577548225838 -0.42895668181352598 0 -0.35678489374318267 -0.43225699142312218 0 -0.35746188398109641 -0.3672989538481386 0 -0.37257503251095497 -0.37866515378961141 0 -0.35396815661806103 -0.3830374330080496 0 -0.37257503251095497 -0.37866515378961141 0 -0.3678627227458876 -0.3981464162360957 0 -0.35396815661806103 -0.3830374330080496 0 -0.3678627227458876 -0.3981464162360957 0 -0.35396815661806103 -0.3830374330080496 0 -0.34547407184062012 -0.41219029184136052 0 -0.3678627227458876 -0.3981464162360957 0 -0.3678627227458876 -0.3981464162360957 0 -0.34772291495512109 -0.39588428881148557 0 -0.35396815661806103 -0.3830374330080496 0 -0.34547407184062012 -0.41219029184136052 0 -0.3678627227458876 -0.3981464162360957 0 -0.34772291495512109 -0.39588428881148557 0 -0.34772291495512109 -0.39588428881148557 0 -0.35396815661806103 -0.3830374330080496 0 -0.33697116989553177 -0.38554979259210531 0 -0.34007359049023578 -0.36792844978000222 0 -0.35396815661806103 -0.3830374330080496 0 -0.34007359049023578 -0.36792844978000222 0 -0.31981907923153419 -0.37252493527020741 0 -0.33697116989553177 -0.38554979259210531 0 -0.34007359049023578 -0.36792844978000222 0 -0.35396815661806103 -0.3830374330080496 0 -0.33697116989553177 -0.38554979259210531 0 -0.33697116989553177 -0.38554979259210531 0 -0.33433845367550519 -0.40049751037981718 0 -0.32126469370366889 -0.39149194296841161 0 -0.34547407184062012 -0.41219029184136052 0 -0.34772291495512109 -0.39588428881148557 0 -0.33433845367550519 -0.40049751037981718 0 -0.34772291495512109 -0.39588428881148557 0 -0.33697116989553177 -0.38554979259210531 0 -0.33433845367550519 -0.40049751037981718 0 -0.33433845367550519 -0.40049751037981718 0 -0.31985726539067399 -0.40530446879910959 0 -0.32126469370366889 -0.39149194296841161 0 -0.31985726539067399 -0.40530446879910959 0 -0.32126469370366889 -0.39149194296841161 0 -0.30722949504370139 -0.4009044431712091 0 -0.31981907923153419 -0.37252493527020741 0 -0.33697116989553177 -0.38554979259210531 0 -0.32126469370366889 -0.39149194296841161 0 -0.31981907923153419 -0.37252493527020741 0 -0.32126469370366889 -0.39149194296841161 0 -0.30628727451520982 -0.38518773406451051 0 -0.34436577548225838 -0.42895668181352598 0 -0.33241822660152781 -0.43410371351153382 0 -0.33147047186345963 -0.41820797079490701 0 -0.33241822660152781 -0.43410371351153382 0 -0.33147047186345963 -0.41820797079490701 0 -0.32075726865318971 -0.42870660369477209 0 -0.34155319933714412 -0.44173652965346971 0 -0.34436577548225838 -0.42895668181352598 0 -0.33241822660152781 -0.43410371351153382 0 -0.34547407184062012 -0.41219029184136052 0 -0.33433845367550519 -0.40049751037981718 0 -0.33147047186345963 -0.41820797079490701 0 -0.33433845367550519 -0.40049751037981718 0 -0.31985726539067399 -0.40530446879910959 0 -0.33147047186345963 -0.41820797079490701 0 -0.33147047186345963 -0.41820797079490701 0 -0.32075726865318971 -0.42870660369477209 0 -0.30519334939186987 -0.41494484882542809 0 -0.33147047186345963 -0.41820797079490701 0 -0.30519334939186987 -0.41494484882542809 0 -0.31985726539067399 -0.40530446879910959 0 -0.33147047186345963 -0.41820797079490701 0 -0.30519334939186987 -0.41494484882542809 0 -0.32570793232613371 -0.44506175555309779 0 -0.33241822660152781 -0.43410371351153382 0 -0.32075726865318971 -0.42870660369477209 0 -0.32075726865318971 -0.42870660369477209 0 -0.29544537613508909 -0.43883397464851659 0 -0.30627105378129998 -0.4426874693883221 0 -0.30519334939186987 -0.41494484882542809 0 -0.2972405875384847 -0.41799584161745912 0 -0.29544537613508909 -0.43883397464851659 0 -0.32075726865318971 -0.42870660369477209 0 -0.29544537613508909 -0.43883397464851659 0 -0.32075726865318971 -0.42870660369477209 0 -0.30519334939186987 -0.41494484882542809 0 -0.29544537613508909 -0.43883397464851659 0 -0.31985726539067399 -0.40530446879910959 0 -0.30519334939186987 -0.41494484882542809 0 -0.30722949504370139 -0.4009044431712091 0 -0.30519334939186987 -0.41494484882542809 0 -0.29700562002312658 -0.40672523913172132 0 -0.30722949504370139 -0.4009044431712091 0 -0.30519334939186987 -0.41494484882542809 0 -0.27891622692028029 -0.41168172685594928 0 -0.29700562002312658 -0.40672523913172132 0 -0.28719286213695 -0.40119933057336837 0 -0.27891622692028029 -0.41168172685594928 0 -0.2972405875384847 -0.41799584161745912 0 -0.27940194789036987 -0.42120563259449412 0 -0.27891622692028029 -0.41168172685594928 0 -0.30519334939186987 -0.41494484882542809 0 -0.2972405875384847 -0.41799584161745912 0 -0.27891622692028029 -0.41168172685594928 0 -0.30519334939186987 -0.41494484882542809 0 -0.29700562002312658 -0.40672523913172132 0 -0.27891622692028029 -0.41168172685594928 0 -0.2972405875384847 -0.41799584161745912 0 -0.2773562307257309 -0.43015089841539961 0 -0.2972405875384847 -0.41799584161745912 0 -0.2773562307257309 -0.43015089841539961 0 -0.29544537613508909 -0.43883397464851659 0 -0.2972405875384847 -0.41799584161745912 0 -0.2773562307257309 -0.43015089841539961 0 -0.27940194789036987 -0.42120563259449412 0 -0.31981907923153419 -0.37252493527020741 0 -0.29845837627811661 -0.37035221287872222 0 -0.30628727451520982 -0.38518773406451051 0 -0.30628727451520982 -0.38518773406451051 0 -0.30722949504370139 -0.4009044431712091 0 -0.2951791363599911 -0.39647717735114829 0 -0.32126469370366889 -0.39149194296841161 0 -0.30628727451520982 -0.38518773406451051 0 -0.30722949504370139 -0.4009044431712091 0 -0.29700562002312658 -0.40672523913172132 0 -0.30722949504370139 -0.4009044431712091 0 -0.2951791363599911 -0.39647717735114829 0 -0.28719286213695 -0.40119933057336837 0 -0.2951791363599911 -0.39647717735114829 0 -0.27748806523122233 -0.38367865895574232 0 -0.29700562002312658 -0.40672523913172132 0 -0.28719286213695 -0.40119933057336837 0 -0.2951791363599911 -0.39647717735114829 0 -0.30628727451520982 -0.38518773406451051 0 -0.2951791363599911 -0.39647717735114829 0 -0.27748806523122233 -0.38367865895574232 0 -0.29845837627811661 -0.37035221287872222 0 -0.30628727451520982 -0.38518773406451051 0 -0.27748806523122233 -0.38367865895574232 0 -0.27748806523122233 -0.38367865895574232 0 -0.26654620425029463 -0.3989289330046682 0 -0.27891622692028029 -0.41168172685594928 0 -0.28719286213695 -0.40119933057336837 0 -0.27748806523122233 -0.38367865895574232 0 -0.27891622692028029 -0.41168172685594928 0 -0.27748806523122233 -0.38367865895574232 0 -0.27891622692028029 -0.41168172685594928 0 -0.27748806523122233 -0.38367865895574232 0 -0.26654620425029463 -0.3989289330046682 0 -0.24899279694991569 -0.3927214432420833 0 -0.26654620425029463 -0.3989289330046682 0 -0.25650786939186798 -0.40889903237218472 0 -0.24899279694991569 -0.3927214432420833 0 -0.25192080741192058 -0.37019654152130138 0 -0.27748806523122233 -0.38367865895574232 0 -0.24899279694991569 -0.3927214432420833 0 -0.2691515183628358 -0.42695391499603902 0 -0.2773562307257309 -0.43015089841539961 0 -0.25747187391297749 -0.44230595521334048 0 -0.2773562307257309 -0.43015089841539961 0 -0.25747187391297749 -0.44230595521334048 0 -0.2691515183628358 -0.42695391499603902 0 -0.27940194789036987 -0.42120563259449412 0 -0.2698082994679209 -0.41787106252967221 0 -0.2691515183628358 -0.42695391499603902 0 -0.2698082994679209 -0.41787106252967221 0 -0.26171923981717998 -0.42323602622728917 0 -0.2691515183628358 -0.42695391499603902 0 -0.2773562307257309 -0.43015089841539961 0 -0.27940194789036987 -0.42120563259449412 0 -0.27940194789036987 -0.42120563259449412 0 -0.27891622692028029 -0.41168172685594928 0 -0.2698082994679209 -0.41787106252967221 0 -0.27940194789036987 -0.42120563259449412 0 -0.27891622692028029 -0.41168172685594928 0 -0.27891622692028029 -0.41168172685594928 0 -0.2698082994679209 -0.41787106252967221 0 -0.25650786939186798 -0.40889903237218472 0 -0.26654620425029463 -0.3989289330046682 0 -0.27891622692028029 -0.41168172685594928 0 -0.25650786939186798 -0.40889903237218472 0 -0.27891622692028029 -0.41168172685594928 0 -0.25650786939186798 -0.40889903237218472 0 -0.2698082994679209 -0.41787106252967221 0 -0.25650786939186798 -0.40889903237218472 0 -0.26171923981717998 -0.42323602622728917 0 -0.25650786939186798 -0.40889903237218472 0 -0.25079648701295121 -0.42379896583515358 0 -0.26171923981717998 -0.42323602622728917 0 -0.25079648701295121 -0.42379896583515358 0 -0.25747187391297749 -0.44230595521334048 0 -0.2441236439153055 -0.43528965288588262 0 -0.2691515183628358 -0.42695391499603902 0 -0.26171923981717998 -0.42323602622728917 0 -0.25747187391297749 -0.44230595521334048 0 -0.25079648701295121 -0.42379896583515358 0 -0.26171923981717998 -0.42323602622728917 0 -0.25747187391297749 -0.44230595521334048 0 -0.25371650142824642 -0.45552983385131302 0 -0.27013348361698902 -0.4489613456022622 0 -0.25747187391297749 -0.44230595521334048 0 -0.25371650142824642 -0.45552983385131302 0 -0.27013348361698902 -0.4489613456022622 0 -0.25747187391297749 -0.44230595521334048 0 -0.2441236439153055 -0.43528965288588262 0 -0.25747187391297749 -0.44230595521334048 0 -0.27013348361698902 -0.4489613456022622 0 -0.25371650142824642 -0.45552983385131302 0 -0.27040003202192958 -0.46076061000740037 0 -0.26275954183372102 -0.46975597538288377 0 -0.25371650142824642 -0.45552983385131302 0 -0.27040003202192958 -0.46076061000740037 0 -0.27013348361698902 -0.4489613456022622 0 -0.27013348361698902 -0.4489613456022622 0 -0.28747355713484568 -0.45807590222908801 0 -0.27040003202192958 -0.46076061000740037 0 -0.27954642289133541 -0.46821964631369428 0 -0.26275954183372102 -0.46975597538288377 0 -0.27040003202192958 -0.46076061000740037 0 -0.27954642289133541 -0.46821964631369428 0 -0.28747355713484568 -0.45807590222908801 0 -0.27040003202192958 -0.46076061000740037 0 -0.27013348361698902 -0.4489613456022622 0 -0.28747355713484568 -0.45807590222908801 0 -0.2773562307257309 -0.43015089841539961 0 -0.25747187391297749 -0.44230595521334048 0 -0.27013348361698902 -0.4489613456022622 0 -0.2773562307257309 -0.43015089841539961 0 -0.27013348361698902 -0.4489613456022622 0 -0.29544537613508909 -0.43883397464851659 0 -0.27013348361698902 -0.4489613456022622 0 -0.28815037283234768 -0.44950983820282842 0 -0.28747355713484568 -0.45807590222908801 0 -0.27013348361698902 -0.4489613456022622 0 -0.29544537613508909 -0.43883397464851659 0 -0.28815037283234768 -0.44950983820282842 0 -0.27013348361698902 -0.4489613456022622 0 -0.29544537613508909 -0.43883397464851659 0 -0.29544537613508909 -0.43883397464851659 0 -0.29520076222052871 -0.44730131141209062 0 -0.28815037283234768 -0.44950983820282842 0 -0.29520076222052871 -0.44730131141209062 0 -0.29249868505428672 -0.45437665712218228 0 -0.29853986289699919 -0.45352827599749668 0 -0.29520076222052871 -0.44730131141209062 0 -0.28815037283234768 -0.44950983820282842 0 -0.29249868505428672 -0.45437665712218228 0 -0.28747355713484568 -0.45807590222908801 0 -0.30481363065270378 -0.46719045885591098 0 -0.27954642289133541 -0.46821964631369428 0 -0.30481363065270378 -0.46719045885591098 0 -0.28747355713484568 -0.45807590222908801 0 -0.29249868505428672 -0.45437665712218228 0 -0.30481363065270378 -0.46719045885591098 0 -0.27954642289133541 -0.46821964631369428 0 -0.28747355713484568 -0.45807590222908801 0 -0.30481363065270378 -0.46719045885591098 0 -0.28815037283234768 -0.44950983820282842 0 -0.28747355713484568 -0.45807590222908801 0 -0.29249868505428672 -0.45437665712218228 0 -0.29249868505428672 -0.45437665712218228 0 -0.29853986289699919 -0.45352827599749668 0 -0.30064577458781577 -0.45946639754460339 0 -0.29249868505428672 -0.45437665712218228 0 -0.306445955418569 -0.46712397077412798 0 -0.29249868505428672 -0.45437665712218228 0 -0.30064577458781577 -0.45946639754460339 0 -0.306445955418569 -0.46712397077412798 0 -0.30064577458781577 -0.45946639754460339 0 -0.30512427896756222 -0.45493321075218229 0 -0.30548473916310992 -0.4597681570174274 0 -0.30064577458781577 -0.45946639754460339 0 -0.30516188127727922 -0.46218812486675992 0 -0.30548473916310992 -0.4597681570174274 0 -0.29853986289699919 -0.45352827599749668 0 -0.30064577458781577 -0.45946639754460339 0 -0.30512427896756222 -0.45493321075218229 0 -0.29249868505428672 -0.45437665712218228 0 -0.30481363065270378 -0.46719045885591098 0 -0.306445955418569 -0.46712397077412798 0 -0.30064577458781577 -0.45946639754460339 0 -0.306445955418569 -0.46712397077412798 0 -0.30516188127727922 -0.46218812486675992 0 -0.31521295953789391 -0.46104016959249627 0 -0.306445955418569 -0.46712397077412798 0 -0.30807105593962258 -0.46239397413088001 0 -0.30481363065270378 -0.46719045885591098 0 -0.30882665563172979 -0.46929984688004728 0 -0.30481363065270378 -0.46719045885591098 0 -0.306445955418569 -0.46712397077412798 0 -0.30882665563172979 -0.46929984688004728 0 -0.306445955418569 -0.46712397077412798 0 -0.30882665563172979 -0.46929984688004728 0 -0.30481363065270378 -0.46719045885591098 0 -0.306445955418569 -0.46712397077412798 0 -0.306445955418569 -0.46712397077412798 0 -0.30516188127727922 -0.46218812486675992 0 -0.30807105593962258 -0.46239397413088001 0 -0.30516188127727922 -0.46218812486675992 0 -0.30807105593962258 -0.46239397413088001 0 -0.30548473916310992 -0.4597681570174274 0 -0.31346741948926038 -0.45450304454485912 0 -0.30512427896756222 -0.45493321075218229 0 -0.30941455490779929 -0.45887098548317512 0 -0.30807105593962258 -0.46239397413088001 0 -0.30548473916310992 -0.4597681570174274 0 -0.30941455490779929 -0.45887098548317512 0 -0.30512427896756222 -0.45493321075218229 0 -0.30548473916310992 -0.4597681570174274 0 -0.30941455490779929 -0.45887098548317512 0 -0.31521295953789391 -0.46104016959249627 0 -0.30807105593962258 -0.46239397413088001 0 -0.30941455490779929 -0.45887098548317512 0 -0.31346741948926038 -0.45450304454485912 0 -0.30512427896756222 -0.45493321075218229 0 -0.3096753272070269 -0.44932139880277477 0 -0.30512427896756222 -0.45493321075218229 0 -0.3096753272070269 -0.44932139880277477 0 -0.3021523047581699 -0.44949898372968322 0 -0.3096753272070269 -0.44932139880277477 0 -0.30627105378129998 -0.4426874693883221 0 -0.3021523047581699 -0.44949898372968322 0 -0.31586852154799289 -0.44320489477583419 0 -0.3096753272070269 -0.44932139880277477 0 -0.30627105378129998 -0.4426874693883221 0 -0.29544537613508909 -0.43883397464851659 0 -0.29520076222052871 -0.44730131141209062 0 -0.30627105378129998 -0.4426874693883221 0 -0.29520076222052871 -0.44730131141209062 0 -0.30627105378129998 -0.4426874693883221 0 -0.3021523047581699 -0.44949898372968322 0 -0.29520076222052871 -0.44730131141209062 0 -0.29853986289699919 -0.45352827599749668 0 -0.3021523047581699 -0.44949898372968322 0 -0.29853986289699919 -0.45352827599749668 0 -0.30512427896756222 -0.45493321075218229 0 -0.3021523047581699 -0.44949898372968322 0 -0.30782662462896299 -0.48549700340026969 0 -0.29325853178324418 -0.48068551488574612 0 -0.28959870723972592 -0.5 0 -0.3160077234139802 -0.5 0 -0.30782662462896299 -0.48549700340026969 0 -0.28959870723972592 -0.5 0 -0.30782662462896299 -0.48549700340026969 0 -0.30882665563172979 -0.46929984688004728 0 -0.30253052182843981 -0.47678385870684309 0 -0.30481363065270378 -0.46719045885591098 0 -0.30882665563172979 -0.46929984688004728 0 -0.30253052182843981 -0.47678385870684309 0 -0.30481363065270378 -0.46719045885591098 0 -0.30253052182843981 -0.47678385870684309 0 -0.29325853178324418 -0.48068551488574612 0 -0.30782662462896299 -0.48549700340026969 0 -0.30253052182843981 -0.47678385870684309 0 -0.29325853178324418 -0.48068551488574612 0 -0.27954642289133541 -0.46821964631369428 0 -0.30481363065270378 -0.46719045885591098 0 -0.29325853178324418 -0.48068551488574612 0 -0.27954642289133541 -0.46821964631369428 0 -0.29325853178324418 -0.48068551488574612 0 -0.27309958332766437 -0.48328504960541763 0 -0.29325853178324418 -0.48068551488574612 0 -0.28959870723972592 -0.5 0 -0.27309958332766437 -0.48328504960541763 0 -0.28959870723972592 -0.5 0 -0.27309958332766437 -0.48328504960541763 0 -0.26318969106547158 -0.49999999999999961 0 -0.27954642289133541 -0.46821964631369428 0 -0.27309958332766437 -0.48328504960541763 0 -0.26275954183372102 -0.46975597538288377 0 -0.25371650142824642 -0.45552983385131302 0 -0.25024460515248792 -0.48104916105018197 0 -0.26275954183372102 -0.46975597538288377 0 -0.27309958332766437 -0.48328504960541763 0 -0.25024460515248792 -0.48104916105018197 0 -0.26275954183372102 -0.46975597538288377 0 -0.25024460515248792 -0.48104916105018197 0 -0.26318969106547158 -0.49999999999999961 0 -0.27309958332766437 -0.48328504960541763 0 -0.25024460515248792 -0.48104916105018197 0 -0.26318969106547158 -0.49999999999999961 0 -0.25024460515248792 -0.48104916105018197 0 -0.26318969106547158 -0.49999999999999961 0 -0.24586387981471239 -0.5 0 -0.23669711232908269 -0.48966816938060681 0 -0.24586387981471239 -0.5 0 -0.22853806856395331 -0.49999999999999972 0 -0.25024460515248792 -0.48104916105018197 0 -0.23669711232908269 -0.48966816938060681 0 -0.24586387981471239 -0.5 0 -0.25024460515248792 -0.48104916105018197 0 -0.2337275671473201 -0.47719054010988038 0 -0.23729951923950399 -0.4620983221003645 0 -0.25024460515248792 -0.48104916105018197 0 -0.23729951923950399 -0.4620983221003645 0 -0.25024460515248792 -0.48104916105018197 0 -0.23669711232908269 -0.48966816938060681 0 -0.2337275671473201 -0.47719054010988038 0 -0.2337275671473201 -0.47719054010988038 0 -0.22071776554555639 -0.48477686565171513 0 -0.22317497160971911 -0.46774959978726149 0 -0.23669711232908269 -0.48966816938060681 0 -0.2337275671473201 -0.47719054010988038 0 -0.22071776554555639 -0.48477686565171513 0 -0.22071776554555639 -0.48477686565171513 0 -0.22317497160971911 -0.46774959978726149 0 -0.2128974625271603 -0.46955373130343009 0 -0.2337275671473201 -0.47719054010988038 0 -0.23729951923950399 -0.4620983221003645 0 -0.22317497160971911 -0.46774959978726149 0 -0.23669711232908269 -0.48966816938060681 0 -0.22071776554555639 -0.48477686565171513 0 -0.22853806856395331 -0.49999999999999972 0 -0.22071776554555639 -0.48477686565171513 0 -0.22853806856395331 -0.49999999999999972 0 -0.25747187391297749 -0.44230595521334048 0 -0.23370412633084009 -0.45683487986201943 0 -0.2441236439153055 -0.43528965288588262 0 -0.25747187391297749 -0.44230595521334048 0 -0.23370412633084009 -0.45683487986201943 0 -0.25747187391297749 -0.44230595521334048 0 -0.25371650142824642 -0.45552983385131302 0 -0.23370412633084009 -0.45683487986201943 0 -0.23370412633084009 -0.45683487986201943 0 -0.23148678323539609 -0.42996007293414062 0 -0.2441236439153055 -0.43528965288588262 0 -0.25371650142824642 -0.45552983385131302 0 -0.23729951923950399 -0.4620983221003645 0 -0.25371650142824642 -0.45552983385131302 0 -0.23729951923950399 -0.4620983221003645 0 -0.23370412633084009 -0.45683487986201943 0 -0.25371650142824642 -0.45552983385131302 0 -0.25024460515248792 -0.48104916105018197 0 -0.23729951923950399 -0.4620983221003645 0 -0.23729951923950399 -0.4620983221003645 0 -0.23370412633084009 -0.45683487986201943 0 -0.23370412633084009 -0.45683487986201943 0 -0.21669958621568769 -0.45216001240262232 0 -0.2128974625271603 -0.46955373130343009 0 -0.22317497160971911 -0.46774959978726149 0 -0.23370412633084009 -0.45683487986201943 0 -0.2128974625271603 -0.46955373130343009 0 -0.23370412633084009 -0.45683487986201943 0 -0.2128974625271603 -0.46955373130343009 0 -0.23729951923950399 -0.4620983221003645 0 -0.22317497160971911 -0.46774959978726149 0 -0.23729951923950399 -0.4620983221003645 0 -0.22317497160971911 -0.46774959978726149 0 -0.23370412633084009 -0.45683487986201943 0 -0.23370412633084009 -0.45683487986201943 0 -0.21865693199754049 -0.43480667870725093 0 -0.23148678323539609 -0.42996007293414062 0 -0.23370412633084009 -0.45683487986201943 0 -0.21669958621568769 -0.45216001240262232 0 -0.21865693199754049 -0.43480667870725093 0 -0.23370412633084009 -0.45683487986201943 0 -0.21865693199754049 -0.43480667870725093 0 -0.21669958621568769 -0.45216001240262232 0 -0.2015398240072093 -0.44744475973778741 0 -0.21865693199754049 -0.43480667870725093 0 -0.2015398240072093 -0.44744475973778741 0 -0.2128974625271603 -0.46955373130343009 0 -0.21669958621568769 -0.45216001240262232 0 -0.2015398240072093 -0.44744475973778741 0 -0.2128974625271603 -0.46955373130343009 0 -0.189730489147107 -0.4619751796911114 0 -0.2015398240072093 -0.44744475973778741 0 -0.2128974625271603 -0.46955373130343009 0 -0.189730489147107 -0.4619751796911114 0 -0.2015398240072093 -0.44744475973778741 0 -0.17577384313657671 -0.44425086887009951 0 -0.2015398240072093 -0.44744475973778741 0 -0.17577384313657671 -0.44425086887009951 0 -0.1901821854872591 -0.42533578817214412 0 -0.22071776554555639 -0.48477686565171513 0 -0.22853806856395331 -0.49999999999999972 0 -0.20672226689568751 -0.5 0 -0.22071776554555639 -0.48477686565171513 0 -0.2070828895028908 -0.48477686565171568 0 -0.20672226689568751 -0.5 0 -0.22071776554555639 -0.48477686565171513 0 -0.2070828895028908 -0.48477686565171568 0 -0.2128974625271603 -0.46955373130343009 0 -0.22071776554555639 -0.48477686565171513 0 -0.2128974625271603 -0.46955373130343009 0 -0.189730489147107 -0.4619751796911114 0 -0.2128974625271603 -0.46955373130343009 0 -0.18799406304315891 -0.48477686565171779 0 -0.2070828895028908 -0.48477686565171568 0 -0.2128974625271603 -0.46955373130343009 0 -0.18799406304315891 -0.48477686565171779 0 -0.2128974625271603 -0.46955373130343009 0 -0.18799406304315891 -0.48477686565171779 0 -0.2070828895028908 -0.48477686565171568 0 -0.20672226689568751 -0.5 0 -0.18799406304315891 -0.48477686565171779 0 -0.20672226689568751 -0.5 0 -0.18799406304315891 -0.48477686565171779 0 -0.1849064652274218 -0.5 0 -0.18799406304315891 -0.48477686565171779 0 -0.1849064652274218 -0.5 0 -0.163090663559156 -0.50000000000000322 0 -0.18799406304315891 -0.48477686565171779 0 -0.163090663559156 -0.50000000000000322 0 -0.18799406304315891 -0.48477686565171779 0 -0.163090663559156 -0.50000000000000322 0 -0.15813030122695379 -0.47688946503801211 0 -0.16065665161996201 -0.5 0 -0.163090663559156 -0.50000000000000322 0 -0.15813030122695379 -0.47688946503801211 0 -0.16065665161996201 -0.5 0 -0.15813030122695379 -0.47688946503801211 0 -0.189730489147107 -0.4619751796911114 0 -0.18799406304315891 -0.48477686565171779 0 -0.17344652947754841 -0.46433426186539289 0 -0.18799406304315891 -0.48477686565171779 0 -0.15813030122695379 -0.47688946503801211 0 -0.17344652947754841 -0.46433426186539289 0 -0.189730489147107 -0.4619751796911114 0 -0.17344652947754841 -0.46433426186539289 0 -0.17577384313657671 -0.44425086887009951 0 -0.17577384313657671 -0.44425086887009951 0 -0.15560395083394571 -0.4537789300760241 0 -0.15307760044093749 -0.4306683951140361 0 -0.15813030122695379 -0.47688946503801211 0 -0.15560395083394571 -0.4537789300760241 0 -0.15813030122695379 -0.47688946503801211 0 -0.17344652947754841 -0.46433426186539289 0 -0.15560395083394571 -0.4537789300760241 0 -0.17344652947754841 -0.46433426186539289 0 -0.17577384313657671 -0.44425086887009951 0 -0.15560395083394571 -0.4537789300760241 0 -0.15813030122695379 -0.47688946503801211 0 -0.15560395083394571 -0.4537789300760241 0 -0.14093981651067911 -0.46169349944979421 0 -0.15560395083394571 -0.4537789300760241 0 -0.14093981651067911 -0.46169349944979421 0 -0.13375930635121289 -0.44436150293412668 0 -0.15560395083394571 -0.4537789300760241 0 -0.13375930635121289 -0.44436150293412668 0 -0.15307760044093749 -0.4306683951140361 0 -0.15560395083394571 -0.4537789300760241 0 -0.15307760044093749 -0.4306683951140361 0 -0.14093981651067911 -0.46169349944979421 0 -0.13375930635121289 -0.44436150293412668 0 -0.1217265335391844 -0.46145238468538802 0 -0.14093981651067911 -0.46169349944979421 0 -0.13600312188095401 -0.47688314643961588 0 -0.1217265335391844 -0.46145238468538802 0 -0.13600312188095401 -0.47688314643961588 0 -0.1186821195027222 -0.47964874697415549 0 -0.1217265335391844 -0.46145238468538802 0 -0.13600312188095401 -0.47688314643961588 0 -0.13097115091229941 -0.5 0 -0.1464403064100423 -0.48844315286940698 0 -0.13600312188095401 -0.47688314643961588 0 -0.13097115091229941 -0.5 0 -0.1186821195027222 -0.47964874697415549 0 -0.16065665161996201 -0.5 0 -0.15813030122695379 -0.47688946503801211 0 -0.1464403064100423 -0.48844315286940698 0 -0.16065665161996201 -0.5 0 -0.13097115091229941 -0.5 0 -0.1464403064100423 -0.48844315286940698 0 -0.15813030122695379 -0.47688946503801211 0 -0.14093981651067911 -0.46169349944979421 0 -0.13600312188095401 -0.47688314643961588 0 -0.15813030122695379 -0.47688946503801211 0 -0.13600312188095401 -0.47688314643961588 0 -0.1464403064100423 -0.48844315286940698 0 -0.14828704427834749 -0.38684537041037398 0 -0.12813749902309129 -0.40703967252690582 0 -0.15055125004792949 -0.40755786015204798 0 -0.14828704427834749 -0.38684537041037398 0 -0.15055125004792949 -0.40755786015204798 0 -0.14828704427834749 -0.38684537041037398 0 -0.15055125004792949 -0.40755786015204798 0 -0.16743578760450811 -0.38911866926991617 0 -0.14828704427834749 -0.38684537041037398 0 -0.16006646253421 -0.37484569080782609 0 -0.14602283850876571 -0.36613288066869998 0 -0.14828704427834749 -0.38684537041037398 0 -0.14602283850876571 -0.36613288066869998 0 -0.14828704427834749 -0.38684537041037398 0 -0.14602283850876571 -0.36613288066869998 0 -0.1347483617273906 -0.37366334067804319 0 -0.14828704427834749 -0.38684537041037398 0 -0.1347483617273906 -0.37366334067804319 0 -0.12296270751600159 -0.38695194661329868 0 -0.14828704427834749 -0.38684537041037398 0 -0.12813749902309129 -0.40703967252690582 0 -0.12296270751600159 -0.38695194661329868 0 -0.12813749902309129 -0.40703967252690582 0 -0.15055125004792949 -0.40755786015204798 0 -0.12813749902309129 -0.40703967252690582 0 -0.13265493894457131 -0.42555720550547432 0 -0.1169554479302127 -0.41846119445943458 0 -0.12813749902309129 -0.40703967252690582 0 -0.13265493894457131 -0.42555720550547432 0 -0.15055125004792949 -0.40755786015204798 0 -0.13375930635121289 -0.44436150293412668 0 -0.13265493894457131 -0.42555720550547432 0 -0.11579349273772641 -0.43232268202362878 0 -0.13375930635121289 -0.44436150293412668 0 -0.13265493894457131 -0.42555720550547432 0 -0.15307760044093749 -0.4306683951140361 0 -0.15307760044093749 -0.4306683951140361 0 -0.15055125004792949 -0.40755786015204798 0 -0.13265493894457131 -0.42555720550547432 0 -0.15307760044093749 -0.4306683951140361 0 -0.15055125004792949 -0.40755786015204798 0 -0.15307760044093749 -0.4306683951140361 0 -0.15055125004792949 -0.40755786015204798 0 -0.171181709282519 -0.42488360387327367 0 -0.15055125004792949 -0.40755786015204798 0 -0.18037167266526319 -0.40824728397760962 0 -0.15055125004792949 -0.40755786015204798 0 -0.171181709282519 -0.42488360387327367 0 -0.18037167266526319 -0.40824728397760962 0 -0.17577384313657671 -0.44425086887009951 0 -0.15307760044093749 -0.4306683951140361 0 -0.171181709282519 -0.42488360387327367 0 -0.17577384313657671 -0.44425086887009951 0 -0.171181709282519 -0.42488360387327367 0 -0.1901821854872591 -0.42533578817214412 0 -0.171181709282519 -0.42488360387327367 0 -0.18037167266526319 -0.40824728397760962 0 -0.1901821854872591 -0.42533578817214412 0 -0.18037167266526319 -0.40824728397760962 0 -0.16743578760450811 -0.38911866926991617 0 -0.19195583540795311 -0.38755158323494743 0 -0.15055125004792949 -0.40755786015204798 0 -0.18037167266526319 -0.40824728397760962 0 -0.16743578760450811 -0.38911866926991617 0 -0.16743578760450811 -0.38911866926991617 0 -0.16006646253421 -0.37484569080782609 0 -0.17791259598114489 -0.36893701157373221 0 -0.14828704427834749 -0.38684537041037398 0 -0.16743578760450811 -0.38911866926991617 0 -0.16006646253421 -0.37484569080782609 0 -0.16743578760450811 -0.38911866926991617 0 -0.19195583540795311 -0.38755158323494743 0 -0.17791259598114489 -0.36893701157373221 0 -0.19195583540795311 -0.38755158323494743 0 -0.21723555545545739 -0.38108913686395868 0 -0.19911509708937811 -0.36733411692618312 0 -0.18037167266526319 -0.40824728397760962 0 -0.19195583540795311 -0.38755158323494743 0 -0.19471160510131899 -0.40313264813506011 0 -0.19471160510131899 -0.40313264813506011 0 -0.204415126170229 -0.40371322785399749 0 -0.210192095282597 -0.40893670780317282 0 -0.19471160510131899 -0.40313264813506011 0 -0.2032152972593555 -0.39620603134616461 0 -0.204415126170229 -0.40371322785399749 0 -0.19195583540795311 -0.38755158323494743 0 -0.19471160510131899 -0.40313264813506011 0 -0.2032152972593555 -0.39620603134616461 0 -0.2032152972593555 -0.39620603134616461 0 -0.21723555545545739 -0.38108913686395868 0 -0.2095415070376446 -0.4065775241315927 0 -0.21723555545545739 -0.38108913686395868 0 -0.2095415070376446 -0.4065775241315927 0 -0.2233782569216046 -0.39547066097900802 0 -0.21723555545545739 -0.38108913686395868 0 -0.2095415070376446 -0.4065775241315927 0 -0.2032152972593555 -0.39620603134616461 0 -0.204415126170229 -0.40371322785399749 0 -0.2095415070376446 -0.4065775241315927 0 -0.2095415070376446 -0.4065775241315927 0 -0.2233782569216046 -0.39547066097900802 0 -0.22096677643095761 -0.40566699555635838 0 -0.19195583540795311 -0.38755158323494743 0 -0.2032152972593555 -0.39620603134616461 0 -0.21723555545545739 -0.38108913686395868 0 -0.2015398240072093 -0.44744475973778741 0 -0.1901821854872591 -0.42533578817214412 0 -0.2034971697890624 -0.43009142604241618 0 -0.2015398240072093 -0.44744475973778741 0 -0.1901821854872591 -0.42533578817214412 0 -0.1901821854872591 -0.42533578817214412 0 -0.2036097376642409 -0.41277847755248243 0 -0.2034971697890624 -0.43009142604241618 0 -0.18037167266526319 -0.40824728397760962 0 -0.1901821854872591 -0.42533578817214412 0 -0.2036097376642409 -0.41277847755248243 0 -0.18037167266526319 -0.40824728397760962 0 -0.19471160510131899 -0.40313264813506011 0 -0.210192095282597 -0.40893670780317282 0 -0.18037167266526319 -0.40824728397760962 0 -0.210192095282597 -0.40893670780317282 0 -0.18037167266526319 -0.40824728397760962 0 -0.2036097376642409 -0.41277847755248243 0 -0.210192095282597 -0.40893670780317282 0 -0.2036097376642409 -0.41277847755248243 0 -0.2169837521853116 -0.41202914053401629 0 -0.21999159477213309 -0.42039549727602588 0 -0.2036097376642409 -0.41277847755248243 0 -0.210192095282597 -0.40893670780317282 0 -0.2169837521853116 -0.41202914053401629 0 -0.204415126170229 -0.40371322785399749 0 -0.210192095282597 -0.40893670780317282 0 -0.2095415070376446 -0.4065775241315927 0 -0.210192095282597 -0.40893670780317282 0 -0.2169837521853116 -0.41202914053401629 0 -0.22096677643095761 -0.40566699555635838 0 -0.210192095282597 -0.40893670780317282 0 -0.2095415070376446 -0.4065775241315927 0 -0.22096677643095761 -0.40566699555635838 0 -0.2015398240072093 -0.44744475973778741 0 -0.2034971697890624 -0.43009142604241618 0 -0.21865693199754049 -0.43480667870725093 0 -0.2036097376642409 -0.41277847755248243 0 -0.21865693199754049 -0.43480667870725093 0 -0.2036097376642409 -0.41277847755248243 0 -0.21865693199754049 -0.43480667870725093 0 -0.21999159477213309 -0.42039549727602588 0 -0.2036097376642409 -0.41277847755248243 0 -0.2034971697890624 -0.43009142604241618 0 -0.21865693199754049 -0.43480667870725093 0 -0.21865693199754049 -0.43480667870725093 0 -0.23148678323539609 -0.42996007293414062 0 -0.21999159477213309 -0.42039549727602588 0 -0.23148678323539609 -0.42996007293414062 0 -0.228282980779724 -0.41243820882243643 0 -0.23870165533534571 -0.41829644181485198 0 -0.228282980779724 -0.41243820882243643 0 -0.23870165533534571 -0.41829644181485198 0 -0.23532389585186669 -0.4017424224363304 0 -0.23148678323539609 -0.42996007293414062 0 -0.21999159477213309 -0.42039549727602588 0 -0.228282980779724 -0.41243820882243643 0 -0.2169837521853116 -0.41202914053401629 0 -0.21999159477213309 -0.42039549727602588 0 -0.228282980779724 -0.41243820882243643 0 -0.2169837521853116 -0.41202914053401629 0 -0.228282980779724 -0.41243820882243643 0 -0.22096677643095761 -0.40566699555635838 0 -0.228282980779724 -0.41243820882243643 0 -0.22096677643095761 -0.40566699555635838 0 -0.23532389585186669 -0.4017424224363304 0 -0.25650786939186798 -0.40889903237218472 0 -0.23870165533534571 -0.41829644181485198 0 -0.23532389585186669 -0.4017424224363304 0 -0.25650786939186798 -0.40889903237218472 0 -0.25079648701295121 -0.42379896583515358 0 -0.23870165533534571 -0.41829644181485198 0 -0.23148678323539609 -0.42996007293414062 0 -0.23870165533534571 -0.41829644181485198 0 -0.2441236439153055 -0.43528965288588262 0 -0.25079648701295121 -0.42379896583515358 0 -0.23870165533534571 -0.41829644181485198 0 -0.2441236439153055 -0.43528965288588262 0 -0.21723555545545739 -0.38108913686395868 0 -0.23382354983209661 -0.38227722590679969 0 -0.2233782569216046 -0.39547066097900802 0 -0.23382354983209661 -0.38227722590679969 0 -0.2233782569216046 -0.39547066097900802 0 -0.23532389585186669 -0.4017424224363304 0 -0.2233782569216046 -0.39547066097900802 0 -0.22096677643095761 -0.40566699555635838 0 -0.23532389585186669 -0.4017424224363304 0 -0.23382354983209661 -0.38227722590679969 0 -0.24899279694991569 -0.3927214432420833 0 -0.23532389585186669 -0.4017424224363304 0 -0.25650786939186798 -0.40889903237218472 0 -0.24899279694991569 -0.3927214432420833 0 -0.23532389585186669 -0.4017424224363304 0 -0.25192080741192058 -0.37019654152130138 0 -0.23382354983209661 -0.38227722590679969 0 -0.24899279694991569 -0.3927214432420833 0 -0.25192080741192058 -0.37019654152130138 0 -0.23382354983209661 -0.38227722590679969 0 -0.2249296038732701 -0.35560074959632493 0 -0.21723555545545739 -0.38108913686395868 0 -0.2249296038732701 -0.35560074959632493 0 -0.21723555545545739 -0.38108913686395868 0 -0.23382354983209661 -0.38227722590679969 0 -0.2249296038732701 -0.35560074959632493 0 -0.25192080741192058 -0.37019654152130138 0 -0.2249296038732701 -0.35560074959632493 0 -0.24984245054675561 -0.3492155874815136 0 -0.2249296038732701 -0.35560074959632493 0 -0.24984245054675561 -0.3492155874815136 0 -0.23262365229108289 -0.33011236232869079 0 -0.2543376441694648 -0.32935427057012212 0 -0.24984245054675561 -0.3492155874815136 0 -0.23262365229108289 -0.33011236232869079 0 -0.2543376441694648 -0.32935427057012212 0 -0.24190571814629139 -0.31262021440945742 0 -0.23262365229108289 -0.33011236232869079 0 -0.24190571814629139 -0.31262021440945742 0 -0.2267275398363251 -0.31431617411213181 0 -0.23262365229108289 -0.33011236232869079 0 -0.2267275398363251 -0.31431617411213181 0 -0.23262365229108289 -0.33011236232869079 0 -0.21593958096982241 -0.32415264882861422 0 -0.2249296038732701 -0.35560074959632493 0 -0.23262365229108289 -0.33011236232869079 0 -0.23262365229108289 -0.33011236232869079 0 -0.20935489812749411 -0.34304894504376449 0 -0.21593958096982241 -0.32415264882861422 0 -0.2249296038732701 -0.35560074959632493 0 -0.23262365229108289 -0.33011236232869079 0 -0.20935489812749411 -0.34304894504376449 0 -0.20935489812749411 -0.34304894504376449 0 -0.21593958096982241 -0.32415264882861422 0 -0.20009311887688991 -0.32832224295295931 0 -0.20009311887688991 -0.32832224295295931 0 -0.21118338032476239 -0.30801485864257289 0 -0.21593958096982241 -0.32415264882861422 0 -0.20009311887688991 -0.32832224295295931 0 -0.21118338032476239 -0.30801485864257289 0 -0.2267275398363251 -0.31431617411213181 0 -0.21593958096982241 -0.32415264882861422 0 -0.21118338032476239 -0.30801485864257289 0 -0.20009311887688991 -0.32832224295295931 0 -0.21118338032476239 -0.30801485864257289 0 -0.19955573375891961 -0.31144105964414842 0 -0.18949910738638359 -0.31919312035844438 0 -0.20009311887688991 -0.32832224295295931 0 -0.19060373090549479 -0.3354345415756127 0 -0.18949910738638359 -0.31919312035844438 0 -0.20009311887688991 -0.32832224295295931 0 -0.19955573375891961 -0.31144105964414842 0 -0.18949910738638359 -0.31919312035844438 0 -0.19060373090549479 -0.3354345415756127 0 -0.20009311887688991 -0.32832224295295931 0 -0.1890028574290174 -0.34862962726334568 0 -0.20935489812749411 -0.34304894504376449 0 -0.20009311887688991 -0.32832224295295931 0 -0.1890028574290174 -0.34862962726334568 0 -0.20009311887688991 -0.32832224295295931 0 -0.19060373090549479 -0.3354345415756127 0 -0.1890028574290174 -0.34862962726334568 0 -0.20935489812749411 -0.34304894504376449 0 -0.1890028574290174 -0.34862962726334568 0 -0.20560061412978989 -0.35365335970740452 0 -0.1890028574290174 -0.34862962726334568 0 -0.19911509708937811 -0.36733411692618312 0 -0.20560061412978989 -0.35365335970740452 0 -0.19195583540795311 -0.38755158323494743 0 -0.19911509708937811 -0.36733411692618312 0 -0.17791259598114489 -0.36893701157373221 0 -0.1890028574290174 -0.34862962726334568 0 -0.19911509708937811 -0.36733411692618312 0 -0.17791259598114489 -0.36893701157373221 0 -0.21723555545545739 -0.38108913686395868 0 -0.2249296038732701 -0.35560074959632493 0 -0.19911509708937811 -0.36733411692618312 0 -0.2249296038732701 -0.35560074959632493 0 -0.20935489812749411 -0.34304894504376449 0 -0.20560061412978989 -0.35365335970740452 0 -0.2249296038732701 -0.35560074959632493 0 -0.19911509708937811 -0.36733411692618312 0 -0.20560061412978989 -0.35365335970740452 0 -0.23501919644823421 -0.25833863725514061 0 -0.20995799564546991 -0.25493168312756997 0 -0.23501919644823421 -0.25833863725514061 0 -0.2135391744064605 -0.27330937181776171 0 -0.20995799564546991 -0.25493168312756997 0 -0.26008039725099868 -0.2617455913827097 0 -0.23501919644823421 -0.25833863725514061 0 -0.25085087840922649 -0.2406400513868247 0 -0.26008039725099868 -0.2617455913827097 0 -0.23501919644823421 -0.25833863725514061 0 -0.26008039725099868 -0.2617455913827097 0 -0.23501919644823421 -0.25833863725514061 0 -0.2460328823503313 -0.27921318886701568 0 -0.23501919644823421 -0.25833863725514061 0 -0.2460328823503313 -0.27921318886701568 0 -0.22966346046826649 -0.27742100440313072 0 -0.23501919644823421 -0.25833863725514061 0 -0.22966346046826649 -0.27742100440313072 0 -0.2135391744064605 -0.27330937181776171 0 -0.22966346046826649 -0.27742100440313072 0 -0.22227364177263481 -0.28770747433218669 0 -0.2135391744064605 -0.27330937181776171 0 -0.22966346046826649 -0.27742100440313072 0 -0.22227364177263481 -0.28770747433218669 0 -0.23198536744966619 -0.29668078635132361 0 -0.2460328823503313 -0.27921318886701568 0 -0.23198536744966619 -0.29668078635132361 0 -0.2460328823503313 -0.27921318886701568 0 -0.23198536744966619 -0.29668078635132361 0 -0.2469705392895381 -0.29434959033503899 0 -0.2460328823503313 -0.27921318886701568 0 -0.22966346046826649 -0.27742100440313072 0 -0.23198536744966619 -0.29668078635132361 0 -0.24190571814629139 -0.31262021440945742 0 -0.23198536744966619 -0.29668078635132361 0 -0.2469705392895381 -0.29434959033503899 0 -0.25878846463836352 -0.30385361529220389 0 -0.24190571814629139 -0.31262021440945742 0 -0.2469705392895381 -0.29434959033503899 0 -0.24190571814629139 -0.31262021440945742 0 -0.2267275398363251 -0.31431617411213181 0 -0.23198536744966619 -0.29668078635132361 0 -0.2267275398363251 -0.31431617411213181 0 -0.23198536744966619 -0.29668078635132361 0 -0.21118338032476239 -0.30801485864257289 0 -0.22227364177263481 -0.28770747433218669 0 -0.23198536744966619 -0.29668078635132361 0 -0.21118338032476239 -0.30801485864257289 0 -0.22227364177263481 -0.28770747433218669 0 -0.21118338032476239 -0.30801485864257289 0 -0.21118338032476239 -0.30801485864257289 0 -0.2035551323110954 -0.29867235913700613 0 -0.2105563726132075 -0.29048589044781148 0 -0.21118338032476239 -0.30801485864257289 0 -0.2035551323110954 -0.29867235913700613 0 -0.19955573375891961 -0.31144105964414842 0 -0.18949910738638359 -0.31919312035844438 0 -0.19955573375891961 -0.31144105964414842 0 -0.193016034646632 -0.30303845180264372 0 -0.18949910738638359 -0.31919312035844438 0 -0.188394483867277 -0.30295169914127568 0 -0.193016034646632 -0.30303845180264372 0 -0.18949910738638359 -0.31919312035844438 0 -0.188394483867277 -0.30295169914127568 0 -0.188394483867277 -0.30295169914127568 0 -0.193016034646632 -0.30303845180264372 0 -0.1949706659166511 -0.29331739634976789 0 -0.188394483867277 -0.30295169914127568 0 -0.193016034646632 -0.30303845180264372 0 -0.2035551323110954 -0.29867235913700613 0 -0.19955573375891961 -0.31144105964414842 0 -0.193016034646632 -0.30303845180264372 0 -0.2035551323110954 -0.29867235913700613 0 -0.193016034646632 -0.30303845180264372 0 -0.1949706659166511 -0.29331739634976789 0 -0.188394483867277 -0.30295169914127568 0 -0.1949706659166511 -0.29331739634976789 0 -0.18664563935498829 -0.27723821407063792 0 -0.188394483867277 -0.30295169914127568 0 -0.18664563935498829 -0.27723821407063792 0 -0.1949706659166511 -0.29331739634976789 0 -0.20223053425108439 -0.28472538830953048 0 -0.18664563935498829 -0.27723821407063792 0 -0.2035551323110954 -0.29867235913700613 0 -0.1949706659166511 -0.29331739634976789 0 -0.20223053425108439 -0.28472538830953048 0 -0.22227364177263481 -0.28770747433218669 0 -0.21118338032476239 -0.30801485864257289 0 -0.2105563726132075 -0.29048589044781148 0 -0.20223053425108439 -0.28472538830953048 0 -0.2105563726132075 -0.29048589044781148 0 -0.2135391744064605 -0.27330937181776171 0 -0.22227364177263481 -0.28770747433218669 0 -0.2105563726132075 -0.29048589044781148 0 -0.2135391744064605 -0.27330937181776171 0 -0.2035551323110954 -0.29867235913700613 0 -0.20223053425108439 -0.28472538830953048 0 -0.2105563726132075 -0.29048589044781148 0 -0.2135391744064605 -0.27330937181776171 0 -0.20136884384867429 -0.2747138581756442 0 -0.19600578950783071 -0.26368539024786047 0 -0.20223053425108439 -0.28472538830953048 0 -0.2135391744064605 -0.27330937181776171 0 -0.20136884384867429 -0.2747138581756442 0 -0.20223053425108439 -0.28472538830953048 0 -0.20136884384867429 -0.2747138581756442 0 -0.18664563935498829 -0.27723821407063792 0 -0.20136884384867429 -0.2747138581756442 0 -0.19600578950783071 -0.26368539024786047 0 -0.18664563935498829 -0.27723821407063792 0 -0.19600578950783071 -0.26368539024786047 0 -0.1848967948427056 -0.25152472899999978 0 -0.18664563935498829 -0.27723821407063792 0 -0.20995799564546991 -0.25493168312756997 0 -0.1848967948427056 -0.25152472899999978 0 -0.19600578950783071 -0.26368539024786047 0 -0.20995799564546991 -0.25493168312756997 0 -0.1848967948427056 -0.25152472899999978 0 -0.2135391744064605 -0.27330937181776171 0 -0.19600578950783071 -0.26368539024786047 0 -0.20995799564546991 -0.25493168312756997 0 -0.16323026649002001 -0.25062488682678952 0 -0.1571035374718997 -0.2586094901211477 0 -0.16679423809224339 -0.26010226492485738 0 -0.16323026649002001 -0.25062488682678952 0 -0.1571035374718997 -0.2586094901211477 0 -0.15204738001177731 -0.24904394321401671 0 -0.1571035374718997 -0.2586094901211477 0 -0.16679423809224339 -0.26010226492485738 0 -0.16041757516098781 -0.27146716829058432 0 -0.16323026649002001 -0.25062488682678952 0 -0.16679423809224339 -0.26010226492485738 0 -0.17073228964729559 -0.25222925333605639 0 -0.16679423809224339 -0.26010226492485738 0 -0.17073228964729559 -0.25222925333605639 0 -0.17735802638836229 -0.25823446899907487 0 -0.1848967948427056 -0.25152472899999978 0 -0.17735802638836229 -0.25823446899907487 0 -0.18664563935498829 -0.27723821407063792 0 -0.18032958165702659 -0.25398129325822238 0 -0.17735802638836229 -0.25823446899907487 0 -0.17675342199773311 -0.24971600413436429 0 -0.1848967948427056 -0.25152472899999978 0 -0.18664563935498829 -0.27723821407063792 0 -0.17073228964729559 -0.25222925333605639 0 -0.17735802638836229 -0.25823446899907487 0 -0.17675342199773311 -0.24971600413436429 0 -0.18032958165702659 -0.25398129325822238 0 -0.1848967948427056 -0.25152472899999978 0 -0.17675342199773311 -0.24971600413436429 0 -0.18032958165702659 -0.25398129325822238 0 -0.1848967948427056 -0.25152472899999978 0 -0.17735802638836229 -0.25823446899907487 0 -0.16679423809224339 -0.26010226492485738 0 -0.17735802638836229 -0.25823446899907487 0 -0.171923733394895 -0.26944832197549229 0 -0.17735802638836229 -0.25823446899907487 0 -0.171923733394895 -0.26944832197549229 0 -0.18664563935498829 -0.27723821407063792 0 -0.171923733394895 -0.26944832197549229 0 -0.18664563935498829 -0.27723821407063792 0 -0.16747493088772389 -0.28247529895005857 0 -0.16041757516098781 -0.27146716829058432 0 -0.16747493088772389 -0.28247529895005857 0 -0.15114967055443931 -0.28648113566397237 0 -0.171923733394895 -0.26944832197549229 0 -0.16041757516098781 -0.27146716829058432 0 -0.16747493088772389 -0.28247529895005857 0 -0.16679423809224339 -0.26010226492485738 0 -0.171923733394895 -0.26944832197549229 0 -0.16041757516098781 -0.27146716829058432 0 -0.16747493088772389 -0.28247529895005857 0 -0.15114967055443931 -0.28648113566397237 0 -0.16747493088772389 -0.28247529895005857 0 -0.16224879838973161 -0.30246090981389029 0 -0.15114967055443931 -0.28648113566397237 0 -0.16747493088772389 -0.28247529895005857 0 -0.17598262934843739 -0.2924125019510731 0 -0.16224879838973161 -0.30246090981389029 0 -0.188394483867277 -0.30295169914127568 0 -0.18664563935498829 -0.27723821407063792 0 -0.17598262934843739 -0.2924125019510731 0 -0.18664563935498829 -0.27723821407063792 0 -0.16747493088772389 -0.28247529895005857 0 -0.17598262934843739 -0.2924125019510731 0 -0.188394483867277 -0.30295169914127568 0 -0.17514698011224281 -0.31201097298105251 0 -0.16224879838973161 -0.30246090981389029 0 -0.188394483867277 -0.30295169914127568 0 -0.17598262934843739 -0.2924125019510731 0 -0.16224879838973161 -0.30246090981389029 0 -0.188394483867277 -0.30295169914127568 0 -0.16224879838973161 -0.30246090981389029 0 -0.18949910738638359 -0.31919312035844438 0 -0.188394483867277 -0.30295169914127568 0 -0.18443626549268891 -0.31137918325220237 0 -0.188394483867277 -0.30295169914127568 0 -0.18443626549268891 -0.31137918325220237 0 -0.17514698011224281 -0.31201097298105251 0 -0.17514698011224281 -0.31201097298105251 0 -0.16224879838973161 -0.30246090981389029 0 -0.15439311805678049 -0.32020166011117029 0 -0.16224879838973161 -0.30246090981389029 0 -0.1361031129121863 -0.30197012048650479 0 -0.146081498019378 -0.29534978458556349 0 -0.16224879838973161 -0.30246090981389029 0 -0.14766420784293791 -0.31071135047581511 0 -0.15439311805678049 -0.32020166011117029 0 -0.16224879838973161 -0.30246090981389029 0 -0.14766420784293791 -0.31071135047581511 0 -0.1361031129121863 -0.30197012048650479 0 -0.16224879838973161 -0.30246090981389029 0 -0.1361031129121863 -0.30197012048650479 0 -0.1361031129121863 -0.30197012048650479 0 -0.137911802013053 -0.31821271149169439 0 -0.1239515435120277 -0.31558628395174931 0 -0.14766420784293791 -0.31071135047581511 0 -0.1361031129121863 -0.30197012048650479 0 -0.137911802013053 -0.31821271149169439 0 -0.1361031129121863 -0.30197012048650479 0 -0.137911802013053 -0.31821271149169439 0 -0.1361031129121863 -0.30197012048650479 0 -0.13482441022115479 -0.29048697237788651 0 -0.13482441022115479 -0.29048697237788651 0 -0.1329770854085647 -0.27389742065760769 0 -0.118568570635816 -0.28008616319008062 0 -0.1361031129121863 -0.30197012048650479 0 -0.13482441022115479 -0.29048697237788651 0 -0.1131336373233222 -0.2958093802693027 0 -0.13482441022115479 -0.29048697237788651 0 -0.14124255936105631 -0.28137465118154142 0 -0.1329770854085647 -0.27389742065760769 0 -0.13482441022115479 -0.29048697237788651 0 -0.1329770854085647 -0.27389742065760769 0 -0.1361031129121863 -0.30197012048650479 0 -0.13482441022115479 -0.29048697237788651 0 -0.146081498019378 -0.29534978458556349 0 -0.13482441022115479 -0.29048697237788651 0 -0.14124255936105631 -0.28137465118154142 0 -0.15114967055443931 -0.28648113566397237 0 -0.13482441022115479 -0.29048697237788651 0 -0.146081498019378 -0.29534978458556349 0 -0.15114967055443931 -0.28648113566397237 0 -0.16224879838973161 -0.30246090981389029 0 -0.146081498019378 -0.29534978458556349 0 -0.15114967055443931 -0.28648113566397237 0 -0.13482441022115479 -0.29048697237788651 0 -0.15114967055443931 -0.28648113566397237 0 -0.16041757516098781 -0.27146716829058432 0 -0.15114967055443931 -0.28648113566397237 0 -0.14845755596405971 -0.27159112295131321 0 -0.1571035374718997 -0.2586094901211477 0 -0.16041757516098781 -0.27146716829058432 0 -0.14845755596405971 -0.27159112295131321 0 -0.14845755596405971 -0.27159112295131321 0 -0.1329770854085647 -0.27389742065760769 0 -0.14477338823190469 -0.25983515925513451 0 -0.14124255936105631 -0.28137465118154142 0 -0.14845755596405971 -0.27159112295131321 0 -0.1329770854085647 -0.27389742065760769 0 -0.14124255936105631 -0.28137465118154142 0 -0.15114967055443931 -0.28648113566397237 0 -0.14845755596405971 -0.27159112295131321 0 -0.1329770854085647 -0.27389742065760769 0 -0.13112976059597201 -0.25730786893732938 0 -0.12068394469271319 -0.26593198380644628 0 -0.1329770854085647 -0.27389742065760769 0 -0.13112976059597201 -0.25730786893732938 0 -0.14477338823190469 -0.25983515925513451 0 -0.1329770854085647 -0.27389742065760769 0 -0.13112976059597201 -0.25730786893732938 0 -0.13112976059597201 -0.25730786893732938 0 -0.14477338823190469 -0.25983515925513451 0 -0.14105160732175329 -0.24825119985280841 0 -0.14477338823190469 -0.25983515925513451 0 -0.15204738001177731 -0.24904394321401671 0 -0.14105160732175329 -0.24825119985280841 0 -0.1571035374718997 -0.2586094901211477 0 -0.14845755596405971 -0.27159112295131321 0 -0.14477338823190469 -0.25983515925513451 0 -0.1571035374718997 -0.2586094901211477 0 -0.14477338823190469 -0.25983515925513451 0 -0.15204738001177731 -0.24904394321401671 0 -0.16946677931747481 -0.35591849715550722 0 -0.16871717489996749 -0.3446131962965745 0 -0.1595753758489464 -0.35135275597867538 0 -0.16946677931747481 -0.35591849715550722 0 -0.16871717489996749 -0.3446131962965745 0 -0.17693607032277789 -0.35151664566342261 0 -0.16871717489996749 -0.3446131962965745 0 -0.1595753758489464 -0.35135275597867538 0 -0.155786144612824 -0.33752918819390543 0 -0.16946677931747481 -0.35591849715550722 0 -0.1595753758489464 -0.35135275597867538 0 -0.16067404629828369 -0.36319452211640818 0 -0.1595753758489464 -0.35135275597867538 0 -0.16067404629828369 -0.36319452211640818 0 -0.1501574985658862 -0.35592574556511192 0 -0.16067404629828369 -0.36319452211640818 0 -0.16006646253421 -0.37484569080782609 0 -0.17791259598114489 -0.36893701157373221 0 -0.16946677931747481 -0.35591849715550722 0 -0.16067404629828369 -0.36319452211640818 0 -0.17791259598114489 -0.36893701157373221 0 -0.1890028574290174 -0.34862962726334568 0 -0.17791259598114489 -0.36893701157373221 0 -0.17693607032277789 -0.35151664566342261 0 -0.16946677931747481 -0.35591849715550722 0 -0.17791259598114489 -0.36893701157373221 0 -0.17693607032277789 -0.35151664566342261 0 -0.1890028574290174 -0.34862962726334568 0 -0.17791259598114489 -0.36893701157373221 0 -0.16871717489996749 -0.3446131962965745 0 -0.17693607032277789 -0.35151664566342261 0 -0.17958094398628499 -0.33948489602795329 0 -0.1890028574290174 -0.34862962726334568 0 -0.17693607032277789 -0.35151664566342261 0 -0.17958094398628499 -0.33948489602795329 0 -0.19060373090549479 -0.3354345415756127 0 -0.1890028574290174 -0.34862962726334568 0 -0.17958094398628499 -0.33948489602795329 0 -0.19060373090549479 -0.3354345415756127 0 -0.17958094398628499 -0.33948489602795329 0 -0.18115717264444031 -0.32473879749064499 0 -0.17958094398628499 -0.33948489602795329 0 -0.18115717264444031 -0.32473879749064499 0 -0.1670282724041367 -0.32954450774746091 0 -0.17514698011224281 -0.31201097298105251 0 -0.18115717264444031 -0.32473879749064499 0 -0.1670282724041367 -0.32954450774746091 0 -0.18949910738638359 -0.31919312035844438 0 -0.19060373090549479 -0.3354345415756127 0 -0.18115717264444031 -0.32473879749064499 0 -0.18443626549268891 -0.31137918325220237 0 -0.17514698011224281 -0.31201097298105251 0 -0.18115717264444031 -0.32473879749064499 0 -0.18949910738638359 -0.31919312035844438 0 -0.18443626549268891 -0.31137918325220237 0 -0.18115717264444031 -0.32473879749064499 0 -0.17514698011224281 -0.31201097298105251 0 -0.1670282724041367 -0.32954450774746091 0 -0.15439311805678049 -0.32020166011117029 0 -0.1670282724041367 -0.32954450774746091 0 -0.155786144612824 -0.33752918819390543 0 -0.15439311805678049 -0.32020166011117029 0 -0.16871717489996749 -0.3446131962965745 0 -0.17958094398628499 -0.33948489602795329 0 -0.1670282724041367 -0.32954450774746091 0 -0.16871717489996749 -0.3446131962965745 0 -0.1670282724041367 -0.32954450774746091 0 -0.155786144612824 -0.33752918819390543 0 -0.155786144612824 -0.33752918819390543 0 -0.15439311805678049 -0.32020166011117029 0 -0.13972049111391679 -0.33445530249688432 0 -0.155786144612824 -0.33752918819390543 0 -0.13972049111391679 -0.33445530249688432 0 -0.15017185944333469 -0.34884343801460199 0 -0.15439311805678049 -0.32020166011117029 0 -0.137911802013053 -0.31821271149169439 0 -0.13972049111391679 -0.33445530249688432 0 -0.14766420784293791 -0.31071135047581511 0 -0.15439311805678049 -0.32020166011117029 0 -0.137911802013053 -0.31821271149169439 0 -0.137911802013053 -0.31821271149169439 0 -0.13972049111391679 -0.33445530249688432 0 -0.137911802013053 -0.31821271149169439 0 -0.13972049111391679 -0.33445530249688432 0 -0.12766142289073179 -0.33118383791057932 0 -0.137911802013053 -0.31821271149169439 0 -0.12766142289073179 -0.33118383791057932 0 -0.1239515435120277 -0.31558628395174931 0 -0.13972049111391679 -0.33445530249688432 0 -0.12766142289073179 -0.33118383791057932 0 -0.12916746788523739 -0.34880628362819138 0 -0.12766142289073179 -0.33118383791057932 0 -0.12916746788523739 -0.34880628362819138 0 -0.1190679691198786 -0.34192846287431639 0 -0.12916746788523739 -0.34880628362819138 0 -0.1396696547170608 -0.36319450903807682 0 -0.1186652631358379 -0.36319449595974529 0 -0.13972049111391679 -0.33445530249688432 0 -0.12916746788523739 -0.34880628362819138 0 -0.13966374320684399 -0.35217185745698698 0 -0.12916746788523739 -0.34880628362819138 0 -0.13966374320684399 -0.35217185745698698 0 -0.1396696547170608 -0.36319450903807682 0 -0.13972049111391679 -0.33445530249688432 0 -0.13966374320684399 -0.35217185745698698 0 -0.15017185944333469 -0.34884343801460199 0 -0.13966374320684399 -0.35217185745698698 0 -0.1501574985658862 -0.35592574556511192 0 -0.15017185944333469 -0.34884343801460199 0 -0.13966374320684399 -0.35217185745698698 0 -0.1501574985658862 -0.35592574556511192 0 -0.1396696547170608 -0.36319450903807682 0 -0.1595753758489464 -0.35135275597867538 0 -0.1501574985658862 -0.35592574556511192 0 -0.15017185944333469 -0.34884343801460199 0 -0.1595753758489464 -0.35135275597867538 0 -0.155786144612824 -0.33752918819390543 0 -0.15017185944333469 -0.34884343801460199 0 -0.16067404629828369 -0.36319452211640818 0 -0.1396696547170608 -0.36319450903807682 0 -0.16067404629828369 -0.36319452211640818 0 -0.14602283850876571 -0.36613288066869998 0 -0.1396696547170608 -0.36319450903807682 0 -0.16067404629828369 -0.36319452211640818 0 -0.1501574985658862 -0.35592574556511192 0 -0.1396696547170608 -0.36319450903807682 0 -0.16067404629828369 -0.36319452211640818 0 -0.16006646253421 -0.37484569080782609 0 -0.14602283850876571 -0.36613288066869998 0 -0.1347483617273906 -0.37366334067804319 0 -0.1186652631358379 -0.36319449595974529 0 -0.12296270751600159 -0.38695194661329868 0 -0.14602283850876571 -0.36613288066869998 0 -0.1347483617273906 -0.37366334067804319 0 -0.1396696547170608 -0.36319450903807682 0 -0.1347483617273906 -0.37366334067804319 0 -0.1396696547170608 -0.36319450903807682 0 -0.1186652631358379 -0.36319449595974529 0 -0.1396696547170608 -0.36319450903807682 0 -0.1186652631358379 -0.36319449595974529 0 -0.1186652631358379 -0.36319449595974529 0 -0.09766087155461492 -0.36319448288141409 0 -0.1022143289330895 -0.38444731520295838 0 -0.09766087155461492 -0.36319448288141409 0 -0.090248747323008111 -0.3744595873777144 0 -0.1022143289330895 -0.38444731520295838 0 -0.09766087155461492 -0.36319448288141409 0 -0.1022143289330895 -0.38444731520295838 0 -0.1186652631358379 -0.36319449595974529 0 -0.09766087155461492 -0.36319448288141409 0 -0.1186652631358379 -0.36319449595974529 0 -0.09766087155461492 -0.36319448288141409 0 -0.1068977498966025 -0.34584614821648602 0 -0.09766087155461492 -0.36319448288141409 0 -0.091364109691630738 -0.33380494150231022 0 -0.09766087155461492 -0.36319448288141409 0 -0.1068977498966025 -0.34584614821648602 0 -0.091364109691630738 -0.33380494150231022 0 -0.1186652631358379 -0.36319449595974529 0 -0.1068977498966025 -0.34584614821648602 0 -0.1190679691198786 -0.34192846287431639 0 -0.12916746788523739 -0.34880628362819138 0 -0.1186652631358379 -0.36319449595974529 0 -0.1190679691198786 -0.34192846287431639 0 -0.1068977498966025 -0.34584614821648602 0 -0.1190679691198786 -0.34192846287431639 0 -0.11639164119189591 -0.32868200500459321 0 -0.12766142289073179 -0.33118383791057932 0 -0.1190679691198786 -0.34192846287431639 0 -0.11639164119189591 -0.32868200500459321 0 -0.12766142289073179 -0.33118383791057932 0 -0.11639164119189591 -0.32868200500459321 0 -0.1239515435120277 -0.31558628395174931 0 -0.11639164119189591 -0.32868200500459321 0 -0.1239515435120277 -0.31558628395174931 0 -0.1086757286531681 -0.31792052798529769 0 -0.11639164119189591 -0.32868200500459321 0 -0.1086757286531681 -0.31792052798529769 0 -0.1045135931697435 -0.32963170026240157 0 -0.099238736415420095 -0.32190487860332112 0 -0.091364109691630738 -0.33380494150231022 0 -0.095264902343348806 -0.31146655236165771 0 -0.1086757286531681 -0.31792052798529769 0 -0.099238736415420095 -0.32190487860332112 0 -0.1045135931697435 -0.32963170026240157 0 -0.1086757286531681 -0.31792052798529769 0 -0.099238736415420095 -0.32190487860332112 0 -0.095264902343348806 -0.31146655236165771 0 -0.1068977498966025 -0.34584614821648602 0 -0.11639164119189591 -0.32868200500459321 0 -0.1045135931697435 -0.32963170026240157 0 -0.1068977498966025 -0.34584614821648602 0 -0.1045135931697435 -0.32963170026240157 0 -0.091364109691630738 -0.33380494150231022 0 -0.099238736415420095 -0.32190487860332112 0 -0.1045135931697435 -0.32963170026240157 0 -0.091364109691630738 -0.33380494150231022 0 -0.091364109691630738 -0.33380494150231022 0 -0.0763898479752258 -0.32490245772232562 0 -0.075178167797281578 -0.33759865511349119 0 -0.091364109691630738 -0.33380494150231022 0 -0.075178167797281578 -0.33759865511349119 0 -0.081165994334576691 -0.3480904686351749 0 -0.091364109691630738 -0.33380494150231022 0 -0.095264902343348806 -0.31146655236165771 0 -0.08506734782864718 -0.30441540012320623 0 -0.091364109691630738 -0.33380494150231022 0 -0.080732862680266637 -0.31256228730920949 0 -0.08506734782864718 -0.30441540012320623 0 -0.091364109691630738 -0.33380494150231022 0 -0.08506734782864718 -0.30441540012320623 0 -0.091364109691630738 -0.33380494150231022 0 -0.080732862680266637 -0.31256228730920949 0 -0.0763898479752258 -0.32490245772232562 0 -0.0763898479752258 -0.32490245772232562 0 -0.068360846290991789 -0.31306814603268651 0 -0.064421497584838144 -0.32951885659459679 0 -0.068360846290991789 -0.31306814603268651 0 -0.064421497584838144 -0.32951885659459679 0 -0.056132687728091352 -0.31834570746320773 0 -0.080732862680266637 -0.31256228730920949 0 -0.0763898479752258 -0.32490245772232562 0 -0.068360846290991789 -0.31306814603268651 0 -0.0763898479752258 -0.32490245772232562 0 -0.075178167797281578 -0.33759865511349119 0 -0.064421497584838144 -0.32951885659459679 0 -0.075178167797281578 -0.33759865511349119 0 -0.064421497584838144 -0.32951885659459679 0 -0.061497298830375823 -0.34276802292045938 0 -0.075178167797281578 -0.33759865511349119 0 -0.071538915720170182 -0.35273323098055281 0 -0.061497298830375823 -0.34276802292045938 0 -0.071538915720170182 -0.35273323098055281 0 -0.060068891340035013 -0.35451069905490301 0 -0.061497298830375823 -0.34276802292045938 0 -0.075178167797281578 -0.33759865511349119 0 -0.071538915720170182 -0.35273323098055281 0 -0.081165994334576691 -0.3480904686351749 0 -0.071538915720170182 -0.35273323098055281 0 -0.081194641090901035 -0.36319447262876031 0 -0.081165994334576691 -0.3480904686351749 0 -0.071538915720170182 -0.35273323098055281 0 -0.069348376438020012 -0.36319446525271032 0 -0.060068891340035013 -0.35451069905490301 0 -0.069348376438020012 -0.36319446525271032 0 -0.047394584419765268 -0.36658048667106652 0 -0.075442708138517417 -0.37676934629987102 0 -0.069348376438020012 -0.36319446525271032 0 -0.081194641090901035 -0.36319447262876031 0 -0.075442708138517417 -0.37676934629987102 0 -0.071538915720170182 -0.35273323098055281 0 -0.069348376438020012 -0.36319446525271032 0 -0.081194641090901035 -0.36319447262876031 0 -0.069348376438020012 -0.36319446525271032 0 -0.081194641090901035 -0.36319447262876031 0 -0.09766087155461492 -0.36319448288141409 0 -0.081194641090901035 -0.36319447262876031 0 -0.081194641090901035 -0.36319447262876031 0 -0.081238744881402869 -0.38644819882135012 0 -0.081194641090901035 -0.36319447262876031 0 -0.090248747323008111 -0.3744595873777144 0 -0.081238744881402869 -0.38644819882135012 0 -0.09766087155461492 -0.36319448288141409 0 -0.081194641090901035 -0.36319447262876031 0 -0.090248747323008111 -0.3744595873777144 0 -0.09766087155461492 -0.36319448288141409 0 -0.091364109691630738 -0.33380494150231022 0 -0.081165994334576691 -0.3480904686351749 0 -0.09766087155461492 -0.36319448288141409 0 -0.081194641090901035 -0.36319447262876031 0 -0.081165994334576691 -0.3480904686351749 0 -0.081194641090901035 -0.36319447262876031 0 -0.081165994334576691 -0.3480904686351749 0 -0.10698261596595481 -0.26860248205531417 0 -0.089268083844569759 -0.25639762875054062 0 -0.1137616908572583 -0.24976598419189949 0 -0.12068394469271319 -0.26593198380644628 0 -0.10698261596595481 -0.26860248205531417 0 -0.1137616908572583 -0.24976598419189949 0 -0.13112976059597201 -0.25730786893732938 0 -0.12068394469271319 -0.26593198380644628 0 -0.1137616908572583 -0.24976598419189949 0 -0.12068394469271319 -0.26593198380644628 0 -0.118568570635816 -0.28008616319008062 0 -0.10698261596595481 -0.26860248205531417 0 -0.1329770854085647 -0.27389742065760769 0 -0.12068394469271319 -0.26593198380644628 0 -0.118568570635816 -0.28008616319008062 0 -0.10698261596595481 -0.26860248205531417 0 -0.090652283727810104 -0.27548136542568169 0 -0.089268083844569759 -0.25639762875054062 0 -0.118568570635816 -0.28008616319008062 0 -0.10698261596595481 -0.26860248205531417 0 -0.10135484989665321 -0.28501404174267653 0 -0.10698261596595481 -0.26860248205531417 0 -0.10135484989665321 -0.28501404174267653 0 -0.090652283727810104 -0.27548136542568169 0 -0.10135484989665321 -0.28501404174267653 0 -0.091442864425489642 -0.30113178816071973 0 -0.088795324441905257 -0.28730346678476659 0 -0.10135484989665321 -0.28501404174267653 0 -0.1131336373233222 -0.2958093802693027 0 -0.091442864425489642 -0.30113178816071973 0 -0.118568570635816 -0.28008616319008062 0 -0.10135484989665321 -0.28501404174267653 0 -0.1131336373233222 -0.2958093802693027 0 -0.13482441022115479 -0.29048697237788651 0 -0.1131336373233222 -0.2958093802693027 0 -0.13482441022115479 -0.29048697237788651 0 -0.118568570635816 -0.28008616319008062 0 -0.1131336373233222 -0.2958093802693027 0 -0.1361031129121863 -0.30197012048650479 0 -0.1131336373233222 -0.2958093802693027 0 -0.11377298866883789 -0.30155095432361267 0 -0.1361031129121863 -0.30197012048650479 0 -0.1239515435120277 -0.31558628395174931 0 -0.11377298866883789 -0.30155095432361267 0 -0.1239515435120277 -0.31558628395174931 0 -0.1086757286531681 -0.31792052798529769 0 -0.11377298866883789 -0.30155095432361267 0 -0.1361031129121863 -0.30197012048650479 0 -0.11377298866883789 -0.30155095432361267 0 -0.1131336373233222 -0.2958093802693027 0 -0.091442864425489642 -0.30113178816071973 0 -0.1131336373233222 -0.2958093802693027 0 -0.11377298866883789 -0.30155095432361267 0 -0.091442864425489642 -0.30113178816071973 0 -0.11377298866883789 -0.30155095432361267 0 -0.095264902343348806 -0.31146655236165771 0 -0.091442864425489642 -0.30113178816071973 0 -0.11377298866883789 -0.30155095432361267 0 -0.091442864425489642 -0.30113178816071973 0 -0.1086757286531681 -0.31792052798529769 0 -0.11377298866883789 -0.30155095432361267 0 -0.095264902343348806 -0.31146655236165771 0 -0.091442864425489642 -0.30113178816071973 0 -0.069200002514568981 -0.30071426002799029 0 -0.079861935379933913 -0.29225326063851798 0 -0.091442864425489642 -0.30113178816071973 0 -0.082070477621830368 -0.30343155247618031 0 -0.069200002514568981 -0.30071426002799029 0 -0.091442864425489642 -0.30113178816071973 0 -0.069200002514568981 -0.30071426002799029 0 -0.095264902343348806 -0.31146655236165771 0 -0.091442864425489642 -0.30113178816071973 0 -0.08506734782864718 -0.30441540012320623 0 -0.091442864425489642 -0.30113178816071973 0 -0.082070477621830368 -0.30343155247618031 0 -0.08506734782864718 -0.30441540012320623 0 -0.091442864425489642 -0.30113178816071973 0 -0.082070477621830368 -0.30343155247618031 0 -0.082070477621830368 -0.30343155247618031 0 -0.080741154409998461 -0.3068898727007644 0 -0.075093929509249674 -0.3071502508944618 0 -0.080732862680266637 -0.31256228730920949 0 -0.08506734782864718 -0.30441540012320623 0 -0.080741154409998461 -0.3068898727007644 0 -0.082070477621830368 -0.30343155247618031 0 -0.08506734782864718 -0.30441540012320623 0 -0.080741154409998461 -0.3068898727007644 0 -0.080732862680266637 -0.31256228730920949 0 -0.080741154409998461 -0.3068898727007644 0 -0.075093929509249674 -0.3071502508944618 0 -0.068360846290991789 -0.31306814603268651 0 -0.069200002514568981 -0.30071426002799029 0 -0.05316682263373692 -0.30485206509306823 0 -0.080732862680266637 -0.31256228730920949 0 -0.068360846290991789 -0.31306814603268651 0 -0.075093929509249674 -0.3071502508944618 0 -0.068360846290991789 -0.31306814603268651 0 -0.075093929509249674 -0.3071502508944618 0 -0.069200002514568981 -0.30071426002799029 0 -0.082070477621830368 -0.30343155247618031 0 -0.075093929509249674 -0.3071502508944618 0 -0.069200002514568981 -0.30071426002799029 0 -0.069200002514568981 -0.30071426002799029 0 -0.067937645502881283 -0.28625237634412182 0 -0.079861935379933913 -0.29225326063851798 0 -0.069200002514568981 -0.30071426002799029 0 -0.067937645502881283 -0.28625237634412182 0 -0.054255877242346991 -0.28932750592709328 0 -0.067937645502881283 -0.28625237634412182 0 -0.08066468877963949 -0.28263687795623749 0 -0.079861935379933913 -0.29225326063851798 0 -0.08066468877963949 -0.28263687795623749 0 -0.079861935379933913 -0.29225326063851798 0 -0.088795324441905257 -0.28730346678476659 0 -0.091442864425489642 -0.30113178816071973 0 -0.079861935379933913 -0.29225326063851798 0 -0.088795324441905257 -0.28730346678476659 0 -0.08066468877963949 -0.28263687795623749 0 -0.088795324441905257 -0.28730346678476659 0 -0.090652283727810104 -0.27548136542568169 0 -0.10135484989665321 -0.28501404174267653 0 -0.088795324441905257 -0.28730346678476659 0 -0.090652283727810104 -0.27548136542568169 0 -0.090652283727810104 -0.27548136542568169 0 -0.076143864754853213 -0.27072045314471233 0 -0.089268083844569759 -0.25639762875054062 0 -0.08066468877963949 -0.28263687795623749 0 -0.090652283727810104 -0.27548136542568169 0 -0.076143864754853213 -0.27072045314471233 0 -0.067937645502881283 -0.28625237634412182 0 -0.08066468877963949 -0.28263687795623749 0 -0.076143864754853213 -0.27072045314471233 0 -0.067937645502881283 -0.28625237634412182 0 -0.076143864754853213 -0.27072045314471233 0 -0.061926107249362407 -0.27228814199681789 0 -0.076143864754853213 -0.27072045314471233 0 -0.069668068363801197 -0.2571086491566078 0 -0.061926107249362407 -0.27228814199681789 0 -0.069668068363801197 -0.2571086491566078 0 -0.089268083844569759 -0.25639762875054062 0 -0.073174300056617181 -0.24002370408430451 0 -0.076143864754853213 -0.27072045314471233 0 -0.069668068363801197 -0.2571086491566078 0 -0.089268083844569759 -0.25639762875054062 0 -0.032144978395014047 -0.27433926229747368 0 -0.021548198161563 -0.25049975846806211 0 -0.044208004690038202 -0.24871464985574071 0 -0.061926107249362407 -0.27228814199681789 0 -0.046952148919711313 -0.27504050671866098 0 -0.044208004690038202 -0.24871464985574071 0 -0.069668068363801197 -0.2571086491566078 0 -0.061926107249362407 -0.27228814199681789 0 -0.044208004690038202 -0.24871464985574071 0 -0.061926107249362407 -0.27228814199681789 0 -0.046952148919711313 -0.27504050671866098 0 -0.054255877242346991 -0.28932750592709328 0 -0.046952148919711313 -0.27504050671866098 0 -0.032144978395014047 -0.27433926229747368 0 -0.044208004690038202 -0.24871464985574071 0 -0.046952148919711313 -0.27504050671866098 0 -0.032144978395014047 -0.27433926229747368 0 -0.042225777021794871 -0.29053297351617918 0 -0.032144978395014047 -0.27433926229747368 0 -0.042225777021794871 -0.29053297351617918 0 -0.029056538736779922 -0.29145689662069302 0 -0.042225777021794871 -0.29053297351617918 0 -0.039547881831363707 -0.30384360849095582 0 -0.029056538736779922 -0.29145689662069302 0 -0.046952148919711313 -0.27504050671866098 0 -0.042225777021794871 -0.29053297351617918 0 -0.054255877242346991 -0.28932750592709328 0 -0.067937645502881283 -0.28625237634412182 0 -0.061926107249362407 -0.27228814199681789 0 -0.054255877242346991 -0.28932750592709328 0 -0.042225777021794871 -0.29053297351617918 0 -0.054255877242346991 -0.28932750592709328 0 -0.05316682263373692 -0.30485206509306823 0 -0.069200002514568981 -0.30071426002799029 0 -0.054255877242346991 -0.28932750592709328 0 -0.05316682263373692 -0.30485206509306823 0 -0.068360846290991789 -0.31306814603268651 0 -0.05316682263373692 -0.30485206509306823 0 -0.056132687728091352 -0.31834570746320773 0 -0.039547881831363707 -0.30384360849095582 0 -0.031307634353850491 -0.3114609303868362 0 -0.023580022531623699 -0.30346084865998191 0 -0.05316682263373692 -0.30485206509306823 0 -0.039547881831363707 -0.30384360849095582 0 -0.043420581716170213 -0.31669938680839632 0 -0.042225777021794871 -0.29053297351617918 0 -0.05316682263373692 -0.30485206509306823 0 -0.039547881831363707 -0.30384360849095582 0 -0.039547881831363707 -0.30384360849095582 0 -0.031307634353850491 -0.3114609303868362 0 -0.043420581716170213 -0.31669938680839632 0 -0.039547881831363707 -0.30384360849095582 0 -0.023580022531623699 -0.30346084865998191 0 -0.029056538736779922 -0.29145689662069302 0 -0.031307634353850491 -0.3114609303868362 0 -0.023580022531623699 -0.30346084865998191 0 -0.012504784811988461 -0.31285592364938353 0 -0.023580022531623699 -0.30346084865998191 0 -0.012554554582139041 -0.29525021167704169 0 -0.012504784811988461 -0.31285592364938353 0 -0.023580022531623699 -0.30346084865998191 0 -0.012554554582139041 -0.29525021167704169 0 -0.021088706226210781 -0.29409476428670628 0 -0.0090839468674746814 -0.29108807195294428 0 -0.012504784811988461 -0.31285592364938353 0 -0.012554554582139041 -0.29525021167704169 0 -0.0090839468674746814 -0.29108807195294428 0 -0.012504784811988461 -0.31285592364938353 0 -0.0061479899139162061 -0.30604989145755401 0 -0.0090839468674746814 -0.29108807195294428 0 -0.012504784811988461 -0.31285592364938353 0 -0.0061479899139162061 -0.30604989145755401 0 -0.0090839468674746814 -0.29108807195294428 0 0.0032416631787821051 -0.2952062751416083 0 -0.0090839468674746814 -0.29108807195294428 0 0.0045927937249545664 -0.27468618790383598 0 -0.0090839468674746814 -0.29108807195294428 0 -0.019163709054300451 -0.28621110018910872 0 -0.017415041445895361 -0.2736187827628932 0 -0.0090839468674746814 -0.29108807195294428 0 0.0032416631787821051 -0.2952062751416083 0 0.0045927937249545664 -0.27468618790383598 0 -0.012554554582139041 -0.29525021167704169 0 -0.0090839468674746814 -0.29108807195294428 0 -0.019163709054300451 -0.28621110018910872 0 -0.012554554582139041 -0.29525021167704169 0 -0.0090839468674746814 -0.29108807195294428 0 -0.032144978395014047 -0.27433926229747368 0 -0.019163709054300451 -0.28621110018910872 0 -0.029056538736779922 -0.29145689662069302 0 -0.012554554582139041 -0.29525021167704169 0 -0.019163709054300451 -0.28621110018910872 0 -0.021088706226210781 -0.29409476428670628 0 -0.019163709054300451 -0.28621110018910872 0 -0.021088706226210781 -0.29409476428670628 0 -0.029056538736779922 -0.29145689662069302 0 -0.023580022531623699 -0.30346084865998191 0 -0.021088706226210781 -0.29409476428670628 0 -0.029056538736779922 -0.29145689662069302 0 -0.032144978395014047 -0.27433926229747368 0 -0.017415041445895361 -0.2736187827628932 0 -0.021548198161563 -0.25049975846806211 0 -0.032144978395014047 -0.27433926229747368 0 -0.019163709054300451 -0.28621110018910872 0 -0.017415041445895361 -0.2736187827628932 0 -0.0090839468674746814 -0.29108807195294428 0 -0.017415041445895361 -0.2736187827628932 0 -0.0051343747511228286 -0.26595572090687752 0 -0.0090839468674746814 -0.29108807195294428 0 -0.0051343747511228286 -0.26595572090687752 0 -0.0090839468674746814 -0.29108807195294428 0 -0.0051343747511228286 -0.26595572090687752 0 0.0045927937249545664 -0.27468618790383598 0 -0.0051343747511228286 -0.26595572090687752 0 -0.0044136576406840333 -0.26136957463815791 0 0.0045927937249545664 -0.27468618790383598 0 -0.0044136576406840333 -0.26136957463815791 0 -0.021548198161563 -0.25049975846806211 0 -0.001184802634769165 -0.24082336986081099 0 -0.0051343747511228286 -0.26595572090687752 0 -0.0044136576406840333 -0.26136957463815791 0 -0.021548198161563 -0.25049975846806211 0 -0.0044136576406840333 -0.26136957463815791 0 -0.001184802634769165 -0.24082336986081099 0 -0.017415041445895361 -0.2736187827628932 0 -0.0051343747511228286 -0.26595572090687752 0 -0.021548198161563 -0.25049975846806211 0 -0.0051343747511228286 -0.26595572090687752 0 -0.0044136576406840333 -0.26136957463815791 0 -0.037491242172062948 -0.35014244651269771 0 -0.047394584419765268 -0.36658048667106652 0 -0.01934646070101291 -0.35639162704226218 0 -0.037491242172062948 -0.35014244651269771 0 -0.047394584419765268 -0.36658048667106652 0 -0.050565281291843803 -0.34727728944972569 0 -0.047394584419765268 -0.36658048667106652 0 -0.01934646070101291 -0.35639162704226218 0 -0.069348376438020012 -0.36319446525271032 0 -0.047394584419765268 -0.36658048667106652 0 -0.060068891340035013 -0.35451069905490301 0 -0.047394584419765268 -0.36658048667106652 0 -0.075442708138517417 -0.37676934629987102 0 -0.047394584419765268 -0.36658048667106652 0 -0.060068891340035013 -0.35451069905490301 0 -0.050565281291843803 -0.34727728944972569 0 -0.060068891340035013 -0.35451069905490301 0 -0.050565281291843803 -0.34727728944972569 0 -0.061497298830375823 -0.34276802292045938 0 -0.064421497584838144 -0.32951885659459679 0 -0.061497298830375823 -0.34276802292045938 0 -0.048089028729314212 -0.33358587281616869 0 -0.050565281291843803 -0.34727728944972569 0 -0.061497298830375823 -0.34276802292045938 0 -0.048089028729314212 -0.33358587281616869 0 -0.064421497584838144 -0.32951885659459679 0 -0.048089028729314212 -0.33358587281616869 0 -0.056132687728091352 -0.31834570746320773 0 -0.048089028729314212 -0.33358587281616869 0 -0.056132687728091352 -0.31834570746320773 0 -0.043420581716170213 -0.31669938680839632 0 -0.05316682263373692 -0.30485206509306823 0 -0.056132687728091352 -0.31834570746320773 0 -0.043420581716170213 -0.31669938680839632 0 -0.048089028729314212 -0.33358587281616869 0 -0.043420581716170213 -0.31669938680839632 0 -0.031085706742872771 -0.32418771593374057 0 -0.031307634353850491 -0.3114609303868362 0 -0.043420581716170213 -0.31669938680839632 0 -0.031085706742872771 -0.32418771593374057 0 -0.048089028729314212 -0.33358587281616869 0 -0.03038761222035254 -0.33978628753013851 0 -0.031085706742872771 -0.32418771593374057 0 -0.037491242172062948 -0.35014244651269771 0 -0.050565281291843803 -0.34727728944972569 0 -0.048089028729314212 -0.33358587281616869 0 -0.037491242172062948 -0.35014244651269771 0 -0.048089028729314212 -0.33358587281616869 0 -0.03038761222035254 -0.33978628753013851 0 -0.03038761222035254 -0.33978628753013851 0 -0.015925622756500401 -0.33462377534582288 0 -0.01934646070101291 -0.35639162704226218 0 -0.03038761222035254 -0.33978628753013851 0 -0.015925622756500401 -0.33462377534582288 0 -0.031085706742872771 -0.32418771593374057 0 -0.015925622756500401 -0.33462377534582288 0 -0.031085706742872771 -0.32418771593374057 0 -0.012504784811988461 -0.31285592364938353 0 -0.031307634353850491 -0.3114609303868362 0 -0.031085706742872771 -0.32418771593374057 0 -0.012504784811988461 -0.31285592364938353 0 -0.015925622756500401 -0.33462377534582288 0 -0.012504784811988461 -0.31285592364938353 0 -0.015925622756500401 -0.33462377534582288 0 -0.012504784811988461 -0.31285592364938353 0 -0.0020309994325907058 -0.31916012003143918 0 -0.0061479899139162061 -0.30604989145755401 0 -0.012504784811988461 -0.31285592364938353 0 -0.0020309994325907058 -0.31916012003143918 0 -0.015925622756500401 -0.33462377534582288 0 -0.0020309994325907058 -0.31916012003143918 0 0.00086803735859259051 -0.33201321796046951 0 -0.015925622756500401 -0.33462377534582288 0 0.008783498255201274 -0.34617303965856439 0 0.00086803735859259051 -0.33201321796046951 0 -0.015925622756500401 -0.33462377534582288 0 -0.01934646070101291 -0.35639162704226218 0 0.008783498255201274 -0.34617303965856439 0 -0.01934646070101291 -0.35639162704226218 0 0.008783498255201274 -0.34617303965856439 0 -0.01934646070101291 -0.35639162704226218 0 0.008783498255201274 -0.34617303965856439 0 0.0069058257338920652 -0.36938627074810892 0 -0.037491242172062948 -0.35014244651269771 0 -0.03038761222035254 -0.33978628753013851 0 -0.01934646070101291 -0.35639162704226218 0 -0.015925622756500401 -0.33462377534582288 0 -0.01934646070101291 -0.35639162704226218 0 -0.047394584419765268 -0.36658048667106652 0 -0.01934646070101291 -0.35639162704226218 0 -0.023534167116439551 -0.38303930041290257 0 -0.01934646070101291 -0.35639162704226218 0 -0.023534167116439551 -0.38303930041290257 0 -0.01934646070101291 -0.35639162704226218 0 -0.023534167116439551 -0.38303930041290257 0 0.0069058257338920652 -0.36938627074810892 0 -0.023534167116439551 -0.38303930041290257 0 0.0050281532125818866 -0.39259950183765319 0 0.0069058257338920652 -0.36938627074810892 0 -0.01135960721218356 -0.40314866035127889 0 0.0050281532125818866 -0.39259950183765319 0 0.0031504806912710701 -0.41581273292719739 0 -0.01135960721218356 -0.40314866035127889 0 -0.023534167116439551 -0.38303930041290257 0 0.0050281532125818866 -0.39259950183765319 0 -0.023534167116439551 -0.38303930041290257 0 -0.040196387893784498 -0.39004195953717657 0 -0.027721873531866729 -0.4096869737835428 0 -0.023534167116439551 -0.38303930041290257 0 -0.027721873531866729 -0.4096869737835428 0 -0.01135960721218356 -0.40314866035127889 0 -0.023534167116439551 -0.38303930041290257 0 -0.027721873531866729 -0.4096869737835428 0 -0.047394584419765268 -0.36658048667106652 0 -0.023534167116439551 -0.38303930041290257 0 -0.040196387893784498 -0.39004195953717657 0 -0.040196387893784498 -0.39004195953717657 0 -0.046862896374897399 -0.41289549590090818 0 -0.027721873531866729 -0.4096869737835428 0 -0.040196387893784498 -0.39004195953717657 0 -0.054084834061714909 -0.3947713219399846 0 -0.046862896374897399 -0.41289549590090818 0 -0.054084834061714909 -0.3947713219399846 0 -0.066190748915732664 -0.38858605884026698 0 -0.066246646749125421 -0.40435100568158622 0 -0.054084834061714909 -0.3947713219399846 0 -0.046862896374897399 -0.41289549590090818 0 -0.066246646749125421 -0.40435100568158622 0 -0.047394584419765268 -0.36658048667106652 0 -0.055474351482588773 -0.38252588790603281 0 -0.075442708138517417 -0.37676934629987102 0 -0.047394584419765268 -0.36658048667106652 0 -0.040196387893784498 -0.39004195953717657 0 -0.055474351482588773 -0.38252588790603281 0 -0.054084834061714909 -0.3947713219399846 0 -0.055474351482588773 -0.38252588790603281 0 -0.066190748915732664 -0.38858605884026698 0 -0.040196387893784498 -0.39004195953717657 0 -0.054084834061714909 -0.3947713219399846 0 -0.055474351482588773 -0.38252588790603281 0 -0.050670320102972302 -0.43314279571617009 0 -0.059366445224781288 -0.42126276441515659 0 -0.046862896374897399 -0.41289549590090818 0 -0.050670320102972302 -0.43314279571617009 0 -0.059366445224781288 -0.42126276441515659 0 -0.064154375085134691 -0.43152924309718999 0 -0.059366445224781288 -0.42126276441515659 0 -0.046862896374897399 -0.41289549590090818 0 -0.066246646749125421 -0.40435100568158622 0 -0.046862896374897399 -0.41289549590090818 0 -0.031909579947293903 -0.43633464715418302 0 -0.027721873531866729 -0.4096869737835428 0 -0.050670320102972302 -0.43314279571617009 0 -0.046862896374897399 -0.41289549590090818 0 -0.031909579947293903 -0.43633464715418302 0 -0.031909579947293903 -0.43633464715418302 0 -0.019844435894720611 -0.43205058367745108 0 -0.027721873531866729 -0.4096869737835428 0 -0.031909579947293903 -0.43633464715418302 0 -0.027721873531866729 -0.4096869737835428 0 -0.031909579947293903 -0.43633464715418302 0 -0.019844435894720611 -0.43205058367745108 0 -0.017566557237147881 -0.4440982690959368 0 -0.01135960721218356 -0.40314866035127889 0 -0.027721873531866729 -0.4096869737835428 0 -0.016087920895412638 -0.41981091473005061 0 -0.019844435894720611 -0.43205058367745108 0 -0.027721873531866729 -0.4096869737835428 0 -0.016087920895412638 -0.41981091473005061 0 -0.01135960721218356 -0.40314866035127889 0 -0.016087920895412638 -0.41981091473005061 0 0.0031504806912710701 -0.41581273292719739 0 -0.016087920895412638 -0.41981091473005061 0 -0.0067038704874362552 -0.42619863363213478 0 0.0031504806912710701 -0.41581273292719739 0 -0.016087920895412638 -0.41981091473005061 0 0.0031504806912710701 -0.41581273292719739 0 -0.0067038704874362552 -0.42619863363213478 0 0.0027023722465256209 -0.42135259398550873 0 0.0031504806912710701 -0.41581273292719739 0 -0.019844435894720611 -0.43205058367745108 0 -0.0093212854806001555 -0.43677609869631889 0 -0.0067038704874362552 -0.42619863363213478 0 -0.019844435894720611 -0.43205058367745108 0 -0.016087920895412638 -0.41981091473005061 0 -0.0067038704874362552 -0.42619863363213478 0 -0.0067038704874362552 -0.42619863363213478 0 0.0027023722465256209 -0.42135259398550873 0 0.0014073086159719201 -0.43498092765767848 0 -0.0093212854806001555 -0.43677609869631889 0 -0.0067038704874362552 -0.42619863363213478 0 0.0014073086159719201 -0.43498092765767848 0 -0.0093212854806001555 -0.43677609869631889 0 -0.0066177663544651297 -0.44479097031219911 0 0.0014073086159719201 -0.43498092765767848 0 -0.0066177663544651297 -0.44479097031219911 0 -0.01323741047532517 -0.45791098270797559 0 0.0056291128047756406 -0.45018857340308499 0 -0.0093212854806001555 -0.43677609869631889 0 -0.0066177663544651297 -0.44479097031219911 0 -0.017566557237147881 -0.4440982690959368 0 -0.019844435894720611 -0.43205058367745108 0 -0.0093212854806001555 -0.43677609869631889 0 -0.017566557237147881 -0.4440982690959368 0 -0.0066177663544651297 -0.44479097031219911 0 -0.01323741047532517 -0.45791098270797559 0 -0.017566557237147881 -0.4440982690959368 0 -0.002745718274078619 -0.46110876076750529 0 -0.0099204716848100283 -0.46774987696329517 0 0.0065458962590450812 -0.46858560999566512 0 -0.0099204716848100283 -0.46774987696329517 0 0.0065458962590450812 -0.46858560999566512 0 -0.01323741047532517 -0.45791098270797559 0 0.0056291128047756406 -0.45018857340308499 0 -0.002745718274078619 -0.46110876076750529 0 -0.01323741047532517 -0.45791098270797559 0 0.0056291128047756406 -0.45018857340308499 0 -0.002745718274078619 -0.46110876076750529 0 -0.0099204716848100283 -0.46774987696329517 0 -0.01323741047532517 -0.45791098270797559 0 -0.0099204716848100283 -0.46774987696329517 0 -0.01323741047532517 -0.45791098270797559 0 -0.01740196498052575 -0.46470469890822369 0 -0.01323741047532517 -0.45791098270797559 0 -0.025900770940989651 -0.45378999184009489 0 -0.032103933755426209 -0.46563339201286569 0 -0.01323741047532517 -0.45791098270797559 0 -0.01740196498052575 -0.46470469890822369 0 -0.032103933755426209 -0.46563339201286569 0 -0.01323741047532517 -0.45791098270797559 0 -0.032103933755426209 -0.46563339201286569 0 -0.0099204716848100283 -0.46774987696329517 0 -0.01740196498052575 -0.46470469890822369 0 -0.019577919258764901 -0.4689472765873498 0 -0.01740196498052575 -0.46470469890822369 0 -0.019577919258764901 -0.4689472765873498 0 -0.032103933755426209 -0.46563339201286569 0 -0.031909579947293903 -0.43633464715418302 0 -0.025900770940989651 -0.45378999184009489 0 -0.017566557237147881 -0.4440982690959368 0 -0.01323741047532517 -0.45791098270797559 0 -0.025900770940989651 -0.45378999184009489 0 -0.017566557237147881 -0.4440982690959368 0 -0.003287759710096871 -0.4999753085184237 0 -0.0088654545030215463 -0.48763400065619089 0 -0.02260120424970458 -0.5 0 -0.003287759710096871 -0.4999753085184237 0 -0.0088654545030215463 -0.48763400065619089 0 0.0098622522464014758 -0.48469832577322891 0 -0.0088654545030215463 -0.48763400065619089 0 -0.0021164315900754271 -0.47662312421592329 0 0.0098622522464014758 -0.48469832577322891 0 -0.0099204716848100283 -0.46774987696329517 0 -0.0021164315900754271 -0.47662312421592329 0 0.0065458962590450812 -0.46858560999566512 0 -0.0088654545030215463 -0.48763400065619089 0 -0.01388122401668259 -0.47773092282820401 0 -0.0211683596979713 -0.48677632260136589 0 -0.0088654545030215463 -0.48763400065619089 0 -0.01388122401668259 -0.47773092282820401 0 -0.0021164315900754271 -0.47662312421592329 0 -0.0099204716848100283 -0.46774987696329517 0 -0.01388122401668259 -0.47773092282820401 0 -0.019577919258764901 -0.4689472765873498 0 -0.0099204716848100283 -0.46774987696329517 0 -0.01388122401668259 -0.47773092282820401 0 -0.0021164315900754271 -0.47662312421592329 0 -0.01388122401668259 -0.47773092282820401 0 -0.032103933755426209 -0.46563339201286569 0 -0.027253887883863879 -0.47810103728614572 0 -0.0211683596979713 -0.48677632260136589 0 -0.039365862512859937 -0.48378128324940572 0 -0.01388122401668259 -0.47773092282820401 0 -0.019577919258764901 -0.4689472765873498 0 -0.032103933755426209 -0.46563339201286569 0 -0.01388122401668259 -0.47773092282820401 0 -0.027253887883863879 -0.47810103728614572 0 -0.032103933755426209 -0.46563339201286569 0 -0.027253887883863879 -0.47810103728614572 0 -0.032448697430693743 -0.47301395061507062 0 -0.032103933755426209 -0.46563339201286569 0 -0.01388122401668259 -0.47773092282820401 0 -0.027253887883863879 -0.47810103728614572 0 -0.0211683596979713 -0.48677632260136589 0 -0.0211683596979713 -0.48677632260136589 0 -0.02260120424970458 -0.5 0 -0.039365862512859937 -0.48378128324940572 0 -0.0088654545030215463 -0.48763400065619089 0 -0.0211683596979713 -0.48677632260136589 0 -0.02260120424970458 -0.5 0 -0.02260120424970458 -0.5 0 -0.041914648789312281 -0.50000000000000144 0 -0.039365862512859937 -0.48378128324940572 0 -0.041914648789312281 -0.50000000000000144 0 -0.039365862512859937 -0.48378128324940572 0 -0.041914648789312281 -0.50000000000000144 0 -0.039365862512859937 -0.48378128324940572 0 -0.0579301443394247 -0.48894981715951258 0 -0.039365862512859937 -0.48378128324940572 0 -0.05786237904479536 -0.47617678968232158 0 -0.036817076236408987 -0.46756256649880967 0 -0.039365862512859937 -0.48378128324940572 0 -0.036817076236408987 -0.46756256649880967 0 -0.039365862512859937 -0.48378128324940572 0 -0.032448697430693743 -0.47301395061507062 0 -0.036817076236408987 -0.46756256649880967 0 -0.027253887883863879 -0.47810103728614572 0 -0.039365862512859937 -0.48378128324940572 0 -0.032448697430693743 -0.47301395061507062 0 -0.05786237904479536 -0.47617678968232158 0 -0.036817076236408987 -0.46756256649880967 0 -0.039365862512859937 -0.48378128324940572 0 -0.05786237904479536 -0.47617678968232158 0 -0.0579301443394247 -0.48894981715951258 0 -0.05786237904479536 -0.47617678968232158 0 -0.036817076236408987 -0.46756256649880967 0 -0.050973877453107407 -0.46299113133992748 0 -0.041914648789312281 -0.50000000000000144 0 -0.0579301443394247 -0.48894981715951258 0 -0.07160014949697463 -0.5 0 -0.031909579947293903 -0.43633464715418302 0 -0.044347326456387698 -0.44510718731521332 0 -0.036097286362719708 -0.46298232052482352 0 -0.050670320102972302 -0.43314279571617009 0 -0.031909579947293903 -0.43633464715418302 0 -0.044347326456387698 -0.44510718731521332 0 -0.031909579947293903 -0.43633464715418302 0 -0.036097286362719708 -0.46298232052482352 0 -0.044347326456387698 -0.44510718731521332 0 -0.036097286362719708 -0.46298232052482352 0 -0.058712119412563477 -0.44796898586567668 0 -0.031909579947293903 -0.43633464715418302 0 -0.025900770940989651 -0.45378999184009489 0 -0.036097286362719708 -0.46298232052482352 0 -0.025900770940989651 -0.45378999184009489 0 -0.032103933755426209 -0.46563339201286569 0 -0.036097286362719708 -0.46298232052482352 0 -0.032103933755426209 -0.46563339201286569 0 -0.036097286362719708 -0.46298232052482352 0 -0.036817076236408987 -0.46756256649880967 0 -0.032103933755426209 -0.46563339201286569 0 -0.036817076236408987 -0.46756256649880967 0 -0.032448697430693743 -0.47301395061507062 0 -0.032103933755426209 -0.46563339201286569 0 -0.036817076236408987 -0.46756256649880967 0 -0.032103933755426209 -0.46563339201286569 0 -0.036097286362719708 -0.46298232052482352 0 -0.036097286362719708 -0.46298232052482352 0 -0.036817076236408987 -0.46756256649880967 0 -0.036097286362719708 -0.46298232052482352 0 -0.036817076236408987 -0.46756256649880967 0 -0.050973877453107407 -0.46299113133992748 0 -0.036097286362719708 -0.46298232052482352 0 -0.050973877453107407 -0.46299113133992748 0 -0.058712119412563477 -0.44796898586567668 0 -0.05786237904479536 -0.47617678968232158 0 -0.050973877453107407 -0.46299113133992748 0 -0.067933915347216878 -0.46456803157410742 0 -0.050973877453107407 -0.46299113133992748 0 -0.058712119412563477 -0.44796898586567668 0 -0.067933915347216878 -0.46456803157410742 0 -0.036097286362719708 -0.46298232052482352 0 -0.058712119412563477 -0.44796898586567668 0 -0.050670320102972302 -0.43314279571617009 0 -0.058712119412563477 -0.44796898586567668 0 -0.064154375085134691 -0.43152924309718999 0 -0.050670320102972302 -0.43314279571617009 0 -0.044347326456387698 -0.44510718731521332 0 -0.058712119412563477 -0.44796898586567668 0 -0.058712119412563477 -0.44796898586567668 0 -0.081367900306302948 -0.45454540436173813 0 -0.081326952462407065 -0.43295565120652968 0 -0.058712119412563477 -0.44796898586567668 0 -0.081326952462407065 -0.43295565120652968 0 -0.067933915347216878 -0.46456803157410742 0 -0.081367900306302948 -0.45454540436173813 0 -0.083399421239415239 -0.47082317920493988 0 -0.058712119412563477 -0.44796898586567668 0 -0.067933915347216878 -0.46456803157410742 0 -0.081367900306302948 -0.45454540436173813 0 -0.081367900306302948 -0.45454540436173813 0 -0.083399421239415239 -0.47082317920493988 0 -0.096827668478663392 -0.47102578567663822 0 -0.081367900306302948 -0.45454540436173813 0 -0.081326952462407065 -0.43295565120652968 0 -0.081367900306302948 -0.45454540436173813 0 -0.093826778738074379 -0.44262329033423309 0 -0.1030704434295233 -0.45617111893035261 0 -0.081367900306302948 -0.45454540436173813 0 -0.093826778738074379 -0.44262329033423309 0 -0.081326952462407065 -0.43295565120652968 0 -0.0579301443394247 -0.48894981715951258 0 -0.07160014949697463 -0.5 0 -0.078907681853181519 -0.48479101286583398 0 -0.05786237904479536 -0.47617678968232158 0 -0.0579301443394247 -0.48894981715951258 0 -0.078907681853181519 -0.48479101286583398 0 -0.067933915347216878 -0.46456803157410742 0 -0.083399421239415239 -0.47082317920493988 0 -0.078907681853181519 -0.48479101286583398 0 -0.05786237904479536 -0.47617678968232158 0 -0.078907681853181519 -0.48479101286583398 0 -0.05786237904479536 -0.47617678968232158 0 -0.067933915347216878 -0.46456803157410742 0 -0.078907681853181519 -0.48479101286583398 0 -0.083399421239415239 -0.47082317920493988 0 -0.09258839285512542 -0.48090238270537378 0 -0.096827668478663392 -0.47102578567663822 0 -0.083399421239415239 -0.47082317920493988 0 -0.09258839285512542 -0.48090238270537378 0 -0.078907681853181519 -0.48479101286583398 0 -0.078907681853181519 -0.48479101286583398 0 -0.09995298466156767 -0.49340523604934639 0 -0.07160014949697463 -0.5 0 -0.10128565020463701 -0.5 0 -0.09995298466156767 -0.49340523604934639 0 -0.09258839285512542 -0.48090238270537378 0 -0.078907681853181519 -0.48479101286583398 0 -0.09995298466156767 -0.49340523604934639 0 -0.07160014949697463 -0.5 0 -0.078907681853181519 -0.48479101286583398 0 -0.09995298466156767 -0.49340523604934639 0 -0.10128565020463701 -0.5 0 -0.09995298466156767 -0.49340523604934639 0 -0.1111164948955229 -0.49076132277723999 0 -0.09258839285512542 -0.48090238270537378 0 -0.09995298466156767 -0.49340523604934639 0 -0.10469056919638831 -0.48075263086269793 0 -0.09995298466156767 -0.49340523604934639 0 -0.10469056919638831 -0.48075263086269793 0 -0.1111164948955229 -0.49076132277723999 0 -0.09258839285512542 -0.48090238270537378 0 -0.10469056919638831 -0.48075263086269793 0 -0.096827668478663392 -0.47102578567663822 0 -0.10469056919638831 -0.48075263086269793 0 -0.096827668478663392 -0.47102578567663822 0 -0.10903726325962371 -0.469280870047943 0 -0.10903726325962371 -0.469280870047943 0 -0.1186821195027222 -0.47964874697415549 0 -0.1217265335391844 -0.46145238468538802 0 -0.10469056919638831 -0.48075263086269793 0 -0.10903726325962371 -0.469280870047943 0 -0.1186821195027222 -0.47964874697415549 0 -0.10469056919638831 -0.48075263086269793 0 -0.1186821195027222 -0.47964874697415549 0 -0.1111164948955229 -0.49076132277723999 0 -0.13097115091229941 -0.5 0 -0.10128565020463701 -0.5 0 -0.1111164948955229 -0.49076132277723999 0 -0.13097115091229941 -0.5 0 -0.1186821195027222 -0.47964874697415549 0 -0.1111164948955229 -0.49076132277723999 0 -0.093826778738074379 -0.44262329033423309 0 -0.1129175599883291 -0.44617026421960931 0 -0.10269371872088549 -0.4347050990167296 0 -0.093826778738074379 -0.44262329033423309 0 -0.1030704434295233 -0.45617111893035261 0 -0.1129175599883291 -0.44617026421960931 0 -0.081367900306302948 -0.45454540436173813 0 -0.096827668478663392 -0.47102578567663822 0 -0.1030704434295233 -0.45617111893035261 0 -0.096827668478663392 -0.47102578567663822 0 -0.10903726325962371 -0.469280870047943 0 -0.1030704434295233 -0.45617111893035261 0 -0.1030704434295233 -0.45617111893035261 0 -0.1217265335391844 -0.46145238468538802 0 -0.1129175599883291 -0.44617026421960931 0 -0.10903726325962371 -0.469280870047943 0 -0.1030704434295233 -0.45617111893035261 0 -0.1217265335391844 -0.46145238468538802 0 -0.13375930635121289 -0.44436150293412668 0 -0.1217265335391844 -0.46145238468538802 0 -0.1129175599883291 -0.44617026421960931 0 -0.13375930635121289 -0.44436150293412668 0 -0.1129175599883291 -0.44617026421960931 0 -0.11579349273772641 -0.43232268202362878 0 -0.1129175599883291 -0.44617026421960931 0 -0.11579349273772641 -0.43232268202362878 0 -0.10269371872088549 -0.4347050990167296 0 -0.13265493894457131 -0.42555720550547432 0 -0.11579349273772641 -0.43232268202362878 0 -0.1169554479302127 -0.41846119445943458 0 -0.11579349273772641 -0.43232268202362878 0 -0.1024086121472418 -0.42253057769386371 0 -0.1169554479302127 -0.41846119445943458 0 -0.11579349273772641 -0.43232268202362878 0 -0.10269371872088549 -0.4347050990167296 0 -0.1024086121472418 -0.42253057769386371 0 -0.10269371872088549 -0.4347050990167296 0 -0.1024086121472418 -0.42253057769386371 0 -0.087370225268512874 -0.42894369688988332 0 -0.093826778738074379 -0.44262329033423309 0 -0.10269371872088549 -0.4347050990167296 0 -0.087370225268512874 -0.42894369688988332 0 -0.1024086121472418 -0.42253057769386371 0 -0.093803394871514734 -0.41329605112549761 0 -0.087370225268512874 -0.42894369688988332 0 -0.1024086121472418 -0.42253057769386371 0 -0.105723747998253 -0.40652148490176532 0 -0.1169554479302127 -0.41846119445943458 0 -0.1024086121472418 -0.42253057769386371 0 -0.093803394871514734 -0.41329605112549761 0 -0.105723747998253 -0.40652148490176532 0 -0.12813749902309129 -0.40703967252690582 0 -0.105723747998253 -0.40652148490176532 0 -0.1169554479302127 -0.41846119445943458 0 -0.12813749902309129 -0.40703967252690582 0 -0.105723747998253 -0.40652148490176532 0 -0.105723747998253 -0.40652148490176532 0 -0.12296270751600159 -0.38695194661329868 0 -0.1022143289330895 -0.38444731520295838 0 -0.12813749902309129 -0.40703967252690582 0 -0.105723747998253 -0.40652148490176532 0 -0.12296270751600159 -0.38695194661329868 0 -0.1186652631358379 -0.36319449595974529 0 -0.12296270751600159 -0.38695194661329868 0 -0.1022143289330895 -0.38444731520295838 0 -0.105723747998253 -0.40652148490176532 0 -0.1022143289330895 -0.38444731520295838 0 -0.092231540271661278 -0.39878257112803589 0 -0.093803394871514734 -0.41329605112549761 0 -0.105723747998253 -0.40652148490176532 0 -0.092231540271661278 -0.39878257112803589 0 -0.092231540271661278 -0.39878257112803589 0 -0.081238744881402869 -0.38644819882135012 0 -0.081282848671904717 -0.40970192501393993 0 -0.081238744881402869 -0.38644819882135012 0 -0.081282848671904717 -0.40970192501393993 0 -0.081194641090901035 -0.36319447262876031 0 -0.081238744881402869 -0.38644819882135012 0 -0.075442708138517417 -0.37676934629987102 0 -0.090248747323008111 -0.3744595873777144 0 -0.1022143289330895 -0.38444731520295838 0 -0.081238744881402869 -0.38644819882135012 0 -0.1022143289330895 -0.38444731520295838 0 -0.092231540271661278 -0.39878257112803589 0 -0.081238744881402869 -0.38644819882135012 0 -0.055474351482588773 -0.38252588790603281 0 -0.075442708138517417 -0.37676934629987102 0 -0.066190748915732664 -0.38858605884026698 0 -0.081238744881402869 -0.38644819882135012 0 -0.075442708138517417 -0.37676934629987102 0 -0.066190748915732664 -0.38858605884026698 0 -0.081238744881402869 -0.38644819882135012 0 -0.066246646749125421 -0.40435100568158622 0 -0.081282848671904717 -0.40970192501393993 0 -0.081238744881402869 -0.38644819882135012 0 -0.066190748915732664 -0.38858605884026698 0 -0.066246646749125421 -0.40435100568158622 0 -0.071524024311222803 -0.42075525092715987 0 -0.081326952462407065 -0.43295565120652968 0 -0.081282848671904717 -0.40970192501393993 0 -0.066246646749125421 -0.40435100568158622 0 -0.071524024311222803 -0.42075525092715987 0 -0.081282848671904717 -0.40970192501393993 0 -0.059366445224781288 -0.42126276441515659 0 -0.066246646749125421 -0.40435100568158622 0 -0.071524024311222803 -0.42075525092715987 0 -0.058712119412563477 -0.44796898586567668 0 -0.064154375085134691 -0.43152924309718999 0 -0.081326952462407065 -0.43295565120652968 0 -0.071524024311222803 -0.42075525092715987 0 -0.064154375085134691 -0.43152924309718999 0 -0.081326952462407065 -0.43295565120652968 0 -0.059366445224781288 -0.42126276441515659 0 -0.071524024311222803 -0.42075525092715987 0 -0.064154375085134691 -0.43152924309718999 0 -0.081326952462407065 -0.43295565120652968 0 -0.087370225268512874 -0.42894369688988332 0 -0.081282848671904717 -0.40970192501393993 0 -0.081326952462407065 -0.43295565120652968 0 -0.087370225268512874 -0.42894369688988332 0 -0.093826778738074379 -0.44262329033423309 0 -0.081326952462407065 -0.43295565120652968 0 -0.087370225268512874 -0.42894369688988332 0 -0.081326952462407065 -0.43295565120652968 0 -0.081282848671904717 -0.40970192501393993 0 -0.093803394871514734 -0.41329605112549761 0 -0.087370225268512874 -0.42894369688988332 0 -0.081282848671904717 -0.40970192501393993 0 -0.093803394871514734 -0.41329605112549761 0 -0.092231540271661278 -0.39878257112803589 0 -0.081282848671904717 -0.40970192501393993 0 -0.089065278422390246 -0.085937597501073076 0 -0.075427311453728274 -0.080615135224151369 0 -0.071130041970241933 -0.091472042339504178 0 -0.089065278422390246 -0.085937597501073076 0 -0.077901044908391628 -0.0664444727295075 0 -0.075427311453728274 -0.080615135224151369 0 -0.077901044908391628 -0.0664444727295075 0 -0.1035477702148494 -0.073552857240417005 0 -0.092724302999358396 -0.049830208184215942 0 -0.077901044908391628 -0.0664444727295075 0 -0.1035477702148494 -0.073552857240417005 0 -0.089065278422390246 -0.085937597501073076 0 -0.077901044908391628 -0.0664444727295075 0 -0.1035477702148494 -0.073552857240417005 0 -0.077901044908391628 -0.0664444727295075 0 -0.063612880513889303 -0.078606428326520789 0 -0.075427311453728274 -0.080615135224151369 0 -0.077901044908391628 -0.0664444727295075 0 -0.052254319601934177 -0.059336088218596948 0 -0.077901044908391628 -0.0664444727295075 0 -0.063612880513889303 -0.078606428326520789 0 -0.052254319601934177 -0.059336088218596948 0 -0.063612880513889303 -0.078606428326520789 0 -0.071130041970241933 -0.091472042339504178 0 -0.053381993456013271 -0.085399686545127113 0 -0.063612880513889303 -0.078606428326520789 0 -0.075427311453728274 -0.080615135224151369 0 -0.071130041970241933 -0.091472042339504178 0 -0.071130041970241933 -0.091472042339504178 0 -0.067165087537747428 -0.1074536904539956 0 -0.090253897395856389 -0.1054743324267111 0 -0.067165087537747428 -0.1074536904539956 0 -0.071870238267614836 -0.1120349705324422 0 -0.090253897395856389 -0.1054743324267111 0 -0.071130041970241933 -0.091472042339504178 0 -0.067165087537747428 -0.1074536904539956 0 -0.056667841685396743 -0.09723280146171337 0 -0.070316239935084013 -0.11801229889146431 0 -0.059555572886176217 -0.12119370069373959 0 -0.087072634849833408 -0.12683713960317061 0 -0.070316239935084013 -0.11801229889146431 0 -0.071870238267614836 -0.1120349705324422 0 -0.048123738296581467 -0.10432672448124911 0 -0.070316239935084013 -0.11801229889146431 0 -0.071870238267614836 -0.1120349705324422 0 -0.087072634849833408 -0.12683713960317061 0 -0.059555572886176217 -0.12119370069373959 0 -0.087072634849833408 -0.12683713960317061 0 -0.067165087537747428 -0.1074536904539956 0 -0.071870238267614836 -0.1120349705324422 0 -0.071870238267614836 -0.1120349705324422 0 -0.087430074750530884 -0.11534069438491031 0 -0.090253897395856389 -0.1054743324267111 0 -0.071870238267614836 -0.1120349705324422 0 -0.087072634849833408 -0.12683713960317061 0 -0.071870238267614836 -0.1120349705324422 0 -0.087430074750530884 -0.11534069438491031 0 -0.087072634849833408 -0.12683713960317061 0 -0.087430074750530884 -0.11534069438491031 0 -0.090253897395856389 -0.1054743324267111 0 -0.10052352848881881 -0.1170163349773173 0 -0.087430074750530884 -0.11534069438491031 0 -0.10052352848881881 -0.1170163349773173 0 -0.087072634849833408 -0.12683713960317061 0 -0.067165087537747428 -0.1074536904539956 0 -0.090253897395856389 -0.1054743324267111 0 -0.089065278422390246 -0.085937597501073076 0 -0.071130041970241933 -0.091472042339504178 0 -0.090253897395856389 -0.1054743324267111 0 -0.090253897395856389 -0.1054743324267111 0 -0.1131332439587663 -0.1037101012546746 0 -0.1026072847270635 -0.091564607474984475 0 -0.090253897395856389 -0.1054743324267111 0 -0.10052352848881881 -0.1170163349773173 0 -0.1131332439587663 -0.1037101012546746 0 -0.090253897395856389 -0.1054743324267111 0 -0.1131332439587663 -0.1037101012546746 0 -0.089065278422390246 -0.085937597501073076 0 -0.090253897395856389 -0.1054743324267111 0 -0.1026072847270635 -0.091564607474984475 0 -0.10052352848881881 -0.1170163349773173 0 -0.11661976606851519 -0.1240454583036263 0 -0.10418345553768441 -0.13034637584974451 0 -0.10052352848881881 -0.1170163349773173 0 -0.087072634849833408 -0.12683713960317061 0 -0.10418345553768441 -0.13034637584974451 0 -0.10052352848881881 -0.1170163349773173 0 -0.11661976606851519 -0.1240454583036263 0 -0.1131332439587663 -0.1037101012546746 0 -0.11661976606851519 -0.1240454583036263 0 -0.1131332439587663 -0.1037101012546746 0 -0.12590752264484101 -0.1109857378518852 0 -0.11661976606851519 -0.1240454583036263 0 -0.12590752264484101 -0.1109857378518852 0 -0.1298986060209405 -0.1237011132489107 0 -0.1131332439587663 -0.1037101012546746 0 -0.1170362336434552 -0.089148148952046521 0 -0.13394693767224369 -0.098171284041748103 0 -0.1131332439587663 -0.1037101012546746 0 -0.13601259052167619 -0.1019458700826381 0 -0.1131332439587663 -0.1037101012546746 0 -0.1170362336434552 -0.089148148952046521 0 -0.1026072847270635 -0.091564607474984475 0 -0.1170362336434552 -0.089148148952046521 0 -0.1035477702148494 -0.073552857240417005 0 -0.12919449552130699 -0.080661241751327176 0 -0.089065278422390246 -0.085937597501073076 0 -0.1026072847270635 -0.091564607474984475 0 -0.1035477702148494 -0.073552857240417005 0 -0.1170362336434552 -0.089148148952046521 0 -0.1026072847270635 -0.091564607474984475 0 -0.1035477702148494 -0.073552857240417005 0 -0.1035477702148494 -0.073552857240417005 0 -0.1227198108993641 -0.056805716960773543 0 -0.12919449552130699 -0.080661241751327176 0 -0.1035477702148494 -0.073552857240417005 0 -0.12919449552130699 -0.080661241751327176 0 -0.1035477702148494 -0.073552857240417005 0 -0.1227198108993641 -0.056805716960773543 0 -0.10902473026441011 -0.0477163141531005 0 -0.1227198108993641 -0.056805716960773543 0 -0.1162451262774204 -0.032950192170219987 0 -0.1227198108993641 -0.056805716960773543 0 -0.1162451262774204 -0.032950192170219987 0 -0.10902473026441011 -0.0477163141531005 0 -0.1227198108993641 -0.056805716960773543 0 -0.12472101829399471 -0.047888801967381843 0 -0.1162451262774204 -0.032950192170219987 0 -0.12472101829399471 -0.047888801967381843 0 -0.1162451262774204 -0.032950192170219987 0 -0.12783616252535929 -0.03594681401705737 0 -0.1162451262774204 -0.032950192170219987 0 -0.12783616252535929 -0.03594681401705737 0 -0.1162451262774204 -0.032950192170219987 0 -0.10902473026441011 -0.0477163141531005 0 -0.099509973949967814 -0.028623665878540559 0 -0.10902473026441011 -0.0477163141531005 0 -0.099509973949967814 -0.028623665878540559 0 -0.092724302999358396 -0.049830208184215942 0 -0.1035477702148494 -0.073552857240417005 0 -0.10902473026441011 -0.0477163141531005 0 -0.092724302999358396 -0.049830208184215942 0 -0.10953157839661951 -0.0082145923295214238 0 -0.12809481273787421 -0.015333632612877859 0 -0.1181713946700622 -0.0025812021860843089 0 -0.10953157839661951 -0.0082145923295214238 0 -0.12809481273787421 -0.015333632612877859 0 -0.1181713946700622 -0.0025812021860843089 0 -0.10953157839661951 -0.0082145923295214238 0 -0.1181713946700622 -0.0025812021860843089 0 -0.10953157839661951 -0.0082145923295214238 0 -0.10774104573326319 -0.0016174993693268509 0 -0.10953157839661951 -0.0082145923295214238 0 -0.1236208580194972 -0.023619552852933701 0 -0.12809481273787421 -0.015333632612877859 0 -0.1162451262774204 -0.032950192170219987 0 -0.10953157839661951 -0.0082145923295214238 0 -0.1040612273797577 -0.01893353981449496 0 -0.1162451262774204 -0.032950192170219987 0 -0.10953157839661951 -0.0082145923295214238 0 -0.1162451262774204 -0.032950192170219987 0 -0.10953157839661951 -0.0082145923295214238 0 -0.1236208580194972 -0.023619552852933701 0 -0.1162451262774204 -0.032950192170219987 0 -0.1236208580194972 -0.023619552852933701 0 -0.12783616252535929 -0.03594681401705737 0 -0.1162451262774204 -0.032950192170219987 0 -0.099509973949967814 -0.028623665878540559 0 -0.1040612273797577 -0.01893353981449496 0 -0.1040612273797577 -0.01893353981449496 0 -0.1059449413233531 -0.01006938846219687 0 -0.082824463671007598 -0.024248220216165791 0 -0.099509973949967814 -0.028623665878540559 0 -0.1040612273797577 -0.01893353981449496 0 -0.082824463671007598 -0.024248220216165791 0 -0.1162451262774204 -0.032950192170219987 0 -0.099509973949967814 -0.028623665878540559 0 -0.1059449413233531 -0.01006938846219687 0 -0.082824463671007598 -0.024248220216165791 0 -0.1059449413233531 -0.01006938846219687 0 -0.094265725298619388 -0.0023601048427703999 0 -0.082824463671007598 -0.024248220216165791 0 -0.1040612273797577 -0.01893353981449496 0 -0.1059449413233531 -0.01006938846219687 0 -0.10953157839661951 -0.0082145923295214238 0 -0.1040612273797577 -0.01893353981449496 0 -0.1059449413233531 -0.01006938846219687 0 -0.10953157839661951 -0.0082145923295214238 0 -0.1059449413233531 -0.01006938846219687 0 -0.1059449413233531 -0.01006938846219687 0 -0.1065796760029155 -0.0070825314145417338 0 -0.10953157839661951 -0.0082145923295214238 0 -0.1059449413233531 -0.01006938846219687 0 -0.1065796760029155 -0.0070825314145417338 0 -0.094265725298619388 -0.0023601048427703999 0 -0.1065796760029155 -0.0070825314145417338 0 -0.094265725298619388 -0.0023601048427703999 0 -0.1065796760029155 -0.0070825314145417338 0 -0.10774104573326319 -0.0016174993693268509 0 -0.1059449413233531 -0.01006938846219687 0 -0.094265725298619388 -0.0023601048427703999 0 -0.1065796760029155 -0.0070825314145417338 0 -0.10953157839661951 -0.0082145923295214238 0 -0.10774104573326319 -0.0016174993693268509 0 -0.1065796760029155 -0.0070825314145417338 0 -0.10774104573326319 -0.0016174993693268509 0 -0.10953157839661951 -0.0082145923295214238 0 -0.1065796760029155 -0.0070825314145417338 0 -0.10774104573326319 -0.0016174993693268509 0 -0.10953157839661951 -0.0082145923295214238 0 -0.1065796760029155 -0.0070825314145417338 0 -0.094265725298619388 -0.0023601048427703999 0 -0.082824463671007598 -0.024248220216165791 0 -0.094265725298619388 -0.0023601048427703999 0 -0.082824463671007598 -0.024248220216165791 0 -0.072264448240437248 -0.0097154507117446533 0 -0.094265725298619388 -0.0023601048427703999 0 -0.072264448240437248 -0.0097154507117446533 0 -0.069847239115426257 0.0070044371115614984 0 -0.099509973949967814 -0.028623665878540559 0 -0.082824463671007598 -0.024248220216165791 0 -0.099509973949967814 -0.028623665878540559 0 -0.082824463671007598 -0.024248220216165791 0 -0.087982552397319821 -0.034934024635976543 0 -0.082824463671007598 -0.024248220216165791 0 -0.087982552397319821 -0.034934024635976543 0 -0.078393357731076724 -0.032789469510969997 0 -0.082824463671007598 -0.024248220216165791 0 -0.078393357731076724 -0.032789469510969997 0 -0.082824463671007598 -0.024248220216165791 0 -0.058204296004274243 -0.017940349156367871 0 -0.082824463671007598 -0.024248220216165791 0 -0.078393357731076724 -0.032789469510969997 0 -0.063958592620239146 -0.035784253699659922 0 -0.082824463671007598 -0.024248220216165791 0 -0.063958592620239146 -0.035784253699659922 0 -0.06169994322788179 -0.027535852213576351 0 -0.082824463671007598 -0.024248220216165791 0 -0.063958592620239146 -0.035784253699659922 0 -0.082824463671007598 -0.024248220216165791 0 -0.058204296004274243 -0.017940349156367871 0 -0.06169994322788179 -0.027535852213576351 0 -0.082824463671007598 -0.024248220216165791 0 -0.072264448240437248 -0.0097154507117446533 0 -0.058204296004274243 -0.017940349156367871 0 -0.072264448240437248 -0.0097154507117446533 0 -0.05856250024346886 -0.0021767338190804729 0 -0.069847239115426257 0.0070044371115614984 0 -0.092724302999358396 -0.049830208184215942 0 -0.083660372910168618 -0.042906406367590383 0 -0.073853471888337935 -0.049108438006447437 0 -0.077901044908391628 -0.0664444727295075 0 -0.092724302999358396 -0.049830208184215942 0 -0.073853471888337935 -0.049108438006447437 0 -0.099509973949967814 -0.028623665878540559 0 -0.092724302999358396 -0.049830208184215942 0 -0.087982552397319821 -0.034934024635976543 0 -0.092724302999358396 -0.049830208184215942 0 -0.087982552397319821 -0.034934024635976543 0 -0.083660372910168618 -0.042906406367590383 0 -0.078393357731076724 -0.032789469510969997 0 -0.083660372910168618 -0.042906406367590383 0 -0.073853471888337935 -0.049108438006447437 0 -0.087982552397319821 -0.034934024635976543 0 -0.078393357731076724 -0.032789469510969997 0 -0.083660372910168618 -0.042906406367590383 0 -0.078393357731076724 -0.032789469510969997 0 -0.063958592620239146 -0.035784253699659922 0 -0.073853471888337935 -0.049108438006447437 0 -0.063958592620239146 -0.035784253699659922 0 -0.073853471888337935 -0.049108438006447437 0 -0.058305681289892122 -0.047659177509254143 0 -0.077901044908391628 -0.0664444727295075 0 -0.073853471888337935 -0.049108438006447437 0 -0.052254319601934177 -0.059336088218596948 0 -0.073853471888337935 -0.049108438006447437 0 -0.052254319601934177 -0.059336088218596948 0 -0.058305681289892122 -0.047659177509254143 0 -0.052254319601934177 -0.059336088218596948 0 -0.058305681289892122 -0.047659177509254143 0 -0.045158857043564017 -0.047298297711267277 0 -0.052254319601934177 -0.059336088218596948 0 -0.045158857043564017 -0.047298297711267277 0 -0.063958592620239146 -0.035784253699659922 0 -0.051734183432176853 -0.031554229558774231 0 -0.045158857043564017 -0.047298297711267277 0 -0.063958592620239146 -0.035784253699659922 0 -0.058305681289892122 -0.047659177509254143 0 -0.045158857043564017 -0.047298297711267277 0 -0.063958592620239146 -0.035784253699659922 0 -0.045158857043564017 -0.047298297711267277 0 -0.063958592620239146 -0.035784253699659922 0 -0.051734183432176853 -0.031554229558774231 0 -0.06169994322788179 -0.027535852213576351 0 -0.045158857043564017 -0.047298297711267277 0 -0.035417400470024077 -0.030771452209111799 0 -0.034338517373476561 -0.04397585579331624 0 -0.045158857043564017 -0.047298297711267277 0 -0.035417400470024077 -0.030771452209111799 0 -0.051734183432176853 -0.031554229558774231 0 -0.045158857043564017 -0.047298297711267277 0 -0.035417400470024077 -0.030771452209111799 0 -0.034338517373476561 -0.04397585579331624 0 -0.040644109348119378 -0.050063389989002803 0 -0.029445339785815532 -0.053014228530970833 0 -0.052254319601934177 -0.059336088218596948 0 -0.029445339785815532 -0.053014228530970833 0 -0.044332131970104112 -0.071740244059244451 0 -0.052254319601934177 -0.059336088218596948 0 -0.040644109348119378 -0.050063389989002803 0 -0.029445339785815532 -0.053014228530970833 0 -0.052254319601934177 -0.059336088218596948 0 -0.029445339785815532 -0.053014228530970833 0 -0.034338517373476561 -0.04397585579331624 0 -0.045158857043564017 -0.047298297711267277 0 -0.040644109348119378 -0.050063389989002803 0 -0.052254319601934177 -0.059336088218596948 0 -0.045158857043564017 -0.047298297711267277 0 -0.040644109348119378 -0.050063389989002803 0 -0.045158857043564017 -0.047298297711267277 0 -0.040644109348119378 -0.050063389989002803 0 -0.072264448240437248 -0.0097154507117446533 0 -0.056226922822999008 -0.01743373136101305 0 -0.058204296004274243 -0.017940349156367871 0 -0.05856250024346886 -0.0021767338190804729 0 -0.056226922822999008 -0.01743373136101305 0 -0.045167015119953358 0.0027835274451912741 0 -0.072264448240437248 -0.0097154507117446533 0 -0.05856250024346886 -0.0021767338190804729 0 -0.056226922822999008 -0.01743373136101305 0 -0.051734183432176853 -0.031554229558774231 0 -0.058204296004274243 -0.017940349156367871 0 -0.035417400470024077 -0.030771452209111799 0 -0.056226922822999008 -0.01743373136101305 0 -0.058204296004274243 -0.017940349156367871 0 -0.035417400470024077 -0.030771452209111799 0 -0.056226922822999008 -0.01743373136101305 0 -0.058204296004274243 -0.017940349156367871 0 -0.051734183432176853 -0.031554229558774231 0 -0.058204296004274243 -0.017940349156367871 0 -0.06169994322788179 -0.027535852213576351 0 -0.056226922822999008 -0.01743373136101305 0 -0.035417400470024077 -0.030771452209111799 0 -0.030309593418429009 -0.01265921027992147 0 -0.058204296004274243 -0.017940349156367871 0 -0.035417400470024077 -0.030771452209111799 0 -0.029679024023482121 -0.0105703231351681 0 -0.045167015119953358 0.0027835274451912741 0 -0.027745219728069748 0.0020412740592563781 0 -0.056226922822999008 -0.01743373136101305 0 -0.029679024023482121 -0.0105703231351681 0 -0.045167015119953358 0.0027835274451912741 0 -0.056226922822999008 -0.01743373136101305 0 -0.029679024023482121 -0.0105703231351681 0 -0.030309593418429009 -0.01265921027992147 0 -0.056226922822999008 -0.01743373136101305 0 -0.029679024023482121 -0.0105703231351681 0 -0.029679024023482121 -0.0105703231351681 0 -0.045167015119953358 0.0027835274451912741 0 -0.022401161908924491 -0.0086887829394291655 0 -0.012757401769296239 -0.0061955889141616319 0 -0.029679024023482121 -0.0105703231351681 0 -0.022401161908924491 -0.0086887829394291655 0 -0.027745219728069748 0.0020412740592563781 0 -0.023592537666321921 -0.010710008710843769 0 -0.028025158471180579 -0.011996297190026831 0 -0.023592537666321921 -0.010710008710843769 0 -0.029679024023482121 -0.0105703231351681 0 -0.022401161908924491 -0.0086887829394291655 0 -0.029679024023482121 -0.0105703231351681 0 -0.022401161908924491 -0.0086887829394291655 0 -0.023592537666321921 -0.010710008710843769 0 -0.029679024023482121 -0.0105703231351681 0 -0.028025158471180579 -0.011996297190026831 0 -0.029679024023482121 -0.0105703231351681 0 -0.028025158471180579 -0.011996297190026831 0 -0.030309593418429009 -0.01265921027992147 0 -0.028025158471180579 -0.011996297190026831 0 -0.025983982381679441 -0.01476720868286276 0 -0.029679024023482121 -0.0105703231351681 0 -0.030309593418429009 -0.01265921027992147 0 -0.028025158471180579 -0.011996297190026831 0 -0.030309593418429009 -0.01265921027992147 0 -0.028025158471180579 -0.011996297190026831 0 -0.023592537666321921 -0.010710008710843769 0 -0.025983982381679441 -0.01476720868286276 0 -0.023592537666321921 -0.010710008710843769 0 -0.028025158471180579 -0.011996297190026831 0 -0.025983982381679441 -0.01476720868286276 0 -0.028025158471180579 -0.011996297190026831 0 -0.025983982381679441 -0.01476720868286276 0 -0.025983982381679441 -0.01476720868286276 0 -0.01658614652940053 -0.0086768458041168207 0 -0.022401161908924491 -0.0086887829394291655 0 -0.01658614652940053 -0.0086768458041168207 0 -0.012757401769296239 -0.0061955889141616319 0 -0.023592537666321921 -0.010710008710843769 0 -0.025983982381679441 -0.01476720868286276 0 -0.01658614652940053 -0.0086768458041168207 0 -0.023592537666321921 -0.010710008710843769 0 -0.01658614652940053 -0.0086768458041168207 0 -0.023592537666321921 -0.010710008710843769 0 -0.022401161908924491 -0.0086887829394291655 0 -0.01658614652940053 -0.0086768458041168207 0 -0.023592537666321921 -0.010710008710843769 0 -0.022401161908924491 -0.0086887829394291655 0 -0.025983982381679441 -0.01476720868286276 0 -0.0088423661079532444 -0.028535830389459609 0 -0.025983982381679441 -0.01476720868286276 0 -0.01658614652940053 -0.0086768458041168207 0 -0.0088423661079532444 -0.028535830389459609 0 -0.035417400470024077 -0.030771452209111799 0 -0.030309593418429009 -0.01265921027992147 0 -0.025983982381679441 -0.01476720868286276 0 -0.035417400470024077 -0.030771452209111799 0 -0.025983982381679441 -0.01476720868286276 0 -0.023317039265061259 -0.02542795783094369 0 -0.035417400470024077 -0.030771452209111799 0 -0.025983982381679441 -0.01476720868286276 0 -0.025983982381679441 -0.01476720868286276 0 -0.023317039265061259 -0.02542795783094369 0 -0.0088423661079532444 -0.028535830389459609 0 -0.023317039265061259 -0.02542795783094369 0 -0.0088423661079532444 -0.028535830389459609 0 -0.021026880219859809 -0.03873191052622843 0 -0.01658614652940053 -0.0086768458041168207 0 -0.0088423661079532444 -0.028535830389459609 0 -0.0015524305269044619 -0.01547941763841521 0 -0.01658614652940053 -0.0086768458041168207 0 0.0069692068873070771 -0.0018413908764851859 0 -0.012757401769296239 -0.0061955889141616319 0 0.0088835792673592484 -0.00060076243150794517 0 -0.01658614652940053 -0.0086768458041168207 0 -0.0015524305269044619 -0.01547941763841521 0 0.0069692068873070771 -0.0018413908764851859 0 -0.01658614652940053 -0.0086768458041168207 0 -0.012757401769296239 -0.0061955889141616319 0 0.0069692068873070771 -0.0018413908764851859 0 -0.022401161908924491 -0.0086887829394291655 0 -0.012757401769296239 -0.0061955889141616319 0 -0.0094964712373844205 0.01320464001756186 0 -0.01658614652940053 -0.0086768458041168207 0 -0.012757401769296239 -0.0061955889141616319 0 -0.029445339785815532 -0.053014228530970833 0 -0.011946396347774609 -0.062471114810011399 0 -0.025832813359794021 -0.071654400343265423 0 -0.029445339785815532 -0.053014228530970833 0 -0.0066363599696963966 -0.046692368843346772 0 -0.011946396347774609 -0.062471114810011399 0 -0.029445339785815532 -0.053014228530970833 0 -0.0066363599696963966 -0.046692368843346772 0 -0.034338517373476561 -0.04397585579331624 0 -0.029445339785815532 -0.053014228530970833 0 -0.021026880219859809 -0.03873191052622843 0 -0.029445339785815532 -0.053014228530970833 0 -0.021026880219859809 -0.03873191052622843 0 -0.0066363599696963966 -0.046692368843346772 0 -0.034338517373476561 -0.04397585579331624 0 -0.035417400470024077 -0.030771452209111799 0 -0.021026880219859809 -0.03873191052622843 0 -0.035417400470024077 -0.030771452209111799 0 -0.023317039265061259 -0.02542795783094369 0 -0.021026880219859809 -0.03873191052622843 0 -0.035417400470024077 -0.030771452209111799 0 -0.021026880219859809 -0.03873191052622843 0 -0.0088423661079532444 -0.028535830389459609 0 -0.021026880219859809 -0.03873191052622843 0 -0.0066363599696963966 -0.046692368843346772 0 -0.021026880219859809 -0.03873191052622843 0 -0.0066363599696963966 -0.046692368843346772 0 -0.0088423661079532444 -0.028535830389459609 0 0.0076298349298838559 -0.042738273431864177 0 -0.0088423661079532444 -0.028535830389459609 0 -0.0066363599696963966 -0.046692368843346772 0 0.0076298349298838559 -0.042738273431864177 0 -0.011946396347774609 -0.062471114810011399 0 -0.003738735019576396 -0.076955575660818856 0 -0.025832813359794021 -0.071654400343265423 0 -0.003738735019576396 -0.076955575660818856 0 -0.025931236658078931 -0.090641150071034002 0 -0.012341985045279971 -0.1059258082292957 0 -0.003738735019576396 -0.076955575660818856 0 -0.025931236658078931 -0.090641150071034002 0 -0.025931236658078931 -0.090641150071034002 0 -0.025832813359794021 -0.071654400343265423 0 -0.041465445103178643 -0.082430632390984526 0 -0.003738735019576396 -0.076955575660818856 0 -0.025931236658078931 -0.090641150071034002 0 -0.025832813359794021 -0.071654400343265423 0 -0.029445339785815532 -0.053014228530970833 0 -0.025832813359794021 -0.071654400343265423 0 -0.044332131970104112 -0.071740244059244451 0 -0.025832813359794021 -0.071654400343265423 0 -0.044332131970104112 -0.071740244059244451 0 -0.041465445103178643 -0.082430632390984526 0 -0.025931236658078931 -0.090641150071034002 0 -0.041465445103178643 -0.082430632390984526 0 -0.048123738296581467 -0.10432672448124911 0 -0.044332131970104112 -0.071740244059244451 0 -0.041465445103178643 -0.082430632390984526 0 -0.053381993456013271 -0.085399686545127113 0 -0.063612880513889303 -0.078606428326520789 0 -0.044332131970104112 -0.071740244059244451 0 -0.053381993456013271 -0.085399686545127113 0 -0.071130041970241933 -0.091472042339504178 0 -0.053381993456013271 -0.085399686545127113 0 -0.056667841685396743 -0.09723280146171337 0 -0.041465445103178643 -0.082430632390984526 0 -0.056667841685396743 -0.09723280146171337 0 -0.041465445103178643 -0.082430632390984526 0 -0.053381993456013271 -0.085399686545127113 0 -0.056667841685396743 -0.09723280146171337 0 -0.063612880513889303 -0.078606428326520789 0 -0.052254319601934177 -0.059336088218596948 0 -0.044332131970104112 -0.071740244059244451 0 -0.063612880513889303 -0.078606428326520789 0 -0.052254319601934177 -0.059336088218596948 0 -0.059555572886176217 -0.12119370069373959 0 -0.051229303181485393 -0.12492759512377979 0 -0.03203851092251872 -0.1155502617843097 0 -0.070316239935084013 -0.11801229889146431 0 -0.048123738296581467 -0.10432672448124911 0 -0.059555572886176217 -0.12119370069373959 0 -0.048123738296581467 -0.10432672448124911 0 -0.046097434937678469 -0.11358197905264771 0 -0.070316239935084013 -0.11801229889146431 0 -0.059555572886176217 -0.12119370069373959 0 -0.048123738296581467 -0.10432672448124911 0 -0.067165087537747428 -0.1074536904539956 0 -0.056667841685396743 -0.09723280146171337 0 -0.048123738296581467 -0.10432672448124911 0 -0.067165087537747428 -0.1074536904539956 0 -0.071870238267614836 -0.1120349705324422 0 -0.048123738296581467 -0.10432672448124911 0 -0.067165087537747428 -0.1074536904539956 0 -0.056667841685396743 -0.09723280146171337 0 -0.041465445103178643 -0.082430632390984526 0 -0.056667841685396743 -0.09723280146171337 0 -0.048123738296581467 -0.10432672448124911 0 -0.048123738296581467 -0.10432672448124911 0 -0.038740376173310477 -0.1101964013294536 0 -0.046097434937678469 -0.11358197905264771 0 -0.025931236658078931 -0.090641150071034002 0 -0.048123738296581467 -0.10432672448124911 0 -0.048123738296581467 -0.10432672448124911 0 -0.034776781406294692 -0.10156491541184851 0 -0.038740376173310477 -0.1101964013294536 0 -0.025931236658078931 -0.090641150071034002 0 -0.048123738296581467 -0.10432672448124911 0 -0.034776781406294692 -0.10156491541184851 0 -0.034776781406294692 -0.10156491541184851 0 -0.028589132531901141 -0.11484283319877681 0 -0.034776781406294692 -0.10156491541184851 0 -0.038740376173310477 -0.1101964013294536 0 -0.028589132531901141 -0.11484283319877681 0 -0.038740376173310477 -0.1101964013294536 0 -0.03203851092251872 -0.1155502617843097 0 -0.046097434937678469 -0.11358197905264771 0 -0.059555572886176217 -0.12119370069373959 0 -0.03203851092251872 -0.1155502617843097 0 -0.046097434937678469 -0.11358197905264771 0 -0.051229303181485393 -0.12492759512377979 0 -0.03203851092251872 -0.1155502617843097 0 -0.051229303181485393 -0.12492759512377979 0 -0.03203851092251872 -0.1155502617843097 0 -0.038882626646357568 -0.1267187980499952 0 -0.059555572886176217 -0.12119370069373959 0 -0.03203851092251872 -0.1155502617843097 0 -0.038740376173310477 -0.1101964013294536 0 -0.03203851092251872 -0.1155502617843097 0 -0.028589132531901141 -0.11484283319877681 0 -0.03203851092251872 -0.1155502617843097 0 -0.03060733882190449 -0.1254284734729795 0 -0.038882626646357568 -0.1267187980499952 0 -0.028589132531901141 -0.11484283319877681 0 -0.012341985045279971 -0.1059258082292957 0 -0.028589132531901141 -0.11484283319877681 0 -0.012341985045279971 -0.1059258082292957 0 -0.011343022984344279 -0.121494962615063 0 -0.03203851092251872 -0.1155502617843097 0 -0.028589132531901141 -0.11484283319877681 0 -0.03060733882190449 -0.1254284734729795 0 -0.03203851092251872 -0.1155502617843097 0 -0.028589132531901141 -0.11484283319877681 0 -0.028589132531901141 -0.11484283319877681 0 -0.024958374929887141 -0.1033030666075966 0 -0.012341985045279971 -0.1059258082292957 0 -0.025931236658078931 -0.090641150071034002 0 -0.034776781406294692 -0.10156491541184851 0 -0.024958374929887141 -0.1033030666075966 0 -0.034776781406294692 -0.10156491541184851 0 -0.028589132531901141 -0.11484283319877681 0 -0.024958374929887141 -0.1033030666075966 0 -0.025931236658078931 -0.090641150071034002 0 -0.024958374929887141 -0.1033030666075966 0 -0.012341985045279971 -0.1059258082292957 0 -0.012341985045279971 -0.1059258082292957 0 0.0023565758045892659 -0.1186395936522277 0 0.0053907052104941768 -0.1009810954330336 0 -0.003738735019576396 -0.076955575660818856 0 -0.012341985045279971 -0.1059258082292957 0 0.0053907052104941768 -0.1009810954330336 0 -0.011343022984344279 -0.121494962615063 0 -0.001804328442181366 -0.1347350379457383 0 0.0023565758045892659 -0.1186395936522277 0 -0.012341985045279971 -0.1059258082292957 0 -0.011343022984344279 -0.121494962615063 0 0.0023565758045892659 -0.1186395936522277 0 -0.011343022984344279 -0.121494962615063 0 -0.001804328442181366 -0.1347350379457383 0 -0.017211387905949189 -0.13924069196435351 0 -0.017211387905949189 -0.13924069196435351 0 -0.03060733882190449 -0.1254284734729795 0 -0.034868695185662241 -0.13462333226626089 0 -0.028589132531901141 -0.11484283319877681 0 -0.017211387905949189 -0.13924069196435351 0 -0.028589132531901141 -0.11484283319877681 0 -0.017211387905949189 -0.13924069196435351 0 -0.03060733882190449 -0.1254284734729795 0 -0.028589132531901141 -0.11484283319877681 0 -0.011343022984344279 -0.121494962615063 0 -0.017211387905949189 -0.13924069196435351 0 -0.017211387905949189 -0.13924069196435351 0 -0.028329512189075239 -0.15386112968550131 0 -0.0058359843666079686 -0.16363964220332 0 -0.017211387905949189 -0.13924069196435351 0 -0.028329512189075239 -0.15386112968550131 0 -0.034868695185662241 -0.13462333226626089 0 -0.017211387905949189 -0.13924069196435351 0 -0.0041069235701332741 -0.14798228605538821 0 -0.0058359843666079686 -0.16363964220332 0 -0.0041069235701332741 -0.14798228605538821 0 -0.0058359843666079686 -0.16363964220332 0 6.6905421586910963e-06 -0.1563607066549132 0 -0.017211387905949189 -0.13924069196435351 0 -0.0058359843666079686 -0.16363964220332 0 -0.001804328442181366 -0.1347350379457383 0 -0.0041069235701332741 -0.14798228605538821 0 0.0037612551096544299 -0.14614698209637009 0 -0.001804328442181366 -0.1347350379457383 0 -0.017211387905949189 -0.13924069196435351 0 -0.0041069235701332741 -0.14798228605538821 0 -0.0041069235701332741 -0.14798228605538821 0 6.6905421586910963e-06 -0.1563607066549132 0 0.0037612551096544299 -0.14614698209637009 0 -0.01158413872701736 -0.1834983754348519 0 0.0055394191727325256 -0.18803859244228679 0 -0.0058359843666079686 -0.16363964220332 0 -0.01158413872701736 -0.1834983754348519 0 0.0055394191727325256 -0.18803859244228679 0 -0.0058359843666079686 -0.16363964220332 0 0.0055394191727325256 -0.18803859244228679 0 -0.0058359843666079686 -0.16363964220332 0 -0.01158413872701736 -0.1834983754348519 0 -0.021189430093390801 -0.16878292796437591 0 -0.01158413872701736 -0.1834983754348519 0 -0.028707696626766921 -0.17895815842741569 0 -0.01158413872701736 -0.1834983754348519 0 -0.028707696626766921 -0.17895815842741569 0 -0.021189430093390801 -0.16878292796437591 0 -0.028707696626766921 -0.17895815842741569 0 -0.021189430093390801 -0.16878292796437591 0 -0.036919946393779997 -0.17184951936689191 0 -0.01158413872701736 -0.1834983754348519 0 -0.028707696626766921 -0.17895815842741569 0 -0.025828408301783401 -0.18810953109581069 0 -0.028707696626766921 -0.17895815842741569 0 -0.033376301630125053 -0.1839185772986057 0 -0.025828408301783401 -0.18810953109581069 0 -0.028329512189075239 -0.15386112968550131 0 -0.021189430093390801 -0.16878292796437591 0 -0.036919946393779997 -0.17184951936689191 0 -0.028329512189075239 -0.15386112968550131 0 -0.0058359843666079686 -0.16363964220332 0 -0.021189430093390801 -0.16878292796437591 0 -0.028329512189075239 -0.15386112968550131 0 -0.036919946393779997 -0.17184951936689191 0 -0.04166924569580692 -0.1583641238782631 0 -0.036919946393779997 -0.17184951936689191 0 -0.04627241722360035 -0.16747350054189411 0 -0.04166924569580692 -0.1583641238782631 0 -0.036919946393779997 -0.17184951936689191 0 -0.04627241722360035 -0.16747350054189411 0 -0.046660757766253197 -0.1743229108150329 0 -0.04123258503242247 -0.1815926865302154 0 -0.055374950654209387 -0.1792864107275017 0 -0.032966650178885337 -0.19451916648935871 0 -0.055374950654209387 -0.1792864107275017 0 -0.032966650178885337 -0.19451916648935871 0 -0.033376301630125053 -0.1839185772986057 0 -0.04123258503242247 -0.1815926865302154 0 -0.032966650178885337 -0.19451916648935871 0 -0.028707696626766921 -0.17895815842741569 0 -0.036919946393779997 -0.17184951936689191 0 -0.033376301630125053 -0.1839185772986057 0 -0.036919946393779997 -0.17184951936689191 0 -0.033376301630125053 -0.1839185772986057 0 -0.04123258503242247 -0.1815926865302154 0 -0.036919946393779997 -0.17184951936689191 0 -0.046660757766253197 -0.1743229108150329 0 -0.04123258503242247 -0.1815926865302154 0 -0.052593103409656318 -0.18636328269203839 0 -0.055374950654209387 -0.1792864107275017 0 -0.072377515022540417 -0.16914130713512771 0 -0.052593103409656318 -0.18636328269203839 0 -0.055374950654209387 -0.1792864107275017 0 -0.032966650178885337 -0.19451916648935871 0 -0.052593103409656318 -0.18636328269203839 0 -0.072377515022540417 -0.16914130713512771 0 -0.046660757766253197 -0.1743229108150329 0 -0.04123258503242247 -0.1815926865302154 0 -0.055374950654209387 -0.1792864107275017 0 -0.046660757766253197 -0.1743229108150329 0 -0.055374950654209387 -0.1792864107275017 0 -0.052497314147135238 -0.16939052380803571 0 -0.052593103409656318 -0.18636328269203839 0 -0.065467098564672047 -0.18585752628250041 0 -0.068155362489593169 -0.1806080316055565 0 -0.052689123945326231 -0.16097187790233611 0 -0.059311770540663819 -0.15559705300886981 0 -0.049700678106798471 -0.15238166559067221 0 -0.04166924569580692 -0.1583641238782631 0 -0.052689123945326231 -0.16097187790233611 0 -0.049700678106798471 -0.15238166559067221 0 -0.04627241722360035 -0.16747350054189411 0 -0.04166924569580692 -0.1583641238782631 0 -0.052689123945326231 -0.16097187790233611 0 -0.04627241722360035 -0.16747350054189411 0 -0.052689123945326231 -0.16097187790233611 0 -0.052497314147135238 -0.16939052380803571 0 -0.04627241722360035 -0.16747350054189411 0 -0.046660757766253197 -0.1743229108150329 0 -0.052497314147135238 -0.16939052380803571 0 -0.055374950654209387 -0.1792864107275017 0 -0.052497314147135238 -0.16939052380803571 0 -0.061489321146287003 -0.1648979190534135 0 -0.052689123945326231 -0.16097187790233611 0 -0.052497314147135238 -0.16939052380803571 0 -0.061489321146287003 -0.1648979190534135 0 -0.052689123945326231 -0.16097187790233611 0 -0.061489321146287003 -0.1648979190534135 0 -0.059311770540663819 -0.15559705300886981 0 -0.059311770540663819 -0.15559705300886981 0 -0.049700678106798471 -0.15238166559067221 0 -0.055988215577149288 -0.14696600157906151 0 -0.059311770540663819 -0.15559705300886981 0 -0.055988215577149288 -0.14696600157906151 0 -0.065485814709743434 -0.14970315171485071 0 -0.049700678106798471 -0.15238166559067221 0 -0.055988215577149288 -0.14696600157906151 0 -0.044417712563709091 -0.14525094237086039 0 -0.055988215577149288 -0.14696600157906151 0 -0.054956065215279779 -0.13729385599830729 0 -0.044417712563709091 -0.14525094237086039 0 -0.055988215577149288 -0.14696600157906151 0 -0.054956065215279779 -0.13729385599830729 0 -0.063664080741342471 -0.14246426782249441 0 -0.055988215577149288 -0.14696600157906151 0 -0.063664080741342471 -0.14246426782249441 0 -0.065485814709743434 -0.14970315171485071 0 -0.059555572886176217 -0.12119370069373959 0 -0.051229303181485393 -0.12492759512377979 0 -0.070420095440452204 -0.13430492846324951 0 -0.051229303181485393 -0.12492759512377979 0 -0.054956065215279779 -0.13729385599830729 0 -0.070420095440452204 -0.13430492846324951 0 -0.051229303181485393 -0.12492759512377979 0 -0.070420095440452204 -0.13430492846324951 0 -0.051229303181485393 -0.12492759512377979 0 -0.054956065215279779 -0.13729385599830729 0 -0.045567322704413077 -0.1333340670751551 0 -0.054956065215279779 -0.13729385599830729 0 -0.045567322704413077 -0.1333340670751551 0 -0.044417712563709091 -0.14525094237086039 0 -0.045567322704413077 -0.1333340670751551 0 -0.034868695185662241 -0.13462333226626089 0 -0.044417712563709091 -0.14525094237086039 0 -0.051229303181485393 -0.12492759512377979 0 -0.045567322704413077 -0.1333340670751551 0 -0.038882626646357568 -0.1267187980499952 0 -0.045567322704413077 -0.1333340670751551 0 -0.038882626646357568 -0.1267187980499952 0 -0.034868695185662241 -0.13462333226626089 0 -0.03060733882190449 -0.1254284734729795 0 -0.038882626646357568 -0.1267187980499952 0 -0.034868695185662241 -0.13462333226626089 0 -0.028329512189075239 -0.15386112968550131 0 -0.04166924569580692 -0.1583641238782631 0 -0.044417712563709091 -0.14525094237086039 0 -0.028329512189075239 -0.15386112968550131 0 -0.034868695185662241 -0.13462333226626089 0 -0.044417712563709091 -0.14525094237086039 0 -0.04166924569580692 -0.1583641238782631 0 -0.049700678106798471 -0.15238166559067221 0 -0.044417712563709091 -0.14525094237086039 0 -0.021548198161563 -0.25049975846806211 0 -0.012072141375681449 -0.22574165892186451 0 -0.028264776605698341 -0.22876156609611581 0 -0.021548198161563 -0.25049975846806211 0 -0.001184802634769165 -0.24082336986081099 0 -0.012072141375681449 -0.22574165892186451 0 -0.001184802634769165 -0.24082336986081099 0 -0.012072141375681449 -0.22574165892186451 0 0.0027647694815844878 -0.21569101881474459 0 -0.028264776605698341 -0.22876156609611581 0 -0.023673757803855978 -0.2155784166820742 0 -0.033177699059120908 -0.2129837334008759 0 -0.012072141375681449 -0.22574165892186451 0 -0.028264776605698341 -0.22876156609611581 0 -0.023673757803855978 -0.2155784166820742 0 -0.023673757803855978 -0.2155784166820742 0 -0.01055834970356118 -0.20975192225121569 0 -0.032808691796772232 -0.2035852582489491 0 -0.023673757803855978 -0.2155784166820742 0 -0.032808691796772232 -0.2035852582489491 0 -0.033177699059120908 -0.2129837334008759 0 -0.012072141375681449 -0.22574165892186451 0 -0.023673757803855978 -0.2155784166820742 0 -0.01055834970356118 -0.20975192225121569 0 -0.01055834970356118 -0.20975192225121569 0 -0.0053809183871278742 -0.1946638549862337 0 0.0027647694815844878 -0.21569101881474459 0 -0.012072141375681449 -0.22574165892186451 0 -0.01055834970356118 -0.20975192225121569 0 0.0027647694815844878 -0.21569101881474459 0 -0.01158413872701736 -0.1834983754348519 0 -0.0053809183871278742 -0.1946638549862337 0 0.0055394191727325256 -0.18803859244228679 0 -0.01055834970356118 -0.20975192225121569 0 -0.0053809183871278742 -0.1946638549862337 0 -0.017263693059675039 -0.19410857005149409 0 -0.01158413872701736 -0.1834983754348519 0 -0.0053809183871278742 -0.1946638549862337 0 -0.017263693059675039 -0.19410857005149409 0 -0.01055834970356118 -0.20975192225121569 0 -0.017263693059675039 -0.19410857005149409 0 -0.032966650178885337 -0.19451916648935871 0 -0.01158413872701736 -0.1834983754348519 0 -0.017263693059675039 -0.19410857005149409 0 -0.025828408301783401 -0.18810953109581069 0 -0.017263693059675039 -0.19410857005149409 0 -0.025828408301783401 -0.18810953109581069 0 -0.032966650178885337 -0.19451916648935871 0 -0.01055834970356118 -0.20975192225121569 0 -0.032966650178885337 -0.19451916648935871 0 -0.032808691796772232 -0.2035852582489491 0 -0.01055834970356118 -0.20975192225121569 0 -0.032966650178885337 -0.19451916648935871 0 -0.033376301630125053 -0.1839185772986057 0 -0.025828408301783401 -0.18810953109581069 0 -0.032966650178885337 -0.19451916648935871 0 -0.052593103409656318 -0.18636328269203839 0 -0.048441123013171557 -0.20196364527173161 0 -0.032808691796772232 -0.2035852582489491 0 -0.052593103409656318 -0.18636328269203839 0 -0.032966650178885337 -0.19451916648935871 0 -0.032808691796772232 -0.2035852582489491 0 -0.052593103409656318 -0.18636328269203839 0 -0.032808691796772232 -0.2035852582489491 0 -0.052593103409656318 -0.18636328269203839 0 -0.054705279957844029 -0.19545454717040539 0 -0.048441123013171557 -0.20196364527173161 0 -0.052593103409656318 -0.18636328269203839 0 -0.060963227944974177 -0.19136019370069021 0 -0.054705279957844029 -0.19545454717040539 0 -0.052593103409656318 -0.18636328269203839 0 -0.060963227944974177 -0.19136019370069021 0 -0.065467098564672047 -0.18585752628250041 0 -0.060963227944974177 -0.19136019370069021 0 -0.059882152769408468 -0.19755380995830479 0 -0.054705279957844029 -0.19545454717040539 0 -0.059882152769408468 -0.19755380995830479 0 -0.058696748940471118 -0.20540462422644459 0 -0.065163354234344564 -0.19799587473567881 0 -0.059882152769408468 -0.19755380995830479 0 -0.054705279957844029 -0.19545454717040539 0 -0.058696748940471118 -0.20540462422644459 0 -0.060963227944974177 -0.19136019370069021 0 -0.059882152769408468 -0.19755380995830479 0 -0.065163354234344564 -0.19799587473567881 0 -0.054705279957844029 -0.19545454717040539 0 -0.048441123013171557 -0.20196364527173161 0 -0.058696748940471118 -0.20540462422644459 0 -0.048441123013171557 -0.20196364527173161 0 -0.058696748940471118 -0.20540462422644459 0 -0.050742549094809283 -0.21251797956532151 0 -0.058696748940471118 -0.20540462422644459 0 -0.050742549094809283 -0.21251797956532151 0 -0.058581273131519167 -0.22305820714048979 0 -0.048441123013171557 -0.20196364527173161 0 -0.050742549094809283 -0.21251797956532151 0 -0.041537437272207947 -0.20994286117432681 0 -0.050742549094809283 -0.21251797956532151 0 -0.042006885091529639 -0.21820295484733879 0 -0.058581273131519167 -0.22305820714048979 0 -0.050742549094809283 -0.21251797956532151 0 -0.042006885091529639 -0.21820295484733879 0 -0.041537437272207947 -0.20994286117432681 0 -0.048441123013171557 -0.20196364527173161 0 -0.041537437272207947 -0.20994286117432681 0 -0.032808691796772232 -0.2035852582489491 0 -0.041537437272207947 -0.20994286117432681 0 -0.032808691796772232 -0.2035852582489491 0 -0.033177699059120908 -0.2129837334008759 0 -0.042006885091529639 -0.21820295484733879 0 -0.041537437272207947 -0.20994286117432681 0 -0.033177699059120908 -0.2129837334008759 0 -0.028264776605698341 -0.22876156609611581 0 -0.042006885091529639 -0.21820295484733879 0 -0.044208004690038202 -0.24871464985574071 0 -0.028264776605698341 -0.22876156609611581 0 -0.042006885091529639 -0.21820295484733879 0 -0.033177699059120908 -0.2129837334008759 0 -0.042006885091529639 -0.21820295484733879 0 -0.058581273131519167 -0.22305820714048979 0 -0.044208004690038202 -0.24871464985574071 0 -0.069668068363801197 -0.2571086491566078 0 -0.044208004690038202 -0.24871464985574071 0 -0.073174300056617181 -0.24002370408430451 0 -0.058581273131519167 -0.22305820714048979 0 -0.044208004690038202 -0.24871464985574071 0 -0.073174300056617181 -0.24002370408430451 0 -0.058581273131519167 -0.22305820714048979 0 -0.044208004690038202 -0.24871464985574071 0 -0.021548198161563 -0.25049975846806211 0 -0.028264776605698341 -0.22876156609611581 0 -0.044208004690038202 -0.24871464985574071 0 -0.089268083844569759 -0.25639762875054062 0 -0.073174300056617181 -0.24002370408430451 0 -0.094033548664357536 -0.23635463813743171 0 -0.058581273131519167 -0.22305820714048979 0 -0.073174300056617181 -0.24002370408430451 0 -0.080537094153123823 -0.2222354112019691 0 -0.058581273131519167 -0.22305820714048979 0 -0.080537094153123823 -0.2222354112019691 0 -0.074230908420800046 -0.212758151073241 0 -0.073174300056617181 -0.24002370408430451 0 -0.080537094153123823 -0.2222354112019691 0 -0.094033548664357536 -0.23635463813743171 0 -0.080537094153123823 -0.2222354112019691 0 -0.10133593137718309 -0.214771066935348 0 -0.094033548664357536 -0.23635463813743171 0 -0.080537094153123823 -0.2222354112019691 0 -0.084850724825556695 -0.20833722152526571 0 -0.10133593137718309 -0.214771066935348 0 -0.080537094153123823 -0.2222354112019691 0 -0.084850724825556695 -0.20833722152526571 0 -0.074230908420800046 -0.212758151073241 0 -0.058696748940471118 -0.20540462422644459 0 -0.058581273131519167 -0.22305820714048979 0 -0.072954541573000464 -0.19740176442523941 0 -0.058581273131519167 -0.22305820714048979 0 -0.074230908420800046 -0.212758151073241 0 -0.072954541573000464 -0.19740176442523941 0 -0.058581273131519167 -0.22305820714048979 0 -0.072954541573000464 -0.19740176442523941 0 -0.084850724825556695 -0.20833722152526571 0 -0.074230908420800046 -0.212758151073241 0 -0.072954541573000464 -0.19740176442523941 0 -0.058696748940471118 -0.20540462422644459 0 -0.072954541573000464 -0.19740176442523941 0 -0.065163354234344564 -0.19799587473567881 0 -0.072954541573000464 -0.19740176442523941 0 -0.065163354234344564 -0.19799587473567881 0 -0.072954541573000464 -0.19740176442523941 0 -0.065163354234344564 -0.19799587473567881 0 -0.067762627675316822 -0.1916689778004943 0 -0.060963227944974177 -0.19136019370069021 0 -0.067762627675316822 -0.1916689778004943 0 -0.065467098564672047 -0.18585752628250041 0 -0.060963227944974177 -0.19136019370069021 0 -0.065163354234344564 -0.19799587473567881 0 -0.067762627675316822 -0.1916689778004943 0 -0.072954541573000464 -0.19740176442523941 0 -0.067762627675316822 -0.1916689778004943 0 -0.072893333526855231 -0.1839852212000376 0 -0.072954541573000464 -0.19740176442523941 0 -0.09748456348338147 -0.19553124863621071 0 -0.072954541573000464 -0.19740176442523941 0 -0.09748456348338147 -0.19553124863621071 0 -0.086946191467044687 -0.17242651502668169 0 -0.084850724825556695 -0.20833722152526571 0 -0.072954541573000464 -0.19740176442523941 0 -0.09748456348338147 -0.19553124863621071 0 -0.09748456348338147 -0.19553124863621071 0 -0.1220145853937623 -0.19366073284718119 0 -0.10133593137718309 -0.214771066935348 0 -0.09748456348338147 -0.19553124863621071 0 -0.1220145853937623 -0.19366073284718119 0 -0.1029946705040054 -0.18051921070512361 0 -0.09748456348338147 -0.19553124863621071 0 -0.1220145853937623 -0.19366073284718119 0 -0.1220145853937623 -0.19366073284718119 0 -0.10133593137718309 -0.214771066935348 0 -0.1251322260482142 -0.2185160465376163 0 -0.084850724825556695 -0.20833722152526571 0 -0.09748456348338147 -0.19553124863621071 0 -0.10133593137718309 -0.214771066935348 0 -0.10133593137718309 -0.214771066935348 0 -0.1112133546703198 -0.23054271782316241 0 -0.094033548664357536 -0.23635463813743171 0 -0.10133593137718309 -0.214771066935348 0 -0.1112133546703198 -0.23054271782316241 0 -0.1251322260482142 -0.2185160465376163 0 -0.1112133546703198 -0.23054271782316241 0 -0.13059131169371119 -0.2378123913827607 0 -0.1251322260482142 -0.2185160465376163 0 -0.1112133546703198 -0.23054271782316241 0 -0.1137616908572583 -0.24976598419189949 0 -0.13059131169371119 -0.2378123913827607 0 -0.089268083844569759 -0.25639762875054062 0 -0.1137616908572583 -0.24976598419189949 0 -0.094033548664357536 -0.23635463813743171 0 -0.1112133546703198 -0.23054271782316241 0 -0.1137616908572583 -0.24976598419189949 0 -0.094033548664357536 -0.23635463813743171 0 -0.089610887699419023 -0.1436822618027192 0 -0.070420095440452204 -0.13430492846324951 0 -0.074683869593370242 -0.14584325542037399 0 -0.084143280613515004 -0.14930271094234379 0 -0.089610887699419023 -0.1436822618027192 0 -0.074683869593370242 -0.14584325542037399 0 -0.07908176346912596 -0.15422573112068511 0 -0.084143280613515004 -0.14930271094234379 0 -0.092161926635424357 -0.15191933157821719 0 -0.084143280613515004 -0.14930271094234379 0 -0.074683869593370242 -0.14584325542037399 0 -0.076879542975418894 -0.1505980655582799 0 -0.07908176346912596 -0.15422573112068511 0 -0.084143280613515004 -0.14930271094234379 0 -0.076879542975418894 -0.1505980655582799 0 -0.084143280613515004 -0.14930271094234379 0 -0.092161926635424357 -0.15191933157821719 0 -0.089610887699419023 -0.1436822618027192 0 -0.092161926635424357 -0.15191933157821719 0 -0.089610887699419023 -0.1436822618027192 0 -0.095164207060058459 -0.14238806868040521 0 -0.089610887699419023 -0.1436822618027192 0 -0.070420095440452204 -0.13430492846324951 0 -0.089610887699419023 -0.1436822618027192 0 -0.087072634849833408 -0.12683713960317061 0 -0.070420095440452204 -0.13430492846324951 0 -0.089610887699419023 -0.1436822618027192 0 -0.087072634849833408 -0.12683713960317061 0 -0.095164207060058459 -0.14238806868040521 0 -0.059555572886176217 -0.12119370069373959 0 -0.087072634849833408 -0.12683713960317061 0 -0.070420095440452204 -0.13430492846324951 0 -0.054956065215279779 -0.13729385599830729 0 -0.070420095440452204 -0.13430492846324951 0 -0.063664080741342471 -0.14246426782249441 0 -0.063664080741342471 -0.14246426782249441 0 -0.074683869593370242 -0.14584325542037399 0 -0.065485814709743434 -0.14970315171485071 0 -0.070420095440452204 -0.13430492846324951 0 -0.063664080741342471 -0.14246426782249441 0 -0.074683869593370242 -0.14584325542037399 0 -0.07908176346912596 -0.15422573112068511 0 -0.072783466162184229 -0.15165579257242501 0 -0.069332366072522134 -0.15773829500925859 0 -0.074683869593370242 -0.14584325542037399 0 -0.072783466162184229 -0.15165579257242501 0 -0.065485814709743434 -0.14970315171485071 0 -0.07908176346912596 -0.15422573112068511 0 -0.076879542975418894 -0.1505980655582799 0 -0.072783466162184229 -0.15165579257242501 0 -0.074683869593370242 -0.14584325542037399 0 -0.076879542975418894 -0.1505980655582799 0 -0.072783466162184229 -0.15165579257242501 0 -0.059311770540663819 -0.15559705300886981 0 -0.065485814709743434 -0.14970315171485071 0 -0.069332366072522134 -0.15773829500925859 0 -0.072783466162184229 -0.15165579257242501 0 -0.065485814709743434 -0.14970315171485071 0 -0.069332366072522134 -0.15773829500925859 0 -0.055374950654209387 -0.1792864107275017 0 -0.077972455973253502 -0.16427101135980171 0 -0.055374950654209387 -0.1792864107275017 0 -0.072377515022540417 -0.16914130713512771 0 -0.077972455973253502 -0.16427101135980171 0 -0.055374950654209387 -0.1792864107275017 0 -0.061489321146287003 -0.1648979190534135 0 -0.077972455973253502 -0.16427101135980171 0 -0.061489321146287003 -0.1648979190534135 0 -0.069332366072522134 -0.15773829500925859 0 -0.077972455973253502 -0.16427101135980171 0 -0.061489321146287003 -0.1648979190534135 0 -0.059311770540663819 -0.15559705300886981 0 -0.069332366072522134 -0.15773829500925859 0 -0.072377515022540417 -0.16914130713512771 0 -0.077972455973253502 -0.16427101135980171 0 -0.07908176346912596 -0.15422573112068511 0 -0.069332366072522134 -0.15773829500925859 0 -0.077972455973253502 -0.16427101135980171 0 -0.072954541573000464 -0.19740176442523941 0 -0.072893333526855231 -0.1839852212000376 0 -0.086946191467044687 -0.17242651502668169 0 -0.052593103409656318 -0.18636328269203839 0 -0.072377515022540417 -0.16914130713512771 0 -0.068155362489593169 -0.1806080316055565 0 -0.067762627675316822 -0.1916689778004943 0 -0.065467098564672047 -0.18585752628250041 0 -0.072893333526855231 -0.1839852212000376 0 -0.065467098564672047 -0.18585752628250041 0 -0.068155362489593169 -0.1806080316055565 0 -0.072893333526855231 -0.1839852212000376 0 -0.072377515022540417 -0.16914130713512771 0 -0.068155362489593169 -0.1806080316055565 0 -0.076074179391504154 -0.1759485120597534 0 -0.068155362489593169 -0.1806080316055565 0 -0.076074179391504154 -0.1759485120597534 0 -0.072893333526855231 -0.1839852212000376 0 -0.072954541573000464 -0.19740176442523941 0 -0.086946191467044687 -0.17242651502668169 0 -0.076074179391504154 -0.1759485120597534 0 -0.072893333526855231 -0.1839852212000376 0 -0.086946191467044687 -0.17242651502668169 0 -0.072377515022540417 -0.16914130713512771 0 -0.076074179391504154 -0.1759485120597534 0 -0.086946191467044687 -0.17242651502668169 0 -0.092161926635424357 -0.15191933157821719 0 -0.077972455973253502 -0.16427101135980171 0 -0.086946191467044687 -0.17242651502668169 0 -0.092161926635424357 -0.15191933157821719 0 -0.086946191467044687 -0.17242651502668169 0 -0.1009378413610893 -0.14745126562812441 0 -0.092161926635424357 -0.15191933157821719 0 -0.077972455973253502 -0.16427101135980171 0 -0.07908176346912596 -0.15422573112068511 0 -0.092161926635424357 -0.15191933157821719 0 -0.077972455973253502 -0.16427101135980171 0 -0.072377515022540417 -0.16914130713512771 0 -0.077972455973253502 -0.16427101135980171 0 -0.086946191467044687 -0.17242651502668169 0 -0.086946191467044687 -0.17242651502668169 0 -0.1050133288701471 -0.16707434918333561 0 -0.1009378413610893 -0.14745126562812441 0 -0.1050133288701471 -0.16707434918333561 0 -0.119839642801364 -0.15874150343273979 0 -0.1009378413610893 -0.14745126562812441 0 -0.086946191467044687 -0.17242651502668169 0 -0.1009378413610893 -0.14745126562812441 0 -0.09748456348338147 -0.19553124863621071 0 -0.086946191467044687 -0.17242651502668169 0 -0.1029946705040054 -0.18051921070512361 0 -0.086946191467044687 -0.17242651502668169 0 -0.1050133288701471 -0.16707434918333561 0 -0.1029946705040054 -0.18051921070512361 0 -0.1050133288701471 -0.16707434918333561 0 -0.1029946705040054 -0.18051921070512361 0 -0.11666897920673799 -0.17489650876434201 0 -0.1220145853937623 -0.19366073284718119 0 -0.11666897920673799 -0.17489650876434201 0 -0.13622314677712949 -0.17469368534752419 0 -0.1220145853937623 -0.19366073284718119 0 -0.1029946705040054 -0.18051921070512361 0 -0.11666897920673799 -0.17489650876434201 0 -0.11666897920673799 -0.17489650876434201 0 -0.119839642801364 -0.15874150343273979 0 -0.13622314677712949 -0.17469368534752419 0 -0.1050133288701471 -0.16707434918333561 0 -0.11666897920673799 -0.17489650876434201 0 -0.119839642801364 -0.15874150343273979 0 -0.119839642801364 -0.15874150343273979 0 -0.1216605672171016 -0.14430801860382261 0 -0.1034561388255985 -0.14278932151795551 0 -0.1216605672171016 -0.14430801860382261 0 -0.1034561388255985 -0.14278932151795551 0 -0.1110055287314925 -0.1366439371915619 0 -0.119839642801364 -0.15874150343273979 0 -0.1034561388255985 -0.14278932151795551 0 -0.119839642801364 -0.15874150343273979 0 -0.1034561388255985 -0.14278932151795551 0 -0.1009378413610893 -0.14745126562812441 0 -0.1034561388255985 -0.14278932151795551 0 -0.1009378413610893 -0.14745126562812441 0 -0.095164207060058459 -0.14238806868040521 0 -0.092161926635424357 -0.15191933157821719 0 -0.1009378413610893 -0.14745126562812441 0 -0.095164207060058459 -0.14238806868040521 0 -0.087072634849833408 -0.12683713960317061 0 -0.10418345553768441 -0.13034637584974451 0 -0.087072634849833408 -0.12683713960317061 0 -0.1034561388255985 -0.14278932151795551 0 -0.10418345553768441 -0.13034637584974451 0 -0.087072634849833408 -0.12683713960317061 0 -0.1034561388255985 -0.14278932151795551 0 -0.087072634849833408 -0.12683713960317061 0 -0.1034561388255985 -0.14278932151795551 0 -0.095164207060058459 -0.14238806868040521 0 -0.1034561388255985 -0.14278932151795551 0 -0.10418345553768441 -0.13034637584974451 0 -0.1110055287314925 -0.1366439371915619 0 -0.11661976606851519 -0.1240454583036263 0 -0.1110055287314925 -0.1366439371915619 0 -0.1190869875612071 -0.136036503815296 0 -0.11661976606851519 -0.1240454583036263 0 -0.10418345553768441 -0.13034637584974451 0 -0.1110055287314925 -0.1366439371915619 0 -0.1216605672171016 -0.14430801860382261 0 -0.1110055287314925 -0.1366439371915619 0 -0.1190869875612071 -0.136036503815296 0 -0.1216605672171016 -0.14430801860382261 0 -0.1190869875612071 -0.136036503815296 0 -0.12654188773702779 -0.1340954270725104 0 -0.11661976606851519 -0.1240454583036263 0 -0.1190869875612071 -0.136036503815296 0 -0.12654188773702779 -0.1340954270725104 0 -0.11661976606851519 -0.1240454583036263 0 -0.12654188773702779 -0.1340954270725104 0 -0.1298986060209405 -0.1237011132489107 0 -0.12654188773702779 -0.1340954270725104 0 -0.13630119203266861 -0.13297148362941291 0 -0.1298986060209405 -0.1237011132489107 0 -0.13630119203266861 -0.13297148362941291 0 -0.14328632757389739 -0.13978992235602719 0 -0.1356842075217341 -0.14350998483399399 0 -0.12654188773702779 -0.1340954270725104 0 -0.13630119203266861 -0.13297148362941291 0 -0.1356842075217341 -0.14350998483399399 0 -0.13630119203266861 -0.13297148362941291 0 -0.1298986060209405 -0.1237011132489107 0 -0.13844564922117719 -0.1249604922241158 0 -0.13630119203266861 -0.13297148362941291 0 -0.1449169639230363 -0.13016577302765539 0 -0.13844564922117719 -0.1249604922241158 0 -0.1449169639230363 -0.13016577302765539 0 -0.13844564922117719 -0.1249604922241158 0 -0.144683673721207 -0.1209593999028034 0 -0.1449169639230363 -0.13016577302765539 0 -0.15174220686268181 -0.12569862992945979 0 -0.144683673721207 -0.1209593999028034 0 -0.13630119203266861 -0.13297148362941291 0 -0.1449169639230363 -0.13016577302765539 0 -0.14328632757389739 -0.13978992235602719 0 -0.1449169639230363 -0.13016577302765539 0 -0.14328632757389739 -0.13978992235602719 0 -0.1580799644479402 -0.1368218535484238 0 -0.1449169639230363 -0.13016577302765539 0 -0.15174220686268181 -0.12569862992945979 0 -0.1580799644479402 -0.1368218535484238 0 -0.14830778064508809 -0.14816059940461521 0 -0.1545532910416112 -0.167830802943916 0 -0.16370130961785681 -0.1507644738268647 0 -0.14328632757389739 -0.13978992235602719 0 -0.14830778064508809 -0.14816059940461521 0 -0.1580799644479402 -0.1368218535484238 0 -0.14328632757389739 -0.13978992235602719 0 -0.14830778064508809 -0.14816059940461521 0 -0.1356842075217341 -0.14350998483399399 0 -0.14830778064508809 -0.14816059940461521 0 -0.1356842075217341 -0.14350998483399399 0 -0.1354808634327419 -0.15723702175987431 0 -0.119839642801364 -0.15874150343273979 0 -0.1216605672171016 -0.14430801860382261 0 -0.1354808634327419 -0.15723702175987431 0 -0.1216605672171016 -0.14430801860382261 0 -0.1356842075217341 -0.14350998483399399 0 -0.1354808634327419 -0.15723702175987431 0 -0.1216605672171016 -0.14430801860382261 0 -0.12654188773702779 -0.1340954270725104 0 -0.1356842075217341 -0.14350998483399399 0 -0.119839642801364 -0.15874150343273979 0 -0.1354808634327419 -0.15723702175987431 0 -0.13622314677712949 -0.17469368534752419 0 -0.119839642801364 -0.15874150343273979 0 -0.13622314677712949 -0.17469368534752419 0 -0.1220145853937623 -0.19366073284718119 0 -0.13622314677712949 -0.17469368534752419 0 -0.14654460730414329 -0.19179021705815169 0 -0.13622314677712949 -0.17469368534752419 0 -0.1545532910416112 -0.167830802943916 0 -0.14654460730414329 -0.19179021705815169 0 -0.1545532910416112 -0.167830802943916 0 -0.1644362424712634 -0.18466481606848831 0 -0.14654460730414329 -0.19179021705815169 0 -0.1354808634327419 -0.15723702175987431 0 -0.13622314677712949 -0.17469368534752419 0 -0.1545532910416112 -0.167830802943916 0 -0.14830778064508809 -0.14816059940461521 0 -0.1354808634327419 -0.15723702175987431 0 -0.1545532910416112 -0.167830802943916 0 -0.1545532910416112 -0.167830802943916 0 -0.1644362424712634 -0.18466481606848831 0 -0.17888082432528971 -0.16307114321901039 0 -0.1545532910416112 -0.167830802943916 0 -0.17888082432528971 -0.16307114321901039 0 -0.16370130961785681 -0.1507644738268647 0 -0.17888082432528971 -0.16307114321901039 0 -0.18088614783109461 -0.19255567181267369 0 -0.1644362424712634 -0.18466481606848831 0 -0.17888082432528971 -0.16307114321901039 0 -0.18088614783109461 -0.19255567181267369 0 -0.17888082432528971 -0.16307114321901039 0 -0.18088614783109461 -0.19255567181267369 0 -0.20090512476680489 -0.18744575443933789 0 -0.17888082432528971 -0.16307114321901039 0 -0.1768755008194848 -0.13358661462534721 0 -0.20055435171715161 -0.14610292366113009 0 -0.17888082432528971 -0.16307114321901039 0 -0.1768755008194848 -0.13358661462534721 0 -0.16370130961785681 -0.1507644738268647 0 -0.17888082432528971 -0.16307114321901039 0 -0.1768755008194848 -0.13358661462534721 0 -0.1768755008194848 -0.13358661462534721 0 -0.1580799644479402 -0.1368218535484238 0 -0.16370130961785681 -0.1507644738268647 0 -0.1768755008194848 -0.13358661462534721 0 -0.1661556815248067 -0.12705511007977971 0 -0.1580799644479402 -0.1368218535484238 0 -0.15174220686268181 -0.12569862992945979 0 -0.1661556815248067 -0.12705511007977971 0 -0.1580799644479402 -0.1368218535484238 0 -0.14830778064508809 -0.14816059940461521 0 -0.1580799644479402 -0.1368218535484238 0 -0.16370130961785681 -0.1507644738268647 0 -0.15204738001177731 -0.24904394321401671 0 -0.14616217116780289 -0.23866269939340251 0 -0.15996330938728301 -0.23828022383481759 0 -0.15204738001177731 -0.24904394321401671 0 -0.14616217116780289 -0.23866269939340251 0 -0.14105160732175329 -0.24825119985280841 0 -0.13112976059597201 -0.25730786893732938 0 -0.1137616908572583 -0.24976598419189949 0 -0.13059131169371119 -0.2378123913827607 0 -0.13112976059597201 -0.25730786893732938 0 -0.14105160732175329 -0.24825119985280841 0 -0.13059131169371119 -0.2378123913827607 0 -0.14616217116780289 -0.23866269939340251 0 -0.14105160732175329 -0.24825119985280841 0 -0.13059131169371119 -0.2378123913827607 0 -0.14616217116780289 -0.23866269939340251 0 -0.13059131169371119 -0.2378123913827607 0 -0.14467946132968049 -0.22592360096266251 0 -0.13059131169371119 -0.2378123913827607 0 -0.14467946132968049 -0.22592360096266251 0 -0.1251322260482142 -0.2185160465376163 0 -0.14616217116780289 -0.23866269939340251 0 -0.14467946132968049 -0.22592360096266251 0 -0.15996330938728301 -0.23828022383481759 0 -0.14467946132968049 -0.22592360096266251 0 -0.1399374443859957 -0.2075933685428602 0 -0.16131634185417809 -0.20807624530868951 0 -0.14467946132968049 -0.22592360096266251 0 -0.1251322260482142 -0.2185160465376163 0 -0.1399374443859957 -0.2075933685428602 0 -0.1220145853937623 -0.19366073284718119 0 -0.1251322260482142 -0.2185160465376163 0 -0.1399374443859957 -0.2075933685428602 0 -0.1220145853937623 -0.19366073284718119 0 -0.14654460730414329 -0.19179021705815169 0 -0.1220145853937623 -0.19366073284718119 0 -0.1399374443859957 -0.2075933685428602 0 -0.14654460730414329 -0.19179021705815169 0 -0.1399374443859957 -0.2075933685428602 0 -0.14654460730414329 -0.19179021705815169 0 -0.16131634185417809 -0.20807624530868951 0 -0.1644362424712634 -0.18466481606848831 0 -0.18088614783109461 -0.19255567181267369 0 -0.16131634185417809 -0.20807624530868951 0 -0.1644362424712634 -0.18466481606848831 0 -0.14654460730414329 -0.19179021705815169 0 -0.16131634185417809 -0.20807624530868951 0 -0.18088614783109461 -0.19255567181267369 0 -0.1828914713368994 -0.22204020040633679 0 -0.18088614783109461 -0.19255567181267369 0 -0.16131634185417809 -0.20807624530868951 0 -0.1828914713368994 -0.22204020040633679 0 -0.16131634185417809 -0.20807624530868951 0 -0.16564120026167359 -0.2252737842940718 0 -0.1828914713368994 -0.22204020040633679 0 -0.16564120026167359 -0.2252737842940718 0 -0.17591901096988591 -0.23827427463109349 0 -0.15996330938728301 -0.23828022383481759 0 -0.14467946132968049 -0.22592360096266251 0 -0.16564120026167359 -0.2252737842940718 0 -0.15996330938728301 -0.23828022383481759 0 -0.14467946132968049 -0.22592360096266251 0 -0.16131634185417809 -0.20807624530868951 0 -0.16564120026167359 -0.2252737842940718 0 -0.16564120026167359 -0.2252737842940718 0 -0.1828914713368994 -0.22204020040633679 0 -0.17591901096988591 -0.23827427463109349 0 -0.1848967948427056 -0.25152472899999978 0 -0.1828914713368994 -0.22204020040633679 0 -0.17591901096988591 -0.23827427463109349 0 -0.1848967948427056 -0.25152472899999978 0 -0.1828914713368994 -0.22204020040633679 0 -0.1848967948427056 -0.25152472899999978 0 -0.17591901096988591 -0.23827427463109349 0 -0.17675342199773311 -0.24971600413436429 0 -0.17591901096988591 -0.23827427463109349 0 -0.17675342199773311 -0.24971600413436429 0 -0.16931965969844351 -0.24582492855262431 0 -0.17073228964729559 -0.25222925333605639 0 -0.17675342199773311 -0.24971600413436429 0 -0.16931965969844351 -0.24582492855262431 0 -0.16323026649002001 -0.25062488682678952 0 -0.16931965969844351 -0.24582492855262431 0 -0.15996330938728301 -0.23828022383481759 0 -0.17591901096988591 -0.23827427463109349 0 -0.16931965969844351 -0.24582492855262431 0 -0.15996330938728301 -0.23828022383481759 0 -0.16323026649002001 -0.25062488682678952 0 -0.17073228964729559 -0.25222925333605639 0 -0.16931965969844351 -0.24582492855262431 0 -0.16323026649002001 -0.25062488682678952 0 -0.15204738001177731 -0.24904394321401671 0 -0.15996330938728301 -0.23828022383481759 0 -0.20995799564546991 -0.25493168312756997 0 -0.20294502784774929 -0.23400061754698481 0 -0.2271643768206115 -0.23171885012511001 0 -0.1848967948427056 -0.25152472899999978 0 -0.1828914713368994 -0.22204020040633679 0 -0.20294502784774929 -0.23400061754698481 0 -0.20995799564546991 -0.25493168312756997 0 -0.1848967948427056 -0.25152472899999978 0 -0.20294502784774929 -0.23400061754698481 0 -0.1828914713368994 -0.22204020040633679 0 -0.20294502784774929 -0.23400061754698481 0 -0.2086550039153886 -0.20934346816023219 0 -0.20294502784774929 -0.23400061754698481 0 -0.2086550039153886 -0.20934346816023219 0 -0.2271643768206115 -0.23171885012511001 0 -0.18088614783109461 -0.19255567181267369 0 -0.1828914713368994 -0.22204020040633679 0 -0.2086550039153886 -0.20934346816023219 0 -0.18088614783109461 -0.19255567181267369 0 -0.2086550039153886 -0.20934346816023219 0 -0.20090512476680489 -0.18744575443933789 0 -0.2086550039153886 -0.20934346816023219 0 -0.22288489414750531 -0.189053279459511 0 -0.20090512476680489 -0.18744575443933789 0 -0.2086550039153886 -0.20934346816023219 0 -0.22288489414750531 -0.189053279459511 0 -0.23487486799598689 -0.20815670668374031 0 -0.22288489414750531 -0.189053279459511 0 -0.2483398262974954 -0.18922693053312831 0 -0.23487486799598689 -0.20815670668374031 0 -0.2483398262974954 -0.18922693053312831 0 -0.23487486799598689 -0.20815670668374031 0 -0.25188382536928738 -0.2108778836608895 0 -0.23487486799598689 -0.20815670668374031 0 -0.2442841385879837 -0.22358681591791049 0 -0.25188382536928738 -0.2108778836608895 0 -0.2086550039153886 -0.20934346816023219 0 -0.23487486799598689 -0.20815670668374031 0 -0.2271643768206115 -0.23171885012511001 0 -0.23487486799598689 -0.20815670668374031 0 -0.2271643768206115 -0.23171885012511001 0 -0.2442841385879837 -0.22358681591791049 0 -0.2271643768206115 -0.23171885012511001 0 -0.2442841385879837 -0.22358681591791049 0 -0.25085087840922649 -0.2406400513868247 0 -0.23501919644823421 -0.25833863725514061 0 -0.2271643768206115 -0.23171885012511001 0 -0.25085087840922649 -0.2406400513868247 0 -0.23501919644823421 -0.25833863725514061 0 -0.20995799564546991 -0.25493168312756997 0 -0.2271643768206115 -0.23171885012511001 0 -0.20055435171715161 -0.14610292366113009 0 -0.21877893744482871 -0.15324204466402189 0 -0.21921092327141259 -0.13292730864150989 0 -0.20055435171715161 -0.14610292366113009 0 -0.20960540845572931 -0.16814777549114021 0 -0.21877893744482871 -0.15324204466402189 0 -0.20302877625099969 -0.12588997958169851 0 -0.20055435171715161 -0.14610292366113009 0 -0.21921092327141259 -0.13292730864150989 0 -0.1768755008194848 -0.13358661462534721 0 -0.20302877625099969 -0.12588997958169851 0 -0.1892339880343262 -0.1179356220100533 0 -0.1768755008194848 -0.13358661462534721 0 -0.20302877625099969 -0.12588997958169851 0 -0.20055435171715161 -0.14610292366113009 0 -0.17888082432528971 -0.16307114321901039 0 -0.20055435171715161 -0.14610292366113009 0 -0.20960540845572931 -0.16814777549114021 0 -0.17888082432528971 -0.16307114321901039 0 -0.20090512476680489 -0.18744575443933789 0 -0.20960540845572931 -0.16814777549114021 0 -0.22288489414750531 -0.189053279459511 0 -0.20090512476680489 -0.18744575443933789 0 -0.20960540845572931 -0.16814777549114021 0 -0.2314640217382343 -0.16971924463584001 0 -0.23645617109735559 -0.1506647880166789 0 -0.21877893744482871 -0.15324204466402189 0 -0.20960540845572931 -0.16814777549114021 0 -0.2314640217382343 -0.16971924463584001 0 -0.21877893744482871 -0.15324204466402189 0 -0.22288489414750531 -0.189053279459511 0 -0.2483398262974954 -0.18922693053312831 0 -0.2314640217382343 -0.16971924463584001 0 -0.22288489414750531 -0.189053279459511 0 -0.20960540845572931 -0.16814777549114021 0 -0.2314640217382343 -0.16971924463584001 0 -0.2483398262974954 -0.18922693053312831 0 -0.2314640217382343 -0.16971924463584001 0 -0.25271889298649158 -0.1679806496505597 0 -0.2314640217382343 -0.16971924463584001 0 -0.23645617109735559 -0.1506647880166789 0 -0.25271889298649158 -0.1679806496505597 0 -0.23645617109735559 -0.1506647880166789 0 -0.25271889298649158 -0.1679806496505597 0 -0.25578250753185311 -0.14802578947125861 0 -0.23645617109735559 -0.1506647880166789 0 -0.2409398231610872 -0.13186912537847981 0 -0.25578250753185311 -0.14802578947125861 0 -0.23645617109735559 -0.1506647880166789 0 -0.21877893744482871 -0.15324204466402189 0 -0.21921092327141259 -0.13292730864150989 0 -0.21921092327141259 -0.13292730864150989 0 -0.2409398231610872 -0.13186912537847981 0 -0.23016020617335831 -0.1146050292112878 0 -0.23645617109735559 -0.1506647880166789 0 -0.21921092327141259 -0.13292730864150989 0 -0.2409398231610872 -0.13186912537847981 0 -0.2409398231610872 -0.13186912537847981 0 -0.24818752075035591 -0.1148348587401625 0 -0.25932932114952739 -0.12856483931308879 0 -0.2409398231610872 -0.13186912537847981 0 -0.24818752075035591 -0.1148348587401625 0 -0.23016020617335831 -0.1146050292112878 0 -0.23900518994623091 -0.098618475392192165 0 -0.2492753620344032 -0.088337973329424599 0 -0.2559884191959641 -0.10113939540135961 0 -0.24818752075035591 -0.1148348587401625 0 -0.23900518994623091 -0.098618475392192165 0 -0.23016020617335831 -0.1146050292112878 0 -0.24818752075035591 -0.1148348587401625 0 -0.23900518994623091 -0.098618475392192165 0 -0.2559884191959641 -0.10113939540135961 0 -0.23900518994623091 -0.098618475392192165 0 -0.22146043241341479 -0.096837792245248105 0 -0.23016020617335831 -0.1146050292112878 0 -0.22146043241341479 -0.096837792245248105 0 -0.23016020617335831 -0.1146050292112878 0 -0.21331968329256501 -0.1138895263876844 0 -0.21921092327141259 -0.13292730864150989 0 -0.23016020617335831 -0.1146050292112878 0 -0.21331968329256501 -0.1138895263876844 0 -0.2358290704534288 -0.080481066651970121 0 -0.22658775224834249 -0.06781649475977751 0 -0.24079100750196081 -0.06068968680350665 0 -0.24079100750196081 -0.06068968680350665 0 -0.25478882990146079 -0.055333439723699168 0 -0.25224952299251552 -0.073690605791885411 0 -0.2358290704534288 -0.080481066651970121 0 -0.24079100750196081 -0.06068968680350665 0 -0.25224952299251552 -0.073690605791885411 0 -0.23900518994623091 -0.098618475392192165 0 -0.2358290704534288 -0.080481066651970121 0 -0.2492753620344032 -0.088337973329424599 0 -0.2358290704534288 -0.080481066651970121 0 -0.2492753620344032 -0.088337973329424599 0 -0.25224952299251552 -0.073690605791885411 0 -0.22146043241341479 -0.096837792245248105 0 -0.2358290704534288 -0.080481066651970121 0 -0.21778410531045861 -0.080090157043060523 0 -0.23900518994623091 -0.098618475392192165 0 -0.22146043241341479 -0.096837792245248105 0 -0.2358290704534288 -0.080481066651970121 0 -0.2358290704534288 -0.080481066651970121 0 -0.22658775224834249 -0.06781649475977751 0 -0.21778410531045861 -0.080090157043060523 0 -0.22658775224834249 -0.06781649475977751 0 -0.21383691461922161 -0.065157380030720927 0 -0.21778410531045861 -0.080090157043060523 0 -0.21383691461922161 -0.065157380030720927 0 -0.21778410531045861 -0.080090157043060523 0 -0.19857613970583141 -0.080409526693369454 0 -0.21383691461922161 -0.065157380030720927 0 -0.19633598622590279 -0.068074757635138761 0 -0.20104567115472011 -0.058443239505086578 0 -0.21383691461922161 -0.065157380030720927 0 -0.19857613970583141 -0.080409526693369454 0 -0.22146043241341479 -0.096837792245248105 0 -0.21778410531045861 -0.080090157043060523 0 -0.2088147619485613 -0.091367567091211951 0 -0.21778410531045861 -0.080090157043060523 0 -0.2088147619485613 -0.091367567091211951 0 -0.19857613970583141 -0.080409526693369454 0 -0.2088147619485613 -0.091367567091211951 0 -0.19857613970583141 -0.080409526693369454 0 -0.1960116118655531 -0.099180633572686319 0 -0.19857613970583141 -0.080409526693369454 0 -0.1960116118655531 -0.099180633572686319 0 -0.18331536479244179 -0.095661673356018551 0 -0.19857613970583141 -0.080409526693369454 0 -0.18331536479244179 -0.095661673356018551 0 -0.1833717001898765 -0.085586354466328479 0 -0.19857613970583141 -0.080409526693369454 0 -0.18331536479244179 -0.095661673356018551 0 -0.19857613970583141 -0.080409526693369454 0 -0.1833717001898765 -0.085586354466328479 0 -0.18689556397222179 -0.076471916275244023 0 -0.21383691461922161 -0.065157380030720927 0 -0.19857613970583141 -0.080409526693369454 0 -0.19633598622590279 -0.068074757635138761 0 -0.19857613970583141 -0.080409526693369454 0 -0.19633598622590279 -0.068074757635138761 0 -0.18689556397222179 -0.076471916275244023 0 -0.19633598622590279 -0.068074757635138761 0 -0.1828739174787169 -0.066978191057535608 0 -0.18689556397222179 -0.076471916275244023 0 -0.19633598622590279 -0.068074757635138761 0 -0.1828739174787169 -0.066978191057535608 0 -0.19327603511336891 -0.05982310890618503 0 -0.20302877625099969 -0.12588997958169851 0 -0.21921092327141259 -0.13292730864150989 0 -0.21331968329256501 -0.1138895263876844 0 -0.20302877625099969 -0.12588997958169851 0 -0.21331968329256501 -0.1138895263876844 0 -0.19959464626993059 -0.11089703044289551 0 -0.22146043241341479 -0.096837792245248105 0 -0.21331968329256501 -0.1138895263876844 0 -0.20696577066999541 -0.10231595268500331 0 -0.22146043241341479 -0.096837792245248105 0 -0.2088147619485613 -0.091367567091211951 0 -0.20696577066999541 -0.10231595268500331 0 -0.2088147619485613 -0.091367567091211951 0 -0.20696577066999541 -0.10231595268500331 0 -0.1960116118655531 -0.099180633572686319 0 -0.21331968329256501 -0.1138895263876844 0 -0.20696577066999541 -0.10231595268500331 0 -0.19959464626993059 -0.11089703044289551 0 -0.20696577066999541 -0.10231595268500331 0 -0.1960116118655531 -0.099180633572686319 0 -0.19959464626993059 -0.11089703044289551 0 -0.1960116118655531 -0.099180633572686319 0 -0.18331536479244179 -0.095661673356018551 0 -0.1960116118655531 -0.099180633572686319 0 -0.18863614918218299 -0.1056027213394044 0 -0.18331536479244179 -0.095661673356018551 0 -0.1960116118655531 -0.099180633572686319 0 -0.18863614918218299 -0.1056027213394044 0 -0.19959464626993059 -0.11089703044289551 0 -0.18863614918218299 -0.1056027213394044 0 -0.19959464626993059 -0.11089703044289551 0 -0.1892339880343262 -0.1179356220100533 0 -0.20302877625099969 -0.12588997958169851 0 -0.19959464626993059 -0.11089703044289551 0 -0.1892339880343262 -0.1179356220100533 0 -0.1768755008194848 -0.13358661462534721 0 -0.1748701773136834 -0.1041020860316841 0 -0.1768755008194848 -0.13358661462534721 0 -0.1661556815248067 -0.12705511007977971 0 -0.1748701773136834 -0.1041020860316841 0 -0.1768755008194848 -0.13358661462534721 0 -0.1892339880343262 -0.1179356220100533 0 -0.1748701773136834 -0.1041020860316841 0 -0.1627878890341648 -0.10955995894673 0 -0.15822077616288849 -0.1207420738198855 0 -0.1748701773136834 -0.1041020860316841 0 -0.15822077616288849 -0.1207420738198855 0 -0.1748701773136834 -0.1041020860316841 0 -0.1661556815248067 -0.12705511007977971 0 -0.15822077616288849 -0.1207420738198855 0 -0.1748701773136834 -0.1041020860316841 0 -0.1627878890341648 -0.10955995894673 0 -0.15822077616288849 -0.1207420738198855 0 -0.15134097701942539 -0.1142835382476259 0 -0.15174220686268181 -0.12569862992945979 0 -0.1661556815248067 -0.12705511007977971 0 -0.15822077616288849 -0.1207420738198855 0 -0.15889193708458621 -0.1001816389106016 0 -0.16680444903215891 -0.0910854190214474 0 -0.15134097701942539 -0.1142835382476259 0 -0.16598526556457199 -0.1024289649311218 0 -0.16680444903215891 -0.0910854190214474 0 -0.15134097701942539 -0.1142835382476259 0 -0.16680444903215891 -0.0910854190214474 0 -0.15134097701942539 -0.1142835382476259 0 -0.1627878890341648 -0.10955995894673 0 -0.16598526556457199 -0.1024289649311218 0 -0.15134097701942539 -0.1142835382476259 0 -0.1627878890341648 -0.10955995894673 0 -0.16598526556457199 -0.1024289649311218 0 -0.1748701773136834 -0.1041020860316841 0 -0.16598526556457199 -0.1024289649311218 0 -0.17412283542343299 -0.093113822408122882 0 -0.16680444903215891 -0.0910854190214474 0 -0.16598526556457199 -0.1024289649311218 0 -0.1748701773136834 -0.1041020860316841 0 -0.17412283542343299 -0.093113822408122882 0 -0.18331536479244179 -0.095661673356018551 0 -0.17412283542343299 -0.093113822408122882 0 -0.1748701773136834 -0.1041020860316841 0 -0.18331536479244179 -0.095661673356018551 0 -0.1748701773136834 -0.1041020860316841 0 -0.17412283542343299 -0.093113822408122882 0 -0.1748701773136834 -0.1041020860316841 0 -0.18331536479244179 -0.095661673356018551 0 -0.17412283542343299 -0.093113822408122882 0 -0.18863614918218299 -0.1056027213394044 0 -0.1748701773136834 -0.1041020860316841 0 -0.18331536479244179 -0.095661673356018551 0 -0.18863614918218299 -0.1056027213394044 0 -0.1892339880343262 -0.1179356220100533 0 -0.1748701773136834 -0.1041020860316841 0 -0.18331536479244179 -0.095661673356018551 0 -0.1833717001898765 -0.085586354466328479 0 -0.17412283542343299 -0.093113822408122882 0 -0.1833717001898765 -0.085586354466328479 0 -0.173320076260782 -0.081310751523848007 0 -0.18689556397222179 -0.076471916275244023 0 -0.1833717001898765 -0.085586354466328479 0 -0.173320076260782 -0.081310751523848007 0 -0.17412283542343299 -0.093113822408122882 0 -0.173320076260782 -0.081310751523848007 0 -0.17412283542343299 -0.093113822408122882 0 -0.173320076260782 -0.081310751523848007 0 -0.17215683816261171 -0.064207512636220959 0 -0.173320076260782 -0.081310751523848007 0 -0.1828739174787169 -0.066978191057535608 0 -0.17215683816261171 -0.064207512636220959 0 -0.173320076260782 -0.081310751523848007 0 -0.1828739174787169 -0.066978191057535608 0 -0.18689556397222179 -0.076471916275244023 0 -0.173320076260782 -0.081310751523848007 0 -0.1828739174787169 -0.066978191057535608 0 -0.173320076260782 -0.081310751523848007 0 -0.17215683816261171 -0.064207512636220959 0 -0.16081872527862809 -0.074097497055433059 0 -0.17215683816261171 -0.064207512636220959 0 -0.16081872527862809 -0.074097497055433059 0 -0.15996994558726069 -0.058494978764641818 0 -0.16081872527862809 -0.074097497055433059 0 -0.16680444903215891 -0.0910854190214474 0 -0.1479994722767333 -0.085873330386386115 0 -0.15889193708458621 -0.1001816389106016 0 -0.16680444903215891 -0.0910854190214474 0 -0.1479994722767333 -0.085873330386386115 0 -0.173320076260782 -0.081310751523848007 0 -0.16081872527862809 -0.074097497055433059 0 -0.16680444903215891 -0.0910854190214474 0 -0.16680444903215891 -0.0910854190214474 0 -0.1479994722767333 -0.085873330386386115 0 -0.173320076260782 -0.081310751523848007 0 -0.16680444903215891 -0.0910854190214474 0 -0.173320076260782 -0.081310751523848007 0 -0.17412283542343299 -0.093113822408122882 0 -0.16680444903215891 -0.0910854190214474 0 -0.17412283542343299 -0.093113822408122882 0 -0.16680444903215891 -0.0910854190214474 0 -0.15889193708458621 -0.1001816389106016 0 -0.1479994722767333 -0.085873330386386115 0 -0.14120908661530929 -0.093366673034540104 0 -0.16081872527862809 -0.074097497055433059 0 -0.1479994722767333 -0.085873330386386115 0 -0.14646568313571909 -0.065540066500141853 0 -0.1479994722767333 -0.085873330386386115 0 -0.14646568313571909 -0.065540066500141853 0 -0.12919449552130699 -0.080661241751327176 0 -0.16081872527862809 -0.074097497055433059 0 -0.14646568313571909 -0.065540066500141853 0 -0.15996994558726069 -0.058494978764641818 0 -0.14646568313571909 -0.065540066500141853 0 -0.12919449552130699 -0.080661241751327176 0 -0.1351417802955194 -0.054910536282376091 0 -0.1227198108993641 -0.056805716960773543 0 -0.12919449552130699 -0.080661241751327176 0 -0.1227198108993641 -0.056805716960773543 0 -0.12919449552130699 -0.080661241751327176 0 -0.1351417802955194 -0.054910536282376091 0 -0.12919449552130699 -0.080661241751327176 0 -0.13394693767224369 -0.098171284041748103 0 -0.1479994722767333 -0.085873330386386115 0 -0.12919449552130699 -0.080661241751327176 0 -0.1479994722767333 -0.085873330386386115 0 -0.14120908661530929 -0.093366673034540104 0 -0.12919449552130699 -0.080661241751327176 0 -0.14120908661530929 -0.093366673034540104 0 -0.12919449552130699 -0.080661241751327176 0 -0.13394693767224369 -0.098171284041748103 0 -0.1170362336434552 -0.089148148952046521 0 -0.12919449552130699 -0.080661241751327176 0 -0.13394693767224369 -0.098171284041748103 0 -0.1131332439587663 -0.1037101012546746 0 -0.13601259052167619 -0.1019458700826381 0 -0.12590752264484101 -0.1109857378518852 0 -0.1131332439587663 -0.1037101012546746 0 -0.13394693767224369 -0.098171284041748103 0 -0.13601259052167619 -0.1019458700826381 0 -0.14120908661530929 -0.093366673034540104 0 -0.13394693767224369 -0.098171284041748103 0 -0.13601259052167619 -0.1019458700826381 0 -0.13601259052167619 -0.1019458700826381 0 -0.12590752264484101 -0.1109857378518852 0 -0.138144284846934 -0.1096143276071065 0 -0.13601259052167619 -0.1019458700826381 0 -0.138144284846934 -0.1096143276071065 0 -0.14483752948217529 -0.105057877750213 0 -0.12590752264484101 -0.1109857378518852 0 -0.1298986060209405 -0.1237011132489107 0 -0.13642781040803381 -0.1170046913117968 0 -0.13844564922117719 -0.1249604922241158 0 -0.13642781040803381 -0.1170046913117968 0 -0.144683673721207 -0.1209593999028034 0 -0.1298986060209405 -0.1237011132489107 0 -0.13844564922117719 -0.1249604922241158 0 -0.13642781040803381 -0.1170046913117968 0 -0.12590752264484101 -0.1109857378518852 0 -0.13642781040803381 -0.1170046913117968 0 -0.138144284846934 -0.1096143276071065 0 -0.13642781040803381 -0.1170046913117968 0 -0.138144284846934 -0.1096143276071065 0 -0.143379610294221 -0.1140703262939677 0 -0.138144284846934 -0.1096143276071065 0 -0.143379610294221 -0.1140703262939677 0 -0.14630130547550471 -0.10848967440050571 0 -0.143379610294221 -0.1140703262939677 0 -0.144683673721207 -0.1209593999028034 0 -0.15134097701942539 -0.1142835382476259 0 -0.143379610294221 -0.1140703262939677 0 -0.15134097701942539 -0.1142835382476259 0 -0.14630130547550471 -0.10848967440050571 0 -0.13642781040803381 -0.1170046913117968 0 -0.143379610294221 -0.1140703262939677 0 -0.144683673721207 -0.1209593999028034 0 -0.15174220686268181 -0.12569862992945979 0 -0.15822077616288849 -0.1207420738198855 0 -0.15134097701942539 -0.1142835382476259 0 -0.15174220686268181 -0.12569862992945979 0 -0.144683673721207 -0.1209593999028034 0 -0.15134097701942539 -0.1142835382476259 0 -0.15889193708458621 -0.1001816389106016 0 -0.15134097701942539 -0.1142835382476259 0 -0.14630130547550471 -0.10848967440050571 0 -0.15889193708458621 -0.1001816389106016 0 -0.13601259052167619 -0.1019458700826381 0 -0.15889193708458621 -0.1001816389106016 0 -0.14630130547550471 -0.10848967440050571 0 -0.14483752948217529 -0.105057877750213 0 -0.15889193708458621 -0.1001816389106016 0 -0.13601259052167619 -0.1019458700826381 0 -0.14483752948217529 -0.105057877750213 0 -0.15889193708458621 -0.1001816389106016 0 -0.14120908661530929 -0.093366673034540104 0 -0.13601259052167619 -0.1019458700826381 0 -0.138144284846934 -0.1096143276071065 0 -0.14630130547550471 -0.10848967440050571 0 -0.14483752948217529 -0.105057877750213 0 -0.14622275523307879 -0.02528716082041994 0 -0.14941488129490371 -0.041525543882819281 0 -0.1694188454650703 -0.02395045498631318 0 -0.14622275523307879 -0.02528716082041994 0 -0.15144941548332261 -0.008840690932706622 0 -0.13299447139673809 -0.01617230028320327 0 -0.14622275523307879 -0.02528716082041994 0 -0.15144941548332261 -0.008840690932706622 0 -0.1694188454650703 -0.02395045498631318 0 -0.15144941548332261 -0.008840690932706622 0 -0.13299447139673809 -0.01617230028320327 0 -0.13815278026811689 0.0036022134506508261 0 -0.13299447139673809 -0.01617230028320327 0 -0.13815278026811689 0.0036022134506508261 0 -0.1181713946700622 -0.0025812021860843089 0 -0.12809481273787421 -0.015333632612877859 0 -0.13815278026811689 0.0036022134506508261 0 -0.12809481273787421 -0.015333632612877859 0 -0.13299447139673809 -0.01617230028320327 0 -0.13815278026811689 0.0036022134506508261 0 -0.13299447139673809 -0.01617230028320327 0 -0.12783616252535929 -0.03594681401705737 0 -0.1236208580194972 -0.023619552852933701 0 -0.12809481273787421 -0.015333632612877859 0 -0.13299447139673809 -0.01617230028320327 0 -0.14622275523307879 -0.02528716082041994 0 -0.13299447139673809 -0.01617230028320327 0 -0.12783616252535929 -0.03594681401705737 0 -0.1236208580194972 -0.023619552852933701 0 -0.13299447139673809 -0.01617230028320327 0 -0.12783616252535929 -0.03594681401705737 0 -0.12472101829399471 -0.047888801967381843 0 -0.12783616252535929 -0.03594681401705737 0 -0.1351417802955194 -0.054910536282376091 0 -0.12783616252535929 -0.03594681401705737 0 -0.1351417802955194 -0.054910536282376091 0 -0.14941488129490371 -0.041525543882819281 0 -0.12783616252535929 -0.03594681401705737 0 -0.14941488129490371 -0.041525543882819281 0 -0.12472101829399471 -0.047888801967381843 0 -0.12783616252535929 -0.03594681401705737 0 -0.1227198108993641 -0.056805716960773543 0 -0.12472101829399471 -0.047888801967381843 0 -0.1351417802955194 -0.054910536282376091 0 -0.14646568313571909 -0.065540066500141853 0 -0.14941488129490371 -0.041525543882819281 0 -0.15996994558726069 -0.058494978764641818 0 -0.14646568313571909 -0.065540066500141853 0 -0.1351417802955194 -0.054910536282376091 0 -0.14941488129490371 -0.041525543882819281 0 -0.14622275523307879 -0.02528716082041994 0 -0.12783616252535929 -0.03594681401705737 0 -0.14941488129490371 -0.041525543882819281 0 -0.17099360006444489 -0.047104273748593647 0 -0.1694188454650703 -0.02395045498631318 0 -0.14941488129490371 -0.041525543882819281 0 -0.17099360006444489 -0.047104273748593647 0 -0.14941488129490371 -0.041525543882819281 0 -0.17099360006444489 -0.047104273748593647 0 -0.1694188454650703 -0.02395045498631318 0 -0.17215683816261171 -0.064207512636220959 0 -0.17099360006444489 -0.047104273748593647 0 -0.17215683816261171 -0.064207512636220959 0 -0.17099360006444489 -0.047104273748593647 0 -0.15996994558726069 -0.058494978764641818 0 -0.14941488129490371 -0.041525543882819281 0 -0.17099360006444489 -0.047104273748593647 0 -0.15996994558726069 -0.058494978764641818 0 -0.1828739174787169 -0.066978191057535608 0 -0.17099360006444489 -0.047104273748593647 0 -0.1924277586966511 -0.052645630591222722 0 -0.1828739174787169 -0.066978191057535608 0 -0.17215683816261171 -0.064207512636220959 0 -0.17099360006444489 -0.047104273748593647 0 -0.17099360006444489 -0.047104273748593647 0 -0.1924277586966511 -0.052645630591222722 0 -0.17099360006444489 -0.047104273748593647 0 -0.18501113740929021 -0.038555751301202777 0 -0.1694188454650703 -0.02395045498631318 0 -0.17099360006444489 -0.047104273748593647 0 -0.18501113740929021 -0.038555751301202777 0 -0.1924277586966511 -0.052645630591222722 0 -0.18501113740929021 -0.038555751301202777 0 -0.1694188454650703 -0.02395045498631318 0 -0.1900421325723452 -0.02449085811351338 0 -0.1694188454650703 -0.02395045498631318 0 -0.18179648532921769 -0.010162535613320549 0 -0.1900421325723452 -0.02449085811351338 0 -0.15144941548332261 -0.008840690932706622 0 -0.1694188454650703 -0.02395045498631318 0 -0.1678440908656996 -0.00079663622403244871 0 -0.1694188454650703 -0.02395045498631318 0 -0.1678440908656996 -0.00079663622403244871 0 -0.1694188454650703 -0.02395045498631318 0 -0.1678440908656996 -0.00079663622403244871 0 -0.18179648532921769 -0.010162535613320549 0 -0.1678440908656996 -0.00079663622403244871 0 -0.18179648532921769 -0.010162535613320549 0 -0.18797277877572729 0.0053307518273322581 0 -0.18179648532921769 -0.010162535613320549 0 -0.19561931163552551 -0.012880922996671989 0 -0.18797277877572729 0.0053307518273322581 0 -0.19561931163552551 -0.012880922996671989 0 -0.20897313684704319 -0.0077659201182895231 0 -0.18797277877572729 0.0053307518273322581 0 -0.20897313684704319 -0.0077659201182895231 0 -0.18797277877572729 0.0053307518273322581 0 -0.1900421325723452 -0.02449085811351338 0 -0.20931202465329399 -0.02731605296556874 0 -0.20086989167497299 -0.039980841778396073 0 -0.18179648532921769 -0.010162535613320549 0 -0.19561931163552551 -0.012880922996671989 0 -0.1900421325723452 -0.02449085811351338 0 -0.19561931163552551 -0.012880922996671989 0 -0.1900421325723452 -0.02449085811351338 0 -0.20931202465329399 -0.02731605296556874 0 -0.20931202465329399 -0.02731605296556874 0 -0.20897313684704319 -0.0077659201182895231 0 -0.22008557033064849 -0.02734468699830404 0 -0.19561931163552551 -0.012880922996671989 0 -0.20931202465329399 -0.02731605296556874 0 -0.20897313684704319 -0.0077659201182895231 0 -0.20897313684704319 -0.0077659201182895231 0 -0.2213220285472188 -0.002729299831286901 0 -0.21271953224306511 0.0065740773990296091 0 -0.20104567115472011 -0.058443239505086578 0 -0.1924277586966511 -0.052645630591222722 0 -0.2080728866885459 -0.051781994059063127 0 -0.1924277586966511 -0.052645630591222722 0 -0.20086989167497299 -0.039980841778396073 0 -0.2080728866885459 -0.051781994059063127 0 -0.19633598622590279 -0.068074757635138761 0 -0.20104567115472011 -0.058443239505086578 0 -0.19327603511336891 -0.05982310890618503 0 -0.20104567115472011 -0.058443239505086578 0 -0.19327603511336891 -0.05982310890618503 0 -0.1924277586966511 -0.052645630591222722 0 -0.1828739174787169 -0.066978191057535608 0 -0.19327603511336891 -0.05982310890618503 0 -0.1924277586966511 -0.052645630591222722 0 -0.1828739174787169 -0.066978191057535608 0 -0.1924277586966511 -0.052645630591222722 0 -0.18501113740929021 -0.038555751301202777 0 -0.1924277586966511 -0.052645630591222722 0 -0.20086989167497299 -0.039980841778396073 0 -0.18501113740929021 -0.038555751301202777 0 -0.1900421325723452 -0.02449085811351338 0 -0.20086989167497299 -0.039980841778396073 0 -0.1924277586966511 -0.052645630591222722 0 -0.20086989167497299 -0.039980841778396073 0 -0.20931202465329399 -0.02731605296556874 0 -0.20086989167497299 -0.039980841778396073 0 -0.2147730416450237 -0.039819853265632033 0 -0.20931202465329399 -0.02731605296556874 0 -0.20086989167497299 -0.039980841778396073 0 -0.20931202465329399 -0.02731605296556874 0 -0.2147730416450237 -0.039819853265632033 0 -0.22008557033064849 -0.02734468699830404 0 -0.20086989167497299 -0.039980841778396073 0 -0.2147730416450237 -0.039819853265632033 0 -0.2080728866885459 -0.051781994059063127 0 -0.21383691461922161 -0.065157380030720927 0 -0.2080728866885459 -0.051781994059063127 0 -0.2246976633566429 -0.052664183269629329 0 -0.2147730416450237 -0.039819853265632033 0 -0.2080728866885459 -0.051781994059063127 0 -0.2246976633566429 -0.052664183269629329 0 -0.21383691461922161 -0.065157380030720927 0 -0.20104567115472011 -0.058443239505086578 0 -0.2080728866885459 -0.051781994059063127 0 -0.22658775224834249 -0.06781649475977751 0 -0.2246976633566429 -0.052664183269629329 0 -0.24079100750196081 -0.06068968680350665 0 -0.22658775224834249 -0.06781649475977751 0 -0.21383691461922161 -0.065157380030720927 0 -0.2246976633566429 -0.052664183269629329 0 -0.2246976633566429 -0.052664183269629329 0 -0.22788252540922929 -0.036609518698498413 0 -0.2403099917410885 -0.048152571469405943 0 -0.2147730416450237 -0.039819853265632033 0 -0.2246976633566429 -0.052664183269629329 0 -0.22788252540922929 -0.036609518698498413 0 -0.2147730416450237 -0.039819853265632033 0 -0.22788252540922929 -0.036609518698498413 0 -0.22008557033064849 -0.02734468699830404 0 -0.22788252540922929 -0.036609518698498413 0 -0.2403099917410885 -0.048152571469405943 0 -0.25338993253614878 -0.035466028851696148 0 -0.2403099917410885 -0.048152571469405943 0 -0.25338993253614878 -0.035466028851696148 0 -0.25478882990146079 -0.055333439723699168 0 -0.2246976633566429 -0.052664183269629329 0 -0.2403099917410885 -0.048152571469405943 0 -0.24079100750196081 -0.06068968680350665 0 -0.2403099917410885 -0.048152571469405943 0 -0.24079100750196081 -0.06068968680350665 0 -0.25478882990146079 -0.055333439723699168 0 -0.20897313684704319 -0.0077659201182895231 0 -0.2213220285472188 -0.002729299831286901 0 -0.22997349491835861 -0.02086259206391199 0 -0.2326394355431752 -0.00078560325659636498 0 -0.2213220285472188 -0.002729299831286901 0 -0.22997349491835861 -0.02086259206391199 0 -0.20897313684704319 -0.0077659201182895231 0 -0.22997349491835861 -0.02086259206391199 0 -0.2326394355431752 -0.00078560325659636498 0 -0.22997349491835861 -0.02086259206391199 0 -0.22788252540922929 -0.036609518698498413 0 -0.22997349491835861 -0.02086259206391199 0 -0.22788252540922929 -0.036609518698498413 0 -0.22997349491835861 -0.02086259206391199 0 -0.22008557033064849 -0.02734468699830404 0 -0.20897313684704319 -0.0077659201182895231 0 -0.22997349491835861 -0.02086259206391199 0 -0.22008557033064849 -0.02734468699830404 0 -0.22997349491835861 -0.02086259206391199 0 -0.25338993253614878 -0.035466028851696148 0 -0.22788252540922929 -0.036609518698498413 0 -0.22997349491835861 -0.02086259206391199 0 -0.25338993253614878 -0.035466028851696148 0 -0.22997349491835861 -0.02086259206391199 0 -0.2494067852598322 -0.01511286361742061 0 -0.25338993253614878 -0.035466028851696148 0 -0.2326394355431752 -0.00078560325659636498 0 -0.22997349491835861 -0.02086259206391199 0 -0.2494067852598322 -0.01511286361742061 0 -0.2326394355431752 -0.00078560325659636498 0 -0.2494067852598322 -0.01511286361742061 0 -0.24941015007505499 0.0020021033111519062 0 -0.2494067852598322 -0.01511286361742061 0 -0.2640677378268721 -0.0066108691789614213 0 -0.24941015007505499 0.0020021033111519062 0 -0.2494067852598322 -0.01511286361742061 0 -0.2640677378268721 -0.0066108691789614213 0 -0.26867794807292272 -0.022324968991301441 0 -0.2494067852598322 -0.01511286361742061 0 -0.26867794807292272 -0.022324968991301441 0 -0.25338993253614878 -0.035466028851696148 0 -0.26867794807292272 -0.022324968991301441 0 -0.27636260288808639 -0.035641063778618913 0 -0.25338993253614878 -0.035466028851696148 0 -0.26867794807292272 -0.022324968991301441 0 -0.28817506409841509 -0.028387100560397741 0 -0.27636260288808639 -0.035641063778618913 0 -0.26867794807292272 -0.022324968991301441 0 -0.28160484912307931 -0.01272968741758781 0 -0.28817506409841509 -0.028387100560397741 0 -0.2640677378268721 -0.0066108691789614213 0 -0.26867794807292272 -0.022324968991301441 0 -0.28160484912307931 -0.01272968741758781 0 -0.2640677378268721 -0.0066108691789614213 0 -0.28160484912307931 -0.01272968741758781 0 -0.27775959561220348 0.001023327035233945 0 -0.29637449439323871 -0.0036306208480099801 0 -0.28160484912307931 -0.01272968741758781 0 -0.27775959561220348 0.001023327035233945 0 -0.29637449439323871 -0.0036306208480099801 0 -0.28160484912307931 -0.01272968741758781 0 -0.29537283950304688 -0.018279371039653311 0 -0.28160484912307931 -0.01272968741758781 0 -0.28817506409841509 -0.028387100560397741 0 -0.29537283950304688 -0.018279371039653311 0 -0.28817506409841509 -0.028387100560397741 0 -0.29537283950304688 -0.018279371039653311 0 -0.3018984213852669 -0.028970291971383708 0 -0.29537283950304688 -0.018279371039653311 0 -0.3018984213852669 -0.028970291971383708 0 -0.30881136851523477 -0.017679154400887319 0 -0.3018984213852669 -0.028970291971383708 0 -0.30881136851523477 -0.017679154400887319 0 -0.31358891161959329 -0.028803554349121709 0 -0.29637449439323871 -0.0036306208480099801 0 -0.30881136851523477 -0.017679154400887319 0 -0.3179311166925769 -0.0046579912528836396 0 -0.29637449439323871 -0.0036306208480099801 0 -0.29537283950304688 -0.018279371039653311 0 -0.30881136851523477 -0.017679154400887319 0 -0.3062070235638098 -0.050793873314760263 0 -0.29476369957900678 -0.041957754850218187 0 -0.2953350423197631 -0.057609920544265468 0 -0.3062070235638098 -0.050793873314760263 0 -0.2953350423197631 -0.057609920544265468 0 -0.31303635903071952 -0.067314814078481999 0 -0.3062070235638098 -0.050793873314760263 0 -0.31303635903071952 -0.067314814078481999 0 -0.31776016279329711 -0.050666717183431499 0 -0.3062070235638098 -0.050793873314760263 0 -0.30999520094747202 -0.039373923171075777 0 -0.31776016279329711 -0.050666717183431499 0 -0.3018984213852669 -0.028970291971383708 0 -0.30999520094747202 -0.039373923171075777 0 -0.31358891161959329 -0.028803554349121709 0 -0.3018984213852669 -0.028970291971383708 0 -0.30999520094747202 -0.039373923171075777 0 -0.29476369957900678 -0.041957754850218187 0 -0.3062070235638098 -0.050793873314760263 0 -0.30999520094747202 -0.039373923171075777 0 -0.29476369957900678 -0.041957754850218187 0 -0.28817506409841509 -0.028387100560397741 0 -0.29476369957900678 -0.041957754850218187 0 -0.27636260288808639 -0.035641063778618913 0 -0.29476369957900678 -0.041957754850218187 0 -0.27680637015393861 -0.050069465639481052 0 -0.27636260288808639 -0.035641063778618913 0 -0.28817506409841509 -0.028387100560397741 0 -0.3018984213852669 -0.028970291971383708 0 -0.29476369957900678 -0.041957754850218187 0 -0.29476369957900678 -0.041957754850218187 0 -0.2953350423197631 -0.057609920544265468 0 -0.27680637015393861 -0.050069465639481052 0 -0.2953350423197631 -0.057609920544265468 0 -0.27680637015393861 -0.050069465639481052 0 -0.28475634547108059 -0.065797058996196395 0 -0.27680637015393861 -0.050069465639481052 0 -0.26772513298064948 -0.06527622041856683 0 -0.28475634547108059 -0.065797058996196395 0 -0.27680637015393861 -0.050069465639481052 0 -0.25478882990146079 -0.055333439723699168 0 -0.26772513298064948 -0.06527622041856683 0 -0.27680637015393861 -0.050069465639481052 0 -0.27636260288808639 -0.035641063778618913 0 -0.25338993253614878 -0.035466028851696148 0 -0.27680637015393861 -0.050069465639481052 0 -0.25338993253614878 -0.035466028851696148 0 -0.27680637015393861 -0.050069465639481052 0 -0.25338993253614878 -0.035466028851696148 0 -0.25478882990146079 -0.055333439723699168 0 -0.25224952299251552 -0.073690605791885411 0 -0.26399707555005753 -0.086799738392759826 0 -0.26772513298064948 -0.06527622041856683 0 -0.25478882990146079 -0.055333439723699168 0 -0.25224952299251552 -0.073690605791885411 0 -0.26772513298064948 -0.06527622041856683 0 -0.2492753620344032 -0.088337973329424599 0 -0.25224952299251552 -0.073690605791885411 0 -0.26399707555005753 -0.086799738392759826 0 -0.2492753620344032 -0.088337973329424599 0 -0.26399707555005753 -0.086799738392759826 0 -0.2559884191959641 -0.10113939540135961 0 -0.26399707555005753 -0.086799738392759826 0 -0.26772513298064948 -0.06527622041856683 0 -0.28770961810700491 -0.084014764171948531 0 -0.26399707555005753 -0.086799738392759826 0 -0.2745874609325194 -0.1030745462859075 0 -0.28770961810700491 -0.084014764171948531 0 -0.26772513298064948 -0.06527622041856683 0 -0.28475634547108059 -0.065797058996196395 0 -0.28770961810700491 -0.084014764171948531 0 -0.26772513298064948 -0.06527622041856683 0 -0.28770961810700491 -0.084014764171948531 0 -0.24818752075035591 -0.1148348587401625 0 -0.26370216487596781 -0.1142122877445671 0 -0.25932932114952739 -0.12856483931308879 0 -0.24818752075035591 -0.1148348587401625 0 -0.26370216487596781 -0.1142122877445671 0 -0.2559884191959641 -0.10113939540135961 0 -0.26399707555005753 -0.086799738392759826 0 -0.2559884191959641 -0.10113939540135961 0 -0.2745874609325194 -0.1030745462859075 0 -0.26370216487596781 -0.1142122877445671 0 -0.2559884191959641 -0.10113939540135961 0 -0.2745874609325194 -0.1030745462859075 0 -0.26370216487596781 -0.1142122877445671 0 -0.27626325021792358 -0.1210442664329144 0 -0.25932932114952739 -0.12856483931308879 0 -0.2745874609325194 -0.1030745462859075 0 -0.27626325021792358 -0.1210442664329144 0 -0.29074338928375559 -0.11263414811187671 0 -0.26370216487596781 -0.1142122877445671 0 -0.2745874609325194 -0.1030745462859075 0 -0.27626325021792358 -0.1210442664329144 0 -0.27626325021792358 -0.1210442664329144 0 -0.29074338928375559 -0.11263414811187671 0 -0.29605785587456279 -0.12740303962504079 0 -0.29074338928375559 -0.11263414811187671 0 -0.29605785587456279 -0.12740303962504079 0 -0.29074338928375559 -0.11263414811187671 0 -0.30769410323336049 -0.1027533079253304 0 -0.28770961810700491 -0.084014764171948531 0 -0.2745874609325194 -0.1030745462859075 0 -0.29074338928375559 -0.11263414811187671 0 -0.28770961810700491 -0.084014764171948531 0 -0.29074338928375559 -0.11263414811187671 0 -0.30700485317769322 -0.11879667610682521 0 -0.29605785587456279 -0.12740303962504079 0 -0.29074338928375559 -0.11263414811187671 0 -0.30769410323336049 -0.1027533079253304 0 -0.30700485317769322 -0.11879667610682521 0 -0.29620556379404672 -0.072014924206720093 0 -0.28475634547108059 -0.065797058996196395 0 -0.28770961810700491 -0.084014764171948531 0 -0.2953350423197631 -0.057609920544265468 0 -0.29620556379404672 -0.072014924206720093 0 -0.28475634547108059 -0.065797058996196395 0 -0.29620556379404672 -0.072014924206720093 0 -0.28770961810700491 -0.084014764171948531 0 -0.30527379717963748 -0.083083123493727318 0 -0.30769410323336049 -0.1027533079253304 0 -0.28770961810700491 -0.084014764171948531 0 -0.30527379717963748 -0.083083123493727318 0 -0.30769410323336049 -0.1027533079253304 0 -0.28770961810700491 -0.084014764171948531 0 -0.30769410323336049 -0.1027533079253304 0 -0.30527379717963748 -0.083083123493727318 0 -0.32172334173305622 -0.089317807086155568 0 -0.2953350423197631 -0.057609920544265468 0 -0.29620556379404672 -0.072014924206720093 0 -0.31303635903071952 -0.067314814078481999 0 -0.29620556379404672 -0.072014924206720093 0 -0.30527379717963748 -0.083083123493727318 0 -0.31303635903071952 -0.067314814078481999 0 -0.31303635903071952 -0.067314814078481999 0 -0.33000566708833662 -0.076253274483998462 0 -0.33056565848313207 -0.057539571301713908 0 -0.31303635903071952 -0.067314814078481999 0 -0.32172334173305622 -0.089317807086155568 0 -0.33000566708833662 -0.076253274483998462 0 -0.30527379717963748 -0.083083123493727318 0 -0.31303635903071952 -0.067314814078481999 0 -0.32172334173305622 -0.089317807086155568 0 -0.32172334173305622 -0.089317807086155568 0 -0.34291259874678648 -0.089912978475538252 0 -0.33000566708833662 -0.076253274483998462 0 -0.34291259874678648 -0.089912978475538252 0 -0.33000566708833662 -0.076253274483998462 0 -0.34163818852545441 -0.06836209351520256 0 -0.33000566708833662 -0.076253274483998462 0 -0.34163818852545441 -0.06836209351520256 0 -0.33056565848313207 -0.057539571301713908 0 -0.30769410323336049 -0.1027533079253304 0 -0.32767858835971608 -0.12149185167871231 0 -0.32877043337821149 -0.1074194842191063 0 -0.30769410323336049 -0.1027533079253304 0 -0.32767858835971608 -0.12149185167871231 0 -0.30769410323336049 -0.1027533079253304 0 -0.30700485317769322 -0.11879667610682521 0 -0.32767858835971608 -0.12149185167871231 0 -0.30700485317769322 -0.11879667610682521 0 -0.32767858835971608 -0.12149185167871231 0 -0.31285032913707123 -0.1297010331931657 0 -0.30769410323336049 -0.1027533079253304 0 -0.32172334173305622 -0.089317807086155568 0 -0.32877043337821149 -0.1074194842191063 0 -0.34291259874678648 -0.089912978475538252 0 -0.32877043337821149 -0.1074194842191063 0 -0.34291259874678648 -0.089912978475538252 0 -0.32877043337821149 -0.1074194842191063 0 -0.33790869862008888 -0.11520704345019531 0 -0.32172334173305622 -0.089317807086155568 0 -0.34291259874678648 -0.089912978475538252 0 -0.32877043337821149 -0.1074194842191063 0 -0.33790869862008888 -0.11520704345019531 0 -0.35412773308154522 -0.1095593646606519 0 -0.33833755089045298 -0.12720579572444549 0 -0.32767858835971608 -0.12149185167871231 0 -0.32877043337821149 -0.1074194842191063 0 -0.33790869862008888 -0.11520704345019531 0 -0.32767858835971608 -0.12149185167871231 0 -0.33790869862008888 -0.11520704345019531 0 -0.33833755089045298 -0.12720579572444549 0 -0.35412773308154522 -0.1095593646606519 0 -0.33833755089045298 -0.12720579572444549 0 -0.35412773308154522 -0.1095593646606519 0 -0.33833755089045298 -0.12720579572444549 0 -0.35685399102924509 -0.12873589503443661 0 -0.34291259874678648 -0.089912978475538252 0 -0.33790869862008888 -0.11520704345019531 0 -0.35412773308154522 -0.1095593646606519 0 -0.34291259874678648 -0.089912978475538252 0 -0.35412773308154522 -0.1095593646606519 0 -0.36991791527263729 -0.091912933596858343 0 -0.35412773308154522 -0.1095593646606519 0 -0.37023010434022541 -0.11362677335512859 0 -0.36991791527263729 -0.091912933596858343 0 -0.35412773308154522 -0.1095593646606519 0 -0.36991791527263729 -0.091912933596858343 0 -0.37023010434022541 -0.11362677335512859 0 -0.36991791527263729 -0.091912933596858343 0 -0.38367104554522352 -0.1023753443591711 0 -0.37023010434022541 -0.11362677335512859 0 -0.36876862971164748 -0.1291827628259527 0 -0.38575687053102797 -0.1195293516281062 0 -0.35412773308154522 -0.1095593646606519 0 -0.37023010434022541 -0.11362677335512859 0 -0.35685399102924509 -0.12873589503443661 0 -0.37023010434022541 -0.11362677335512859 0 -0.35685399102924509 -0.12873589503443661 0 -0.36876862971164748 -0.1291827628259527 0 -0.34291259874678648 -0.089912978475538252 0 -0.34163818852545441 -0.06836209351520256 0 -0.35705476411536141 -0.072406472731970151 0 -0.34163818852545441 -0.06836209351520256 0 -0.35705476411536141 -0.072406472731970151 0 -0.35535337764748781 -0.057370202533395032 0 -0.34291259874678648 -0.089912978475538252 0 -0.35705476411536141 -0.072406472731970151 0 -0.34291259874678648 -0.089912978475538252 0 -0.35705476411536141 -0.072406472731970151 0 -0.36991791527263729 -0.091912933596858343 0 -0.35705476411536141 -0.072406472731970151 0 -0.36991791527263729 -0.091912933596858343 0 -0.3717229022466142 -0.070134496744377745 0 -0.35705476411536141 -0.072406472731970151 0 -0.3717229022466142 -0.070134496744377745 0 -0.37119692948393518 -0.054899966988401258 0 -0.35705476411536141 -0.072406472731970151 0 -0.37119692948393518 -0.054899966988401258 0 -0.35705476411536141 -0.072406472731970151 0 -0.37119692948393518 -0.054899966988401258 0 -0.35535337764748781 -0.057370202533395032 0 -0.3717229022466142 -0.070134496744377745 0 -0.37473680489740652 -0.057186607871594478 0 -0.37119692948393518 -0.054899966988401258 0 -0.37119692948393518 -0.054899966988401258 0 -0.3530842045931572 -0.043199753731265313 0 -0.37119692948393518 -0.054899966988401258 0 -0.3530842045931572 -0.043199753731265313 0 -0.36677807484786062 -0.044796611883100107 0 -0.37119692948393518 -0.054899966988401258 0 -0.35535337764748781 -0.057370202533395032 0 -0.3530842045931572 -0.043199753731265313 0 -0.37473680489740652 -0.057186607871594478 0 -0.37235061227320992 -0.053471829652264199 0 -0.37473680489740652 -0.057186607871594478 0 -0.37119692948393518 -0.054899966988401258 0 -0.37473680489740652 -0.057186607871594478 0 -0.37119692948393518 -0.054899966988401258 0 -0.37235061227320992 -0.053471829652264199 0 -0.37119692948393518 -0.054899966988401258 0 -0.37235061227320992 -0.053471829652264199 0 -0.36677807484786062 -0.044796611883100107 0 -0.37235061227320992 -0.053471829652264199 0 -0.36677807484786062 -0.044796611883100107 0 -0.37119692948393518 -0.054899966988401258 0 -0.37235061227320992 -0.053471829652264199 0 -0.34163818852545441 -0.06836209351520256 0 -0.35535337764748781 -0.057370202533395032 0 -0.34402751195693798 -0.052603954674968062 0 -0.35535337764748781 -0.057370202533395032 0 -0.34402751195693798 -0.052603954674968062 0 -0.3530842045931572 -0.043199753731265313 0 -0.34402751195693798 -0.052603954674968062 0 -0.3530842045931572 -0.043199753731265313 0 -0.3530842045931572 -0.043199753731265313 0 -0.366520955514678 -0.029247430209636521 0 -0.34717604167838112 -0.031017362501197691 0 -0.34681705343139863 -0.039151384115459403 0 -0.34717604167838112 -0.031017362501197691 0 -0.339584279525661 -0.037363486071766643 0 -0.34681705343139863 -0.039151384115459403 0 -0.3530842045931572 -0.043199753731265313 0 -0.34717604167838112 -0.031017362501197691 0 -0.34402751195693798 -0.052603954674968062 0 -0.34681705343139863 -0.039151384115459403 0 -0.3530842045931572 -0.043199753731265313 0 -0.34681705343139863 -0.039151384115459403 0 -0.3530842045931572 -0.043199753731265313 0 -0.36677807484786062 -0.044796611883100107 0 -0.366520955514678 -0.029247430209636521 0 -0.38997683493077301 -0.031652429288183043 0 -0.3530842045931572 -0.043199753731265313 0 -0.366520955514678 -0.029247430209636521 0 -0.3530842045931572 -0.043199753731265313 0 -0.36677807484786062 -0.044796611883100107 0 -0.366520955514678 -0.029247430209636521 0 -0.366520955514678 -0.029247430209636521 0 -0.36285580254186461 -0.01138622804182198 0 -0.3509581405180025 -0.0165976809892017 0 -0.366520955514678 -0.029247430209636521 0 -0.36285580254186461 -0.01138622804182198 0 -0.37995770643620042 -0.015295106688009369 0 -0.366520955514678 -0.029247430209636521 0 -0.37995770643620042 -0.015295106688009369 0 -0.37995770643620042 -0.015295106688009369 0 -0.36531170485973208 0.0086160920473635355 0 -0.36285580254186461 -0.01138622804182198 0 -0.37995770643620042 -0.015295106688009369 0 -0.36531170485973208 0.0086160920473635355 0 -0.36285580254186461 -0.01138622804182198 0 -0.35153050538070968 -0.0044070143696259426 0 -0.36531170485973208 0.0086160920473635355 0 -0.36285580254186461 -0.01138622804182198 0 -0.35153050538070968 -0.0044070143696259426 0 -0.3509581405180025 -0.0165976809892017 0 -0.35153050538070968 -0.0044070143696259426 0 -0.3509581405180025 -0.0165976809892017 0 -0.33842346321239958 -0.0069454960884259877 0 -0.35153050538070968 -0.0044070143696259426 0 -0.33842346321239958 -0.0069454960884259877 0 -0.34760495503259209 0.0077647007982187084 0 -0.366520955514678 -0.029247430209636521 0 -0.3509581405180025 -0.0165976809892017 0 -0.34717604167838112 -0.031017362501197691 0 -0.3509581405180025 -0.0165976809892017 0 -0.34717604167838112 -0.031017362501197691 0 -0.33921902524194181 -0.021238460346747031 0 -0.34717604167838112 -0.031017362501197691 0 -0.33921902524194181 -0.021238460346747031 0 -0.33382174127000708 -0.03020310168847716 0 -0.33921902524194181 -0.021238460346747031 0 -0.33842346321239958 -0.0069454960884259877 0 -0.32562213960419351 -0.020496502868845041 0 -0.33921902524194181 -0.021238460346747031 0 -0.33382174127000708 -0.03020310168847716 0 -0.32562213960419351 -0.020496502868845041 0 -0.33842346321239958 -0.0069454960884259877 0 -0.3179311166925769 -0.0046579912528836396 0 -0.32989820520545221 0.0069133095490730486 0 -0.3509581405180025 -0.0165976809892017 0 -0.33921902524194181 -0.021238460346747031 0 -0.33842346321239958 -0.0069454960884259877 0 -0.30881136851523477 -0.017679154400887319 0 -0.3179311166925769 -0.0046579912528836396 0 -0.32562213960419351 -0.020496502868845041 0 -0.33842346321239958 -0.0069454960884259877 0 -0.3179311166925769 -0.0046579912528836396 0 -0.32562213960419351 -0.020496502868845041 0 -0.30881136851523477 -0.017679154400887319 0 -0.32562213960419351 -0.020496502868845041 0 -0.31358891161959329 -0.028803554349121709 0 -0.32324282916491193 -0.030909384685493209 0 -0.32562213960419351 -0.020496502868845041 0 -0.31358891161959329 -0.028803554349121709 0 -0.33382174127000708 -0.03020310168847716 0 -0.32324282916491193 -0.030909384685493209 0 -0.32562213960419351 -0.020496502868845041 0 -0.32324282916491193 -0.030909384685493209 0 -0.31358891161959329 -0.028803554349121709 0 -0.31957327643482492 -0.039124422057551622 0 -0.30999520094747202 -0.039373923171075777 0 -0.31358891161959329 -0.028803554349121709 0 -0.31957327643482492 -0.039124422057551622 0 -0.32324282916491193 -0.030909384685493209 0 -0.31957327643482492 -0.039124422057551622 0 -0.32899485892908059 -0.042126793130093682 0 -0.31957327643482492 -0.039124422057551622 0 -0.31776016279329711 -0.050666717183431499 0 -0.32899485892908059 -0.042126793130093682 0 -0.30999520094747202 -0.039373923171075777 0 -0.31957327643482492 -0.039124422057551622 0 -0.31776016279329711 -0.050666717183431499 0 -0.31303635903071952 -0.067314814078481999 0 -0.31776016279329711 -0.050666717183431499 0 -0.33056565848313207 -0.057539571301713908 0 -0.31776016279329711 -0.050666717183431499 0 -0.33056565848313207 -0.057539571301713908 0 -0.32899485892908059 -0.042126793130093682 0 -0.34163818852545441 -0.06836209351520256 0 -0.34402751195693798 -0.052603954674968062 0 -0.33056565848313207 -0.057539571301713908 0 -0.33056565848313207 -0.057539571301713908 0 -0.33816508148504548 -0.045369600436832157 0 -0.32899485892908059 -0.042126793130093682 0 -0.34402751195693798 -0.052603954674968062 0 -0.33056565848313207 -0.057539571301713908 0 -0.33816508148504548 -0.045369600436832157 0 -0.34681705343139863 -0.039151384115459403 0 -0.33816508148504548 -0.045369600436832157 0 -0.339584279525661 -0.037363486071766643 0 -0.34402751195693798 -0.052603954674968062 0 -0.34681705343139863 -0.039151384115459403 0 -0.33816508148504548 -0.045369600436832157 0 -0.34717604167838112 -0.031017362501197691 0 -0.33382174127000708 -0.03020310168847716 0 -0.339584279525661 -0.037363486071766643 0 -0.33382174127000708 -0.03020310168847716 0 -0.339584279525661 -0.037363486071766643 0 -0.32899485892908059 -0.042126793130093682 0 -0.33382174127000708 -0.03020310168847716 0 -0.32324282916491193 -0.030909384685493209 0 -0.32899485892908059 -0.042126793130093682 0 -0.33816508148504548 -0.045369600436832157 0 -0.339584279525661 -0.037363486071766643 0 -0.32899485892908059 -0.042126793130093682 0 -0.30705116106705421 -0.2396741143152181 0 -0.30751002707553438 -0.22861481784185461 0 -0.29542166385862872 -0.23587844058100571 0 -0.30092025946686501 -0.24755824980781679 0 -0.30705116106705421 -0.2396741143152181 0 -0.29542166385862872 -0.23587844058100571 0 -0.30092025946686501 -0.24755824980781679 0 -0.31066012073268828 -0.2486229655060174 0 -0.30705116106705421 -0.2396741143152181 0 -0.31066012073268828 -0.2486229655060174 0 -0.30705116106705421 -0.2396741143152181 0 -0.31738185613404718 -0.2443924588626166 0 -0.30705116106705421 -0.2396741143152181 0 -0.30751002707553438 -0.22861481784185461 0 -0.31366076065253179 -0.23613905973582691 0 -0.30751002707553438 -0.22861481784185461 0 -0.30193575725527561 -0.2175807530290832 0 -0.31425561463288282 -0.21376767606023711 0 -0.30751002707553438 -0.22861481784185461 0 -0.29625825614069251 -0.2242249998403206 0 -0.30193575725527561 -0.2175807530290832 0 -0.30751002707553438 -0.22861481784185461 0 -0.29625825614069251 -0.2242249998403206 0 -0.29542166385862872 -0.23587844058100571 0 -0.29625825614069251 -0.2242249998403206 0 -0.28672421464941428 -0.2255439718975569 0 -0.29542166385862872 -0.23587844058100571 0 -0.28672421464941428 -0.2255439718975569 0 -0.27246928340860821 -0.21981905657091191 0 -0.28969961786460968 -0.21350701585210291 0 -0.29625825614069251 -0.2242249998403206 0 -0.28672421464941428 -0.2255439718975569 0 -0.28969961786460968 -0.21350701585210291 0 -0.28672421464941428 -0.2255439718975569 0 -0.29542166385862872 -0.23587844058100571 0 -0.28054762651799481 -0.23629530177753019 0 -0.29542166385862872 -0.23587844058100571 0 -0.28841245959507189 -0.24873432956307159 0 -0.28054762651799481 -0.23629530177753019 0 -0.30092025946686501 -0.24755824980781679 0 -0.29542166385862872 -0.23587844058100571 0 -0.28841245959507189 -0.24873432956307159 0 -0.28841245959507189 -0.24873432956307159 0 -0.28054762651799481 -0.23629530177753019 0 -0.27031401188449561 -0.24902044658011899 0 -0.28054762651799481 -0.23629530177753019 0 -0.27031401188449561 -0.24902044658011899 0 -0.28054762651799481 -0.23629530177753019 0 -0.26623955567672752 -0.23473497524365369 0 -0.27031401188449561 -0.24902044658011899 0 -0.26623955567672752 -0.23473497524365369 0 -0.27031401188449561 -0.24902044658011899 0 -0.25085087840922649 -0.2406400513868247 0 -0.25664674434480611 -0.22654058773298771 0 -0.27246928340860821 -0.21981905657091191 0 -0.25188382536928738 -0.2108778836608895 0 -0.2442841385879837 -0.22358681591791049 0 -0.25085087840922649 -0.2406400513868247 0 -0.25664674434480611 -0.22654058773298771 0 -0.2442841385879837 -0.22358681591791049 0 -0.25664674434480611 -0.22654058773298771 0 -0.25188382536928738 -0.2108778836608895 0 -0.26623955567672752 -0.23473497524365369 0 -0.25664674434480611 -0.22654058773298771 0 -0.27246928340860821 -0.21981905657091191 0 -0.26623955567672752 -0.23473497524365369 0 -0.25085087840922649 -0.2406400513868247 0 -0.25664674434480611 -0.22654058773298771 0 -0.28054762651799481 -0.23629530177753019 0 -0.26623955567672752 -0.23473497524365369 0 -0.27246928340860821 -0.21981905657091191 0 -0.28672421464941428 -0.2255439718975569 0 -0.28054762651799481 -0.23629530177753019 0 -0.27246928340860821 -0.21981905657091191 0 -0.27246928340860821 -0.21981905657091191 0 -0.28040006644251853 -0.19954902726136431 0 -0.28969961786460968 -0.21350701585210291 0 -0.27246928340860821 -0.21981905657091191 0 -0.2644805206232998 -0.20026565284981479 0 -0.28040006644251853 -0.19954902726136431 0 -0.27246928340860821 -0.21981905657091191 0 -0.25188382536928738 -0.2108778836608895 0 -0.2644805206232998 -0.20026565284981479 0 -0.2483398262974954 -0.18922693053312831 0 -0.25188382536928738 -0.2108778836608895 0 -0.2644805206232998 -0.20026565284981479 0 -0.2483398262974954 -0.18922693053312831 0 -0.2644805206232998 -0.20026565284981479 0 -0.27007909332812569 -0.18209603418584819 0 -0.2644805206232998 -0.20026565284981479 0 -0.28040006644251853 -0.19954902726136431 0 -0.27007909332812569 -0.18209603418584819 0 -0.28040006644251853 -0.19954902726136431 0 -0.28700767091058649 -0.18456987028772079 0 -0.27007909332812569 -0.18209603418584819 0 -0.28040006644251853 -0.19954902726136431 0 -0.29315323058954168 -0.1955997402968653 0 -0.28969961786460968 -0.21350701585210291 0 -0.28040006644251853 -0.19954902726136431 0 -0.29315323058954168 -0.1955997402968653 0 -0.28700767091058649 -0.18456987028772079 0 -0.29315323058954168 -0.1955997402968653 0 -0.28969961786460968 -0.21350701585210291 0 -0.30066338799155767 -0.20682421185796249 0 -0.29625825614069251 -0.2242249998403206 0 -0.28969961786460968 -0.21350701585210291 0 -0.30193575725527561 -0.2175807530290832 0 -0.3047148036077918 -0.19407484875408509 0 -0.31425561463288282 -0.21376767606023711 0 -0.30066338799155767 -0.20682421185796249 0 -0.3047148036077918 -0.19407484875408509 0 -0.31425561463288282 -0.21376767606023711 0 -0.28969961786460968 -0.21350701585210291 0 -0.30066338799155767 -0.20682421185796249 0 -0.30193575725527561 -0.2175807530290832 0 -0.30066338799155767 -0.20682421185796249 0 -0.30193575725527561 -0.2175807530290832 0 -0.31425561463288282 -0.21376767606023711 0 -0.3047148036077918 -0.19407484875408509 0 -0.31652241714632279 -0.20139554792201619 0 -0.31425561463288282 -0.21376767606023711 0 -0.29315323058954168 -0.1955997402968653 0 -0.3047148036077918 -0.19407484875408509 0 -0.30397119195552719 -0.18204632285674799 0 -0.29315323058954168 -0.1955997402968653 0 -0.30066338799155767 -0.20682421185796249 0 -0.3047148036077918 -0.19407484875408509 0 -0.29757049813878339 -0.17276530715694879 0 -0.30397119195552719 -0.18204632285674799 0 -0.30813332536697963 -0.16096074402617611 0 -0.30397119195552719 -0.18204632285674799 0 -0.30813332536697963 -0.16096074402617611 0 -0.31708307920382828 -0.18583209117408869 0 -0.3047148036077918 -0.19407484875408509 0 -0.30397119195552719 -0.18204632285674799 0 -0.31708307920382828 -0.18583209117408869 0 -0.29757049813878339 -0.17276530715694879 0 -0.30813332536697963 -0.16096074402617611 0 -0.28945872700800018 -0.1579381332000801 0 -0.29757049813878339 -0.17276530715694879 0 -0.30813332536697963 -0.16096074402617611 0 -0.29757049813878339 -0.17276530715694879 0 -0.28945872700800018 -0.1579381332000801 0 -0.28302970907240538 -0.17168251293146711 0 -0.29315323058954168 -0.1955997402968653 0 -0.30397119195552719 -0.18204632285674799 0 -0.28700767091058649 -0.18456987028772079 0 -0.29757049813878339 -0.17276530715694879 0 -0.30397119195552719 -0.18204632285674799 0 -0.28700767091058649 -0.18456987028772079 0 -0.29757049813878339 -0.17276530715694879 0 -0.28302970907240538 -0.17168251293146711 0 -0.28700767091058649 -0.18456987028772079 0 -0.29757049813878339 -0.17276530715694879 0 -0.28700767091058649 -0.18456987028772079 0 -0.28302970907240538 -0.17168251293146711 0 -0.28700767091058649 -0.18456987028772079 0 -0.27007909332812569 -0.18209603418584819 0 -0.2483398262974954 -0.18922693053312831 0 -0.27007909332812569 -0.18209603418584819 0 -0.25271889298649158 -0.1679806496505597 0 -0.25271889298649158 -0.1679806496505597 0 -0.27103255597653148 -0.16104321982673789 0 -0.25578250753185311 -0.14802578947125861 0 -0.27007909332812569 -0.18209603418584819 0 -0.25271889298649158 -0.1679806496505597 0 -0.27103255597653148 -0.16104321982673789 0 -0.28945872700800018 -0.1579381332000801 0 -0.28302970907240538 -0.17168251293146711 0 -0.27103255597653148 -0.16104321982673789 0 -0.28302970907240538 -0.17168251293146711 0 -0.27007909332812569 -0.18209603418584819 0 -0.27103255597653148 -0.16104321982673789 0 -0.28945872700800018 -0.1579381332000801 0 -0.27103255597653148 -0.16104321982673789 0 -0.27379953278857633 -0.1386818217229375 0 -0.27103255597653148 -0.16104321982673789 0 -0.25578250753185311 -0.14802578947125861 0 -0.27379953278857633 -0.1386818217229375 0 -0.2409398231610872 -0.13186912537847981 0 -0.25578250753185311 -0.14802578947125861 0 -0.25932932114952739 -0.12856483931308879 0 -0.25578250753185311 -0.14802578947125861 0 -0.25932932114952739 -0.12856483931308879 0 -0.27379953278857633 -0.1386818217229375 0 -0.27626325021792358 -0.1210442664329144 0 -0.25932932114952739 -0.12856483931308879 0 -0.27379953278857633 -0.1386818217229375 0 -0.27379953278857633 -0.1386818217229375 0 -0.30137232246537071 -0.1421719311382045 0 -0.27379953278857633 -0.1386818217229375 0 -0.29605785587456279 -0.12740303962504079 0 -0.30137232246537071 -0.1421719311382045 0 -0.27626325021792358 -0.1210442664329144 0 -0.27379953278857633 -0.1386818217229375 0 -0.29605785587456279 -0.12740303962504079 0 -0.28945872700800018 -0.1579381332000801 0 -0.27379953278857633 -0.1386818217229375 0 -0.30137232246537071 -0.1421719311382045 0 -0.30813332536697963 -0.16096074402617611 0 -0.30137232246537071 -0.1421719311382045 0 -0.32254736869935913 -0.14485222678823759 0 -0.30137232246537071 -0.1421719311382045 0 -0.32254736869935913 -0.14485222678823759 0 -0.30813332536697963 -0.16096074402617611 0 -0.28945872700800018 -0.1579381332000801 0 -0.30137232246537071 -0.1421719311382045 0 -0.30813332536697963 -0.16096074402617611 0 -0.30137232246537071 -0.1421719311382045 0 -0.30137232246537071 -0.1421719311382045 0 -0.31285032913707123 -0.1297010331931657 0 -0.32254736869935913 -0.14485222678823759 0 -0.30700485317769322 -0.11879667610682521 0 -0.29605785587456279 -0.12740303962504079 0 -0.31285032913707123 -0.1297010331931657 0 -0.29605785587456279 -0.12740303962504079 0 -0.30137232246537071 -0.1421719311382045 0 -0.31285032913707123 -0.1297010331931657 0 -0.29605785587456279 -0.12740303962504079 0 -0.30137232246537071 -0.1421719311382045 0 -0.32767858835971608 -0.12149185167871231 0 -0.31285032913707123 -0.1297010331931657 0 -0.32254736869935913 -0.14485222678823759 0 -0.30813332536697963 -0.16096074402617611 0 -0.32254736869935913 -0.14485222678823759 0 -0.32254736869935913 -0.14485222678823759 0 -0.34899001581951278 -0.14819928498438889 0 -0.32254736869935913 -0.14485222678823759 0 -0.34899001581951278 -0.14819928498438889 0 -0.33146138471254433 -0.16744902404277101 0 -0.32254736869935913 -0.14485222678823759 0 -0.33833755089045298 -0.12720579572444549 0 -0.34899001581951278 -0.14819928498438889 0 -0.32254736869935913 -0.14485222678823759 0 -0.33833755089045298 -0.12720579572444549 0 -0.32767858835971608 -0.12149185167871231 0 -0.32254736869935913 -0.14485222678823759 0 -0.33833755089045298 -0.12720579572444549 0 -0.35685399102924509 -0.12873589503443661 0 -0.36188324143678358 -0.14064261357496791 0 -0.34899001581951278 -0.14819928498438889 0 -0.33833755089045298 -0.12720579572444549 0 -0.35685399102924509 -0.12873589503443661 0 -0.34899001581951278 -0.14819928498438889 0 -0.35685399102924509 -0.12873589503443661 0 -0.36876862971164748 -0.1291827628259527 0 -0.36188324143678358 -0.14064261357496791 0 -0.36876862971164748 -0.1291827628259527 0 -0.37168421320440481 -0.14280823282333671 0 -0.36188324143678358 -0.14064261357496791 0 -0.34899001581951278 -0.14819928498438889 0 -0.3754326629396661 -0.1515463431805443 0 -0.34899001581951278 -0.14819928498438889 0 -0.36527358193020382 -0.16322763862030459 0 -0.3754326629396661 -0.1515463431805443 0 -0.36188324143678358 -0.14064261357496791 0 -0.34899001581951278 -0.14819928498438889 0 -0.3754326629396661 -0.1515463431805443 0 -0.37168421320440481 -0.14280823282333671 0 -0.36188324143678358 -0.14064261357496791 0 -0.3754326629396661 -0.1515463431805443 0 -0.34899001581951278 -0.14819928498438889 0 -0.3546513134448408 -0.17636950046810251 0 -0.33146138471254433 -0.16744902404277101 0 -0.34899001581951278 -0.14819928498438889 0 -0.36527358193020382 -0.16322763862030459 0 -0.3546513134448408 -0.17636950046810251 0 -0.36527358193020382 -0.16322763862030459 0 -0.38079577788858748 -0.17101991627491911 0 -0.3754326629396661 -0.1515463431805443 0 -0.36527358193020382 -0.16322763862030459 0 -0.3546513134448408 -0.17636950046810251 0 -0.38079577788858748 -0.17101991627491911 0 -0.3546513134448408 -0.17636950046810251 0 -0.37648434059169988 -0.19627147923910421 0 -0.38079577788858748 -0.17101991627491911 0 -0.3546513134448408 -0.17636950046810251 0 -0.33146138471254433 -0.16744902404277101 0 -0.33736320574074452 -0.1884802968156303 0 -0.33146138471254433 -0.16744902404277101 0 -0.31708307920382828 -0.18583209117408869 0 -0.33736320574074452 -0.1884802968156303 0 -0.30813332536697963 -0.16096074402617611 0 -0.32254736869935913 -0.14485222678823759 0 -0.33146138471254433 -0.16744902404277101 0 -0.30813332536697963 -0.16096074402617611 0 -0.33146138471254433 -0.16744902404277101 0 -0.31708307920382828 -0.18583209117408869 0 -0.30813332536697963 -0.16096074402617611 0 -0.31708307920382828 -0.18583209117408869 0 -0.31708307920382828 -0.18583209117408869 0 -0.31652241714632279 -0.20139554792201619 0 -0.32603283304067737 -0.2107034383220012 0 -0.31708307920382828 -0.18583209117408869 0 -0.32603283304067737 -0.2107034383220012 0 -0.33736320574074452 -0.1884802968156303 0 -0.31708307920382828 -0.18583209117408869 0 -0.32603283304067737 -0.2107034383220012 0 -0.3047148036077918 -0.19407484875408509 0 -0.31708307920382828 -0.18583209117408869 0 -0.31652241714632279 -0.20139554792201619 0 -0.31652241714632279 -0.20139554792201619 0 -0.31943745060918421 -0.20854231528537809 0 -0.31425561463288282 -0.21376767606023711 0 -0.31425561463288282 -0.21376767606023711 0 -0.32385736482767258 -0.21874037756063841 0 -0.32081532331755741 -0.21296147716242489 0 -0.31943745060918421 -0.20854231528537809 0 -0.31425561463288282 -0.21376767606023711 0 -0.32081532331755741 -0.21296147716242489 0 -0.32385736482767258 -0.21874037756063841 0 -0.32081532331755741 -0.21296147716242489 0 -0.32603283304067737 -0.2107034383220012 0 -0.31652241714632279 -0.20139554792201619 0 -0.31943745060918421 -0.20854231528537809 0 -0.32603283304067737 -0.2107034383220012 0 -0.31943745060918421 -0.20854231528537809 0 -0.32081532331755741 -0.21296147716242489 0 -0.32603283304067737 -0.2107034383220012 0 -0.32603283304067737 -0.2107034383220012 0 -0.3512585868161886 -0.2034874587805526 0 -0.32603283304067737 -0.2107034383220012 0 -0.34235341118166063 -0.2179984332397959 0 -0.3512585868161886 -0.2034874587805526 0 -0.32603283304067737 -0.2107034383220012 0 -0.33736320574074452 -0.1884802968156303 0 -0.3512585868161886 -0.2034874587805526 0 -0.3546513134448408 -0.17636950046810251 0 -0.33736320574074452 -0.1884802968156303 0 -0.3512585868161886 -0.2034874587805526 0 -0.3512585868161886 -0.2034874587805526 0 -0.37648434059169988 -0.19627147923910421 0 -0.3546513134448408 -0.17636950046810251 0 -0.3512585868161886 -0.2034874587805526 0 -0.37648434059169988 -0.19627147923910421 0 -0.35880773864574578 -0.21714855489406051 0 -0.37078052950012508 -0.22329199778733699 0 -0.38033762030474311 -0.2122696168898249 0 -0.35880773864574578 -0.21714855489406051 0 -0.3512585868161886 -0.2034874587805526 0 -0.37648434059169988 -0.19627147923910421 0 -0.35880773864574578 -0.21714855489406051 0 -0.38033762030474311 -0.2122696168898249 0 -0.37648434059169988 -0.19627147923910421 0 -0.34235341118166063 -0.2179984332397959 0 -0.35880773864574578 -0.21714855489406051 0 -0.3512585868161886 -0.2034874587805526 0 -0.35880773864574578 -0.21714855489406051 0 -0.34556766771823161 -0.22695940550095181 0 -0.35205888309159472 -0.23822266422993901 0 -0.34235341118166063 -0.2179984332397959 0 -0.35880773864574578 -0.21714855489406051 0 -0.34556766771823161 -0.22695940550095181 0 -0.37078052950012508 -0.22329199778733699 0 -0.35205888309159472 -0.23822266422993901 0 -0.37078052950012508 -0.22329199778733699 0 -0.37399680437649641 -0.24103310080026069 0 -0.35205888309159472 -0.23822266422993901 0 -0.35880773864574578 -0.21714855489406051 0 -0.37078052950012508 -0.22329199778733699 0 -0.35205888309159472 -0.23822266422993901 0 -0.35880864564215847 -0.25758926764935441 0 -0.37399680437649641 -0.24103310080026069 0 -0.35205888309159472 -0.23822266422993901 0 -0.33333723668306442 -0.25315333067254109 0 -0.35880864564215847 -0.25758926764935441 0 -0.35205888309159472 -0.23822266422993901 0 -0.33333723668306442 -0.25315333067254109 0 -0.35205888309159472 -0.23822266422993901 0 -0.33333723668306442 -0.25315333067254109 0 -0.33303654305724362 -0.23016673377356131 0 -0.32379642565797367 -0.23346050336638899 0 -0.33333723668306442 -0.25315333067254109 0 -0.35205888309159472 -0.23822266422993901 0 -0.33303654305724362 -0.23016673377356131 0 -0.33333723668306442 -0.25315333067254109 0 -0.32379642565797367 -0.23346050336638899 0 -0.32603283304067737 -0.2107034383220012 0 -0.33303654305724362 -0.23016673377356131 0 -0.34556766771823161 -0.22695940550095181 0 -0.35205888309159472 -0.23822266422993901 0 -0.33303654305724362 -0.23016673377356131 0 -0.32603283304067737 -0.2107034383220012 0 -0.34235341118166063 -0.2179984332397959 0 -0.33303654305724362 -0.23016673377356131 0 -0.34235341118166063 -0.2179984332397959 0 -0.34556766771823161 -0.22695940550095181 0 -0.33303654305724362 -0.23016673377356131 0 -0.32385736482767258 -0.21874037756063841 0 -0.32603283304067737 -0.2107034383220012 0 -0.33303654305724362 -0.23016673377356131 0 -0.31425561463288282 -0.21376767606023711 0 -0.32379642565797367 -0.23346050336638899 0 -0.30751002707553438 -0.22861481784185461 0 -0.32379642565797367 -0.23346050336638899 0 -0.31366076065253179 -0.23613905973582691 0 -0.30751002707553438 -0.22861481784185461 0 -0.31425561463288282 -0.21376767606023711 0 -0.32379642565797367 -0.23346050336638899 0 -0.32385736482767258 -0.21874037756063841 0 -0.33303654305724362 -0.23016673377356131 0 -0.32379642565797367 -0.23346050336638899 0 -0.31425561463288282 -0.21376767606023711 0 -0.32385736482767258 -0.21874037756063841 0 -0.32379642565797367 -0.23346050336638899 0 -0.30705116106705421 -0.2396741143152181 0 -0.31366076065253179 -0.23613905973582691 0 -0.31738185613404718 -0.2443924588626166 0 -0.32379642565797367 -0.23346050336638899 0 -0.31366076065253179 -0.23613905973582691 0 -0.31738185613404718 -0.2443924588626166 0 -0.33333723668306442 -0.25315333067254109 0 -0.32379642565797367 -0.23346050336638899 0 -0.31738185613404718 -0.2443924588626166 0 -0.31852542310247378 -0.25450617829883249 0 -0.31066012073268828 -0.2486229655060174 0 -0.31738185613404718 -0.2443924588626166 0 -0.43208010054109969 -0.25864092592141369 0 -0.42765081121698162 -0.23988038202469389 0 -0.4526682049430118 -0.24965412602685361 0 -0.42765081121698162 -0.23988038202469389 0 -0.42967713773719279 -0.22084390036134871 0 -0.40987581245295351 -0.2295412058037071 0 -0.42765081121698162 -0.23988038202469389 0 -0.42967713773719279 -0.22084390036134871 0 -0.44847878189966361 -0.2299160038802732 0 -0.42967713773719279 -0.22084390036134871 0 -0.40987581245295351 -0.2295412058037071 0 -0.4159396874006106 -0.2106798330533213 0 -0.40974667659117497 -0.25491852591673608 0 -0.42765081121698162 -0.23988038202469389 0 -0.40987581245295351 -0.2295412058037071 0 -0.40974667659117497 -0.25491852591673608 0 -0.40987581245295351 -0.2295412058037071 0 -0.39379270280730833 -0.2426237641303024 0 -0.38106945471233178 -0.25792830927888799 0 -0.37399680437649641 -0.24103310080026069 0 -0.39379270280730833 -0.2426237641303024 0 -0.37399680437649641 -0.24103310080026069 0 -0.39379270280730833 -0.2426237641303024 0 -0.38747061050545978 -0.22654260172574359 0 -0.37078052950012508 -0.22329199778733699 0 -0.38747061050545978 -0.22654260172574359 0 -0.38033762030474311 -0.2122696168898249 0 -0.37078052950012508 -0.22329199778733699 0 -0.37399680437649641 -0.24103310080026069 0 -0.38747061050545978 -0.22654260172574359 0 -0.40987581245295351 -0.2295412058037071 0 -0.39379270280730833 -0.2426237641303024 0 -0.38747061050545978 -0.22654260172574359 0 -0.40987581245295351 -0.2295412058037071 0 -0.38747061050545978 -0.22654260172574359 0 -0.39860922013559252 -0.21360201314184629 0 -0.39860922013559252 -0.21360201314184629 0 -0.39210684591920442 -0.20017719287295449 0 -0.40592474423058411 -0.2024016285055262 0 -0.39860922013559252 -0.21360201314184629 0 -0.38033762030474311 -0.2122696168898249 0 -0.39210684591920442 -0.20017719287295449 0 -0.38747061050545978 -0.22654260172574359 0 -0.39860922013559252 -0.21360201314184629 0 -0.38033762030474311 -0.2122696168898249 0 -0.38033762030474311 -0.2122696168898249 0 -0.37648434059169988 -0.19627147923910421 0 -0.39210684591920442 -0.20017719287295449 0 -0.37648434059169988 -0.19627147923910421 0 -0.39210684591920442 -0.20017719287295449 0 -0.40171009436721161 -0.18905549969765689 0 -0.37648434059169988 -0.19627147923910421 0 -0.40171009436721161 -0.18905549969765689 0 -0.39210684591920442 -0.20017719287295449 0 -0.40171009436721161 -0.18905549969765689 0 -0.39210684591920442 -0.20017719287295449 0 -0.40592474423058411 -0.2024016285055262 0 -0.40171009436721161 -0.18905549969765689 0 -0.40592474423058411 -0.2024016285055262 0 -0.40171009436721161 -0.18905549969765689 0 -0.40778030138465288 -0.191060987191007 0 -0.40592474423058411 -0.2024016285055262 0 -0.41926544085417827 -0.19503476552771609 0 -0.4159396874006106 -0.2106798330533213 0 -0.40778030138465288 -0.191060987191007 0 -0.41926544085417827 -0.19503476552771609 0 -0.40955735856846198 -0.17996744317342181 0 -0.40592474423058411 -0.2024016285055262 0 -0.40778030138465288 -0.191060987191007 0 -0.41926544085417827 -0.19503476552771609 0 -0.40987581245295351 -0.2295412058037071 0 -0.39860922013559252 -0.21360201314184629 0 -0.4159396874006106 -0.2106798330533213 0 -0.41926544085417827 -0.19503476552771609 0 -0.4159396874006106 -0.2106798330533213 0 -0.42973547050069438 -0.20486127261209791 0 -0.39860922013559252 -0.21360201314184629 0 -0.40592474423058411 -0.2024016285055262 0 -0.4159396874006106 -0.2106798330533213 0 -0.42967713773719279 -0.22084390036134871 0 -0.4159396874006106 -0.2106798330533213 0 -0.42973547050069438 -0.20486127261209791 0 -0.42967713773719279 -0.22084390036134871 0 -0.42973547050069438 -0.20486127261209791 0 -0.44638226295225403 -0.21018470479399901 0 -0.41926544085417827 -0.19503476552771609 0 -0.43681820442950953 -0.1884481019498826 0 -0.40955735856846198 -0.17996744317342181 0 -0.41926544085417827 -0.19503476552771609 0 -0.42973547050069438 -0.20486127261209791 0 -0.43681820442950953 -0.1884481019498826 0 -0.43681820442950953 -0.1884481019498826 0 -0.4283179571799729 -0.1582404595728529 0 -0.40955735856846198 -0.17996744317342181 0 -0.43681820442950953 -0.1884481019498826 0 -0.40955735856846198 -0.17996744317342181 0 -0.4283179571799729 -0.1582404595728529 0 -0.40955735856846198 -0.17996744317342181 0 -0.4283179571799729 -0.1582404595728529 0 -0.4018753100598193 -0.15489340137669971 0 -0.4283179571799729 -0.1582404595728529 0 -0.40955735856846198 -0.17996744317342181 0 -0.4018753100598193 -0.15489340137669971 0 -0.40171009436721161 -0.18905549969765689 0 -0.40778030138465288 -0.191060987191007 0 -0.40955735856846198 -0.17996744317342181 0 -0.40171009436721161 -0.18905549969765689 0 -0.40955735856846198 -0.17996744317342181 0 -0.40955735856846198 -0.17996744317342181 0 -0.38079577788858748 -0.17101991627491911 0 -0.40171009436721161 -0.18905549969765689 0 -0.40955735856846198 -0.17996744317342181 0 -0.38079577788858748 -0.17101991627491911 0 -0.37648434059169988 -0.19627147923910421 0 -0.40171009436721161 -0.18905549969765689 0 -0.38079577788858748 -0.17101991627491911 0 -0.38079577788858748 -0.17101991627491911 0 -0.4018753100598193 -0.15489340137669971 0 -0.3754326629396661 -0.1515463431805443 0 -0.40955735856846198 -0.17996744317342181 0 -0.38079577788858748 -0.17101991627491911 0 -0.4018753100598193 -0.15489340137669971 0 -0.4018753100598193 -0.15489340137669971 0 -0.38761854581374688 -0.13944687271557141 0 -0.4036624971848955 -0.1320289133843025 0 -0.4018753100598193 -0.15489340137669971 0 -0.3754326629396661 -0.1515463431805443 0 -0.37168421320440481 -0.14280823282333671 0 -0.3754326629396661 -0.1515463431805443 0 -0.38761854581374688 -0.13944687271557141 0 -0.4018753100598193 -0.15489340137669971 0 -0.3754326629396661 -0.1515463431805443 0 -0.38761854581374688 -0.13944687271557141 0 -0.36876862971164748 -0.1291827628259527 0 -0.37168421320440481 -0.14280823282333671 0 -0.38575687053102797 -0.1195293516281062 0 -0.37168421320440481 -0.14280823282333671 0 -0.38575687053102797 -0.1195293516281062 0 -0.37168421320440481 -0.14280823282333671 0 -0.38761854581374688 -0.13944687271557141 0 -0.38575687053102797 -0.1195293516281062 0 -0.38761854581374688 -0.13944687271557141 0 -0.4036624971848955 -0.1320289133843025 0 -0.38575687053102797 -0.1195293516281062 0 -0.4036624971848955 -0.1320289133843025 0 -0.42072497330102748 -0.12878009307486671 0 -0.41648721246700199 -0.14558098891301741 0 -0.4283179571799729 -0.1582404595728529 0 -0.4018753100598193 -0.15489340137669971 0 -0.41648721246700199 -0.14558098891301741 0 -0.4018753100598193 -0.15489340137669971 0 -0.4036624971848955 -0.1320289133843025 0 -0.41648721246700199 -0.14558098891301741 0 -0.4283179571799729 -0.1582404595728529 0 -0.44350657298132162 -0.14065025292406419 0 -0.4283179571799729 -0.1582404595728529 0 -0.41648721246700199 -0.14558098891301741 0 -0.44350657298132162 -0.14065025292406419 0 -0.42072497330102748 -0.12878009307486671 0 -0.41648721246700199 -0.14558098891301741 0 -0.44350657298132162 -0.14065025292406419 0 -0.42072497330102748 -0.12878009307486671 0 -0.44350657298132162 -0.14065025292406419 0 -0.43399263732170179 -0.1232529367379208 0 -0.44350657298132162 -0.14065025292406419 0 -0.45869518878267351 -0.1230600462752782 0 -0.44350657298132162 -0.14065025292406419 0 -0.43399263732170179 -0.1232529367379208 0 -0.44477089636926348 -0.1241132159772677 0 -0.44350657298132162 -0.14065025292406419 0 -0.44477089636926348 -0.1241132159772677 0 -0.45869518878267351 -0.1230600462752782 0 -0.4283179571799729 -0.1582404595728529 0 -0.44350657298132162 -0.14065025292406419 0 -0.45551811745023207 -0.16168340229169989 0 -0.44350657298132162 -0.14065025292406419 0 -0.4606715471954958 -0.14011913287747371 0 -0.45551811745023207 -0.16168340229169989 0 -0.4606715471954958 -0.14011913287747371 0 -0.47775053587207889 -0.14191539957880109 0 -0.45551811745023207 -0.16168340229169989 0 -0.4606715471954958 -0.14011913287747371 0 -0.45869518878267351 -0.1230600462752782 0 -0.4727827940236673 -0.1187044541470552 0 -0.44350657298132162 -0.14065025292406419 0 -0.4606715471954958 -0.14011913287747371 0 -0.45869518878267351 -0.1230600462752782 0 -0.4606715471954958 -0.14011913287747371 0 -0.47775053587207889 -0.14191539957880109 0 -0.4727827940236673 -0.1187044541470552 0 -0.48628617223079418 -0.12795146767654039 0 -0.47775053587207889 -0.14191539957880109 0 -0.4727827940236673 -0.1187044541470552 0 -0.47775053587207889 -0.14191539957880109 0 -0.4727827940236673 -0.1187044541470552 0 -0.48628617223079418 -0.12795146767654039 0 -0.5 -0.148714196196023 0 -0.5 -0.1190195356271037 0 -0.48628617223079418 -0.12795146767654039 0 -0.5 -0.148714196196023 0 -0.47775053587207889 -0.14191539957880109 0 -0.5 -0.148714196196023 0 -0.47775053587207889 -0.14191539957880109 0 -0.4827182777204912 -0.16512634501054679 0 -0.47775053587207889 -0.14191539957880109 0 -0.4827182777204912 -0.16512634501054679 0 -0.47775053587207889 -0.14191539957880109 0 -0.4827182777204912 -0.16512634501054679 0 -0.45551811745023207 -0.16168340229169989 0 -0.4827182777204912 -0.16512634501054679 0 -0.45551811745023207 -0.16168340229169989 0 -0.5 -0.148714196196023 0 -0.4827182777204912 -0.16512634501054679 0 -0.48849702645766491 -0.16585780764499239 0 -0.5 -0.148714196196023 0 -0.48849702645766491 -0.16585780764499239 0 -0.5 -0.17840885676494231 0 -0.4827182777204912 -0.16512634501054679 0 -0.48849702645766491 -0.16585780764499239 0 -0.4827182777204912 -0.16512634501054679 0 -0.48849702645766491 -0.16585780764499239 0 -0.48702908693604652 -0.1852678822566767 0 -0.4827182777204912 -0.16512634501054679 0 -0.48702908693604652 -0.1852678822566767 0 -0.48849702645766491 -0.16585780764499239 0 -0.5 -0.17840885676494231 0 -0.48702908693604652 -0.1852678822566767 0 -0.4827182777204912 -0.16512634501054679 0 -0.48702908693604652 -0.1852678822566767 0 -0.46523254736536712 -0.1794908984470299 0 -0.48702908693604652 -0.1852678822566767 0 -0.46523254736536712 -0.1794908984470299 0 -0.46407905029055668 -0.1969287607263433 0 -0.4827182777204912 -0.16512634501054679 0 -0.46523254736536712 -0.1794908984470299 0 -0.45551811745023207 -0.16168340229169989 0 -0.4283179571799729 -0.1582404595728529 0 -0.45551811745023207 -0.16168340229169989 0 -0.43681820442950953 -0.1884481019498826 0 -0.4283179571799729 -0.1582404595728529 0 -0.45551811745023207 -0.16168340229169989 0 -0.43681820442950953 -0.1884481019498826 0 -0.46523254736536712 -0.1794908984470299 0 -0.45551811745023207 -0.16168340229169989 0 -0.43681820442950953 -0.1884481019498826 0 -0.46407905029055668 -0.1969287607263433 0 -0.42973547050069438 -0.20486127261209791 0 -0.43681820442950953 -0.1884481019498826 0 -0.44638226295225403 -0.21018470479399901 0 -0.43681820442950953 -0.1884481019498826 0 -0.44638226295225403 -0.21018470479399901 0 -0.46407905029055668 -0.1969287607263433 0 -0.44638226295225403 -0.21018470479399901 0 -0.46407905029055668 -0.1969287607263433 0 -0.46577329999503658 -0.21986284641526621 0 -0.43681820442950953 -0.1884481019498826 0 -0.46523254736536712 -0.1794908984470299 0 -0.46407905029055668 -0.1969287607263433 0 -0.48702908693604652 -0.1852678822566767 0 -0.46407905029055668 -0.1969287607263433 0 -0.49133989615160362 -0.20540941950280611 0 -0.46407905029055668 -0.1969287607263433 0 -0.49133989615160362 -0.20540941950280611 0 -0.5 -0.17840885676494231 0 -0.50000000000000511 -0.2081035173338617 0 -0.49133989615160362 -0.20540941950280611 0 -0.5 -0.17840885676494231 0 -0.48702908693604652 -0.1852678822566767 0 -0.49133989615160362 -0.20540941950280611 0 -0.48702908693604652 -0.1852678822566767 0 -0.49133989615160362 -0.20540941950280611 0 -0.49301232660815592 -0.21322357193865801 0 -0.50000000000000511 -0.2081035173338617 0 -0.49999999999999928 -0.2207626365104598 0 -0.50000000000000511 -0.2081035173338617 0 -0.49133989615160362 -0.20540941950280611 0 -0.49301232660815592 -0.21322357193865801 0 -0.50000000000000511 -0.2081035173338617 0 -0.49133989615160362 -0.20540941950280611 0 -0.49301232660815592 -0.21322357193865801 0 -0.49133989615160362 -0.20540941950280611 0 -0.49301232660815592 -0.21322357193865801 0 -0.49133989615160362 -0.20540941950280611 0 -0.47836707371138942 -0.21287558854527619 0 -0.49301232660815592 -0.21322357193865801 0 -0.47836707371138942 -0.21287558854527619 0 -0.4874732294868146 -0.2236890257911277 0 -0.46407905029055668 -0.1969287607263433 0 -0.49133989615160362 -0.20540941950280611 0 -0.47836707371138942 -0.21287558854527619 0 -0.46407905029055668 -0.1969287607263433 0 -0.47836707371138942 -0.21287558854527619 0 -0.46577329999503658 -0.21986284641526621 0 -0.47836707371138942 -0.21287558854527619 0 -0.47909613043830279 -0.2272118162028022 0 -0.46577329999503658 -0.21986284641526621 0 -0.47909613043830279 -0.2272118162028022 0 -0.46812635542377801 -0.23995500628525609 0 -0.46577329999503658 -0.21986284641526621 0 -0.47836707371138942 -0.21287558854527619 0 -0.47909613043830279 -0.2272118162028022 0 -0.4874732294868146 -0.2236890257911277 0 -0.49999999999999928 -0.2207626365104598 0 -0.48689061667622502 -0.2443715157584426 0 -0.4874732294868146 -0.2236890257911277 0 -0.49999999999999928 -0.2207626365104598 0 -0.48689061667622502 -0.2443715157584426 0 -0.47909613043830279 -0.2272118162028022 0 -0.4874732294868146 -0.2236890257911277 0 -0.48689061667622502 -0.2443715157584426 0 -0.49301232660815592 -0.21322357193865801 0 -0.4874732294868146 -0.2236890257911277 0 -0.49999999999999928 -0.2207626365104598 0 -0.49999999999999928 -0.2207626365104598 0 -0.48689061667622502 -0.2443715157584426 0 -0.5 -0.24988566257336919 0 -0.47909613043830279 -0.2272118162028022 0 -0.48689061667622502 -0.2443715157584426 0 -0.46812635542377801 -0.23995500628525609 0 -0.46812635542377801 -0.23995500628525609 0 -0.44847878189966361 -0.2299160038802732 0 -0.4526682049430118 -0.24965412602685361 0 -0.44638226295225403 -0.21018470479399901 0 -0.46577329999503658 -0.21986284641526621 0 -0.44847878189966361 -0.2299160038802732 0 -0.46812635542377801 -0.23995500628525609 0 -0.46577329999503658 -0.21986284641526621 0 -0.44847878189966361 -0.2299160038802732 0 -0.42967713773719279 -0.22084390036134871 0 -0.44638226295225403 -0.21018470479399901 0 -0.44847878189966361 -0.2299160038802732 0 -0.42765081121698162 -0.23988038202469389 0 -0.44847878189966361 -0.2299160038802732 0 -0.4526682049430118 -0.24965412602685361 0 -0.41993031256775287 -0.038367533777351172 0 -0.42098167776940881 -0.025264723558676368 0 -0.40467924728644261 -0.033609210371375577 0 -0.41993031256775287 -0.038367533777351172 0 -0.40955405048457821 -0.04761728715097413 0 -0.40467924728644261 -0.033609210371375577 0 -0.41993031256775287 -0.038367533777351172 0 -0.40955405048457821 -0.04761728715097413 0 -0.42473410025234182 -0.055053518887894559 0 -0.40955405048457821 -0.04761728715097413 0 -0.41343821633103039 -0.056956032355579431 0 -0.40373728014686833 -0.054117860452540259 0 -0.40955405048457821 -0.04761728715097413 0 -0.40373728014686833 -0.054117860452540259 0 -0.41343821633103039 -0.056956032355579431 0 -0.40373728014686833 -0.054117860452540259 0 -0.41222388908825341 -0.067973177340727012 0 -0.40373728014686833 -0.054117860452540259 0 -0.41222388908825341 -0.067973177340727012 0 -0.41343821633103039 -0.056956032355579431 0 -0.42473410025234182 -0.055053518887894559 0 -0.41222388908825341 -0.067973177340727012 0 -0.40955405048457821 -0.04761728715097413 0 -0.41343821633103039 -0.056956032355579431 0 -0.42473410025234182 -0.055053518887894559 0 -0.42473410025234182 -0.055053518887894559 0 -0.437038806390457 -0.055880672309189153 0 -0.43970248704599302 -0.03029292891783518 0 -0.42473410025234182 -0.055053518887894559 0 -0.437038806390457 -0.055880672309189153 0 -0.42649893203576589 -0.069501929735749771 0 -0.41993031256775287 -0.038367533777351172 0 -0.42473410025234182 -0.055053518887894559 0 -0.43970248704599302 -0.03029292891783518 0 -0.42473410025234182 -0.055053518887894559 0 -0.43970248704599302 -0.03029292891783518 0 -0.41993031256775287 -0.038367533777351172 0 -0.42098167776940881 -0.025264723558676368 0 -0.43970248704599302 -0.03029292891783518 0 -0.43175901515299292 -0.01002830720941182 0 -0.43970248704599302 -0.03029292891783518 0 -0.43175901515299292 -0.01002830720941182 0 -0.42098167776940881 -0.025264723558676368 0 -0.43970248704599302 -0.03029292891783518 0 -0.43175901515299292 -0.01002830720941182 0 -0.44184645403259082 -0.0051152034820006707 0 -0.43303653804581971 0.00100735509147388 0 -0.40689618909538078 -0.010708057394584679 0 -0.42381554325999182 0.01023631449901107 0 -0.43175901515299292 -0.01002830720941182 0 -0.40689618909538078 -0.010708057394584679 0 -0.42381554325999182 0.01023631449901107 0 -0.43175901515299292 -0.01002830720941182 0 -0.40689618909538078 -0.010708057394584679 0 -0.42098167776940881 -0.025264723558676368 0 -0.40689618909538078 -0.010708057394584679 0 -0.42098167776940881 -0.025264723558676368 0 -0.40467924728644261 -0.033609210371375577 0 -0.40689618909538078 -0.010708057394584679 0 -0.38997683493077301 -0.031652429288183043 0 -0.40467924728644261 -0.033609210371375577 0 -0.40689618909538078 -0.010708057394584679 0 -0.39104649733607372 -0.015219184936427 0 -0.38997683493077301 -0.031652429288183043 0 -0.40689618909538078 -0.010708057394584679 0 -0.38997683493077301 -0.031652429288183043 0 -0.40689618909538078 -0.010708057394584679 0 -0.40016865175094513 -0.002364466148785722 0 -0.40566918064490348 0.01055659507906349 0 -0.40689618909538078 -0.010708057394584679 0 -0.40016865175094513 -0.002364466148785722 0 -0.39104649733607372 -0.015219184936427 0 -0.40016865175094513 -0.002364466148785722 0 -0.39104649733607372 -0.015219184936427 0 -0.38979929962414928 -0.0050758882974507868 0 -0.38979929962414928 -0.0050758882974507868 0 -0.37995770643620042 -0.015295106688009369 0 -0.36531170485973208 0.0086160920473635355 0 -0.38979929962414928 -0.0050758882974507868 0 -0.37995770643620042 -0.015295106688009369 0 -0.39104649733607372 -0.015219184936427 0 -0.38979929962414928 -0.0050758882974507868 0 -0.37995770643620042 -0.015295106688009369 0 -0.39104649733607372 -0.015219184936427 0 -0.38979929962414928 -0.0050758882974507868 0 -0.366520955514678 -0.029247430209636521 0 -0.37995770643620042 -0.015295106688009369 0 -0.38997683493077301 -0.031652429288183043 0 -0.37995770643620042 -0.015295106688009369 0 -0.38997683493077301 -0.031652429288183043 0 -0.39104649733607372 -0.015219184936427 0 -0.37995770643620042 -0.015295106688009369 0 -0.38997683493077301 -0.031652429288183043 0 -0.37235061227320992 -0.053471829652264199 0 -0.38997683493077301 -0.031652429288183043 0 -0.38643520333368109 -0.052872543703923178 0 -0.37235061227320992 -0.053471829652264199 0 -0.38997683493077301 -0.031652429288183043 0 -0.37235061227320992 -0.053471829652264199 0 -0.36677807484786062 -0.044796611883100107 0 -0.38997683493077301 -0.031652429288183043 0 -0.38997683493077301 -0.031652429288183043 0 -0.40467924728644261 -0.033609210371375577 0 -0.40373728014686833 -0.054117860452540259 0 -0.38997683493077301 -0.031652429288183043 0 -0.40373728014686833 -0.054117860452540259 0 -0.38643520333368109 -0.052872543703923178 0 -0.40955405048457821 -0.04761728715097413 0 -0.40467924728644261 -0.033609210371375577 0 -0.40373728014686833 -0.054117860452540259 0 -0.38997683493077301 -0.031652429288183043 0 -0.40373728014686833 -0.054117860452540259 0 -0.40373728014686833 -0.054117860452540259 0 -0.38643520333368109 -0.052872543703923178 0 -0.39137448442014722 -0.067933991255034382 0 -0.40373728014686833 -0.054117860452540259 0 -0.39137448442014722 -0.067933991255034382 0 -0.37473680489740652 -0.057186607871594478 0 -0.38643520333368109 -0.052872543703923178 0 -0.39137448442014722 -0.067933991255034382 0 -0.37473680489740652 -0.057186607871594478 0 -0.37235061227320992 -0.053471829652264199 0 -0.38643520333368109 -0.052872543703923178 0 -0.3717229022466142 -0.070134496744377745 0 -0.37473680489740652 -0.057186607871594478 0 -0.38570809746372992 -0.07426650253306509 0 -0.37473680489740652 -0.057186607871594478 0 -0.38570809746372992 -0.07426650253306509 0 -0.39137448442014722 -0.067933991255034382 0 -0.37473680489740652 -0.057186607871594478 0 -0.39137448442014722 -0.067933991255034382 0 -0.37473680489740652 -0.057186607871594478 0 -0.38570809746372992 -0.07426650253306509 0 -0.38570809746372992 -0.07426650253306509 0 -0.39137448442014722 -0.067933991255034382 0 -0.38570809746372992 -0.07426650253306509 0 -0.38367104554522352 -0.1023753443591711 0 -0.39982952785765169 -0.096250470432876101 0 -0.36991791527263729 -0.091912933596858343 0 -0.3717229022466142 -0.070134496744377745 0 -0.38570809746372992 -0.07426650253306509 0 -0.36991791527263729 -0.091912933596858343 0 -0.38570809746372992 -0.07426650253306509 0 -0.36991791527263729 -0.091912933596858343 0 -0.38570809746372992 -0.07426650253306509 0 -0.38367104554522352 -0.1023753443591711 0 -0.38570809746372992 -0.07426650253306509 0 -0.39982952785765169 -0.096250470432876101 0 -0.40976571345869012 -0.079814108857953869 0 -0.39982952785765169 -0.096250470432876101 0 -0.40976571345869012 -0.079814108857953869 0 -0.38570809746372992 -0.07426650253306509 0 -0.39982952785765169 -0.096250470432876101 0 -0.40373728014686833 -0.054117860452540259 0 -0.39137448442014722 -0.067933991255034382 0 -0.41222388908825341 -0.067973177340727012 0 -0.38570809746372992 -0.07426650253306509 0 -0.39137448442014722 -0.067933991255034382 0 -0.40976571345869012 -0.079814108857953869 0 -0.39137448442014722 -0.067933991255034382 0 -0.41222388908825341 -0.067973177340727012 0 -0.40976571345869012 -0.079814108857953869 0 -0.39137448442014722 -0.067933991255034382 0 -0.40976571345869012 -0.079814108857953869 0 -0.37023010434022541 -0.11362677335512859 0 -0.38575687053102797 -0.1195293516281062 0 -0.38367104554522352 -0.1023753443591711 0 -0.38575687053102797 -0.1195293516281062 0 -0.38367104554522352 -0.1023753443591711 0 -0.39982952785765169 -0.096250470432876101 0 -0.38575687053102797 -0.1195293516281062 0 -0.39982952785765169 -0.096250470432876101 0 -0.39982952785765169 -0.096250470432876101 0 -0.41027725057933973 -0.11251528175387129 0 -0.4036624971848955 -0.1320289133843025 0 -0.38575687053102797 -0.1195293516281062 0 -0.41027725057933973 -0.11251528175387129 0 -0.38575687053102797 -0.1195293516281062 0 -0.39982952785765169 -0.096250470432876101 0 -0.41027725057933973 -0.11251528175387129 0 -0.42072497330102748 -0.12878009307486671 0 -0.41027725057933973 -0.11251528175387129 0 -0.42515578900606887 -0.1126918939114317 0 -0.4036624971848955 -0.1320289133843025 0 -0.42072497330102748 -0.12878009307486671 0 -0.41027725057933973 -0.11251528175387129 0 -0.42072497330102748 -0.12878009307486671 0 -0.41027725057933973 -0.11251528175387129 0 -0.39982952785765169 -0.096250470432876101 0 -0.41027725057933973 -0.11251528175387129 0 -0.4139539547688309 -0.092109291065020707 0 -0.41027725057933973 -0.11251528175387129 0 -0.42124272616768121 -0.1011871360370253 0 -0.4139539547688309 -0.092109291065020707 0 -0.41027725057933973 -0.11251528175387129 0 -0.42124272616768121 -0.1011871360370253 0 -0.42515578900606887 -0.1126918939114317 0 -0.42124272616768121 -0.1011871360370253 0 -0.4139539547688309 -0.092109291065020707 0 -0.42483485454268999 -0.087978887548587112 0 -0.42124272616768121 -0.1011871360370253 0 -0.43329141035652519 -0.1011306207481487 0 -0.42483485454268999 -0.087978887548587112 0 -0.43329141035652519 -0.1011306207481487 0 -0.42515578900606887 -0.1126918939114317 0 -0.43921124116315768 -0.1113643335419629 0 -0.42124272616768121 -0.1011871360370253 0 -0.43329141035652519 -0.1011306207481487 0 -0.42515578900606887 -0.1126918939114317 0 -0.42072497330102748 -0.12878009307486671 0 -0.42515578900606887 -0.1126918939114317 0 -0.43399263732170179 -0.1232529367379208 0 -0.42515578900606887 -0.1126918939114317 0 -0.43399263732170179 -0.1232529367379208 0 -0.43921124116315768 -0.1113643335419629 0 -0.40976571345869012 -0.079814108857953869 0 -0.42042937531861307 -0.079684483219980201 0 -0.42649893203576589 -0.069501929735749771 0 -0.42473410025234182 -0.055053518887894559 0 -0.40976571345869012 -0.079814108857953869 0 -0.42649893203576589 -0.069501929735749771 0 -0.42473410025234182 -0.055053518887894559 0 -0.41222388908825341 -0.067973177340727012 0 -0.40976571345869012 -0.079814108857953869 0 -0.42473410025234182 -0.055053518887894559 0 -0.40976571345869012 -0.079814108857953869 0 -0.39982952785765169 -0.096250470432876101 0 -0.40976571345869012 -0.079814108857953869 0 -0.4139539547688309 -0.092109291065020707 0 -0.40976571345869012 -0.079814108857953869 0 -0.41344681917583709 -0.082191979784189212 0 -0.4139539547688309 -0.092109291065020707 0 -0.40976571345869012 -0.079814108857953869 0 -0.41344681917583709 -0.082191979784189212 0 -0.41344681917583709 -0.082191979784189212 0 -0.4139539547688309 -0.092109291065020707 0 -0.41816625095149268 -0.085491160404444294 0 -0.4139539547688309 -0.092109291065020707 0 -0.41816625095149268 -0.085491160404444294 0 -0.42483485454268999 -0.087978887548587112 0 -0.40976571345869012 -0.079814108857953869 0 -0.41344681917583709 -0.082191979784189212 0 -0.42042937531861307 -0.079684483219980201 0 -0.41816625095149268 -0.085491160404444294 0 -0.42042937531861307 -0.079684483219980201 0 -0.42483485454268999 -0.087978887548587112 0 -0.41344681917583709 -0.082191979784189212 0 -0.41816625095149268 -0.085491160404444294 0 -0.42042937531861307 -0.079684483219980201 0 -0.42042937531861307 -0.079684483219980201 0 -0.42483485454268999 -0.087978887548587112 0 -0.42908280639730162 -0.076971073794874945 0 -0.42483485454268999 -0.087978887548587112 0 -0.43627510485512488 -0.081471843288737827 0 -0.43803786092393449 -0.090002443620277858 0 -0.43329141035652519 -0.1011306207481487 0 -0.42483485454268999 -0.087978887548587112 0 -0.43803786092393449 -0.090002443620277858 0 -0.42483485454268999 -0.087978887548587112 0 -0.43627510485512488 -0.081471843288737827 0 -0.42908280639730162 -0.076971073794874945 0 -0.42908280639730162 -0.076971073794874945 0 -0.42649893203576589 -0.069501929735749771 0 -0.43794279039719219 -0.069607721344605883 0 -0.43627510485512488 -0.081471843288737827 0 -0.42908280639730162 -0.076971073794874945 0 -0.43794279039719219 -0.069607721344605883 0 -0.42042937531861307 -0.079684483219980201 0 -0.42908280639730162 -0.076971073794874945 0 -0.42649893203576589 -0.069501929735749771 0 -0.437038806390457 -0.055880672309189153 0 -0.42649893203576589 -0.069501929735749771 0 -0.43794279039719219 -0.069607721344605883 0 -0.437038806390457 -0.055880672309189153 0 -0.43794279039719219 -0.069607721344605883 0 -0.44495917936917651 -0.063236754319570362 0 -0.43794279039719219 -0.069607721344605883 0 -0.44495917936917651 -0.063236754319570362 0 -0.44700016611818449 -0.070914782085498049 0 -0.44495917936917651 -0.063236754319570362 0 -0.44700016611818449 -0.070914782085498049 0 -0.45575554203561719 -0.071245939265354899 0 -0.45024372796160089 -0.075333460181145645 0 -0.44700016611818449 -0.070914782085498049 0 -0.44463136802687497 -0.078783892928276103 0 -0.45024372796160089 -0.075333460181145645 0 -0.45308617752376851 -0.08127198784759998 0 -0.45575554203561719 -0.071245939265354899 0 -0.45024372796160089 -0.075333460181145645 0 -0.44700016611818449 -0.070914782085498049 0 -0.45575554203561719 -0.071245939265354899 0 -0.43627510485512488 -0.081471843288737827 0 -0.43794279039719219 -0.069607721344605883 0 -0.44463136802687497 -0.078783892928276103 0 -0.43794279039719219 -0.069607721344605883 0 -0.44700016611818449 -0.070914782085498049 0 -0.44463136802687497 -0.078783892928276103 0 -0.43627510485512488 -0.081471843288737827 0 -0.44463136802687497 -0.078783892928276103 0 -0.43803786092393449 -0.090002443620277858 0 -0.43803786092393449 -0.090002443620277858 0 -0.45070464372559521 -0.089825928300450011 0 -0.44307272044481638 -0.099761200793580862 0 -0.44463136802687497 -0.078783892928276103 0 -0.43803786092393449 -0.090002443620277858 0 -0.45070464372559521 -0.089825928300450011 0 -0.45024372796160089 -0.075333460181145645 0 -0.44463136802687497 -0.078783892928276103 0 -0.45308617752376851 -0.08127198784759998 0 -0.44463136802687497 -0.078783892928276103 0 -0.45070464372559521 -0.089825928300450011 0 -0.45308617752376851 -0.08127198784759998 0 -0.46378206953042939 -0.091722444439114703 0 -0.46001387007580691 -0.073423354285325024 0 -0.45575554203561719 -0.071245939265354899 0 -0.46378206953042939 -0.091722444439114703 0 -0.45575554203561719 -0.071245939265354899 0 -0.45308617752376851 -0.08127198784759998 0 -0.46378206953042939 -0.091722444439114703 0 -0.45575554203561719 -0.071245939265354899 0 -0.46378206953042939 -0.091722444439114703 0 -0.46001387007580691 -0.073423354285325024 0 -0.47050922579343363 -0.076768783707536536 0 -0.45070464372559521 -0.089825928300450011 0 -0.45308617752376851 -0.08127198784759998 0 -0.46378206953042939 -0.091722444439114703 0 -0.46001387007580691 -0.073423354285325024 0 -0.45575554203561719 -0.071245939265354899 0 -0.4529278270710313 -0.046780352714950693 0 -0.46001387007580691 -0.073423354285325024 0 -0.47107989471154282 -0.065943422781665068 0 -0.47050922579343363 -0.076768783707536536 0 -0.46001387007580691 -0.073423354285325024 0 -0.47107989471154282 -0.065943422781665068 0 -0.46407088086632631 -0.051958568728994799 0 -0.44477089636926348 -0.1241132159772677 0 -0.45411844605486912 -0.10648267775706489 0 -0.45869518878267351 -0.1230600462752782 0 -0.44477089636926348 -0.1241132159772677 0 -0.43921124116315768 -0.1113643335419629 0 -0.45411844605486912 -0.10648267775706489 0 -0.43399263732170179 -0.1232529367379208 0 -0.44477089636926348 -0.1241132159772677 0 -0.43921124116315768 -0.1113643335419629 0 -0.45070464372559521 -0.089825928300450011 0 -0.44307272044481638 -0.099761200793580862 0 -0.45411844605486912 -0.10648267775706489 0 -0.43921124116315768 -0.1113643335419629 0 -0.44307272044481638 -0.099761200793580862 0 -0.45411844605486912 -0.10648267775706489 0 -0.43329141035652519 -0.1011306207481487 0 -0.43921124116315768 -0.1113643335419629 0 -0.44307272044481638 -0.099761200793580862 0 -0.43329141035652519 -0.1011306207481487 0 -0.43803786092393449 -0.090002443620277858 0 -0.44307272044481638 -0.099761200793580862 0 -0.45070464372559521 -0.089825928300450011 0 -0.46378206953042939 -0.091722444439114703 0 -0.45411844605486912 -0.10648267775706489 0 -0.46378206953042939 -0.091722444439114703 0 -0.45411844605486912 -0.10648267775706489 0 -0.46925637717370727 -0.1050796603091203 0 -0.45869518878267351 -0.1230600462752782 0 -0.4727827940236673 -0.1187044541470552 0 -0.46925637717370727 -0.1050796603091203 0 -0.45411844605486912 -0.10648267775706489 0 -0.45869518878267351 -0.1230600462752782 0 -0.46925637717370727 -0.1050796603091203 0 -0.48628617223079418 -0.12795146767654039 0 -0.4727827940236673 -0.1187044541470552 0 -0.48319518201123213 -0.10413798359593331 0 -0.46378206953042939 -0.091722444439114703 0 -0.46925637717370727 -0.1050796603091203 0 -0.47709811079879921 -0.08871453004463134 0 -0.48319518201123213 -0.10413798359593331 0 -0.46925637717370727 -0.1050796603091203 0 -0.47709811079879921 -0.08871453004463134 0 -0.4727827940236673 -0.1187044541470552 0 -0.48319518201123213 -0.10413798359593331 0 -0.46925637717370727 -0.1050796603091203 0 -0.48319518201123213 -0.10413798359593331 0 -0.47709811079879921 -0.08871453004463134 0 -0.5 -0.089324875058184428 0 -0.48319518201123213 -0.10413798359593331 0 -0.5 -0.1190195356271037 0 -0.5 -0.089324875058184428 0 -0.48628617223079418 -0.12795146767654039 0 -0.48319518201123213 -0.10413798359593331 0 -0.5 -0.1190195356271037 0 -0.48191097921206361 -0.071853649586581317 0 -0.47107989471154282 -0.065943422781665068 0 -0.47830033843080549 -0.058244453810396252 0 -0.48191097921206361 -0.071853649586581317 0 -0.47107989471154282 -0.065943422781665068 0 -0.47050922579343363 -0.076768783707536536 0 -0.48191097921206361 -0.071853649586581317 0 -0.47050922579343363 -0.076768783707536536 0 -0.47709811079879921 -0.08871453004463134 0 -0.46378206953042939 -0.091722444439114703 0 -0.47050922579343363 -0.076768783707536536 0 -0.47709811079879921 -0.08871453004463134 0 -0.48191097921206361 -0.071853649586581317 0 -0.47709811079879921 -0.08871453004463134 0 -0.5 -0.089324875058184428 0 -0.48191097921206361 -0.071853649586581317 0 -0.5 -0.089324875058184428 0 -0.5 -0.059630214489265088 0 -0.48191097921206361 -0.071853649586581317 0 -0.5 -0.059630214489265088 0 -0.47830033843080549 -0.058244453810396252 0 -0.5 -0.059630214489265088 0 -0.47790551029472772 -0.039636140402246729 0 -0.47830033843080549 -0.058244453810396252 0 -0.5 -0.059630214489265088 0 -0.47790551029472772 -0.039636140402246729 0 -0.5 -0.029935553920345751 0 -0.47790551029472772 -0.039636140402246729 0 -0.46376353876714621 -0.039739231033092758 0 -0.46700328897973648 -0.028772993589060158 0 -0.47790551029472772 -0.039636140402246729 0 -0.47830033843080549 -0.058244453810396252 0 -0.46407088086632631 -0.051958568728994799 0 -0.47107989471154282 -0.065943422781665068 0 -0.47830033843080549 -0.058244453810396252 0 -0.46407088086632631 -0.051958568728994799 0 -0.46001387007580691 -0.073423354285325024 0 -0.4529278270710313 -0.046780352714950693 0 -0.46001387007580691 -0.073423354285325024 0 -0.46407088086632631 -0.051958568728994799 0 -0.4529278270710313 -0.046780352714950693 0 -0.47790551029472772 -0.039636140402246729 0 -0.46407088086632631 -0.051958568728994799 0 -0.46376353876714621 -0.039739231033092758 0 -0.46376353876714621 -0.039739231033092758 0 -0.45691018662390931 -0.031548099730211457 0 -0.46700328897973648 -0.028772993589060158 0 -0.46376353876714621 -0.039739231033092758 0 -0.45691018662390931 -0.031548099730211457 0 -0.4529278270710313 -0.046780352714950693 0 -0.46407088086632631 -0.051958568728994799 0 -0.46376353876714621 -0.039739231033092758 0 -0.4529278270710313 -0.046780352714950693 0 -0.4529278270710313 -0.046780352714950693 0 -0.44584178406625619 -0.020137351144576061 0 -0.44772901454080499 -0.05076943409159506 0 -0.43970248704599302 -0.03029292891783518 0 -0.45691018662390931 -0.031548099730211457 0 -0.4529278270710313 -0.046780352714950693 0 -0.44584178406625619 -0.020137351144576061 0 -0.4529278270710313 -0.046780352714950693 0 -0.43970248704599302 -0.03029292891783518 0 -0.44584178406625619 -0.020137351144576061 0 -0.4529278270710313 -0.046780352714950693 0 -0.44772901454080499 -0.05076943409159506 0 -0.43970248704599302 -0.03029292891783518 0 -0.437038806390457 -0.055880672309189153 0 -0.44772901454080499 -0.05076943409159506 0 -0.43970248704599302 -0.03029292891783518 0 -0.45575554203561719 -0.071245939265354899 0 -0.4529278270710313 -0.046780352714950693 0 -0.44772901454080499 -0.05076943409159506 0 -0.44495917936917651 -0.063236754319570362 0 -0.45575554203561719 -0.071245939265354899 0 -0.44772901454080499 -0.05076943409159506 0 -0.45575554203561719 -0.071245939265354899 0 -0.44772901454080499 -0.05076943409159506 0 -0.437038806390457 -0.055880672309189153 0 -0.44495917936917651 -0.063236754319570362 0 -0.44772901454080499 -0.05076943409159506 0 -0.44952264260203351 -0.014048503348311271 0 -0.44184645403259082 -0.0051152034820006707 0 -0.44584178406625619 -0.020137351144576061 0 -0.44952264260203351 -0.014048503348311271 0 -0.45088824196024158 -0.0061492196071743421 0 -0.45836345542292029 -0.01335717315403869 0 -0.44952264260203351 -0.014048503348311271 0 -0.45088824196024158 -0.0061492196071743421 0 -0.44184645403259082 -0.0051152034820006707 0 -0.45088824196024158 -0.0061492196071743421 0 -0.44184645403259082 -0.0051152034820006707 0 -0.45185911209939822 0.0023839904299721528 0 -0.43175901515299292 -0.01002830720941182 0 -0.44184645403259082 -0.0051152034820006707 0 -0.44584178406625619 -0.020137351144576061 0 -0.44184645403259082 -0.0051152034820006707 0 -0.44584178406625619 -0.020137351144576061 0 -0.43175901515299292 -0.01002830720941182 0 -0.43970248704599302 -0.03029292891783518 0 -0.44584178406625619 -0.020137351144576061 0 -0.43970248704599302 -0.03029292891783518 0 -0.44584178406625619 -0.020137351144576061 0 -0.44952264260203351 -0.014048503348311271 0 -0.44584178406625619 -0.020137351144576061 0 -0.45699096360453412 -0.02162795868210218 0 -0.44952264260203351 -0.014048503348311271 0 -0.44584178406625619 -0.020137351144576061 0 -0.44952264260203351 -0.014048503348311271 0 -0.45699096360453412 -0.02162795868210218 0 -0.45836345542292029 -0.01335717315403869 0 -0.45691018662390931 -0.031548099730211457 0 -0.44584178406625619 -0.020137351144576061 0 -0.45699096360453412 -0.02162795868210218 0 -0.45691018662390931 -0.031548099730211457 0 -0.45699096360453412 -0.02162795868210218 0 -0.46700328897973648 -0.028772993589060158 0 -0.45699096360453412 -0.02162795868210218 0 -0.46828026165082831 -0.01780815497053468 0 -0.45836345542292029 -0.01335717315403869 0 -0.45699096360453412 -0.02162795868210218 0 -0.46700328897973648 -0.028772993589060158 0 -0.46828026165082831 -0.01780815497053468 0 -0.46828026165082831 -0.01780815497053468 0 -0.45836345542292029 -0.01335717315403869 0 -0.47064711386471092 -0.0071530782173812634 0 -0.45836345542292029 -0.01335717315403869 0 -0.45923632574800771 -0.0041794020861199528 0 -0.47064711386471092 -0.0071530782173812634 0 -0.45088824196024158 -0.0061492196071743421 0 -0.45836345542292029 -0.01335717315403869 0 -0.45923632574800771 -0.0041794020861199528 0 -0.45088824196024158 -0.0061492196071743421 0 -0.45923632574800771 -0.0041794020861199528 0 -0.45185911209939822 0.0023839904299721528 0 -0.45923632574800771 -0.0041794020861199528 0 -0.47064711386471092 -0.0071530782173812634 0 -0.46824951999109332 0.002556936269972112 0 -0.47064711386471092 -0.0071530782173812634 0 -0.48231521709561131 -0.0022448282017172882 0 -0.46824951999109332 0.002556936269972112 0 -0.47064711386471092 -0.0071530782173812634 0 -0.48231521709561131 -0.0022448282017172882 0 -0.48382474626862609 -0.020183742353529991 0 -0.46828026165082831 -0.01780815497053468 0 -0.47064711386471092 -0.0071530782173812634 0 -0.48382474626862609 -0.020183742353529991 0 -0.47790551029472772 -0.039636140402246729 0 -0.46700328897973648 -0.028772993589060158 0 -0.48382474626862609 -0.020183742353529991 0 -0.46700328897973648 -0.028772993589060158 0 -0.46828026165082831 -0.01780815497053468 0 -0.48382474626862609 -0.020183742353529991 0 -0.47790551029472772 -0.039636140402246729 0 -0.48382474626862609 -0.020183742353529991 0 -0.5 -0.029935553920345751 0 -0.48382474626862609 -0.020183742353529991 0 -0.5 -0.029935553920345751 0 -0.5 -0.0002408933514264078 0 -0.48231521709561131 -0.0022448282017172882 0 -0.48382474626862609 -0.020183742353529991 0 -0.5 -0.0002408933514264078 0 -0.5 -0.0002408933514264078 0 -0.5 0.02945376721749288 0 -0.48322803198359682 0.01299317521383497 0 -0.48231521709561131 -0.0022448282017172882 0 -0.5 -0.0002408933514264078 0 -0.48322803198359682 0.01299317521383497 0 -0.5 0.02945376721749288 0 -0.48322803198359682 0.01299317521383497 0 -0.48011516712429347 0.033645026280134972 0 -0.47287499431815361 0.02654551050997923 0 -0.48322803198359682 0.01299317521383497 0 -0.48011516712429347 0.033645026280134972 0 -0.48322803198359682 0.01299317521383497 0 -0.46222984712090792 0.022394401978474868 0 -0.47287499431815361 0.02654551050997923 0 -0.48322803198359682 0.01299317521383497 0 -0.46222984712090792 0.022394401978474868 0 -0.48322803198359682 0.01299317521383497 0 -0.45939798247022062 0.013140029766271979 0 -0.46824951999109332 0.002556936269972112 0 -0.48231521709561131 -0.0022448282017172882 0 -0.48322803198359682 0.01299317521383497 0 -0.46824951999109332 0.002556936269972112 0 -0.5 0.059148427786412328 0 -0.48692968322073188 0.046019371039723637 0 -0.48127091262030158 0.05985215160967168 0 -0.5 0.02945376721749288 0 -0.5 0.059148427786412328 0 -0.48692968322073188 0.046019371039723637 0 -0.5 0.02945376721749288 0 -0.48692968322073188 0.046019371039723637 0 -0.48011516712429347 0.033645026280134972 0 -0.47287499431815361 0.02654551050997923 0 -0.48011516712429347 0.033645026280134972 0 -0.46865240871830732 0.036648349903284083 0 -0.48011516712429347 0.033645026280134972 0 -0.47326233635906401 0.0479974823049064 0 -0.46865240871830732 0.036648349903284083 0 -0.47326233635906401 0.0479974823049064 0 -0.46501029204912042 0.043843691941387972 0 -0.46865240871830732 0.036648349903284083 0 -0.48692968322073188 0.046019371039723637 0 -0.48011516712429347 0.033645026280134972 0 -0.47326233635906401 0.0479974823049064 0 -0.48692968322073188 0.046019371039723637 0 -0.47326233635906401 0.0479974823049064 0 -0.48127091262030158 0.05985215160967168 0 -0.47326233635906401 0.0479974823049064 0 -0.48127091262030158 0.05985215160967168 0 -0.46606098009703478 0.062531699495051288 0 -0.45373499172768211 0.047273428886596053 0 -0.44732799069943863 0.066648710560794175 0 -0.46606098009703478 0.062531699495051288 0 -0.45373499172768211 0.047273428886596053 0 -0.46606098009703478 0.062531699495051288 0 -0.47326233635906401 0.0479974823049064 0 -0.46336424175225788 0.049483717249676179 0 -0.46606098009703478 0.062531699495051288 0 -0.46336424175225788 0.049483717249676179 0 -0.45373499172768211 0.047273428886596053 0 -0.46606098009703478 0.062531699495051288 0 -0.47326233635906401 0.0479974823049064 0 -0.46336424175225788 0.049483717249676179 0 -0.46501029204912042 0.043843691941387972 0 -0.46336424175225788 0.049483717249676179 0 -0.45373499172768211 0.047273428886596053 0 -0.45875260852838862 0.045772283620438801 0 -0.45373499172768211 0.047273428886596053 0 -0.45445775126995591 0.033185920276563453 0 -0.45962803276703501 0.038447610863585301 0 -0.45373499172768211 0.047273428886596053 0 -0.45875260852838862 0.045772283620438801 0 -0.45962803276703501 0.038447610863585301 0 -0.45373499172768211 0.047273428886596053 0 -0.45875260852838862 0.045772283620438801 0 -0.46336424175225788 0.049483717249676179 0 -0.45875260852838862 0.045772283620438801 0 -0.46501029204912042 0.043843691941387972 0 -0.46501029204912042 0.043843691941387972 0 -0.46865240871830732 0.036648349903284083 0 -0.45962803276703501 0.038447610863585301 0 -0.45875260852838862 0.045772283620438801 0 -0.46501029204912042 0.043843691941387972 0 -0.45962803276703501 0.038447610863585301 0 -0.46865240871830732 0.036648349903284083 0 -0.45962803276703501 0.038447610863585301 0 -0.46300557169226081 0.031069924298512502 0 -0.47287499431815361 0.02654551050997923 0 -0.46865240871830732 0.036648349903284083 0 -0.46300557169226081 0.031069924298512502 0 -0.45445775126995591 0.033185920276563453 0 -0.45962803276703501 0.038447610863585301 0 -0.46300557169226081 0.031069924298512502 0 -0.45373499172768211 0.047273428886596053 0 -0.43811470196233632 0.039127192354777879 0 -0.43245450881940611 0.045922769744379678 0 -0.45373499172768211 0.047273428886596053 0 -0.45445775126995591 0.033185920276563453 0 -0.44123166225821908 0.03179562874311477 0 -0.45373499172768211 0.047273428886596053 0 -0.44123166225821908 0.03179562874311477 0 -0.43811470196233632 0.039127192354777879 0 -0.45373499172768211 0.047273428886596053 0 -0.44123166225821908 0.03179562874311477 0 -0.45373499172768211 0.047273428886596053 0 -0.43245450881940611 0.045922769744379678 0 -0.42938164857318772 0.054559339159034097 0 -0.45373499172768211 0.047273428886596053 0 -0.42938164857318772 0.054559339159034097 0 -0.44732799069943863 0.066648710560794175 0 -0.45373499172768211 0.047273428886596053 0 -0.42938164857318772 0.054559339159034097 0 -0.45939798247022062 0.013140029766271979 0 -0.46824951999109332 0.002556936269972112 0 -0.45185911209939822 0.0023839904299721528 0 -0.45923632574800771 -0.0041794020861199528 0 -0.46824951999109332 0.002556936269972112 0 -0.45185911209939822 0.0023839904299721528 0 -0.48322803198359682 0.01299317521383497 0 -0.45939798247022062 0.013140029766271979 0 -0.46222984712090792 0.022394401978474868 0 -0.47287499431815361 0.02654551050997923 0 -0.46222984712090792 0.022394401978474868 0 -0.46300557169226081 0.031069924298512502 0 -0.45445775126995591 0.033185920276563453 0 -0.46222984712090792 0.022394401978474868 0 -0.46300557169226081 0.031069924298512502 0 -0.45939798247022062 0.013140029766271979 0 -0.46222984712090792 0.022394401978474868 0 -0.45240541855502991 0.021599871845146081 0 -0.45939798247022062 0.013140029766271979 0 -0.44676218237077231 0.019069426892722639 0 -0.45240541855502991 0.021599871845146081 0 -0.44123166225821908 0.03179562874311477 0 -0.46222984712090792 0.022394401978474868 0 -0.44123166225821908 0.03179562874311477 0 -0.46222984712090792 0.022394401978474868 0 -0.45240541855502991 0.021599871845146081 0 -0.45445775126995591 0.033185920276563453 0 -0.44123166225821908 0.03179562874311477 0 -0.46222984712090792 0.022394401978474868 0 -0.44123166225821908 0.03179562874311477 0 -0.44676218237077231 0.019069426892722639 0 -0.45240541855502991 0.021599871845146081 0 -0.44123166225821908 0.03179562874311477 0 -0.43989420161845172 0.021541789392449939 0 -0.4343087930597086 0.023225848498922359 0 -0.44123166225821908 0.03179562874311477 0 -0.44676218237077231 0.019069426892722639 0 -0.43989420161845172 0.021541789392449939 0 -0.44123166225821908 0.03179562874311477 0 -0.4343087930597086 0.023225848498922359 0 -0.44676218237077231 0.019069426892722639 0 -0.43989420161845172 0.021541789392449939 0 -0.437274168785107 0.012076253435039109 0 -0.45939798247022062 0.013140029766271979 0 -0.43785112399892462 0.0099069441805745319 0 -0.45185911209939822 0.0023839904299721528 0 -0.45939798247022062 0.013140029766271979 0 -0.437274168785107 0.012076253435039109 0 -0.45939798247022062 0.013140029766271979 0 -0.44676218237077231 0.019069426892722639 0 -0.437274168785107 0.012076253435039109 0 -0.45939798247022062 0.013140029766271979 0 -0.43785112399892462 0.0099069441805745319 0 -0.437274168785107 0.012076253435039109 0 -0.43785112399892462 0.0099069441805745319 0 -0.437274168785107 0.012076253435039109 0 -0.44184645403259082 -0.0051152034820006707 0 -0.43785112399892462 0.0099069441805745319 0 -0.43303653804581971 0.00100735509147388 0 -0.44184645403259082 -0.0051152034820006707 0 -0.43785112399892462 0.0099069441805745319 0 -0.44184645403259082 -0.0051152034820006707 0 -0.43785112399892462 0.0099069441805745319 0 -0.45185911209939822 0.0023839904299721528 0 -0.43175901515299292 -0.01002830720941182 0 -0.43303653804581971 0.00100735509147388 0 -0.42381554325999182 0.01023631449901107 0 -0.43175901515299292 -0.01002830720941182 0 -0.42381554325999182 0.01023631449901107 0 -0.43785112399892462 0.0099069441805745319 0 -0.43303653804581971 0.00100735509147388 0 -0.43132481155387398 0.0077857400552718524 0 -0.437274168785107 0.012076253435039109 0 -0.42871073867360071 0.01166449918703465 0 -0.43785112399892462 0.0099069441805745319 0 -0.437274168785107 0.012076253435039109 0 -0.42871073867360071 0.01166449918703465 0 -0.43785112399892462 0.0099069441805745319 0 -0.43132481155387398 0.0077857400552718524 0 -0.42871073867360071 0.01166449918703465 0 -0.43785112399892462 0.0099069441805745319 0 -0.42871073867360071 0.01166449918703465 0 -0.42871073867360071 0.01166449918703465 0 -0.42547229772721218 0.01228720139223251 0 -0.42871073867360071 0.01166449918703465 0 -0.42381554325999182 0.01023631449901107 0 -0.42547229772721218 0.01228720139223251 0 -0.43132481155387398 0.0077857400552718524 0 -0.42871073867360071 0.01166449918703465 0 -0.42381554325999182 0.01023631449901107 0 -0.42381554325999182 0.01023631449901107 0 -0.42281103425837518 0.012798921277849351 0 -0.42381554325999182 0.01023631449901107 0 -0.42547229772721218 0.01228720139223251 0 -0.42381554325999182 0.01023631449901107 0 -0.42547229772721218 0.01228720139223251 0 -0.42281103425837518 0.012798921277849351 0 -0.42547229772721218 0.01228720139223251 0 -0.42281103425837518 0.012798921277849351 0 -0.42547229772721218 0.01228720139223251 0 -0.42281103425837518 0.012798921277849351 0 -0.42166771995226859 0.015715634803011851 0 -0.42281103425837518 0.012798921277849351 0 -0.42166771995226859 0.015715634803011851 0 -0.43303653804581971 0.00100735509147388 0 -0.43132481155387398 0.0077857400552718524 0 -0.42381554325999182 0.01023631449901107 0 -0.42281103425837518 0.012798921277849351 0 -0.40566918064490348 0.01055659507906349 0 -0.40477993575406218 0.016266023190985999 0 -0.42381554325999182 0.01023631449901107 0 -0.42281103425837518 0.012798921277849351 0 -0.40566918064490348 0.01055659507906349 0 -0.40689618909538078 -0.010708057394584679 0 -0.42381554325999182 0.01023631449901107 0 -0.40566918064490348 0.01055659507906349 0 -0.42281103425837518 0.012798921277849351 0 -0.40566918064490348 0.01055659507906349 0 -0.42281103425837518 0.012798921277849351 0 -0.42166771995226859 0.015715634803011851 0 -0.40477993575406218 0.016266023190985999 0 -0.42281103425837518 0.012798921277849351 0 -0.40477993575406218 0.016266023190985999 0 -0.41532560348819519 0.02276665209090474 0 -0.42166771995226859 0.015715634803011851 0 -0.40477993575406218 0.016266023190985999 0 -0.41470788656354718 0.02953857223229971 0 -0.4067567578746939 0.036449229960903287 0 -0.40408335484473012 0.027104267561903959 0 -0.41532560348819519 0.02276665209090474 0 -0.41470788656354718 0.02953857223229971 0 -0.40408335484473012 0.027104267561903959 0 -0.41532560348819519 0.02276665209090474 0 -0.40477993575406218 0.016266023190985999 0 -0.40408335484473012 0.027104267561903959 0 -0.41532560348819519 0.02276665209090474 0 -0.42166771995226859 0.015715634803011851 0 -0.42358993756795249 0.022454424569259689 0 -0.41532560348819519 0.02276665209090474 0 -0.41470788656354718 0.02953857223229971 0 -0.42305763377163841 0.028109562884199149 0 -0.41470788656354718 0.02953857223229971 0 -0.42305763377163841 0.028109562884199149 0 -0.41610173122973471 0.035848888385281157 0 -0.41532560348819519 0.02276665209090474 0 -0.42305763377163841 0.028109562884199149 0 -0.42358993756795249 0.022454424569259689 0 -0.42305763377163841 0.028109562884199149 0 -0.4343087930597086 0.023225848498922359 0 -0.43078568940715201 0.03647245963075306 0 -0.42305763377163841 0.028109562884199149 0 -0.42358993756795249 0.022454424569259689 0 -0.4343087930597086 0.023225848498922359 0 -0.42166771995226859 0.015715634803011851 0 -0.42358993756795249 0.022454424569259689 0 -0.4343087930597086 0.023225848498922359 0 -0.42547229772721218 0.01228720139223251 0 -0.42166771995226859 0.015715634803011851 0 -0.4343087930597086 0.023225848498922359 0 -0.42871073867360071 0.01166449918703465 0 -0.42547229772721218 0.01228720139223251 0 -0.4343087930597086 0.023225848498922359 0 -0.42547229772721218 0.01228720139223251 0 -0.4343087930597086 0.023225848498922359 0 -0.43989420161845172 0.021541789392449939 0 -0.437274168785107 0.012076253435039109 0 -0.4343087930597086 0.023225848498922359 0 -0.437274168785107 0.012076253435039109 0 -0.42871073867360071 0.01166449918703465 0 -0.4343087930597086 0.023225848498922359 0 -0.437274168785107 0.012076253435039109 0 -0.4343087930597086 0.023225848498922359 0 -0.4343087930597086 0.023225848498922359 0 -0.43078568940715201 0.03647245963075306 0 -0.44123166225821908 0.03179562874311477 0 -0.4343087930597086 0.023225848498922359 0 -0.43078568940715201 0.03647245963075306 0 -0.44123166225821908 0.03179562874311477 0 -0.43811470196233632 0.039127192354777879 0 -0.43078568940715201 0.03647245963075306 0 -0.43078568940715201 0.03647245963075306 0 -0.43245450881940611 0.045922769744379678 0 -0.40609032422246932 0.047528973784474897 0 -0.44123166225821908 0.03179562874311477 0 -0.43078568940715201 0.03647245963075306 0 -0.43811470196233632 0.039127192354777879 0 -0.43078568940715201 0.03647245963075306 0 -0.43300455725686993 0.039613737029250508 0 -0.43811470196233632 0.039127192354777879 0 -0.43245450881940611 0.045922769744379678 0 -0.43300455725686993 0.039613737029250508 0 -0.43078568940715201 0.03647245963075306 0 -0.43245450881940611 0.045922769744379678 0 -0.43300455725686993 0.039613737029250508 0 -0.42305763377163841 0.028109562884199149 0 -0.43078568940715201 0.03647245963075306 0 -0.41610173122973471 0.035848888385281157 0 -0.43245450881940611 0.045922769744379678 0 -0.42938164857318772 0.054559339159034097 0 -0.40609032422246932 0.047528973784474897 0 -0.42938164857318772 0.054559339159034097 0 -0.40502830541869378 0.061845249431473577 0 -0.42938164857318772 0.054559339159034097 0 -0.40502830541869378 0.061845249431473577 0 -0.40609032422246932 0.047528973784474897 0 -0.43078568940715201 0.03647245963075306 0 -0.40609032422246932 0.047528973784474897 0 -0.43078568940715201 0.03647245963075306 0 -0.41610173122973471 0.035848888385281157 0 -0.40609032422246932 0.047528973784474897 0 -0.41610173122973471 0.035848888385281157 0 -0.4067567578746939 0.036449229960903287 0 -0.40609032422246932 0.047528973784474897 0 -0.41470788656354718 0.02953857223229971 0 -0.41610173122973471 0.035848888385281157 0 -0.4067567578746939 0.036449229960903287 0 -0.4067567578746939 0.036449229960903287 0 -0.39707074382896101 0.036726359358431861 0 -0.40408335484473012 0.027104267561903959 0 -0.39707074382896101 0.036726359358431861 0 -0.39399861433004763 0.053325797416143753 0 -0.3837118997569744 0.044432142404017702 0 -0.39707074382896101 0.036726359358431861 0 -0.40609032422246932 0.047528973784474897 0 -0.39399861433004763 0.053325797416143753 0 -0.4067567578746939 0.036449229960903287 0 -0.39707074382896101 0.036726359358431861 0 -0.40609032422246932 0.047528973784474897 0 -0.40502830541869378 0.061845249431473577 0 -0.39399861433004763 0.053325797416143753 0 -0.38067496226419978 0.069131159703913272 0 -0.40502830541869378 0.061845249431473577 0 -0.40609032422246932 0.047528973784474897 0 -0.39399861433004763 0.053325797416143753 0 -0.39399861433004763 0.053325797416143753 0 -0.3837118997569744 0.044432142404017702 0 -0.38067496226419978 0.069131159703913272 0 -0.3837118997569744 0.044432142404017702 0 -0.38067496226419978 0.069131159703913272 0 -0.3837118997569744 0.044432142404017702 0 -0.38067496226419978 0.069131159703913272 0 -0.36778554555611898 0.056138455546413488 0 -0.3837118997569744 0.044432142404017702 0 -0.38674883724974912 0.019733125104122069 0 -0.3837118997569744 0.044432142404017702 0 -0.37524543029147922 0.030854907450205089 0 -0.38674883724974912 0.019733125104122069 0 -0.39707074382896101 0.036726359358431861 0 -0.3837118997569744 0.044432142404017702 0 -0.38674883724974912 0.019733125104122069 0 -0.38798173453082119 0.009706132007734819 0 -0.36531170485973208 0.0086160920473635355 0 -0.38674883724974912 0.019733125104122069 0 -0.38798173453082119 0.009706132007734819 0 -0.3728871011164519 0.014735590622836159 0 -0.38979929962414928 -0.0050758882974507868 0 -0.38798173453082119 0.009706132007734819 0 -0.36531170485973208 0.0086160920473635355 0 -0.38798173453082119 0.009706132007734819 0 -0.36531170485973208 0.0086160920473635355 0 -0.3728871011164519 0.014735590622836159 0 -0.38979929962414928 -0.0050758882974507868 0 -0.38798173453082119 0.009706132007734819 0 -0.38674883724974912 0.019733125104122069 0 -0.38798173453082119 0.009706132007734819 0 -0.38798173453082119 0.009706132007734819 0 -0.40566918064490348 0.01055659507906349 0 -0.38674883724974912 0.019733125104122069 0 -0.38798173453082119 0.009706132007734819 0 -0.40477993575406218 0.016266023190985999 0 -0.38798173453082119 0.009706132007734819 0 -0.40566918064490348 0.01055659507906349 0 -0.40477993575406218 0.016266023190985999 0 -0.38798173453082119 0.009706132007734819 0 -0.40248790543965401 0.0080995835417102813 0 -0.40566918064490348 0.01055659507906349 0 -0.38979929962414928 -0.0050758882974507868 0 -0.40248790543965401 0.0080995835417102813 0 -0.40016865175094513 -0.002364466148785722 0 -0.38979929962414928 -0.0050758882974507868 0 -0.40248790543965401 0.0080995835417102813 0 -0.38979929962414928 -0.0050758882974507868 0 -0.38798173453082119 0.009706132007734819 0 -0.40248790543965401 0.0080995835417102813 0 -0.40016865175094513 -0.002364466148785722 0 -0.40248790543965401 0.0080995835417102813 0 -0.40566918064490348 0.01055659507906349 0 -0.39707074382896101 0.036726359358431861 0 -0.38674883724974912 0.019733125104122069 0 -0.40408335484473012 0.027104267561903959 0 -0.38674883724974912 0.019733125104122069 0 -0.40477993575406218 0.016266023190985999 0 -0.38674883724974912 0.019733125104122069 0 -0.40477993575406218 0.016266023190985999 0 -0.40408335484473012 0.027104267561903959 0 -0.39246781217450971 0.097046766244699142 0 -0.40483100849834919 0.1033295461717693 0 -0.38912244758139342 0.10690513791246831 0 -0.39246781217450971 0.097046766244699142 0 -0.40483100849834919 0.1033295461717693 0 -0.40255519120015648 0.088262162785100989 0 -0.38912244758139342 0.10690513791246831 0 -0.41120043154964969 0.1181273227740639 0 -0.39403720973420742 0.1133358106670886 0 -0.41120043154964969 0.1181273227740639 0 -0.3999756230982745 0.12519951436026261 0 -0.39403720973420742 0.1133358106670886 0 -0.38912244758139342 0.10690513791246831 0 -0.41120043154964969 0.1181273227740639 0 -0.40483100849834919 0.1033295461717693 0 -0.38912244758139342 0.10690513791246831 0 -0.41120043154964969 0.1181273227740639 0 -0.39403720973420742 0.1133358106670886 0 -0.3999756230982745 0.12519951436026261 0 -0.38758902279242102 0.1283314010223203 0 -0.39403720973420742 0.1133358106670886 0 -0.38004534752460478 0.11893591763278651 0 -0.37164097402713842 0.13356356321883631 0 -0.39403720973420742 0.1133358106670886 0 -0.37164097402713842 0.13356356321883631 0 -0.39403720973420742 0.1133358106670886 0 -0.38587614017174732 0.1130010126893098 0 -0.38004534752460478 0.11893591763278651 0 -0.39403720973420742 0.1133358106670886 0 -0.38587614017174732 0.1130010126893098 0 -0.38912244758139342 0.10690513791246831 0 -0.38587614017174732 0.1130010126893098 0 -0.38225610370886509 0.1107715002742263 0 -0.38912244758139342 0.10690513791246831 0 -0.38004534752460478 0.11893591763278651 0 -0.38225610370886509 0.1107715002742263 0 -0.37710415556911497 0.1077773259290033 0 -0.38587614017174732 0.1130010126893098 0 -0.38004534752460478 0.11893591763278651 0 -0.38225610370886509 0.1107715002742263 0 -0.38225610370886509 0.1107715002742263 0 -0.37710415556911497 0.1077773259290033 0 -0.38317239002650538 0.10273957764041231 0 -0.37710415556911497 0.1077773259290033 0 -0.38317239002650538 0.10273957764041231 0 -0.37635174687154049 0.1002196902686429 0 -0.39246781217450971 0.097046766244699142 0 -0.38317239002650538 0.10273957764041231 0 -0.38912244758139342 0.10690513791246831 0 -0.38225610370886509 0.1107715002742263 0 -0.38317239002650538 0.10273957764041231 0 -0.38912244758139342 0.10690513791246831 0 -0.39246781217450971 0.097046766244699142 0 -0.38317239002650538 0.10273957764041231 0 -0.38201778433449568 0.09405816121753309 0 -0.38317239002650538 0.10273957764041231 0 -0.38201778433449568 0.09405816121753309 0 -0.37635174687154049 0.1002196902686429 0 -0.38201778433449568 0.09405816121753309 0 -0.37635174687154049 0.1002196902686429 0 -0.37340009016568187 0.092405172019700152 0 -0.38201778433449568 0.09405816121753309 0 -0.37885844662891621 0.083904644903447137 0 -0.37340009016568187 0.092405172019700152 0 -0.37885844662891621 0.083904644903447137 0 -0.38917160272456153 0.087950863488172507 0 -0.39396624748999559 0.077991878971322287 0 -0.38201778433449568 0.09405816121753309 0 -0.37885844662891621 0.083904644903447137 0 -0.38917160272456153 0.087950863488172507 0 -0.39246781217450971 0.097046766244699142 0 -0.38201778433449568 0.09405816121753309 0 -0.38917160272456153 0.087950863488172507 0 -0.37885844662891621 0.083904644903447137 0 -0.38067496226419978 0.069131159703913272 0 -0.37885844662891621 0.083904644903447137 0 -0.38067496226419978 0.069131159703913272 0 -0.39396624748999559 0.077991878971322287 0 -0.40502830541869378 0.061845249431473577 0 -0.38067496226419978 0.069131159703913272 0 -0.39396624748999559 0.077991878971322287 0 -0.40502830541869378 0.061845249431473577 0 -0.38067496226419978 0.069131159703913272 0 -0.40502830541869378 0.061845249431473577 0 -0.39396624748999559 0.077991878971322287 0 -0.41237791294958981 0.077269579190267224 0 -0.39396624748999559 0.077991878971322287 0 -0.40255519120015648 0.088262162785100989 0 -0.41237791294958981 0.077269579190267224 0 -0.39246781217450971 0.097046766244699142 0 -0.38917160272456153 0.087950863488172507 0 -0.40255519120015648 0.088262162785100989 0 -0.38917160272456153 0.087950863488172507 0 -0.39396624748999559 0.077991878971322287 0 -0.40255519120015648 0.088262162785100989 0 -0.40255519120015648 0.088262162785100989 0 -0.41237791294958981 0.077269579190267224 0 -0.42458917273257663 0.087282789690937126 0 -0.40255519120015648 0.088262162785100989 0 -0.42458917273257663 0.087282789690937126 0 -0.41904278799772432 0.1020837110605036 0 -0.40502830541869378 0.061845249431473577 0 -0.41237791294958981 0.077269579190267224 0 -0.42904989855672981 0.072037368992211137 0 -0.42938164857318772 0.054559339159034097 0 -0.40502830541869378 0.061845249431473577 0 -0.42904989855672981 0.072037368992211137 0 -0.42938164857318772 0.054559339159034097 0 -0.42904989855672981 0.072037368992211137 0 -0.44732799069943863 0.066648710560794175 0 -0.42904989855672981 0.072037368992211137 0 -0.42458917273257663 0.087282789690937126 0 -0.4440027786857581 0.081840097472141923 0 -0.41237791294958981 0.077269579190267224 0 -0.42904989855672981 0.072037368992211137 0 -0.42458917273257663 0.087282789690937126 0 -0.42458917273257663 0.087282789690937126 0 -0.43658755334147492 0.099388581735442461 0 -0.4440027786857581 0.081840097472141923 0 -0.43658755334147492 0.099388581735442461 0 -0.41904278799772432 0.1020837110605036 0 -0.42915225749995101 0.1125598933525582 0 -0.42458917273257663 0.087282789690937126 0 -0.43658755334147492 0.099388581735442461 0 -0.41904278799772432 0.1020837110605036 0 -0.43658755334147492 0.099388581735442461 0 -0.42915225749995101 0.1125598933525582 0 -0.44408616804591011 0.1144561365584683 0 -0.40483100849834919 0.1033295461717693 0 -0.40255519120015648 0.088262162785100989 0 -0.41904278799772432 0.1020837110605036 0 -0.40483100849834919 0.1033295461717693 0 -0.41904278799772432 0.1020837110605036 0 -0.41120043154964969 0.1181273227740639 0 -0.41904278799772432 0.1020837110605036 0 -0.41120043154964969 0.1181273227740639 0 -0.42915225749995101 0.1125598933525582 0 -0.42915225749995101 0.1125598933525582 0 -0.44408616804591011 0.1144561365584683 0 -0.43327841551790619 0.12934950763565919 0 -0.41120043154964969 0.1181273227740639 0 -0.42915225749995101 0.1125598933525582 0 -0.43327841551790619 0.12934950763565919 0 -0.41120043154964969 0.1181273227740639 0 -0.43327841551790619 0.12934950763565919 0 -0.44408616804591011 0.1144561365584683 0 -0.43327841551790619 0.12934950763565919 0 -0.43658755334147492 0.099388581735442461 0 -0.44408616804591011 0.1144561365584683 0 -0.45489392057391398 0.099562765481277307 0 -0.44408616804591011 0.1144561365584683 0 -0.45489392057391398 0.099562765481277307 0 -0.45489392057391398 0.099562765481277307 0 -0.46173764655623939 0.081650329359730184 0 -0.47580312523895463 0.1012924177416009 0 -0.45489392057391398 0.099562765481277307 0 -0.46143421764442188 0.1165428270165626 0 -0.47580312523895463 0.1012924177416009 0 -0.44408616804591011 0.1144561365584683 0 -0.45489392057391398 0.099562765481277307 0 -0.46143421764442188 0.1165428270165626 0 -0.44408616804591011 0.1144561365584683 0 -0.46143421764442188 0.1165428270165626 0 -0.45757076876523939 0.1416972509466759 0 -0.42904989855672981 0.072037368992211137 0 -0.44732799069943863 0.066648710560794175 0 -0.4440027786857581 0.081840097472141923 0 -0.44732799069943863 0.066648710560794175 0 -0.4440027786857581 0.081840097472141923 0 -0.46173764655623939 0.081650329359730184 0 -0.43658755334147492 0.099388581735442461 0 -0.45489392057391398 0.099562765481277307 0 -0.4440027786857581 0.081840097472141923 0 -0.45489392057391398 0.099562765481277307 0 -0.4440027786857581 0.081840097472141923 0 -0.46173764655623939 0.081650329359730184 0 -0.44732799069943863 0.066648710560794175 0 -0.46173764655623939 0.081650329359730184 0 -0.46606098009703478 0.062531699495051288 0 -0.46173764655623939 0.081650329359730184 0 -0.46606098009703478 0.062531699495051288 0 -0.47838696846638801 0.077789970103506079 0 -0.48127091262030158 0.05985215160967168 0 -0.46606098009703478 0.062531699495051288 0 -0.47838696846638801 0.077789970103506079 0 -0.46606098009703478 0.062531699495051288 0 -0.47838696846638801 0.077789970103506079 0 -0.46173764655623939 0.081650329359730184 0 -0.47838696846638801 0.077789970103506079 0 -0.47580312523895463 0.1012924177416009 0 -0.47838696846638801 0.077789970103506079 0 -0.5 0.088843088355331723 0 -0.47580312523895463 0.1012924177416009 0 -0.5 0.059148427786412328 0 -0.47838696846638801 0.077789970103506079 0 -0.5 0.088843088355331723 0 -0.5 0.059148427786412328 0 -0.48127091262030158 0.05985215160967168 0 -0.47838696846638801 0.077789970103506079 0 -0.46143421764442188 0.1165428270165626 0 -0.47580312523895463 0.1012924177416009 0 -0.47481710559809182 0.1257055643547908 0 -0.47580312523895463 0.1012924177416009 0 -0.5 0.1185377489242511 0 -0.47481710559809182 0.1257055643547908 0 -0.5 0.088843088355331723 0 -0.47580312523895463 0.1012924177416009 0 -0.5 0.1185377489242511 0 -0.5 0.1185377489242511 0 -0.4870290210822068 0.14156678021851971 0 -0.50000000000000311 0.14823240949317051 0 -0.5 0.1185377489242511 0 -0.47481710559809182 0.1257055643547908 0 -0.4870290210822068 0.14156678021851971 0 -0.47481710559809182 0.1257055643547908 0 -0.47532000436452781 0.14075364744441959 0 -0.4870290210822068 0.14156678021851971 0 -0.47481710559809182 0.1257055643547908 0 -0.47532000436452781 0.14075364744441959 0 -0.45757076876523939 0.1416972509466759 0 -0.48186312201257298 0.15404499425769211 0 -0.45757076876523939 0.1416972509466759 0 -0.47532000436452781 0.14075364744441959 0 -0.48186312201257298 0.15404499425769211 0 -0.45757076876523939 0.1416972509466759 0 -0.47532000436452781 0.14075364744441959 0 -0.48186312201257298 0.15404499425769211 0 -0.4870290210822068 0.14156678021851971 0 -0.48186312201257298 0.15404499425769211 0 -0.48847275676545931 0.15615253023320061 0 -0.4870290210822068 0.14156678021851971 0 -0.48847275676545931 0.15615253023320061 0 -0.50000000000000311 0.14823240949317051 0 -0.48797673842913369 0.15920724847969681 0 -0.48847275676545931 0.15615253023320061 0 -0.4870290210822068 0.14156678021851971 0 -0.50000000000000311 0.14823240949317051 0 -0.50000000000000311 0.14823240949317051 0 -0.48797673842913369 0.15920724847969681 0 -0.48797673842913369 0.15920724847969681 0 -0.48533620804471878 0.17546889800949561 0 -0.48797673842913369 0.15920724847969681 0 -0.49999999999999989 0.17234508182112471 0 -0.48533620804471878 0.17546889800949561 0 -0.50000000000000311 0.14823240949317051 0 -0.48797673842913369 0.15920724847969681 0 -0.49999999999999989 0.17234508182112471 0 -0.48186312201257298 0.15404499425769211 0 -0.48847275676545931 0.15615253023320061 0 -0.48797673842913369 0.15920724847969681 0 -0.48847275676545931 0.15615253023320061 0 -0.48797673842913369 0.15920724847969681 0 -0.49999999999999872 0.18239032184739609 0 -0.48533620804471878 0.17546889800949561 0 -0.48181942994010962 0.19712690026117019 0 -0.49999999999999872 0.18239032184739609 0 -0.49999999999999989 0.17234508182112471 0 -0.48533620804471878 0.17546889800949561 0 -0.49999999999999989 0.17234508182112471 0 -0.48533620804471878 0.17546889800949561 0 -0.48533620804471878 0.17546889800949561 0 -0.47675940196921701 0.16944643863451769 0 -0.4655420655093 0.17968562878933839 0 -0.48533620804471878 0.17546889800949561 0 -0.4655420655093 0.17968562878933839 0 -0.47108234748676381 0.19083126591797819 0 -0.48533620804471878 0.17546889800949561 0 -0.4655420655093 0.17968562878933839 0 -0.48533620804471878 0.17546889800949561 0 -0.48181942994010962 0.19712690026117019 0 -0.47675940196921701 0.16944643863451769 0 -0.4655420655093 0.17968562878933839 0 -0.47675940196921701 0.16944643863451769 0 -0.46564134245408811 0.1685303321768819 0 -0.4655420655093 0.17968562878933839 0 -0.48186312201257298 0.15404499425769211 0 -0.47534068883395503 0.16103245234623539 0 -0.46615648018461198 0.15738649389995649 0 -0.48797673842913369 0.15920724847969681 0 -0.48533620804471878 0.17546889800949561 0 -0.47675940196921701 0.16944643863451769 0 -0.48797673842913369 0.15920724847969681 0 -0.47675940196921701 0.16944643863451769 0 -0.47534068883395503 0.16103245234623539 0 -0.48186312201257298 0.15404499425769211 0 -0.48797673842913369 0.15920724847969681 0 -0.47534068883395503 0.16103245234623539 0 -0.48797673842913369 0.15920724847969681 0 -0.47675940196921701 0.16944643863451769 0 -0.47675940196921701 0.16944643863451769 0 -0.47534068883395503 0.16103245234623539 0 -0.46564134245408811 0.1685303321768819 0 -0.47534068883395503 0.16103245234623539 0 -0.46615648018461198 0.15738649389995649 0 -0.46564134245408811 0.1685303321768819 0 -0.46615648018461198 0.15738649389995649 0 -0.46564134245408811 0.1685303321768819 0 -0.45249305926436167 0.16208724207063649 0 -0.46564134245408811 0.1685303321768819 0 -0.4540413439151782 0.17322888750109491 0 -0.45249305926436167 0.16208724207063649 0 -0.4655420655093 0.17968562878933839 0 -0.4540413439151782 0.17322888750109491 0 -0.44478800743203922 0.18410684963002241 0 -0.4655420655093 0.17968562878933839 0 -0.44478800743203922 0.18410684963002241 0 -0.46564134245408811 0.1685303321768819 0 -0.4655420655093 0.17968562878933839 0 -0.4540413439151782 0.17322888750109491 0 -0.4540413439151782 0.17322888750109491 0 -0.44478800743203922 0.18410684963002241 0 -0.44174224491610181 0.17173438483859441 0 -0.44478800743203922 0.18410684963002241 0 -0.44174224491610181 0.17173438483859441 0 -0.4313791355611617 0.18525212324365711 0 -0.45249305926436167 0.16208724207063649 0 -0.44174224491610181 0.17173438483859441 0 -0.43629581259643591 0.1542721773951394 0 -0.4540413439151782 0.17322888750109491 0 -0.45249305926436167 0.16208724207063649 0 -0.44174224491610181 0.17173438483859441 0 -0.45757076876523939 0.1416972509466759 0 -0.43327841551790619 0.12934950763565919 0 -0.43629581259643591 0.1542721773951394 0 -0.45249305926436167 0.16208724207063649 0 -0.45757076876523939 0.1416972509466759 0 -0.43629581259643591 0.1542721773951394 0 -0.45757076876523939 0.1416972509466759 0 -0.43327841551790619 0.12934950763565919 0 -0.44408616804591011 0.1144561365584683 0 -0.45757076876523939 0.1416972509466759 0 -0.43327841551790619 0.12934950763565919 0 -0.46143421764442188 0.1165428270165626 0 -0.47481710559809182 0.1257055643547908 0 -0.45757076876523939 0.1416972509466759 0 -0.46615648018461198 0.15738649389995649 0 -0.45249305926436167 0.16208724207063649 0 -0.45757076876523939 0.1416972509466759 0 -0.48186312201257298 0.15404499425769211 0 -0.46615648018461198 0.15738649389995649 0 -0.45757076876523939 0.1416972509466759 0 -0.48125997941274118 0.23444029291542509 0 -0.47365194578558489 0.2474261756056359 0 -0.47637026284465561 0.23068547851447291 0 -0.47365194578558489 0.2474261756056359 0 -0.47637026284465561 0.23068547851447291 0 -0.47365194578558489 0.2474261756056359 0 -0.47637026284465561 0.23068547851447291 0 -0.4670269807958759 0.23843861339404651 0 -0.48125997941274118 0.23444029291542509 0 -0.47365194578558489 0.2474261756056359 0 -0.48343137892175581 0.25493580440754038 0 -0.48125997941274118 0.23444029291542509 0 -0.48343137892175581 0.25493580440754038 0 -0.49117283958362418 0.245103093964054 0 -0.5 0.2328925757827795 0 -0.5 0.25814370275047099 0 -0.48125997941274118 0.23444029291542509 0 -0.49117283958362418 0.245103093964054 0 -0.48343137892175581 0.25493580440754038 0 -0.48125997941274118 0.23444029291542509 0 -0.49117283958362418 0.245103093964054 0 -0.5 0.2328925757827795 0 -0.5 0.2328925757827795 0 -0.49008713982911689 0.22222977473415059 0 -0.5 0.20764144881508781 0 -0.48125997941274118 0.23444029291542509 0 -0.5 0.2328925757827795 0 -0.49008713982911689 0.22222977473415059 0 -0.47637026284465561 0.23068547851447291 0 -0.46895658143252539 0.22049542140083389 0 -0.47908857990372639 0.21394478142330989 0 -0.47637026284465561 0.23068547851447291 0 -0.47908857990372639 0.21394478142330989 0 -0.48125997941274118 0.23444029291542509 0 -0.47908857990372639 0.21394478142330989 0 -0.48125997941274118 0.23444029291542509 0 -0.47637026284465561 0.23068547851447291 0 -0.47908857990372639 0.21394478142330989 0 -0.48125997941274118 0.23444029291542509 0 -0.49008713982911689 0.22222977473415059 0 -0.47908857990372639 0.21394478142330989 0 -0.47637026284465561 0.23068547851447291 0 -0.46467785836869702 0.22899107395371099 0 -0.4670269807958759 0.23843861339404651 0 -0.47637026284465561 0.23068547851447291 0 -0.46895658143252539 0.22049542140083389 0 -0.46467785836869702 0.22899107395371099 0 -0.47908857990372639 0.21394478142330989 0 -0.48181942994010962 0.19712690026117019 0 -0.47743853837088618 0.2006779083934486 0 -0.47908857990372639 0.21394478142330989 0 -0.48181942994010962 0.19712690026117019 0 -0.46895658143252539 0.22049542140083389 0 -0.47908857990372639 0.21394478142330989 0 -0.4678376372584313 0.20846008637909819 0 -0.47743853837088618 0.2006779083934486 0 -0.4678376372584313 0.20846008637909819 0 -0.47908857990372639 0.21394478142330989 0 -0.47743853837088618 0.2006779083934486 0 -0.4678376372584313 0.20846008637909819 0 -0.47908857990372639 0.21394478142330989 0 -0.47743853837088618 0.2006779083934486 0 -0.49008713982911689 0.22222977473415059 0 -0.47908857990372639 0.21394478142330989 0 -0.5 0.20764144881508781 0 -0.47908857990372639 0.21394478142330989 0 -0.5 0.20764144881508781 0 -0.48181942994010962 0.19712690026117019 0 -0.49999999999999872 0.18239032184739609 0 -0.5 0.20764144881508781 0 -0.48181942994010962 0.19712690026117019 0 -0.49999999999999872 0.18239032184739609 0 -0.48181942994010962 0.19712690026117019 0 -0.47743853837088618 0.2006779083934486 0 -0.47108234748676381 0.19083126591797819 0 -0.4678376372584313 0.20846008637909819 0 -0.48533620804471878 0.17546889800949561 0 -0.48181942994010962 0.19712690026117019 0 -0.47108234748676381 0.19083126591797819 0 -0.48181942994010962 0.19712690026117019 0 -0.47743853837088618 0.2006779083934486 0 -0.47108234748676381 0.19083126591797819 0 -0.48181942994010962 0.19712690026117019 0 -0.47743853837088618 0.2006779083934486 0 -0.4655420655093 0.17968562878933839 0 -0.47108234748676381 0.19083126591797819 0 -0.46063918624135952 0.1970900883211322 0 -0.47108234748676381 0.19083126591797819 0 -0.46063918624135952 0.1970900883211322 0 -0.4678376372584313 0.20846008637909819 0 -0.4655420655093 0.17968562878933839 0 -0.44374889314420268 0.19957844708183939 0 -0.4655420655093 0.17968562878933839 0 -0.46063918624135952 0.1970900883211322 0 -0.44374889314420268 0.19957844708183939 0 -0.46063918624135952 0.1970900883211322 0 -0.44374889314420268 0.19957844708183939 0 -0.45461862496740191 0.2073278180553336 0 -0.4655420655093 0.17968562878933839 0 -0.44478800743203922 0.18410684963002241 0 -0.44374889314420268 0.19957844708183939 0 -0.44478800743203922 0.18410684963002241 0 -0.44374889314420268 0.19957844708183939 0 -0.4313791355611617 0.18525212324365711 0 -0.44374889314420268 0.19957844708183939 0 -0.44180628037563258 0.2178664840090849 0 -0.45461862496740191 0.2073278180553336 0 -0.44180628037563258 0.2178664840090849 0 -0.45461862496740191 0.2073278180553336 0 -0.45385584457675221 0.21979327249702521 0 -0.4678376372584313 0.20846008637909819 0 -0.45385584457675221 0.21979327249702521 0 -0.45461862496740191 0.2073278180553336 0 -0.4678376372584313 0.20846008637909819 0 -0.45385584457675221 0.21979327249702521 0 -0.46063918624135952 0.1970900883211322 0 -0.45461862496740191 0.2073278180553336 0 -0.4678376372584313 0.20846008637909819 0 -0.46895658143252539 0.22049542140083389 0 -0.4678376372584313 0.20846008637909819 0 -0.45385584457675221 0.21979327249702521 0 -0.46467785836869702 0.22899107395371099 0 -0.45385584457675221 0.21979327249702521 0 -0.45717962219367569 0.2355425839621765 0 -0.46895658143252539 0.22049542140083389 0 -0.46467785836869702 0.22899107395371099 0 -0.45385584457675221 0.21979327249702521 0 -0.46467785836869702 0.22899107395371099 0 -0.45717962219367569 0.2355425839621765 0 -0.4670269807958759 0.23843861339404651 0 -0.44180628037563258 0.2178664840090849 0 -0.45385584457675221 0.21979327249702521 0 -0.44440599669257302 0.2316501635791916 0 -0.45385584457675221 0.21979327249702521 0 -0.44440599669257302 0.2316501635791916 0 -0.45717962219367569 0.2355425839621765 0 -0.44180628037563258 0.2178664840090849 0 -0.44440599669257302 0.2316501635791916 0 -0.43196983518448417 0.2306305200210185 0 -0.44440599669257302 0.2316501635791916 0 -0.44955409193910401 0.2426250211924855 0 -0.45717962219367569 0.2355425839621765 0 -0.44955409193910401 0.2426250211924855 0 -0.46030249057640132 0.24894534069768401 0 -0.44288427963410359 0.25180249600287791 0 -0.44440599669257302 0.2316501635791916 0 -0.44955409193910401 0.2426250211924855 0 -0.43439993591206999 0.24298843020603611 0 -0.44955409193910401 0.2426250211924855 0 -0.43439993591206999 0.24298843020603611 0 -0.44288427963410359 0.25180249600287791 0 -0.44955409193910401 0.2426250211924855 0 -0.46030249057640132 0.24894534069768401 0 -0.45717962219367569 0.2355425839621765 0 -0.46030249057640132 0.24894534069768401 0 -0.45717962219367569 0.2355425839621765 0 -0.4670269807958759 0.23843861339404651 0 -0.47365194578558489 0.2474261756056359 0 -0.46030249057640132 0.24894534069768401 0 -0.4670269807958759 0.23843861339404651 0 -0.41011544326189359 0.24952867831187109 0 -0.41728124216303952 0.2411762569364386 0 -0.40109619813893033 0.24339999998338971 0 -0.41728124216303952 0.2411762569364386 0 -0.40016254841400878 0.23936408366684189 0 -0.41011544326189359 0.24952867831187109 0 -0.41728124216303952 0.2411762569364386 0 -0.42117545011479679 0.25014549038947931 0 -0.41728124216303952 0.2411762569364386 0 -0.43439993591206999 0.24298843020603611 0 -0.42117545011479679 0.25014549038947931 0 -0.41728124216303952 0.2411762569364386 0 -0.43439993591206999 0.24298843020603611 0 -0.43196983518448417 0.2306305200210185 0 -0.41728124216303952 0.2411762569364386 0 -0.43439993591206999 0.24298843020603611 0 -0.44440599669257302 0.2316501635791916 0 -0.43439993591206999 0.24298843020603611 0 -0.43196983518448417 0.2306305200210185 0 -0.41728124216303952 0.2411762569364386 0 -0.42195572077910609 0.2194712653743412 0 -0.43196983518448417 0.2306305200210185 0 -0.44180628037563258 0.2178664840090849 0 -0.42195572077910609 0.2194712653743412 0 -0.43196983518448417 0.2306305200210185 0 -0.42195572077910609 0.2194712653743412 0 -0.40347845988565828 0.22532497750421029 0 -0.40016254841400878 0.23936408366684189 0 -0.42195572077910609 0.2194712653743412 0 -0.40223812945003812 0.21543878503611619 0 -0.40347845988565828 0.22532497750421029 0 -0.41728124216303952 0.2411762569364386 0 -0.42195572077910609 0.2194712653743412 0 -0.40016254841400878 0.23936408366684189 0 -0.42195572077910609 0.2194712653743412 0 -0.40016254841400878 0.23936408366684189 0 -0.42195572077910609 0.2194712653743412 0 -0.42771098192012391 0.20066371152461249 0 -0.41376017819602512 0.19835301039861239 0 -0.42195572077910609 0.2194712653743412 0 -0.41376017819602512 0.19835301039861239 0 -0.40223812945003812 0.21543878503611619 0 -0.44374889314420268 0.19957844708183939 0 -0.42195572077910609 0.2194712653743412 0 -0.44374889314420268 0.19957844708183939 0 -0.42195572077910609 0.2194712653743412 0 -0.42771098192012391 0.20066371152461249 0 -0.44374889314420268 0.19957844708183939 0 -0.44180628037563258 0.2178664840090849 0 -0.42195572077910609 0.2194712653743412 0 -0.44374889314420268 0.19957844708183939 0 -0.42771098192012391 0.20066371152461249 0 -0.4313791355611617 0.18525212324365711 0 -0.42771098192012391 0.20066371152461249 0 -0.41376017819602512 0.19835301039861239 0 -0.4313791355611617 0.18525212324365711 0 -0.41376017819602512 0.19835301039861239 0 -0.40309627354808181 0.18194936506505499 0 -0.41376017819602512 0.19835301039861239 0 -0.39728145783893681 0.2027400462781091 0 -0.39550380533647689 0.1911358799892616 0 -0.41376017819602512 0.19835301039861239 0 -0.39550380533647689 0.1911358799892616 0 -0.40309627354808181 0.18194936506505499 0 -0.39728145783893681 0.2027400462781091 0 -0.39550380533647689 0.1911358799892616 0 -0.38799358663220862 0.19912425879615761 0 -0.39550380533647689 0.1911358799892616 0 -0.38461981497940678 0.19044142234743269 0 -0.38799358663220862 0.19912425879615761 0 -0.39550380533647689 0.1911358799892616 0 -0.38461981497940678 0.19044142234743269 0 -0.38936911120449619 0.18138432847739061 0 -0.38461981497940678 0.19044142234743269 0 -0.37760317365142559 0.2021084296154988 0 -0.37501571872072731 0.18637174562261741 0 -0.38461981497940678 0.19044142234743269 0 -0.37760317365142559 0.2021084296154988 0 -0.38799358663220862 0.19912425879615761 0 -0.37760317365142559 0.2021084296154988 0 -0.38799358663220862 0.19912425879615761 0 -0.38820225223839078 0.212638776931726 0 -0.37760317365142559 0.2021084296154988 0 -0.38820225223839078 0.212638776931726 0 -0.3734152357450603 0.21833973622850161 0 -0.41376017819602512 0.19835301039861239 0 -0.39728145783893681 0.2027400462781091 0 -0.40223812945003812 0.21543878503611619 0 -0.38820225223839078 0.212638776931726 0 -0.40223812945003812 0.21543878503611619 0 -0.38955744089948052 0.2270257759395419 0 -0.39728145783893681 0.2027400462781091 0 -0.38820225223839078 0.212638776931726 0 -0.40223812945003812 0.21543878503611619 0 -0.39728145783893681 0.2027400462781091 0 -0.38799358663220862 0.19912425879615761 0 -0.38820225223839078 0.212638776931726 0 -0.40347845988565828 0.22532497750421029 0 -0.38955744089948052 0.2270257759395419 0 -0.40016254841400878 0.23936408366684189 0 -0.40223812945003812 0.21543878503611619 0 -0.40347845988565828 0.22532497750421029 0 -0.38955744089948052 0.2270257759395419 0 -0.38820225223839078 0.212638776931726 0 -0.38955744089948052 0.2270257759395419 0 -0.3734152357450603 0.21833973622850161 0 -0.38955744089948052 0.2270257759395419 0 -0.37091150342726259 0.23626758795227901 0 -0.3734152357450603 0.21833973622850161 0 -0.38955744089948052 0.2270257759395419 0 -0.40016254841400878 0.23936408366684189 0 -0.37091150342726259 0.23626758795227901 0 -0.37091150342726259 0.23626758795227901 0 -0.38830289254671763 0.25018958328788471 0 -0.36706940300080659 0.26145848834748558 0 -0.40016254841400878 0.23936408366684189 0 -0.37091150342726259 0.23626758795227901 0 -0.40016254841400878 0.23936408366684189 0 -0.37091150342726259 0.23626758795227901 0 -0.38830289254671763 0.25018958328788471 0 -0.40016254841400878 0.23936408366684189 0 -0.40109619813893033 0.24339999998338971 0 -0.38830289254671763 0.25018958328788471 0 -0.41728124216303952 0.2411762569364386 0 -0.40016254841400878 0.23936408366684189 0 -0.40109619813893033 0.24339999998338971 0 -0.40109619813893033 0.24339999998338971 0 -0.38830289254671763 0.25018958328788471 0 -0.40016254841400878 0.23936408366684189 0 -0.38830289254671763 0.25018958328788471 0 -0.40142426697920691 0.24989543508756221 0 -0.40109619813893033 0.24339999998338971 0 -0.38830289254671763 0.25018958328788471 0 -0.41011544326189359 0.24952867831187109 0 -0.40142426697920691 0.24989543508756221 0 -0.40109619813893033 0.24339999998338971 0 -0.42036628120467517 0.14714277290771249 0 -0.4082390149463696 0.14701629031452659 0 -0.40745414689144432 0.1649360381797659 0 -0.42036628120467517 0.14714277290771249 0 -0.40745414689144432 0.1649360381797659 0 -0.42036628120467517 0.14714277290771249 0 -0.4082390149463696 0.14701629031452659 0 -0.42132628129568089 0.13375518868362599 0 -0.42132628129568089 0.13375518868362599 0 -0.3999756230982745 0.12519951436026261 0 -0.39962006986769438 0.1384839770011872 0 -0.41120043154964969 0.1181273227740639 0 -0.42132628129568089 0.13375518868362599 0 -0.3999756230982745 0.12519951436026261 0 -0.42132628129568089 0.13375518868362599 0 -0.39962006986769438 0.1384839770011872 0 -0.4082390149463696 0.14701629031452659 0 -0.42132628129568089 0.13375518868362599 0 -0.39962006986769438 0.1384839770011872 0 -0.42036628120467517 0.14714277290771249 0 -0.42132628129568089 0.13375518868362599 0 -0.43327841551790619 0.12934950763565919 0 -0.42036628120467517 0.14714277290771249 0 -0.43327841551790619 0.12934950763565919 0 -0.41120043154964969 0.1181273227740639 0 -0.42132628129568089 0.13375518868362599 0 -0.43327841551790619 0.12934950763565919 0 -0.42036628120467517 0.14714277290771249 0 -0.43327841551790619 0.12934950763565919 0 -0.43629581259643591 0.1542721773951394 0 -0.42036628120467517 0.14714277290771249 0 -0.43629581259643591 0.1542721773951394 0 -0.42076601233349858 0.16107022371096991 0 -0.44174224491610181 0.17173438483859441 0 -0.43629581259643591 0.1542721773951394 0 -0.42930786072999949 0.16793469289058549 0 -0.42930786072999949 0.16793469289058549 0 -0.41738494211724658 0.1763974367089646 0 -0.42076601233349858 0.16107022371096991 0 -0.43629581259643591 0.1542721773951394 0 -0.42930786072999949 0.16793469289058549 0 -0.42076601233349858 0.16107022371096991 0 -0.42930786072999949 0.16793469289058549 0 -0.4313791355611617 0.18525212324365711 0 -0.41738494211724658 0.1763974367089646 0 -0.44174224491610181 0.17173438483859441 0 -0.42930786072999949 0.16793469289058549 0 -0.4313791355611617 0.18525212324365711 0 -0.41738494211724658 0.1763974367089646 0 -0.40745414689144432 0.1649360381797659 0 -0.40309627354808181 0.18194936506505499 0 -0.41376017819602512 0.19835301039861239 0 -0.4313791355611617 0.18525212324365711 0 -0.41738494211724658 0.1763974367089646 0 -0.41376017819602512 0.19835301039861239 0 -0.41738494211724658 0.1763974367089646 0 -0.40309627354808181 0.18194936506505499 0 -0.42036628120467517 0.14714277290771249 0 -0.42076601233349858 0.16107022371096991 0 -0.40745414689144432 0.1649360381797659 0 -0.41738494211724658 0.1763974367089646 0 -0.42076601233349858 0.16107022371096991 0 -0.40745414689144432 0.1649360381797659 0 -0.40745414689144432 0.1649360381797659 0 -0.39875378438211062 0.16574942386221239 0 -0.40034693619111478 0.15622507295215471 0 -0.39875378438211062 0.16574942386221239 0 -0.39243236890013811 0.1655457197314979 0 -0.40309627354808181 0.18194936506505499 0 -0.40745414689144432 0.1649360381797659 0 -0.39875378438211062 0.16574942386221239 0 -0.40309627354808181 0.18194936506505499 0 -0.39875378438211062 0.16574942386221239 0 -0.39243236890013811 0.1655457197314979 0 -0.39588557832236959 0.16099986898108129 0 -0.39243236890013811 0.1655457197314979 0 -0.39179982851876077 0.15959133800502301 0 -0.39588557832236959 0.16099986898108129 0 -0.39875378438211062 0.16574942386221239 0 -0.39588557832236959 0.16099986898108129 0 -0.40034693619111478 0.15622507295215471 0 -0.39179982851876077 0.15959133800502301 0 -0.39491113606037898 0.15715408590116439 0 -0.39588557832236959 0.16099986898108129 0 -0.39491113606037898 0.15715408590116439 0 -0.39588557832236959 0.16099986898108129 0 -0.40034693619111478 0.15622507295215471 0 -0.39243236890013811 0.1655457197314979 0 -0.40309627354808181 0.18194936506505499 0 -0.38936911120449619 0.18138432847739061 0 -0.39243236890013811 0.1655457197314979 0 -0.40309627354808181 0.18194936506505499 0 -0.39550380533647689 0.1911358799892616 0 -0.40309627354808181 0.18194936506505499 0 -0.38936911120449619 0.18138432847739061 0 -0.39243236890013811 0.1655457197314979 0 -0.38936911120449619 0.18138432847739061 0 -0.37501571872072731 0.18637174562261741 0 -0.39243236890013811 0.1655457197314979 0 -0.37501571872072731 0.18637174562261741 0 -0.38376393653804819 0.1696005176995877 0 -0.39243236890013811 0.1655457197314979 0 -0.37501571872072731 0.18637174562261741 0 -0.37790835361110442 0.17230927565419091 0 -0.37501571872072731 0.18637174562261741 0 -0.38376393653804819 0.1696005176995877 0 -0.38461981497940678 0.19044142234743269 0 -0.38936911120449619 0.18138432847739061 0 -0.37501571872072731 0.18637174562261741 0 -0.39243236890013811 0.1655457197314979 0 -0.38905368634817661 0.16370761193632721 0 -0.37791385843970787 0.1432127653187481 0 -0.38521433529356031 0.16454838698705079 0 -0.38323059838805951 0.16514185735943421 0 -0.38278436133766208 0.15977852827384201 0 -0.38905368634817661 0.16370761193632721 0 -0.38521433529356031 0.16454838698705079 0 -0.38278436133766208 0.15977852827384201 0 -0.39243236890013811 0.1655457197314979 0 -0.38905368634817661 0.16370761193632721 0 -0.38376393653804819 0.1696005176995877 0 -0.38905368634817661 0.16370761193632721 0 -0.38376393653804819 0.1696005176995877 0 -0.38521433529356031 0.16454838698705079 0 -0.38376393653804819 0.1696005176995877 0 -0.38521433529356031 0.16454838698705079 0 -0.38323059838805951 0.16514185735943421 0 -0.38323059838805951 0.16514185735943421 0 -0.38120491987010369 0.16762419998979411 0 -0.38056929669198569 0.163772317368302 0 -0.38376393653804819 0.1696005176995877 0 -0.38323059838805951 0.16514185735943421 0 -0.38120491987010369 0.16762419998979411 0 -0.38120491987010369 0.16762419998979411 0 -0.37761664825917513 0.1655687108422059 0 -0.38056929669198569 0.163772317368302 0 -0.37790835361110442 0.17230927565419091 0 -0.38376393653804819 0.1696005176995877 0 -0.38120491987010369 0.16762419998979411 0 -0.37790835361110442 0.17230927565419091 0 -0.38120491987010369 0.16762419998979411 0 -0.37761664825917513 0.1655687108422059 0 -0.37790835361110442 0.17230927565419091 0 -0.37761664825917513 0.1655687108422059 0 -0.37194054466746779 0.17238120411674951 0 -0.37761664825917513 0.1655687108422059 0 -0.3788517058836276 0.1582052954382249 0 -0.3748783023514794 0.15734688682126091 0 -0.37761664825917513 0.1655687108422059 0 -0.38056929669198569 0.163772317368302 0 -0.3788517058836276 0.1582052954382249 0 -0.38056929669198569 0.163772317368302 0 -0.38278436133766208 0.15977852827384201 0 -0.3788517058836276 0.1582052954382249 0 -0.38323059838805951 0.16514185735943421 0 -0.38056929669198569 0.163772317368302 0 -0.38278436133766208 0.15977852827384201 0 -0.39179982851876077 0.15959133800502301 0 -0.37791385843970787 0.1432127653187481 0 -0.39081735632750952 0.15026013651002221 0 -0.39243236890013811 0.1655457197314979 0 -0.39179982851876077 0.15959133800502301 0 -0.37791385843970787 0.1432127653187481 0 -0.37791385843970787 0.1432127653187481 0 -0.39081735632750952 0.15026013651002221 0 -0.39962006986769438 0.1384839770011872 0 -0.39243236890013811 0.1655457197314979 0 -0.37791385843970787 0.1432127653187481 0 -0.38278436133766208 0.15977852827384201 0 -0.3788517058836276 0.1582052954382249 0 -0.37791385843970787 0.1432127653187481 0 -0.3788517058836276 0.1582052954382249 0 -0.37791385843970787 0.1432127653187481 0 -0.3748783023514794 0.15734688682126091 0 -0.38905368634817661 0.16370761193632721 0 -0.38278436133766208 0.15977852827384201 0 -0.37791385843970787 0.1432127653187481 0 -0.37791385843970787 0.1432127653187481 0 -0.39962006986769438 0.1384839770011872 0 -0.39491113606037898 0.15715408590116439 0 -0.39081735632750952 0.15026013651002221 0 -0.40034693619111478 0.15622507295215471 0 -0.4082390149463696 0.14701629031452659 0 -0.40745414689144432 0.1649360381797659 0 -0.40034693619111478 0.15622507295215471 0 -0.39179982851876077 0.15959133800502301 0 -0.39491113606037898 0.15715408590116439 0 -0.39081735632750952 0.15026013651002221 0 -0.4082390149463696 0.14701629031452659 0 -0.40034693619111478 0.15622507295215471 0 -0.39962006986769438 0.1384839770011872 0 -0.39081735632750952 0.15026013651002221 0 -0.40034693619111478 0.15622507295215471 0 -0.39962006986769438 0.1384839770011872 0 -0.3999756230982745 0.12519951436026261 0 -0.39962006986769438 0.1384839770011872 0 -0.38758902279242102 0.1283314010223203 0 -0.39962006986769438 0.1384839770011872 0 -0.38758902279242102 0.1283314010223203 0 -0.3806640230354208 0.1345613189328943 0 -0.37791385843970787 0.1432127653187481 0 -0.39962006986769438 0.1384839770011872 0 -0.3806640230354208 0.1345613189328943 0 -0.39403720973420742 0.1133358106670886 0 -0.38758902279242102 0.1283314010223203 0 -0.37164097402713842 0.13356356321883631 0 -0.38758902279242102 0.1283314010223203 0 -0.3806640230354208 0.1345613189328943 0 -0.37164097402713842 0.13356356321883631 0 -0.37791385843970787 0.1432127653187481 0 -0.3806640230354208 0.1345613189328943 0 -0.37164097402713842 0.13356356321883631 0 -0.38004534752460478 0.11893591763278651 0 -0.36813475971136961 0.1281701638967199 0 -0.37164097402713842 0.13356356321883631 0 -0.36813475971136961 0.1281701638967199 0 -0.37164097402713842 0.13356356321883631 0 -0.36881847744702217 0.13611277564665089 0 -0.36813475971136961 0.1281701638967199 0 -0.36881847744702217 0.13611277564665089 0 -0.36813475971136961 0.1281701638967199 0 -0.37164097402713842 0.13356356321883631 0 -0.37791385843970787 0.1432127653187481 0 -0.37164097402713842 0.13356356321883631 0 -0.37791385843970787 0.1432127653187481 0 -0.37164097402713842 0.13356356321883631 0 -0.36881847744702217 0.13611277564665089 0 -0.36881847744702217 0.13611277564665089 0 -0.3695858388398694 0.14502705897947249 0 -0.37164097402713842 0.13356356321883631 0 -0.36881847744702217 0.13611277564665089 0 -0.36881847744702217 0.13611277564665089 0 -0.3599327144336088 0.13224795906745121 0 -0.3557909636249923 0.13811590386666039 0 -0.36813475971136961 0.1281701638967199 0 -0.3599327144336088 0.13224795906745121 0 -0.35741047391061892 0.12512439950311829 0 -0.36813475971136961 0.1281701638967199 0 -0.36881847744702217 0.13611277564665089 0 -0.3599327144336088 0.13224795906745121 0 -0.3599327144336088 0.13224795906745121 0 -0.35741047391061892 0.12512439950311829 0 -0.34880406203918041 0.12983539618354331 0 -0.3599327144336088 0.13224795906745121 0 -0.3557909636249923 0.13811590386666039 0 -0.34880406203918041 0.12983539618354331 0 -0.3557909636249923 0.13811590386666039 0 -0.34880406203918041 0.12983539618354331 0 -0.34664441411618607 0.1406979792687772 0 -0.34660690718080511 0.15617374272197959 0 -0.35556711190662998 0.14808109686945331 0 -0.34660690718080511 0.15617374272197959 0 -0.35556711190662998 0.14808109686945331 0 -0.34269442990991461 0.1508854641098476 0 -0.35556711190662998 0.14808109686945331 0 -0.34269442990991461 0.1508854641098476 0 -0.34660690718080511 0.15617374272197959 0 -0.34269442990991461 0.1508854641098476 0 -0.34664441411618607 0.1406979792687772 0 -0.35556711190662998 0.14808109686945331 0 -0.34269442990991461 0.1508854641098476 0 -0.3557909636249923 0.13811590386666039 0 -0.34664441411618607 0.1406979792687772 0 -0.35556711190662998 0.14808109686945331 0 -0.35556711190662998 0.14808109686945331 0 -0.36150388017428808 0.15257497554462379 0 -0.35649259919563647 0.15811250685224049 0 -0.34660690718080511 0.15617374272197959 0 -0.35556711190662998 0.14808109686945331 0 -0.35649259919563647 0.15811250685224049 0 -0.35556711190662998 0.14808109686945331 0 -0.36150388017428808 0.15257497554462379 0 -0.3695858388398694 0.14502705897947249 0 -0.36150388017428808 0.15257497554462379 0 -0.3695858388398694 0.14502705897947249 0 -0.36436997075501659 0.15907923947732949 0 -0.36881847744702217 0.13611277564665089 0 -0.35556711190662998 0.14808109686945331 0 -0.36881847744702217 0.13611277564665089 0 -0.3557909636249923 0.13811590386666039 0 -0.35556711190662998 0.14808109686945331 0 -0.36881847744702217 0.13611277564665089 0 -0.35556711190662998 0.14808109686945331 0 -0.3695858388398694 0.14502705897947249 0 -0.35556711190662998 0.14808109686945331 0 -0.3695858388398694 0.14502705897947249 0 -0.37791385843970787 0.1432127653187481 0 -0.36881847744702217 0.13611277564665089 0 -0.3695858388398694 0.14502705897947249 0 -0.37791385843970787 0.1432127653187481 0 -0.3695858388398694 0.14502705897947249 0 -0.37791385843970787 0.1432127653187481 0 -0.3695858388398694 0.14502705897947249 0 -0.3748783023514794 0.15734688682126091 0 -0.3695858388398694 0.14502705897947249 0 -0.37194054466746779 0.17238120411674951 0 -0.3695858388398694 0.14502705897947249 0 -0.36436997075501659 0.15907923947732949 0 -0.37194054466746779 0.17238120411674951 0 -0.36436997075501659 0.15907923947732949 0 -0.37194054466746779 0.17238120411674951 0 -0.35596894659227052 0.16882789234579251 0 -0.3695858388398694 0.14502705897947249 0 -0.3748783023514794 0.15734688682126091 0 -0.37194054466746779 0.17238120411674951 0 -0.37761664825917513 0.1655687108422059 0 -0.3748783023514794 0.15734688682126091 0 -0.37194054466746779 0.17238120411674951 0 -0.36150388017428808 0.15257497554462379 0 -0.36436997075501659 0.15907923947732949 0 -0.35649259919563647 0.15811250685224049 0 -0.37194054466746779 0.17238120411674951 0 -0.36533098600373609 0.1814820419696053 0 -0.35596894659227052 0.16882789234579251 0 -0.37501571872072731 0.18637174562261741 0 -0.36533098600373609 0.1814820419696053 0 -0.35876814868201751 0.19015330853056539 0 -0.37501571872072731 0.18637174562261741 0 -0.37194054466746779 0.17238120411674951 0 -0.36533098600373609 0.1814820419696053 0 -0.37790835361110442 0.17230927565419091 0 -0.37501571872072731 0.18637174562261741 0 -0.37194054466746779 0.17238120411674951 0 -0.36533098600373609 0.1814820419696053 0 -0.35596894659227052 0.16882789234579251 0 -0.36533098600373609 0.1814820419696053 0 -0.35040836571775519 0.18135973435220551 0 -0.35876814868201751 0.19015330853056539 0 -0.36533098600373609 0.1814820419696053 0 -0.35040836571775519 0.18135973435220551 0 -0.35596894659227052 0.16882789234579251 0 -0.35040836571775519 0.18135973435220551 0 -0.35596894659227052 0.16882789234579251 0 -0.34469170326234821 0.17036522980038771 0 -0.34660690718080511 0.15617374272197959 0 -0.35649259919563647 0.15811250685224049 0 -0.35596894659227052 0.16882789234579251 0 -0.36436997075501659 0.15907923947732949 0 -0.35649259919563647 0.15811250685224049 0 -0.35596894659227052 0.16882789234579251 0 -0.34660690718080511 0.15617374272197959 0 -0.35596894659227052 0.16882789234579251 0 -0.34469170326234821 0.17036522980038771 0 -0.34660690718080511 0.15617374272197959 0 -0.35596894659227052 0.16882789234579251 0 -0.34660690718080511 0.15617374272197959 0 -0.33530333183349431 0.1663828657222019 0 -0.34660690718080511 0.15617374272197959 0 -0.33530333183349431 0.1663828657222019 0 -0.33174112338389999 0.15814874450886721 0 -0.34660690718080511 0.15617374272197959 0 -0.34469170326234821 0.17036522980038771 0 -0.33530333183349431 0.1663828657222019 0 -0.33530333183349431 0.1663828657222019 0 -0.33249770900344833 0.17968732096320131 0 -0.32599031363039299 0.1653718752083648 0 -0.33530333183349431 0.1663828657222019 0 -0.33174112338389999 0.15814874450886721 0 -0.32599031363039299 0.1653718752083648 0 -0.35040836571775519 0.18135973435220551 0 -0.33249770900344833 0.17968732096320131 0 -0.34548660442655149 0.19435524919466129 0 -0.35040836571775519 0.18135973435220551 0 -0.34469170326234821 0.17036522980038771 0 -0.33249770900344833 0.17968732096320131 0 -0.34469170326234821 0.17036522980038771 0 -0.33530333183349431 0.1663828657222019 0 -0.33249770900344833 0.17968732096320131 0 -0.33249770900344833 0.17968732096320131 0 -0.31944219659937612 0.1834864846331879 0 -0.32981400652754461 0.19366076880391511 0 -0.33249770900344833 0.17968732096320131 0 -0.31929516756203857 0.1722837021170068 0 -0.32599031363039299 0.1653718752083648 0 -0.33249770900344833 0.17968732096320131 0 -0.31929516756203857 0.1722837021170068 0 -0.31944219659937612 0.1834864846331879 0 -0.31929516756203857 0.1722837021170068 0 -0.31944219659937612 0.1834864846331879 0 -0.30435936152878262 0.17241770144972721 0 -0.32599031363039299 0.1653718752083648 0 -0.31442021226510219 0.160486058971331 0 -0.3232458302549569 0.15531679250544719 0 -0.33174112338389999 0.15814874450886721 0 -0.32599031363039299 0.1653718752083648 0 -0.3232458302549569 0.15531679250544719 0 -0.31929516756203857 0.1722837021170068 0 -0.31442021226510219 0.160486058971331 0 -0.30435936152878262 0.17241770144972721 0 -0.31929516756203857 0.1722837021170068 0 -0.32599031363039299 0.1653718752083648 0 -0.31442021226510219 0.160486058971331 0 -0.31442021226510219 0.160486058971331 0 -0.3161819711889074 0.14655247922256509 0 -0.30718294913225752 0.1544269612570594 0 -0.31442021226510219 0.160486058971331 0 -0.3232458302549569 0.15531679250544719 0 -0.3161819711889074 0.14655247922256509 0 -0.33174112338389999 0.15814874450886721 0 -0.3232458302549569 0.15531679250544719 0 -0.32812948602339093 0.14605573525688589 0 -0.3232458302549569 0.15531679250544719 0 -0.3161819711889074 0.14655247922256509 0 -0.32812948602339093 0.14605573525688589 0 -0.3161819711889074 0.14655247922256509 0 -0.33077148400904649 0.13476987916566829 0 -0.32812948602339093 0.14605573525688589 0 -0.3161819711889074 0.14655247922256509 0 -0.33077148400904649 0.13476987916566829 0 -0.30922457347012439 0.13166433370237801 0 -0.33077148400904649 0.13476987916566829 0 -0.30922457347012439 0.13166433370237801 0 -0.31884853810817743 0.1186542942214897 0 -0.33077148400904649 0.13476987916566829 0 -0.31884853810817743 0.1186542942214897 0 -0.34880406203918041 0.12983539618354331 0 -0.34664441411618607 0.1406979792687772 0 -0.33077148400904649 0.13476987916566829 0 -0.34880406203918041 0.12983539618354331 0 -0.33077148400904649 0.13476987916566829 0 -0.33782947936992619 0.11588207501194531 0 -0.33077148400904649 0.13476987916566829 0 -0.34269442990991461 0.1508854641098476 0 -0.33815402580069981 0.15187461000386529 0 -0.34664441411618607 0.1406979792687772 0 -0.33077148400904649 0.13476987916566829 0 -0.34269442990991461 0.1508854641098476 0 -0.33077148400904649 0.13476987916566829 0 -0.34269442990991461 0.1508854641098476 0 -0.33077148400904649 0.13476987916566829 0 -0.33815402580069981 0.15187461000386529 0 -0.32812948602339093 0.14605573525688589 0 -0.34269442990991461 0.1508854641098476 0 -0.33815402580069981 0.15187461000386529 0 -0.34660690718080511 0.15617374272197959 0 -0.34269442990991461 0.1508854641098476 0 -0.33815402580069981 0.15187461000386529 0 -0.34660690718080511 0.15617374272197959 0 -0.33174112338389999 0.15814874450886721 0 -0.33815402580069981 0.15187461000386529 0 -0.33174112338389999 0.15814874450886721 0 -0.33815402580069981 0.15187461000386529 0 -0.32812948602339093 0.14605573525688589 0 -0.35851219757856018 0.2440752524803281 0 -0.37091150342726259 0.23626758795227901 0 -0.34166045844051601 0.23317109223771679 0 -0.35851219757856018 0.2440752524803281 0 -0.3443241000121996 0.24041461068418571 0 -0.34166045844051601 0.23317109223771679 0 -0.37091150342726259 0.23626758795227901 0 -0.34166045844051601 0.23317109223771679 0 -0.35851219757856018 0.2440752524803281 0 -0.3443241000121996 0.24041461068418571 0 -0.35035315060422467 0.25628194805284132 0 -0.35851219757856018 0.2440752524803281 0 -0.37091150342726259 0.23626758795227901 0 -0.36706940300080659 0.26145848834748558 0 -0.37091150342726259 0.23626758795227901 0 -0.35661797571248571 0.224800075418226 0 -0.3734152357450603 0.21833973622850161 0 -0.37091150342726259 0.23626758795227901 0 -0.35661797571248571 0.224800075418226 0 -0.34166045844051601 0.23317109223771679 0 -0.35661797571248571 0.224800075418226 0 -0.35759906854131718 0.20719777151373761 0 -0.34018241836190721 0.2280237974048579 0 -0.35661797571248571 0.224800075418226 0 -0.34018241836190721 0.2280237974048579 0 -0.34166045844051601 0.23317109223771679 0 -0.35759906854131718 0.20719777151373761 0 -0.34145297576709921 0.21139063479876591 0 -0.34018241836190721 0.2280237974048579 0 -0.35759906854131718 0.20719777151373761 0 -0.34018241836190721 0.2280237974048579 0 -0.35759906854131718 0.20719777151373761 0 -0.34548660442655149 0.19435524919466129 0 -0.34145297576709921 0.21139063479876591 0 -0.35661797571248571 0.224800075418226 0 -0.35759906854131718 0.20719777151373761 0 -0.3734152357450603 0.21833973622850161 0 -0.37760317365142559 0.2021084296154988 0 -0.35759906854131718 0.20719777151373761 0 -0.3734152357450603 0.21833973622850161 0 -0.37501571872072731 0.18637174562261741 0 -0.35759906854131718 0.20719777151373761 0 -0.37760317365142559 0.2021084296154988 0 -0.37501571872072731 0.18637174562261741 0 -0.35759906854131718 0.20719777151373761 0 -0.37501571872072731 0.18637174562261741 0 -0.35759906854131718 0.20719777151373761 0 -0.35876814868201751 0.19015330853056539 0 -0.35759906854131718 0.20719777151373761 0 -0.35876814868201751 0.19015330853056539 0 -0.34548660442655149 0.19435524919466129 0 -0.35040836571775519 0.18135973435220551 0 -0.35876814868201751 0.19015330853056539 0 -0.34548660442655149 0.19435524919466129 0 -0.33249770900344833 0.17968732096320131 0 -0.34548660442655149 0.19435524919466129 0 -0.32981400652754461 0.19366076880391511 0 -0.34548660442655149 0.19435524919466129 0 -0.32981400652754461 0.19366076880391511 0 -0.34145297576709921 0.21139063479876591 0 -0.31944219659937612 0.1834864846331879 0 -0.32981400652754461 0.19366076880391511 0 -0.31736379316857388 0.19760507581313211 0 -0.31944219659937612 0.1834864846331879 0 -0.31736379316857388 0.19760507581313211 0 -0.30759114505505231 0.18827767706057441 0 -0.32981400652754461 0.19366076880391511 0 -0.31736379316857388 0.19760507581313211 0 -0.32672786257724917 0.20779023316744641 0 -0.31736379316857388 0.19760507581313211 0 -0.31424493363103428 0.20961472037266229 0 -0.30636261462118741 0.20280057084100661 0 -0.31736379316857388 0.19760507581313211 0 -0.32672786257724917 0.20779023316744641 0 -0.31424493363103428 0.20961472037266229 0 -0.31424493363103428 0.20961472037266229 0 -0.32430756533406618 0.21573968701798629 0 -0.31667767473183672 0.22240822401988339 0 -0.32672786257724917 0.20779023316744641 0 -0.31424493363103428 0.20961472037266229 0 -0.32430756533406618 0.21573968701798629 0 -0.32430756533406618 0.21573968701798629 0 -0.334121247982335 0.21808866296385379 0 -0.32752024867659602 0.22067969723522071 0 -0.32672786257724917 0.20779023316744641 0 -0.32430756533406618 0.21573968701798629 0 -0.334121247982335 0.21808866296385379 0 -0.32981400652754461 0.19366076880391511 0 -0.32672786257724917 0.20779023316744641 0 -0.34145297576709921 0.21139063479876591 0 -0.32672786257724917 0.20779023316744641 0 -0.334121247982335 0.21808866296385379 0 -0.34145297576709921 0.21139063479876591 0 -0.3372538958086525 0.23185571871063521 0 -0.33160026892652139 0.22423459953306321 0 -0.31667767473183672 0.22240822401988339 0 -0.334121247982335 0.21808866296385379 0 -0.34145297576709921 0.21139063479876591 0 -0.34018241836190721 0.2280237974048579 0 -0.34166045844051601 0.23317109223771679 0 -0.3372538958086525 0.23185571871063521 0 -0.31240941345376938 0.2300745965231546 0 -0.34018241836190721 0.2280237974048579 0 -0.3372538958086525 0.23185571871063521 0 -0.33160026892652139 0.22423459953306321 0 -0.34018241836190721 0.2280237974048579 0 -0.34166045844051601 0.23317109223771679 0 -0.3372538958086525 0.23185571871063521 0 -0.334121247982335 0.21808866296385379 0 -0.34018241836190721 0.2280237974048579 0 -0.33160026892652139 0.22423459953306321 0 -0.334121247982335 0.21808866296385379 0 -0.33160026892652139 0.22423459953306321 0 -0.32752024867659602 0.22067969723522071 0 -0.3372538958086525 0.23185571871063521 0 -0.31667767473183672 0.22240822401988339 0 -0.32430756533406618 0.21573968701798629 0 -0.32752024867659602 0.22067969723522071 0 -0.31667767473183672 0.22240822401988339 0 -0.34166045844051601 0.23317109223771679 0 -0.32234769652499828 0.23933301177844851 0 -0.31240941345376938 0.2300745965231546 0 -0.33160026892652139 0.22423459953306321 0 -0.32752024867659602 0.22067969723522071 0 -0.31667767473183672 0.22240822401988339 0 -0.3372538958086525 0.23185571871063521 0 -0.31667767473183672 0.22240822401988339 0 -0.31240941345376938 0.2300745965231546 0 -0.34166045844051601 0.23317109223771679 0 -0.31240941345376938 0.2300745965231546 0 -0.32234769652499828 0.23933301177844851 0 -0.32663265310129469 0.24444308205294399 0 -0.33301431723233488 0.24121995744680261 0 -0.32234769652499828 0.23933301177844851 0 -0.30996961632175563 0.2426169051743817 0 -0.31240941345376938 0.2300745965231546 0 -0.32234769652499828 0.23933301177844851 0 -0.31918450862209119 0.2494813401128361 0 -0.30996961632175563 0.2426169051743817 0 -0.31918450862209119 0.2494813401128361 0 -0.32663265310129469 0.24444308205294399 0 -0.33074662450541248 0.25002147010888148 0 -0.32234769652499828 0.23933301177844851 0 -0.31918450862209119 0.2494813401128361 0 -0.32663265310129469 0.24444308205294399 0 -0.32663265310129469 0.24444308205294399 0 -0.33301431723233488 0.24121995744680261 0 -0.33074662450541248 0.25002147010888148 0 -0.34166045844051601 0.23317109223771679 0 -0.32234769652499828 0.23933301177844851 0 -0.33301431723233488 0.24121995744680261 0 -0.3443241000121996 0.24041461068418571 0 -0.34166045844051601 0.23317109223771679 0 -0.33301431723233488 0.24121995744680261 0 -0.3443241000121996 0.24041461068418571 0 -0.33301431723233488 0.24121995744680261 0 -0.33074662450541248 0.25002147010888148 0 -0.27785008828373969 0.24144501142288111 0 -0.28999118535458368 0.25029147387940059 0 -0.27754560397625377 0.25571541236035561 0 -0.2909355333514565 0.2355443463620854 0 -0.27785008828373969 0.24144501142288111 0 -0.28999118535458368 0.25029147387940059 0 -0.2909355333514565 0.2355443463620854 0 -0.27927624243203508 0.22690514761474459 0 -0.27785008828373969 0.24144501142288111 0 -0.2909355333514565 0.2355443463620854 0 -0.29902017014092352 0.24409804013217179 0 -0.28999118535458368 0.25029147387940059 0 -0.29902017014092352 0.24409804013217179 0 -0.30996961632175563 0.2426169051743817 0 -0.30423161915187408 0.25386660526631438 0 -0.29902017014092352 0.24409804013217179 0 -0.30423161915187408 0.25386660526631438 0 -0.28999118535458368 0.25029147387940059 0 -0.31918450862209119 0.2494813401128361 0 -0.30996961632175563 0.2426169051743817 0 -0.30423161915187408 0.25386660526631438 0 -0.30996961632175563 0.2426169051743817 0 -0.30244294181317688 0.23588481221799881 0 -0.31240941345376938 0.2300745965231546 0 -0.29902017014092352 0.24409804013217179 0 -0.30996961632175563 0.2426169051743817 0 -0.30244294181317688 0.23588481221799881 0 -0.2909355333514565 0.2355443463620854 0 -0.29902017014092352 0.24409804013217179 0 -0.30244294181317688 0.23588481221799881 0 -0.31667767473183672 0.22240822401988339 0 -0.30144087021018351 0.22521989641685339 0 -0.29610145365502111 0.21296072932913171 0 -0.2909355333514565 0.2355443463620854 0 -0.30244294181317688 0.23588481221799881 0 -0.30144087021018351 0.22521989641685339 0 -0.30244294181317688 0.23588481221799881 0 -0.31240941345376938 0.2300745965231546 0 -0.30144087021018351 0.22521989641685339 0 -0.31667767473183672 0.22240822401988339 0 -0.31240941345376938 0.2300745965231546 0 -0.30144087021018351 0.22521989641685339 0 -0.30144087021018351 0.22521989641685339 0 -0.2903377788993462 0.22362198366435171 0 -0.29610145365502111 0.21296072932913171 0 -0.2909355333514565 0.2355443463620854 0 -0.30144087021018351 0.22521989641685339 0 -0.2903377788993462 0.22362198366435171 0 -0.2909355333514565 0.2355443463620854 0 -0.2903377788993462 0.22362198366435171 0 -0.27927624243203508 0.22690514761474459 0 -0.2903377788993462 0.22362198366435171 0 -0.28273630475507389 0.2161162154094621 0 -0.27927624243203508 0.22690514761474459 0 -0.29610145365502111 0.21296072932913171 0 -0.28901475786113218 0.19855639328619321 0 -0.27552523257820538 0.20351323463838 0 -0.28273630475507389 0.2161162154094621 0 -0.29610145365502111 0.21296072932913171 0 -0.27552523257820538 0.20351323463838 0 -0.29610145365502111 0.21296072932913171 0 -0.27552523257820538 0.20351323463838 0 -0.2903377788993462 0.22362198366435171 0 -0.28273630475507389 0.2161162154094621 0 -0.29610145365502111 0.21296072932913171 0 -0.29610145365502111 0.21296072932913171 0 -0.30636261462118741 0.20280057084100661 0 -0.28901475786113218 0.19855639328619321 0 -0.31424493363103428 0.20961472037266229 0 -0.29610145365502111 0.21296072932913171 0 -0.30636261462118741 0.20280057084100661 0 -0.31424493363103428 0.20961472037266229 0 -0.31667767473183672 0.22240822401988339 0 -0.29610145365502111 0.21296072932913171 0 -0.31667767473183672 0.22240822401988339 0 -0.29610145365502111 0.21296072932913171 0 -0.30636261462118741 0.20280057084100661 0 -0.30759114505505231 0.18827767706057441 0 -0.29311320054421919 0.18545779494520501 0 -0.30636261462118741 0.20280057084100661 0 -0.29311320054421919 0.18545779494520501 0 -0.31736379316857388 0.19760507581313211 0 -0.30636261462118741 0.20280057084100661 0 -0.30759114505505231 0.18827767706057441 0 -0.30636261462118741 0.20280057084100661 0 -0.28901475786113218 0.19855639328619321 0 -0.29311320054421919 0.18545779494520501 0 -0.28901475786113218 0.19855639328619321 0 -0.29311320054421919 0.18545779494520501 0 -0.28154279740795662 0.18560196242806329 0 -0.28901475786113218 0.19855639328619321 0 -0.27859962857485859 0.19398470933607001 0 -0.28154279740795662 0.18560196242806329 0 -0.27021279137141219 0.18795270193098951 0 -0.25494901150138938 0.19406573994762891 0 -0.27552523257820538 0.20351323463838 0 -0.27859962857485859 0.19398470933607001 0 -0.27021279137141219 0.18795270193098951 0 -0.27552523257820538 0.20351323463838 0 -0.27859962857485859 0.19398470933607001 0 -0.27021279137141219 0.18795270193098951 0 -0.28154279740795662 0.18560196242806329 0 -0.28901475786113218 0.19855639328619321 0 -0.27859962857485859 0.19398470933607001 0 -0.27552523257820538 0.20351323463838 0 -0.25494901150138938 0.19406573994762891 0 -0.27552523257820538 0.20351323463838 0 -0.25494901150138938 0.19406573994762891 0 -0.25918943913384518 0.21169399147373419 0 -0.24823958982994451 0.20761031216453971 0 -0.25494901150138938 0.19406573994762891 0 -0.25918943913384518 0.21169399147373419 0 -0.27184157116428143 0.21289819020596171 0 -0.25494901150138938 0.19406573994762891 0 -0.27184157116428143 0.21289819020596171 0 -0.25538178441131959 0.21935182863216179 0 -0.24662169849348139 0.220491517552519 0 -0.24823958982994451 0.20761031216453971 0 -0.25918943913384518 0.21169399147373419 0 -0.25538178441131959 0.21935182863216179 0 -0.24823958982994451 0.20761031216453971 0 -0.25918943913384518 0.21169399147373419 0 -0.27184157116428143 0.21289819020596171 0 -0.2655352387622914 0.22454388641837861 0 -0.25918943913384518 0.21169399147373419 0 -0.2655352387622914 0.22454388641837861 0 -0.25538178441131959 0.21935182863216179 0 -0.25494901150138938 0.19406573994762891 0 -0.27184157116428143 0.21289819020596171 0 -0.27552523257820538 0.20351323463838 0 -0.28273630475507389 0.2161162154094621 0 -0.27184157116428143 0.21289819020596171 0 -0.27552523257820538 0.20351323463838 0 -0.28273630475507389 0.2161162154094621 0 -0.27184157116428143 0.21289819020596171 0 -0.27927624243203508 0.22690514761474459 0 -0.27927624243203508 0.22690514761474459 0 -0.27183064537919538 0.23250881154200309 0 -0.27785008828373969 0.24144501142288111 0 -0.27183064537919538 0.23250881154200309 0 -0.2655352387622914 0.22454388641837861 0 -0.26466101203871539 0.237141200712008 0 -0.27927624243203508 0.22690514761474459 0 -0.27183064537919538 0.23250881154200309 0 -0.2655352387622914 0.22454388641837861 0 -0.27184157116428143 0.21289819020596171 0 -0.27927624243203508 0.22690514761474459 0 -0.2655352387622914 0.22454388641837861 0 -0.2655352387622914 0.22454388641837861 0 -0.25538178441131959 0.21935182863216179 0 -0.25438630058476719 0.23159706701897281 0 -0.25538178441131959 0.21935182863216179 0 -0.25438630058476719 0.23159706701897281 0 -0.24662169849348139 0.220491517552519 0 -0.2655352387622914 0.22454388641837861 0 -0.25438630058476719 0.23159706701897281 0 -0.26466101203871539 0.237141200712008 0 -0.25438630058476719 0.23159706701897281 0 -0.26466101203871539 0.237141200712008 0 -0.25118169536926999 0.24232664462912029 0 -0.25118169536926999 0.24232664462912029 0 -0.26514066087552751 0.24989382703442681 0 -0.25326758024003238 0.25706308409811779 0 -0.26466101203871539 0.237141200712008 0 -0.25118169536926999 0.24232664462912029 0 -0.26514066087552751 0.24989382703442681 0 -0.26466101203871539 0.237141200712008 0 -0.26514066087552751 0.24989382703442681 0 -0.27785008828373969 0.24144501142288111 0 -0.27183064537919538 0.23250881154200309 0 -0.26466101203871539 0.237141200712008 0 -0.27785008828373969 0.24144501142288111 0 -0.26514066087552751 0.24989382703442681 0 -0.27785008828373969 0.24144501142288111 0 -0.27754560397625377 0.25571541236035561 0 -0.28441467472946658 0.15192994715114849 0 -0.28650950151579607 0.1428708199122167 0 -0.29836335067789699 0.14740561624561241 0 -0.28441467472946658 0.15192994715114849 0 -0.29836335067789699 0.14740561624561241 0 -0.2907006344577332 0.15976076202524719 0 -0.28441467472946658 0.15192994715114849 0 -0.28355270634547902 0.16026223196633921 0 -0.27663238833889547 0.15502929841739391 0 -0.28441467472946658 0.15192994715114849 0 -0.28650950151579607 0.1428708199122167 0 -0.27602363532553442 0.14390544506112929 0 -0.28650950151579607 0.1428708199122167 0 -0.28130105018158308 0.1347106840032489 0 -0.27602363532553442 0.14390544506112929 0 -0.28650950151579607 0.1428708199122167 0 -0.28130105018158308 0.1347106840032489 0 -0.29172660524555449 0.13012017667387099 0 -0.28650950151579607 0.1428708199122167 0 -0.29172660524555449 0.13012017667387099 0 -0.29836335067789699 0.14740561624561241 0 -0.28130105018158308 0.1347106840032489 0 -0.29172660524555449 0.13012017667387099 0 -0.28039709768189391 0.1200675393006094 0 -0.29172660524555449 0.13012017667387099 0 -0.30922457347012439 0.13166433370237801 0 -0.29836335067789699 0.14740561624561241 0 -0.3161819711889074 0.14655247922256509 0 -0.30922457347012439 0.13166433370237801 0 -0.29836335067789699 0.14740561624561241 0 -0.3161819711889074 0.14655247922256509 0 -0.29836335067789699 0.14740561624561241 0 -0.30718294913225752 0.1544269612570594 0 -0.29836335067789699 0.14740561624561241 0 -0.30718294913225752 0.1544269612570594 0 -0.30096589568333632 0.16191945002041361 0 -0.31442021226510219 0.160486058971331 0 -0.30718294913225752 0.1544269612570594 0 -0.30096589568333632 0.16191945002041361 0 -0.31442021226510219 0.160486058971331 0 -0.30096589568333632 0.16191945002041361 0 -0.30435936152878262 0.17241770144972721 0 -0.30096589568333632 0.16191945002041361 0 -0.30435936152878262 0.17241770144972721 0 -0.29154508866520101 0.1700080991451709 0 -0.31944219659937612 0.1834864846331879 0 -0.30759114505505231 0.18827767706057441 0 -0.30435936152878262 0.17241770144972721 0 -0.30759114505505231 0.18827767706057441 0 -0.30435936152878262 0.17241770144972721 0 -0.29311320054421919 0.18545779494520501 0 -0.29311320054421919 0.18545779494520501 0 -0.27986378646725107 0.16811501904940351 0 -0.27930056968147321 0.17424998340142051 0 -0.29311320054421919 0.18545779494520501 0 -0.29154508866520101 0.1700080991451709 0 -0.27986378646725107 0.16811501904940351 0 -0.29311320054421919 0.18545779494520501 0 -0.27986378646725107 0.16811501904940351 0 -0.30435936152878262 0.17241770144972721 0 -0.29311320054421919 0.18545779494520501 0 -0.29154508866520101 0.1700080991451709 0 -0.29311320054421919 0.18545779494520501 0 -0.28154279740795662 0.18560196242806329 0 -0.27930056968147321 0.17424998340142051 0 -0.29836335067789699 0.14740561624561241 0 -0.30096589568333632 0.16191945002041361 0 -0.2907006344577332 0.15976076202524719 0 -0.30096589568333632 0.16191945002041361 0 -0.2907006344577332 0.15976076202524719 0 -0.29154508866520101 0.1700080991451709 0 -0.2907006344577332 0.15976076202524719 0 -0.29154508866520101 0.1700080991451709 0 -0.28641555398391599 0.1645365280465402 0 -0.29154508866520101 0.1700080991451709 0 -0.28641555398391599 0.1645365280465402 0 -0.27986378646725107 0.16811501904940351 0 -0.28641555398391599 0.1645365280465402 0 -0.28355270634547902 0.16026223196633921 0 -0.27986378646725107 0.16811501904940351 0 -0.28441467472946658 0.15192994715114849 0 -0.2907006344577332 0.15976076202524719 0 -0.28355270634547902 0.16026223196633921 0 -0.2907006344577332 0.15976076202524719 0 -0.28641555398391599 0.1645365280465402 0 -0.28355270634547902 0.16026223196633921 0 -0.27986378646725107 0.16811501904940351 0 -0.26661437239028252 0.15077224315360241 0 -0.27663238833889547 0.15502929841739391 0 -0.28355270634547902 0.16026223196633921 0 -0.27986378646725107 0.16811501904940351 0 -0.27663238833889547 0.15502929841739391 0 -0.27986378646725107 0.16811501904940351 0 -0.26673184173048542 0.16430731562273751 0 -0.26661437239028252 0.15077224315360241 0 -0.26673184173048542 0.16430731562273751 0 -0.27930056968147321 0.17424998340142051 0 -0.25143193596248581 0.166662886957337 0 -0.27986378646725107 0.16811501904940351 0 -0.26661437239028252 0.15077224315360241 0 -0.27986378646725107 0.16811501904940351 0 -0.26673184173048542 0.16430731562273751 0 -0.27930056968147321 0.17424998340142051 0 -0.27930056968147321 0.17424998340142051 0 -0.26671965367197531 0.17800821823129159 0 -0.25143193596248581 0.166662886957337 0 -0.27021279137141219 0.18795270193098951 0 -0.28154279740795662 0.18560196242806329 0 -0.27444395303320429 0.18145321649794119 0 -0.28154279740795662 0.18560196242806329 0 -0.27444395303320429 0.18145321649794119 0 -0.27930056968147321 0.17424998340142051 0 -0.27444395303320429 0.18145321649794119 0 -0.27930056968147321 0.17424998340142051 0 -0.26671965367197531 0.17800821823129159 0 -0.27021279137141219 0.18795270193098951 0 -0.27444395303320429 0.18145321649794119 0 -0.26671965367197531 0.17800821823129159 0 -0.25494901150138938 0.19406573994762891 0 -0.25724179381568918 0.18025987749978181 0 -0.23925615687244289 0.17657076523044271 0 -0.27021279137141219 0.18795270193098951 0 -0.26671965367197531 0.17800821823129159 0 -0.25724179381568918 0.18025987749978181 0 -0.27021279137141219 0.18795270193098951 0 -0.25494901150138938 0.19406573994762891 0 -0.25724179381568918 0.18025987749978181 0 -0.26671965367197531 0.17800821823129159 0 -0.25724179381568918 0.18025987749978181 0 -0.25143193596248581 0.166662886957337 0 -0.27930056968147321 0.17424998340142051 0 -0.25143193596248581 0.166662886957337 0 -0.26673184173048542 0.16430731562273751 0 -0.25943931755001359 0.15897080928253129 0 -0.25143193596248581 0.166662886957337 0 -0.26673184173048542 0.16430731562273751 0 -0.25943931755001359 0.15897080928253129 0 -0.26661437239028252 0.15077224315360241 0 -0.25943931755001359 0.15897080928253129 0 -0.25143193596248581 0.166662886957337 0 -0.25297912011680079 0.15414079139644829 0 -0.26661437239028252 0.15077224315360241 0 -0.2460959206359353 0.1420531331528066 0 -0.26661437239028252 0.15077224315360241 0 -0.25210526497973501 0.13178059591490179 0 -0.25297912011680079 0.15414079139644829 0 -0.26661437239028252 0.15077224315360241 0 -0.2460959206359353 0.1420531331528066 0 -0.26661437239028252 0.15077224315360241 0 -0.25372730107532632 0.13848082698432629 0 -0.2460959206359353 0.1420531331528066 0 -0.25943931755001359 0.15897080928253129 0 -0.25297912011680079 0.15414079139644829 0 -0.26661437239028252 0.15077224315360241 0 -0.26661437239028252 0.15077224315360241 0 -0.27663238833889547 0.15502929841739391 0 -0.26661437239028252 0.15077224315360241 0 -0.27602363532553442 0.14390544506112929 0 -0.27663238833889547 0.15502929841739391 0 -0.26661437239028252 0.15077224315360241 0 -0.27602363532553442 0.14390544506112929 0 -0.26555434049485299 0.1377285199819282 0 -0.28441467472946658 0.15192994715114849 0 -0.27602363532553442 0.14390544506112929 0 -0.27663238833889547 0.15502929841739391 0 -0.28130105018158308 0.1347106840032489 0 -0.27106539283462489 0.1311450125489112 0 -0.28039709768189391 0.1200675393006094 0 -0.28130105018158308 0.1347106840032489 0 -0.27602363532553442 0.14390544506112929 0 -0.27106539283462489 0.1311450125489112 0 -0.27602363532553442 0.14390544506112929 0 -0.27106539283462489 0.1311450125489112 0 -0.26555434049485299 0.1377285199819282 0 -0.27106539283462489 0.1311450125489112 0 -0.26239512534667042 0.1301878380424914 0 -0.26555434049485299 0.1377285199819282 0 -0.26661437239028252 0.15077224315360241 0 -0.25372730107532632 0.13848082698432629 0 -0.25210526497973501 0.13178059591490179 0 -0.26661437239028252 0.15077224315360241 0 -0.26555434049485299 0.1377285199819282 0 -0.25210526497973501 0.13178059591490179 0 -0.27106539283462489 0.1311450125489112 0 -0.26239512534667042 0.1301878380424914 0 -0.26085550307746891 0.1200972237242246 0 -0.26239512534667042 0.1301878380424914 0 -0.25210526497973501 0.13178059591490179 0 -0.26085550307746891 0.1200972237242246 0 -0.26239512534667042 0.1301878380424914 0 -0.26555434049485299 0.1377285199819282 0 -0.25210526497973501 0.13178059591490179 0 -0.25210526497973501 0.13178059591490179 0 -0.26085550307746891 0.1200972237242246 0 -0.24589548800783631 0.12616297823714651 0 -0.26085550307746891 0.1200972237242246 0 -0.25233110019895871 0.1075284284933994 0 -0.2426065221746222 0.1184147781426656 0 -0.25233110019895871 0.1075284284933994 0 -0.27799987261200682 0.099848974735502152 0 -0.25817220947922193 0.083631228929667178 0 -0.26085550307746891 0.1200972237242246 0 -0.25233110019895871 0.1075284284933994 0 -0.27799987261200682 0.099848974735502152 0 -0.25233110019895871 0.1075284284933994 0 -0.27799987261200682 0.099848974735502152 0 -0.26085550307746891 0.1200972237242246 0 -0.27799987261200682 0.099848974735502152 0 -0.28039709768189391 0.1200675393006094 0 -0.27106539283462489 0.1311450125489112 0 -0.26085550307746891 0.1200972237242246 0 -0.28039709768189391 0.1200675393006094 0 -0.29172660524555449 0.13012017667387099 0 -0.28039709768189391 0.1200675393006094 0 -0.30024897651194982 0.11172212886809289 0 -0.27799987261200682 0.099848974735502152 0 -0.28039709768189391 0.1200675393006094 0 -0.30024897651194982 0.11172212886809289 0 -0.27799987261200682 0.099848974735502152 0 -0.30366864502505508 0.092169520977604891 0 -0.27799987261200682 0.099848974735502152 0 -0.30024897651194982 0.11172212886809289 0 -0.30366864502505508 0.092169520977604891 0 -0.30024897651194982 0.11172212886809289 0 -0.30366864502505508 0.092169520977604891 0 -0.31973970651357903 0.10251093820793331 0 -0.30922457347012439 0.13166433370237801 0 -0.30024897651194982 0.11172212886809289 0 -0.31884853810817743 0.1186542942214897 0 -0.29172660524555449 0.13012017667387099 0 -0.30922457347012439 0.13166433370237801 0 -0.30024897651194982 0.11172212886809289 0 -0.30366864502505508 0.092169520977604891 0 -0.29980168236627031 0.061742870765018859 0 -0.3293374174381033 0.084490067219707657 0 -0.30366864502505508 0.092169520977604891 0 -0.28520941684901913 0.08049776418742384 0 -0.29980168236627031 0.061742870765018859 0 -0.27799987261200682 0.099848974735502152 0 -0.30366864502505508 0.092169520977604891 0 -0.28520941684901913 0.08049776418742384 0 -0.28520941684901913 0.08049776418742384 0 -0.27243653417772001 0.065147353083993192 0 -0.29980168236627031 0.061742870765018859 0 -0.28520941684901913 0.08049776418742384 0 -0.27243653417772001 0.065147353083993192 0 -0.25817220947922193 0.083631228929667178 0 -0.27799987261200682 0.099848974735502152 0 -0.28520941684901913 0.08049776418742384 0 -0.25817220947922193 0.083631228929667178 0 -0.25817220947922193 0.083631228929667178 0 -0.25555186485622727 0.067343727925693153 0 -0.23894199771163591 0.079115076684348098 0 -0.27243653417772001 0.065147353083993192 0 -0.25817220947922193 0.083631228929667178 0 -0.25555186485622727 0.067343727925693153 0 -0.25555186485622727 0.067343727925693153 0 -0.25779541694541708 0.05230002274879042 0 -0.2410690089377765 0.06269684984768556 0 -0.27243653417772001 0.065147353083993192 0 -0.25555186485622727 0.067343727925693153 0 -0.25779541694541708 0.05230002274879042 0 -0.25779541694541708 0.05230002274879042 0 -0.2629257696391944 0.032139107503370692 0 -0.27491927671700772 0.046911149139956781 0 -0.25779541694541708 0.05230002274879042 0 -0.2629257696391944 0.032139107503370692 0 -0.24911457105796389 0.040407001002397837 0 -0.2629257696391944 0.032139107503370692 0 -0.2890498104928183 0.033717915784348747 0 -0.2629257696391944 0.032139107503370692 0 -0.27491927671700772 0.046911149139956781 0 -0.2890498104928183 0.033717915784348747 0 -0.27243653417772001 0.065147353083993192 0 -0.25779541694541708 0.05230002274879042 0 -0.27491927671700772 0.046911149139956781 0 -0.2640677378268721 -0.0066108691789614213 0 -0.26482132834929301 0.011916272781635449 0 -0.24941015007505499 0.0020021033111519062 0 -0.26482132834929301 0.011916272781635449 0 -0.24669922415481119 0.01878540020039926 0 -0.24941015007505499 0.0020021033111519062 0 -0.2629257696391944 0.032139107503370692 0 -0.26482132834929301 0.011916272781635449 0 -0.24669922415481119 0.01878540020039926 0 -0.2629257696391944 0.032139107503370692 0 -0.26482132834929301 0.011916272781635449 0 -0.28584392381096158 0.013338636522550811 0 -0.2629257696391944 0.032139107503370692 0 -0.28584392381096158 0.013338636522550811 0 -0.2890498104928183 0.033717915784348747 0 -0.26482132834929301 0.011916272781635449 0 -0.27775959561220348 0.001023327035233945 0 -0.28584392381096158 0.013338636522550811 0 -0.2640677378268721 -0.0066108691789614213 0 -0.26482132834929301 0.011916272781635449 0 -0.27775959561220348 0.001023327035233945 0 -0.29637449439323871 -0.0036306208480099801 0 -0.27775959561220348 0.001023327035233945 0 -0.28584392381096158 0.013338636522550811 0 -0.29637449439323871 -0.0036306208480099801 0 -0.28584392381096158 0.013338636522550811 0 -0.30795075015985462 0.013538668650235191 0 -0.28584392381096158 0.013338636522550811 0 -0.30795075015985462 0.013538668650235191 0 -0.2890498104928183 0.033717915784348747 0 -0.30795075015985462 0.013538668650235191 0 -0.2890498104928183 0.033717915784348747 0 -0.31517385134644199 0.035296724065326822 0 -0.29637449439323871 -0.0036306208480099801 0 -0.3179311166925769 -0.0046579912528836396 0 -0.30795075015985462 0.013538668650235191 0 -0.27243653417772001 0.065147353083993192 0 -0.27491927671700772 0.046911149139956781 0 -0.29980168236627031 0.061742870765018859 0 -0.27491927671700772 0.046911149139956781 0 -0.2890498104928183 0.033717915784348747 0 -0.29980168236627031 0.061742870765018859 0 -0.2890498104928183 0.033717915784348747 0 -0.31517385134644199 0.035296724065326822 0 -0.2890498104928183 0.033717915784348747 0 -0.29980168236627031 0.061742870765018859 0 -0.31517385134644199 0.035296724065326822 0 -0.29980168236627031 0.061742870765018859 0 -0.31517385134644199 0.035296724065326822 0 -0.32848548406878231 0.056919226609799818 0 -0.31517385134644199 0.035296724065326822 0 -0.33693909842106368 0.041404267220076493 0 -0.32848548406878231 0.056919226609799818 0 -0.33693909842106368 0.041404267220076493 0 -0.33701493914399139 0.023709326429331969 0 -0.35068615283775401 0.033884703901530422 0 -0.31517385134644199 0.035296724065326822 0 -0.33693909842106368 0.041404267220076493 0 -0.33701493914399139 0.023709326429331969 0 -0.33693909842106368 0.041404267220076493 0 -0.32848548406878231 0.056919226609799818 0 -0.35079498825512712 0.051219950958062983 0 -0.30795075015985462 0.013538668650235191 0 -0.3225094364639351 0.019864507173491759 0 -0.32989820520545221 0.0069133095490730486 0 -0.3179311166925769 -0.0046579912528836396 0 -0.30795075015985462 0.013538668650235191 0 -0.32989820520545221 0.0069133095490730486 0 -0.30795075015985462 0.013538668650235191 0 -0.31517385134644199 0.035296724065326822 0 -0.3225094364639351 0.019864507173491759 0 -0.31517385134644199 0.035296724065326822 0 -0.3225094364639351 0.019864507173491759 0 -0.33701493914399139 0.023709326429331969 0 -0.3225094364639351 0.019864507173491759 0 -0.33701493914399139 0.023709326429331969 0 -0.32989820520545221 0.0069133095490730486 0 -0.33842346321239958 -0.0069454960884259877 0 -0.32989820520545221 0.0069133095490730486 0 -0.34760495503259209 0.0077647007982187084 0 -0.32989820520545221 0.0069133095490730486 0 -0.34760495503259209 0.0077647007982187084 0 -0.33701493914399139 0.023709326429331969 0 -0.32989820520545221 0.0069133095490730486 0 -0.34760495503259209 0.0077647007982187084 0 -0.35153050538070968 -0.0044070143696259426 0 -0.34760495503259209 0.0077647007982187084 0 -0.36531170485973208 0.0086160920473635355 0 -0.34760495503259209 0.0077647007982187084 0 -0.36531170485973208 0.0086160920473635355 0 -0.34760495503259209 0.0077647007982187084 0 -0.35263327499012048 0.019006658811162369 0 -0.36395549019912049 0.01083026074783673 0 -0.34760495503259209 0.0077647007982187084 0 -0.36395549019912049 0.01083026074783673 0 -0.36531170485973208 0.0086160920473635355 0 -0.33701493914399139 0.023709326429331969 0 -0.34760495503259209 0.0077647007982187084 0 -0.35263327499012048 0.019006658811162369 0 -0.35263327499012048 0.019006658811162369 0 -0.36043773874283752 0.024792343207123889 0 -0.36395549019912049 0.01083026074783673 0 -0.33701493914399139 0.023709326429331969 0 -0.35263327499012048 0.019006658811162369 0 -0.35068615283775401 0.033884703901530422 0 -0.35263327499012048 0.019006658811162369 0 -0.36043773874283752 0.024792343207123889 0 -0.35068615283775401 0.033884703901530422 0 -0.38674883724974912 0.019733125104122069 0 -0.36043773874283752 0.024792343207123889 0 -0.3728871011164519 0.014735590622836159 0 -0.37524543029147922 0.030854907450205089 0 -0.38674883724974912 0.019733125104122069 0 -0.36043773874283752 0.024792343207123889 0 -0.38674883724974912 0.019733125104122069 0 -0.36043773874283752 0.024792343207123889 0 -0.36043773874283752 0.024792343207123889 0 -0.36395549019912049 0.01083026074783673 0 -0.3728871011164519 0.014735590622836159 0 -0.36395549019912049 0.01083026074783673 0 -0.36531170485973208 0.0086160920473635355 0 -0.36395549019912049 0.01083026074783673 0 -0.36531170485973208 0.0086160920473635355 0 -0.3728871011164519 0.014735590622836159 0 -0.32848548406878231 0.056919226609799818 0 -0.35079498825512712 0.051219950958062983 0 -0.35500618985115151 0.076810613461810381 0 -0.35079498825512712 0.051219950958062983 0 -0.36778554555611898 0.056138455546413488 0 -0.35500618985115151 0.076810613461810381 0 -0.33693909842106368 0.041404267220076493 0 -0.35079498825512712 0.051219950958062983 0 -0.35068615283775401 0.033884703901530422 0 -0.35079498825512712 0.051219950958062983 0 -0.35068615283775401 0.033884703901530422 0 -0.36502683924677293 0.040179974715259678 0 -0.36043773874283752 0.024792343207123889 0 -0.35068615283775401 0.033884703901530422 0 -0.36502683924677293 0.040179974715259678 0 -0.3837118997569744 0.044432142404017702 0 -0.37524543029147922 0.030854907450205089 0 -0.36502683924677293 0.040179974715259678 0 -0.37524543029147922 0.030854907450205089 0 -0.36043773874283752 0.024792343207123889 0 -0.36502683924677293 0.040179974715259678 0 -0.3837118997569744 0.044432142404017702 0 -0.36502683924677293 0.040179974715259678 0 -0.36778554555611898 0.056138455546413488 0 -0.35079498825512712 0.051219950958062983 0 -0.36502683924677293 0.040179974715259678 0 -0.36778554555611898 0.056138455546413488 0 -0.37885844662891621 0.083904644903447137 0 -0.38067496226419978 0.069131159703913272 0 -0.363993868812439 0.080066265176411328 0 -0.38067496226419978 0.069131159703913272 0 -0.35500618985115151 0.076810613461810381 0 -0.363993868812439 0.080066265176411328 0 -0.38067496226419978 0.069131159703913272 0 -0.36778554555611898 0.056138455546413488 0 -0.35500618985115151 0.076810613461810381 0 -0.38067496226419978 0.069131159703913272 0 -0.35500618985115151 0.076810613461810381 0 -0.35500618985115151 0.076810613461810381 0 -0.34717779459263759 0.089609694260553652 0 -0.3293374174381033 0.084490067219707657 0 -0.35500618985115151 0.076810613461810381 0 -0.34717779459263759 0.089609694260553652 0 -0.3565863107899227 0.08470355090100154 0 -0.35500618985115151 0.076810613461810381 0 -0.3565863107899227 0.08470355090100154 0 -0.363993868812439 0.080066265176411328 0 -0.34717779459263759 0.089609694260553652 0 -0.3565863107899227 0.08470355090100154 0 -0.35778455573549151 0.092075900312413916 0 -0.363993868812439 0.080066265176411328 0 -0.36606431426190461 0.1041182145365656 0 -0.363993868812439 0.080066265176411328 0 -0.37340009016568187 0.092405172019700152 0 -0.36606431426190461 0.1041182145365656 0 -0.35778455573549151 0.092075900312413916 0 -0.363993868812439 0.080066265176411328 0 -0.36606431426190461 0.1041182145365656 0 -0.3565863107899227 0.08470355090100154 0 -0.35778455573549151 0.092075900312413916 0 -0.363993868812439 0.080066265176411328 0 -0.37885844662891621 0.083904644903447137 0 -0.363993868812439 0.080066265176411328 0 -0.37340009016568187 0.092405172019700152 0 -0.37635174687154049 0.1002196902686429 0 -0.37340009016568187 0.092405172019700152 0 -0.36606431426190461 0.1041182145365656 0 -0.37710415556911497 0.1077773259290033 0 -0.37635174687154049 0.1002196902686429 0 -0.36606431426190461 0.1041182145365656 0 -0.38004534752460478 0.11893591763278651 0 -0.36813475971136961 0.1281701638967199 0 -0.36606431426190461 0.1041182145365656 0 -0.36813475971136961 0.1281701638967199 0 -0.36606431426190461 0.1041182145365656 0 -0.36813475971136961 0.1281701638967199 0 -0.36606431426190461 0.1041182145365656 0 -0.35967355616223351 0.11515480163522181 0 -0.38004534752460478 0.11893591763278651 0 -0.37710415556911497 0.1077773259290033 0 -0.36606431426190461 0.1041182145365656 0 -0.36813475971136961 0.1281701638967199 0 -0.35967355616223351 0.11515480163522181 0 -0.36813475971136961 0.1281701638967199 0 -0.35741047391061892 0.12512439950311829 0 -0.35967355616223351 0.11515480163522181 0 -0.35063188872594148 0.1195404014330029 0 -0.35121235261309769 0.1021394393737234 0 -0.33782947936992619 0.11588207501194531 0 -0.35967355616223351 0.11515480163522181 0 -0.35063188872594148 0.1195404014330029 0 -0.35121235261309769 0.1021394393737234 0 -0.35741047391061892 0.12512439950311829 0 -0.35967355616223351 0.11515480163522181 0 -0.35063188872594148 0.1195404014330029 0 -0.35741047391061892 0.12512439950311829 0 -0.34880406203918041 0.12983539618354331 0 -0.35063188872594148 0.1195404014330029 0 -0.34880406203918041 0.12983539618354331 0 -0.35063188872594148 0.1195404014330029 0 -0.33782947936992619 0.11588207501194531 0 -0.35778455573549151 0.092075900312413916 0 -0.36606431426190461 0.1041182145365656 0 -0.35121235261309769 0.1021394393737234 0 -0.34717779459263759 0.089609694260553652 0 -0.35778455573549151 0.092075900312413916 0 -0.35121235261309769 0.1021394393737234 0 -0.36606431426190461 0.1041182145365656 0 -0.35967355616223351 0.11515480163522181 0 -0.35121235261309769 0.1021394393737234 0 -0.35967355616223351 0.11515480163522181 0 -0.35121235261309769 0.1021394393737234 0 -0.34717779459263759 0.089609694260553652 0 -0.35121235261309769 0.1021394393737234 0 -0.33677229750556248 0.09869896295349706 0 -0.35121235261309769 0.1021394393737234 0 -0.33677229750556248 0.09869896295349706 0 -0.33782947936992619 0.11588207501194531 0 -0.33677229750556248 0.09869896295349706 0 -0.33782947936992619 0.11588207501194531 0 -0.31973970651357903 0.10251093820793331 0 -0.33677229750556248 0.09869896295349706 0 -0.31973970651357903 0.10251093820793331 0 -0.3293374174381033 0.084490067219707657 0 -0.33077148400904649 0.13476987916566829 0 -0.33782947936992619 0.11588207501194531 0 -0.31884853810817743 0.1186542942214897 0 -0.33782947936992619 0.11588207501194531 0 -0.31884853810817743 0.1186542942214897 0 -0.31973970651357903 0.10251093820793331 0 -0.30024897651194982 0.11172212886809289 0 -0.31884853810817743 0.1186542942214897 0 -0.31973970651357903 0.10251093820793331 0 -0.30366864502505508 0.092169520977604891 0 -0.31973970651357903 0.10251093820793331 0 -0.3293374174381033 0.084490067219707657 0 -0.30366864502505508 0.092169520977604891 0 -0.3293374174381033 0.084490067219707657 0 -0.29980168236627031 0.061742870765018859 0 -0.32848548406878231 0.056919226609799818 0 -0.3293374174381033 0.084490067219707657 0 -0.32848548406878231 0.056919226609799818 0 -0.35500618985115151 0.076810613461810381 0 -0.3293374174381033 0.084490067219707657 0 -0.34717779459263759 0.089609694260553652 0 -0.33677229750556248 0.09869896295349706 0 -0.3293374174381033 0.084490067219707657 0 -0.35500618985115151 0.076810613461810381 0 -0.3293374174381033 0.084490067219707657 0 -0.39616010734838791 0.48054542745604201 0 -0.38887959744355388 0.48998724859363862 0 -0.38931174691490628 0.47327887243036798 0 -0.40562740613343901 0.48051308091543521 0 -0.39751296184559831 0.46762929745222231 0 -0.41099097197695827 0.46462057222396341 0 -0.39616010734838791 0.48054542745604201 0 -0.38931174691490628 0.47327887243036798 0 -0.39751296184559831 0.46762929745222231 0 -0.39616010734838791 0.48054542745604201 0 -0.40562740613343901 0.48051308091543521 0 -0.39751296184559831 0.46762929745222231 0 -0.39616010734838791 0.48054542745604201 0 -0.40562740613343901 0.48051308091543521 0 -0.39855463339989622 0.49020915139302279 0 -0.40562740613343901 0.48051308091543521 0 -0.39855463339989622 0.49020915139302279 0 -0.41358067191383863 0.49999999999999878 0 -0.39855463339989622 0.49020915139302279 0 -0.38852538416026228 0.5 0 -0.41358067191383863 0.49999999999999878 0 -0.39855463339989622 0.49020915139302279 0 -0.38887959744355388 0.48998724859363862 0 -0.38852538416026228 0.5 0 -0.39616010734838791 0.48054542745604201 0 -0.39855463339989622 0.49020915139302279 0 -0.38887959744355388 0.48998724859363862 0 -0.38852538416026228 0.5 0 -0.37604997806537138 0.49252608024469408 0 -0.36347009640668571 0.5 0 -0.38887959744355388 0.48998724859363862 0 -0.38852538416026228 0.5 0 -0.37604997806537138 0.49252608024469408 0 -0.38887959744355388 0.48998724859363862 0 -0.37604997806537138 0.49252608024469408 0 -0.37875672810945699 0.48669807288253419 0 -0.38887959744355388 0.48998724859363862 0 -0.37875672810945699 0.48669807288253419 0 -0.37810673631096547 0.4786344066186613 0 -0.37604997806537138 0.49252608024469408 0 -0.37875672810945699 0.48669807288253419 0 -0.37199060061793748 0.48564455607314289 0 -0.38887959744355388 0.48998724859363862 0 -0.37810673631096547 0.4786344066186613 0 -0.37603865402138942 0.46312103839849728 0 -0.37875672810945699 0.48669807288253419 0 -0.37810673631096547 0.4786344066186613 0 -0.37199060061793748 0.48564455607314289 0 -0.38887959744355388 0.48998724859363862 0 -0.38931174691490628 0.47327887243036798 0 -0.37603865402138942 0.46312103839849728 0 -0.37810673631096547 0.4786344066186613 0 -0.37603865402138942 0.46312103839849728 0 -0.37199060061793748 0.48564455607314289 0 -0.38887959744355388 0.48998724859363862 0 -0.37603865402138942 0.46312103839849728 0 -0.37603865402138942 0.46312103839849728 0 -0.38313376293128693 0.45752855813440579 0 -0.38759304768176528 0.46372658805133371 0 -0.37603865402138942 0.46312103839849728 0 -0.38313376293128693 0.45752855813440579 0 -0.38751400306286332 0.44014104490451411 0 -0.38313376293128693 0.45752855813440579 0 -0.38952149509597689 0.44930798772067942 0 -0.39196811269564541 0.4570751738411748 0 -0.38313376293128693 0.45752855813440579 0 -0.38759304768176528 0.46372658805133371 0 -0.39196811269564541 0.4570751738411748 0 -0.38931174691490628 0.47327887243036798 0 -0.37603865402138942 0.46312103839849728 0 -0.38759304768176528 0.46372658805133371 0 -0.38313376293128693 0.45752855813440579 0 -0.38952149509597689 0.44930798772067942 0 -0.38751400306286332 0.44014104490451411 0 -0.37603865402138942 0.46312103839849728 0 -0.38751400306286332 0.44014104490451411 0 -0.3723422045807272 0.45538721508166252 0 -0.38457408712719232 0.43625859395794908 0 -0.3723422045807272 0.45538721508166252 0 -0.38457408712719232 0.43625859395794908 0 -0.37435379485781012 0.44916515673733032 0 -0.3723422045807272 0.45538721508166252 0 -0.38751400306286332 0.44014104490451411 0 -0.38457408712719232 0.43625859395794908 0 -0.3723422045807272 0.45538721508166252 0 -0.37603865402138942 0.46312103839849728 0 -0.38751400306286332 0.44014104490451411 0 -0.38457408712719232 0.43625859395794908 0 -0.37435379485781012 0.44916515673733032 0 -0.37354910286858328 0.43873026812664528 0 -0.38952149509597689 0.44930798772067942 0 -0.38751400306286332 0.44014104490451411 0 -0.39136203560649491 0.44428761417079182 0 -0.38751400306286332 0.44014104490451411 0 -0.39499583653318898 0.44080141128927569 0 -0.39621929085068919 0.43275750401817809 0 -0.39499583653318898 0.44080141128927569 0 -0.40042559735077432 0.44385578358616662 0 -0.39956011607424352 0.43688016005268732 0 -0.39499583653318898 0.44080141128927569 0 -0.39136203560649491 0.44428761417079182 0 -0.39398415026633371 0.44852010552553018 0 -0.38751400306286332 0.44014104490451411 0 -0.39499583653318898 0.44080141128927569 0 -0.39136203560649491 0.44428761417079182 0 -0.39499583653318898 0.44080141128927569 0 -0.39398415026633371 0.44852010552553018 0 -0.40042559735077432 0.44385578358616662 0 -0.38952149509597689 0.44930798772067942 0 -0.39398415026633371 0.44852010552553018 0 -0.39196811269564541 0.4570751738411748 0 -0.38952149509597689 0.44930798772067942 0 -0.39136203560649491 0.44428761417079182 0 -0.39398415026633371 0.44852010552553018 0 -0.39398415026633371 0.44852010552553018 0 -0.40042559735077432 0.44385578358616662 0 -0.40262367025810702 0.45389033579756738 0 -0.40042559735077432 0.44385578358616662 0 -0.40262367025810702 0.45389033579756738 0 -0.40776819854422353 0.44507067735758749 0 -0.40042559735077432 0.44385578358616662 0 -0.40553287777124708 0.43895800513181898 0 -0.40776819854422353 0.44507067735758749 0 -0.40042559735077432 0.44385578358616662 0 -0.40553287777124708 0.43895800513181898 0 -0.39956011607424352 0.43688016005268732 0 -0.38931174691490628 0.47327887243036798 0 -0.38759304768176528 0.46372658805133371 0 -0.39751296184559831 0.46762929745222231 0 -0.38759304768176528 0.46372658805133371 0 -0.39751296184559831 0.46762929745222231 0 -0.39196811269564541 0.4570751738411748 0 -0.39751296184559831 0.46762929745222231 0 -0.39196811269564541 0.4570751738411748 0 -0.40262367025810702 0.45389033579756738 0 -0.39398415026633371 0.44852010552553018 0 -0.39196811269564541 0.4570751738411748 0 -0.40262367025810702 0.45389033579756738 0 -0.39751296184559831 0.46762929745222231 0 -0.40262367025810702 0.45389033579756738 0 -0.41099097197695827 0.46462057222396341 0 -0.41099097197695827 0.46462057222396341 0 -0.4150069858647919 0.45120152608133468 0 -0.42911056020309901 0.45941893289387992 0 -0.41099097197695827 0.46462057222396341 0 -0.42911056020309901 0.45941893289387992 0 -0.41961788021073548 0.47622294644068741 0 -0.40262367025810702 0.45389033579756738 0 -0.41099097197695827 0.46462057222396341 0 -0.4150069858647919 0.45120152608133468 0 -0.41383443495134831 0.43892930716106349 0 -0.40776819854422353 0.44507067735758749 0 -0.4150069858647919 0.45120152608133468 0 -0.40553287777124708 0.43895800513181898 0 -0.41383443495134831 0.43892930716106349 0 -0.40776819854422353 0.44507067735758749 0 -0.40262367025810702 0.45389033579756738 0 -0.40776819854422353 0.44507067735758749 0 -0.4150069858647919 0.45120152608133468 0 -0.41383443495134831 0.43892930716106349 0 -0.4150069858647919 0.45120152608133468 0 -0.42504596093772617 0.44311640517957862 0 -0.42504596093772617 0.44311640517957862 0 -0.44277293362564379 0.44118951544898782 0 -0.42974435798030702 0.43087748248263552 0 -0.42504596093772617 0.44311640517957862 0 -0.42911056020309901 0.45941893289387992 0 -0.44277293362564379 0.44118951544898782 0 -0.4150069858647919 0.45120152608133468 0 -0.42504596093772617 0.44311640517957862 0 -0.42911056020309901 0.45941893289387992 0 -0.42911056020309901 0.45941893289387992 0 -0.43518550393537792 0.48235043230764812 0 -0.41961788021073548 0.47622294644068741 0 -0.40562740613343901 0.48051308091543521 0 -0.41099097197695827 0.46462057222396341 0 -0.41961788021073548 0.47622294644068741 0 -0.40562740613343901 0.48051308091543521 0 -0.41961788021073548 0.47622294644068741 0 -0.41358067191383863 0.49999999999999878 0 -0.43518550393537792 0.48235043230764812 0 -0.41358067191383863 0.49999999999999878 0 -0.43518550393537792 0.48235043230764812 0 -0.41961788021073548 0.47622294644068741 0 -0.41358067191383863 0.49999999999999878 0 -0.43518550393537792 0.48235043230764812 0 -0.41358067191383863 0.49999999999999878 0 -0.5 0.5 0 -0.43518550393537792 0.48235043230764812 0 -0.47937377705468193 0.47029723104785731 0 -0.45679033595691781 0.46470086461529819 0 -0.43518550393537792 0.48235043230764812 0 -0.5 0.5 0 -0.47937377705468193 0.47029723104785731 0 -0.43518550393537792 0.48235043230764812 0 -0.45679033595691781 0.46470086461529819 0 -0.42911056020309901 0.45941893289387992 0 -0.43518550393537792 0.48235043230764812 0 -0.45679033595691781 0.46470086461529819 0 -0.5 0.5 0 -0.47937377705468193 0.47029723104785731 0 -0.5 0.45953200666219279 0 -0.5 0.45953200666219279 0 -0.4783951679784576 0.4470512969229482 0 -0.49999999999999822 0.42940172923059911 0 -0.4783951679784576 0.4470512969229482 0 -0.49999999999999822 0.42940172923059911 0 -0.47937377705468193 0.47029723104785731 0 -0.5 0.45953200666219279 0 -0.4783951679784576 0.4470512969229482 0 -0.47937377705468193 0.47029723104785731 0 -0.4783951679784576 0.4470512969229482 0 -0.45679033595691781 0.46470086461529819 0 -0.4783951679784576 0.4470512969229482 0 -0.45949927692828751 0.44533332623289112 0 -0.45879466513146833 0.4284607543742599 0 -0.45949927692828751 0.44533332623289112 0 -0.44277293362564379 0.44118951544898782 0 -0.45879466513146833 0.4284607543742599 0 -0.4783951679784576 0.4470512969229482 0 -0.45949927692828751 0.44533332623289112 0 -0.45679033595691781 0.46470086461529819 0 -0.4783951679784576 0.4470512969229482 0 -0.45679033595691781 0.46470086461529819 0 -0.42911056020309901 0.45941893289387992 0 -0.45679033595691781 0.46470086461529819 0 -0.44277293362564379 0.44118951544898782 0 -0.45949927692828751 0.44533332623289112 0 -0.45679033595691781 0.46470086461529819 0 -0.44277293362564379 0.44118951544898782 0 -0.44277293362564379 0.44118951544898782 0 -0.44020355861376748 0.41854748778423578 0 -0.42974435798030702 0.43087748248263552 0 -0.44277293362564379 0.44118951544898782 0 -0.44020355861376748 0.41854748778423578 0 -0.45879466513146833 0.4284607543742599 0 -0.44020355861376748 0.41854748778423578 0 -0.45508624237518258 0.40855996919512799 0 -0.43901690733423399 0.39716632069217478 0 -0.44020355861376748 0.41854748778423578 0 -0.45508624237518258 0.40855996919512799 0 -0.45879466513146833 0.4284607543742599 0 -0.45508624237518258 0.40855996919512799 0 -0.47401940261510239 0.41783966542228951 0 -0.47502510973783341 0.39659031508913473 0 -0.45508624237518258 0.40855996919512799 0 -0.45879466513146833 0.4284607543742599 0 -0.47401940261510239 0.41783966542228951 0 -0.4783951679784576 0.4470512969229482 0 -0.47401940261510239 0.41783966542228951 0 -0.48831180292359688 0.42203007129287318 0 -0.4783951679784576 0.4470512969229482 0 -0.45879466513146833 0.4284607543742599 0 -0.47401940261510239 0.41783966542228951 0 -0.47401940261510239 0.41783966542228951 0 -0.48532945571524078 0.40786705347370122 0 -0.47502510973783341 0.39659031508913473 0 -0.47401940261510239 0.41783966542228951 0 -0.48532945571524078 0.40786705347370122 0 -0.48831180292359688 0.42203007129287318 0 -0.50000000000000011 0.4113245123849899 0 -0.49999999999999822 0.42940172923059911 0 -0.48831180292359688 0.42203007129287318 0 -0.48532945571524078 0.40786705347370122 0 -0.50000000000000011 0.4113245123849899 0 -0.48831180292359688 0.42203007129287318 0 -0.4783951679784576 0.4470512969229482 0 -0.49999999999999822 0.42940172923059911 0 -0.48831180292359688 0.42203007129287318 0 -0.5 0.38573857585162441 0 -0.49712055568615432 0.38414587308792292 0 -0.5 0.36015263931825892 0 -0.48532945571524078 0.40786705347370122 0 -0.49712055568615432 0.38414587308792292 0 -0.47502510973783341 0.39659031508913473 0 -0.50000000000000011 0.4113245123849899 0 -0.5 0.38573857585162441 0 -0.49712055568615432 0.38414587308792292 0 -0.48532945571524078 0.40786705347370122 0 -0.50000000000000011 0.4113245123849899 0 -0.49712055568615432 0.38414587308792292 0 -0.50000000000000011 0.4113245123849899 0 -0.49712055568615432 0.38414587308792292 0 -0.49712055568615432 0.38414587308792292 0 -0.47502510973783341 0.39659031508913473 0 -0.47332959305646921 0.37101748409922081 0 -0.47502510973783341 0.39659031508913473 0 -0.45959182365544482 0.39246962774161542 0 -0.47332959305646921 0.37101748409922081 0 -0.45959182365544482 0.39246962774161542 0 -0.44992349717203861 0.38033713041494599 0 -0.47332959305646921 0.37101748409922081 0 -0.45508624237518258 0.40855996919512799 0 -0.47502510973783341 0.39659031508913473 0 -0.45959182365544482 0.39246962774161542 0 -0.45508624237518258 0.40855996919512799 0 -0.45959182365544482 0.39246962774161542 0 -0.43901690733423399 0.39716632069217478 0 -0.45959182365544482 0.39246962774161542 0 -0.43901690733423399 0.39716632069217478 0 -0.44992349717203861 0.38033713041494599 0 -0.44992349717203861 0.38033713041494599 0 -0.43425579394166391 0.38361783542370992 0 -0.43702477374162207 0.37065761778119161 0 -0.43901690733423399 0.39716632069217478 0 -0.44992349717203861 0.38033713041494599 0 -0.43425579394166391 0.38361783542370992 0 -0.43425579394166391 0.38361783542370992 0 -0.42126973476658719 0.37887273058680931 0 -0.43702477374162207 0.37065761778119161 0 -0.43425579394166391 0.38361783542370992 0 -0.42126973476658719 0.37887273058680931 0 -0.42519887037242698 0.39234301094593349 0 -0.40870727743269691 0.38431478754879078 0 -0.39588091098927591 0.37952775902345648 0 -0.4193317084525735 0.36603830197194909 0 -0.42126973476658719 0.37887273058680931 0 -0.40870727743269691 0.38431478754879078 0 -0.40903785222012218 0.39800135171052248 0 -0.42126973476658719 0.37887273058680931 0 -0.40903785222012218 0.39800135171052248 0 -0.42126973476658719 0.37887273058680931 0 -0.40870727743269691 0.38431478754879078 0 -0.4193317084525735 0.36603830197194909 0 -0.42126973476658719 0.37887273058680931 0 -0.40903785222012218 0.39800135171052248 0 -0.42519887037242698 0.39234301094593349 0 -0.40903785222012218 0.39800135171052248 0 -0.42241406359952771 0.40405681631645102 0 -0.42519887037242698 0.39234301094593349 0 -0.40903785222012218 0.39800135171052248 0 -0.42241406359952771 0.40405681631645102 0 -0.41066717203928388 0.41156931294100052 0 -0.43901690733423399 0.39716632069217478 0 -0.42241406359952771 0.40405681631645102 0 -0.42519887037242698 0.39234301094593349 0 -0.43901690733423399 0.39716632069217478 0 -0.43425579394166391 0.38361783542370992 0 -0.42519887037242698 0.39234301094593349 0 -0.44020355861376748 0.41854748778423578 0 -0.42241406359952771 0.40405681631645102 0 -0.42176692397401933 0.42006772243853352 0 -0.44020355861376748 0.41854748778423578 0 -0.43901690733423399 0.39716632069217478 0 -0.42241406359952771 0.40405681631645102 0 -0.44020355861376748 0.41854748778423578 0 -0.42974435798030702 0.43087748248263552 0 -0.42176692397401933 0.42006772243853352 0 -0.42974435798030702 0.43087748248263552 0 -0.41874878244559111 0.43028657873668852 0 -0.42176692397401933 0.42006772243853352 0 -0.42504596093772617 0.44311640517957862 0 -0.42974435798030702 0.43087748248263552 0 -0.41874878244559111 0.43028657873668852 0 -0.41383443495134831 0.43892930716106349 0 -0.42504596093772617 0.44311640517957862 0 -0.41874878244559111 0.43028657873668852 0 -0.41874878244559111 0.43028657873668852 0 -0.41097992204353739 0.42245890948067932 0 -0.42176692397401933 0.42006772243853352 0 -0.41874878244559111 0.43028657873668852 0 -0.41097992204353739 0.42245890948067932 0 -0.4062992122537239 0.43090339858038829 0 -0.41097992204353739 0.42245890948067932 0 -0.4062992122537239 0.43090339858038829 0 -0.40441855947541527 0.42338202100343941 0 -0.41383443495134831 0.43892930716106349 0 -0.41874878244559111 0.43028657873668852 0 -0.4062992122537239 0.43090339858038829 0 -0.40553287777124708 0.43895800513181898 0 -0.41383443495134831 0.43892930716106349 0 -0.4062992122537239 0.43090339858038829 0 -0.42241406359952771 0.40405681631645102 0 -0.42176692397401933 0.42006772243853352 0 -0.41066717203928388 0.41156931294100052 0 -0.41097992204353739 0.42245890948067932 0 -0.42176692397401933 0.42006772243853352 0 -0.41066717203928388 0.41156931294100052 0 -0.41097992204353739 0.42245890948067932 0 -0.40626375141564319 0.41864282370891248 0 -0.41066717203928388 0.41156931294100052 0 -0.41097992204353739 0.42245890948067932 0 -0.40626375141564319 0.41864282370891248 0 -0.40441855947541527 0.42338202100343941 0 -0.40903785222012218 0.39800135171052248 0 -0.39680596967365728 0.41712997283423581 0 -0.40903785222012218 0.39800135171052248 0 -0.39898935210433628 0.41716105141053039 0 -0.39680596967365728 0.41712997283423581 0 -0.40903785222012218 0.39800135171052248 0 -0.39680596967365728 0.41712997283423581 0 -0.39467837862780453 0.40631343850570439 0 -0.40903785222012218 0.39800135171052248 0 -0.41066717203928388 0.41156931294100052 0 -0.39898935210433628 0.41716105141053039 0 -0.40626375141564319 0.41864282370891248 0 -0.41066717203928388 0.41156931294100052 0 -0.39898935210433628 0.41716105141053039 0 -0.40626375141564319 0.41864282370891248 0 -0.39898935210433628 0.41716105141053039 0 -0.40441855947541527 0.42338202100343941 0 -0.39680596967365728 0.41712997283423581 0 -0.39467837862780453 0.40631343850570439 0 -0.3877975908516158 0.41480233778937531 0 -0.38751400306286332 0.44014104490451411 0 -0.39898935210433628 0.41716105141053039 0 -0.39680596967365728 0.41712997283423581 0 -0.39680596967365728 0.41712997283423581 0 -0.38457408712719232 0.43625859395794908 0 -0.38751400306286332 0.44014104490451411 0 -0.39898935210433628 0.41716105141053039 0 -0.39621929085068919 0.43275750401817809 0 -0.38751400306286332 0.44014104490451411 0 -0.39898935210433628 0.41716105141053039 0 -0.4062992122537239 0.43090339858038829 0 -0.39956011607424352 0.43688016005268732 0 -0.400037146478814 0.42880385243388353 0 -0.39956011607424352 0.43688016005268732 0 -0.400037146478814 0.42880385243388353 0 -0.39621929085068919 0.43275750401817809 0 -0.40553287777124708 0.43895800513181898 0 -0.4062992122537239 0.43090339858038829 0 -0.39956011607424352 0.43688016005268732 0 -0.39898935210433628 0.41716105141053039 0 -0.400037146478814 0.42880385243388353 0 -0.40441855947541527 0.42338202100343941 0 -0.4062992122537239 0.43090339858038829 0 -0.400037146478814 0.42880385243388353 0 -0.40441855947541527 0.42338202100343941 0 -0.39898935210433628 0.41716105141053039 0 -0.400037146478814 0.42880385243388353 0 -0.39621929085068919 0.43275750401817809 0 -0.39499583653318898 0.44080141128927569 0 -0.39956011607424352 0.43688016005268732 0 -0.39621929085068919 0.43275750401817809 0 -0.38751400306286332 0.44014104490451411 0 -0.39680596967365728 0.41712997283423581 0 -0.38457408712719232 0.43625859395794908 0 -0.39680596967365728 0.41712997283423581 0 -0.38457408712719232 0.43625859395794908 0 -0.3848679404359297 0.42272278910714112 0 -0.38457408712719232 0.43625859395794908 0 -0.3848679404359297 0.42272278910714112 0 -0.37584939707081078 0.42886750914075178 0 -0.3848679404359297 0.42272278910714112 0 -0.37584939707081078 0.42886750914075178 0 -0.37653316771840839 0.4176416153564495 0 -0.38457408712719232 0.43625859395794908 0 -0.37584939707081078 0.42886750914075178 0 -0.37354910286858328 0.43873026812664528 0 -0.37653316771840839 0.4176416153564495 0 -0.38309851505166598 0.40530116389237381 0 -0.36652633038821952 0.40864794336345239 0 -0.39467837862780453 0.40631343850570439 0 -0.3877975908516158 0.41480233778937531 0 -0.38309851505166598 0.40530116389237381 0 -0.39680596967365728 0.41712997283423581 0 -0.3848679404359297 0.42272278910714112 0 -0.3877975908516158 0.41480233778937531 0 -0.3848679404359297 0.42272278910714112 0 -0.3877975908516158 0.41480233778937531 0 -0.37653316771840839 0.4176416153564495 0 -0.3877975908516158 0.41480233778937531 0 -0.37653316771840839 0.4176416153564495 0 -0.38309851505166598 0.40530116389237381 0 -0.38309851505166598 0.40530116389237381 0 -0.39665196534196112 0.39633236630201452 0 -0.37243011352597832 0.39301721607496382 0 -0.39588091098927591 0.37952775902345648 0 -0.3711001775150351 0.37276956215463353 0 -0.37243011352597832 0.39301721607496382 0 -0.39588091098927591 0.37952775902345648 0 -0.37243011352597832 0.39301721607496382 0 -0.39588091098927591 0.37952775902345648 0 -0.39665196534196112 0.39633236630201452 0 -0.37243011352597832 0.39301721607496382 0 -0.40870727743269691 0.38431478754879078 0 -0.39588091098927591 0.37952775902345648 0 -0.39665196534196112 0.39633236630201452 0 -0.40870727743269691 0.38431478754879078 0 -0.40903785222012218 0.39800135171052248 0 -0.39665196534196112 0.39633236630201452 0 -0.40903785222012218 0.39800135171052248 0 -0.39467837862780453 0.40631343850570439 0 -0.39665196534196112 0.39633236630201452 0 -0.39467837862780453 0.40631343850570439 0 -0.38309851505166598 0.40530116389237381 0 -0.39665196534196112 0.39633236630201452 0 -0.39523558401718978 0.35278431557488338 0 -0.40415573639152352 0.36141457240502672 0 -0.3877526678595043 0.36203284718234602 0 -0.39523558401718978 0.35278431557488338 0 -0.38671733162530658 0.34780907893571672 0 -0.39765403458330462 0.34367984263595891 0 -0.39523558401718978 0.35278431557488338 0 -0.40363267707517531 0.34967191351358567 0 -0.39765403458330462 0.34367984263595891 0 -0.40363267707517531 0.34967191351358567 0 -0.39765403458330462 0.34367984263595891 0 -0.40760538543189351 0.3404435845606032 0 -0.39523558401718978 0.35278431557488338 0 -0.40363267707517531 0.34967191351358567 0 -0.40415573639152352 0.36141457240502672 0 -0.39588091098927591 0.37952775902345648 0 -0.40415573639152352 0.36141457240502672 0 -0.3877526678595043 0.36203284718234602 0 -0.3877526678595043 0.36203284718234602 0 -0.37154259520952182 0.35562699103504181 0 -0.3711001775150351 0.37276956215463353 0 -0.39588091098927591 0.37952775902345648 0 -0.3877526678595043 0.36203284718234602 0 -0.3711001775150351 0.37276956215463353 0 -0.38671733162530658 0.34780907893571672 0 -0.37802061419387639 0.3387666600891418 0 -0.37154259520952182 0.35562699103504181 0 -0.3877526678595043 0.36203284718234602 0 -0.38671733162530658 0.34780907893571672 0 -0.37154259520952182 0.35562699103504181 0 -0.39523558401718978 0.35278431557488338 0 -0.3877526678595043 0.36203284718234602 0 -0.38671733162530658 0.34780907893571672 0 -0.37802061419387639 0.3387666600891418 0 -0.38378575757787481 0.32585729818463532 0 -0.37055052341606198 0.32629742975721249 0 -0.37802061419387639 0.3387666600891418 0 -0.38378575757787481 0.32585729818463532 0 -0.39195770195636248 0.33348301887865278 0 -0.38671733162530658 0.34780907893571672 0 -0.37802061419387639 0.3387666600891418 0 -0.39195770195636248 0.33348301887865278 0 -0.38378575757787481 0.32585729818463532 0 -0.38325720620819048 0.31248473346024708 0 -0.37055052341606198 0.32629742975721249 0 -0.38378575757787481 0.32585729818463532 0 -0.39557114060513299 0.3232645049141134 0 -0.39195770195636248 0.33348301887865278 0 -0.38378575757787481 0.32585729818463532 0 -0.39557114060513299 0.3232645049141134 0 -0.38325720620819048 0.31248473346024708 0 -0.40809339850702953 0.31545022162474889 0 -0.38325720620819048 0.31248473346024708 0 -0.39557114060513299 0.3232645049141134 0 -0.40809339850702953 0.31545022162474889 0 -0.38325720620819048 0.31248473346024708 0 -0.39557114060513299 0.3232645049141134 0 -0.40502598086745839 0.32361441739768132 0 -0.40809339850702953 0.31545022162474889 0 -0.39557114060513299 0.3232645049141134 0 -0.40502598086745839 0.32361441739768132 0 -0.40414737481484603 0.32989196093373813 0 -0.39557114060513299 0.3232645049141134 0 -0.39747539349305472 0.32972839942644189 0 -0.40414737481484603 0.32989196093373813 0 -0.39765403458330462 0.34367984263595891 0 -0.39195770195636248 0.33348301887865278 0 -0.39950956984100838 0.33588072328339658 0 -0.38671733162530658 0.34780907893571672 0 -0.39765403458330462 0.34367984263595891 0 -0.39195770195636248 0.33348301887865278 0 -0.39557114060513299 0.3232645049141134 0 -0.39195770195636248 0.33348301887865278 0 -0.39747539349305472 0.32972839942644189 0 -0.39195770195636248 0.33348301887865278 0 -0.39747539349305472 0.32972839942644189 0 -0.39950956984100838 0.33588072328339658 0 -0.39950956984100838 0.33588072328339658 0 -0.40414737481484603 0.32989196093373813 0 -0.40760538543189351 0.3404435845606032 0 -0.39747539349305472 0.32972839942644189 0 -0.39950956984100838 0.33588072328339658 0 -0.40414737481484603 0.32989196093373813 0 -0.39765403458330462 0.34367984263595891 0 -0.39950956984100838 0.33588072328339658 0 -0.40760538543189351 0.3404435845606032 0 -0.40760538543189351 0.3404435845606032 0 -0.41831361925956301 0.33582619098387312 0 -0.41377549176002137 0.35008558268412371 0 -0.40414737481484603 0.32989196093373813 0 -0.41831361925956301 0.33582619098387312 0 -0.41229200954282508 0.32585098211812491 0 -0.40414737481484603 0.32989196093373813 0 -0.40760538543189351 0.3404435845606032 0 -0.41831361925956301 0.33582619098387312 0 -0.41831361925956301 0.33582619098387312 0 -0.41229200954282508 0.32585098211812491 0 -0.42240708802225518 0.32602595498103593 0 -0.40809339850702953 0.31545022162474889 0 -0.43292959080586851 0.31841570978925071 0 -0.41078392397772351 0.31326927643647801 0 -0.40809339850702953 0.31545022162474889 0 -0.43292959080586851 0.31841570978925071 0 -0.40809339850702953 0.31545022162474889 0 -0.43292959080586851 0.31841570978925071 0 -0.42240708802225518 0.32602595498103593 0 -0.40502598086745839 0.32361441739768132 0 -0.40414737481484603 0.32989196093373813 0 -0.41229200954282508 0.32585098211812491 0 -0.40502598086745839 0.32361441739768132 0 -0.40809339850702953 0.31545022162474889 0 -0.41229200954282508 0.32585098211812491 0 -0.40809339850702953 0.31545022162474889 0 -0.41229200954282508 0.32585098211812491 0 -0.42240708802225518 0.32602595498103593 0 -0.43292959080586851 0.31841570978925071 0 -0.42240708802225518 0.32602595498103593 0 -0.43620439761800128 0.335959045003007 0 -0.41831361925956301 0.33582619098387312 0 -0.42240708802225518 0.32602595498103593 0 -0.43620439761800128 0.335959045003007 0 -0.41831361925956301 0.33582619098387312 0 -0.43620439761800128 0.335959045003007 0 -0.42608154460120612 0.34809159311267901 0 -0.42608154460120612 0.34809159311267901 0 -0.4193317084525735 0.36603830197194909 0 -0.44278250591587121 0.35254884492044181 0 -0.43620439761800128 0.335959045003007 0 -0.42608154460120612 0.34809159311267901 0 -0.44278250591587121 0.35254884492044181 0 -0.4193317084525735 0.36603830197194909 0 -0.44278250591587121 0.35254884492044181 0 -0.40415573639152352 0.36141457240502672 0 -0.41377549176002137 0.35008558268412371 0 -0.4193317084525735 0.36603830197194909 0 -0.41831361925956301 0.33582619098387312 0 -0.42608154460120612 0.34809159311267901 0 -0.41377549176002137 0.35008558268412371 0 -0.42608154460120612 0.34809159311267901 0 -0.41377549176002137 0.35008558268412371 0 -0.4193317084525735 0.36603830197194909 0 -0.40363267707517531 0.34967191351358567 0 -0.40415573639152352 0.36141457240502672 0 -0.41377549176002137 0.35008558268412371 0 -0.40363267707517531 0.34967191351358567 0 -0.40760538543189351 0.3404435845606032 0 -0.41377549176002137 0.35008558268412371 0 -0.39588091098927591 0.37952775902345648 0 -0.40415573639152352 0.36141457240502672 0 -0.4193317084525735 0.36603830197194909 0 -0.39588091098927591 0.37952775902345648 0 -0.4193317084525735 0.36603830197194909 0 -0.4193317084525735 0.36603830197194909 0 -0.43702477374162207 0.37065761778119161 0 -0.44278250591587121 0.35254884492044181 0 -0.42126973476658719 0.37887273058680931 0 -0.4193317084525735 0.36603830197194909 0 -0.43702477374162207 0.37065761778119161 0 -0.44992349717203861 0.38033713041494599 0 -0.43702477374162207 0.37065761778119161 0 -0.45533523263673081 0.36322144006202561 0 -0.43702477374162207 0.37065761778119161 0 -0.44278250591587121 0.35254884492044181 0 -0.45533523263673081 0.36322144006202561 0 -0.45533523263673081 0.36322144006202561 0 -0.47332959305646921 0.37101748409922081 0 -0.46623330337916891 0.33905938786893453 0 -0.44278250591587121 0.35254884492044181 0 -0.46623330337916891 0.33905938786893453 0 -0.44278250591587121 0.35254884492044181 0 -0.45533523263673081 0.36322144006202561 0 -0.46623330337916891 0.33905938786893453 0 -0.44992349717203861 0.38033713041494599 0 -0.45533523263673081 0.36322144006202561 0 -0.47332959305646921 0.37101748409922081 0 -0.47332959305646921 0.37101748409922081 0 -0.49424111137230831 0.35696723379085599 0 -0.46623330337916891 0.33905938786893453 0 -0.49424111137230831 0.35696723379085599 0 -0.5 0.36015263931825892 0 -0.5 0.33456670278489348 0 -0.49712055568615432 0.38414587308792292 0 -0.49424111137230831 0.35696723379085599 0 -0.49712055568615432 0.38414587308792292 0 -0.47332959305646921 0.37101748409922081 0 -0.49424111137230831 0.35696723379085599 0 -0.49712055568615432 0.38414587308792292 0 -0.49424111137230831 0.35696723379085599 0 -0.5 0.36015263931825892 0 -0.4913616670584624 0.32978859449378928 0 -0.5 0.33456670278489348 0 -0.5 0.30898076625152809 0 -0.4913616670584624 0.32978859449378928 0 -0.48848222274461639 0.30260995519672251 0 -0.4913616670584624 0.32978859449378928 0 -0.48848222274461639 0.30260995519672251 0 -0.5 0.30898076625152809 0 -0.49424111137230831 0.35696723379085599 0 -0.4913616670584624 0.32978859449378928 0 -0.5 0.33456670278489348 0 -0.49424111137230831 0.35696723379085599 0 -0.4913616670584624 0.32978859449378928 0 -0.49424111137230831 0.35696723379085599 0 -0.4913616670584624 0.32978859449378928 0 -0.46623330337916891 0.33905938786893453 0 -0.4913616670584624 0.32978859449378928 0 -0.46444405413232648 0.31262910215515849 0 -0.46623330337916891 0.33905938786893453 0 -0.4913616670584624 0.32978859449378928 0 -0.46444405413232648 0.31262910215515849 0 -0.48848222274461639 0.30260995519672251 0 -0.46444405413232648 0.31262910215515849 0 -0.46623330337916891 0.33905938786893453 0 -0.44890693562966871 0.32309683458576682 0 -0.46444405413232648 0.31262910215515849 0 -0.44890693562966871 0.32309683458576682 0 -0.44688836268686982 0.30838939696861323 0 -0.43620439761800128 0.335959045003007 0 -0.46623330337916891 0.33905938786893453 0 -0.44890693562966871 0.32309683458576682 0 -0.43620439761800128 0.335959045003007 0 -0.44278250591587121 0.35254884492044181 0 -0.46623330337916891 0.33905938786893453 0 -0.43292959080586851 0.31841570978925071 0 -0.44890693562966871 0.32309683458576682 0 -0.44688836268686982 0.30838939696861323 0 -0.43292959080586851 0.31841570978925071 0 -0.43620439761800128 0.335959045003007 0 -0.44890693562966871 0.32309683458576682 0 -0.44688836268686982 0.30838939696861323 0 -0.45517951391841549 0.28744713339643402 0 -0.43298171894806953 0.30035820491645587 0 -0.43292959080586851 0.31841570978925071 0 -0.44688836268686982 0.30838939696861323 0 -0.43298171894806953 0.30035820491645587 0 -0.43787654018669131 0.2839162159729165 0 -0.45517951391841549 0.28744713339643402 0 -0.43298171894806953 0.30035820491645587 0 -0.45517951391841549 0.28744713339643402 0 -0.43298171894806953 0.30035820491645587 0 -0.46444405413232648 0.31262910215515849 0 -0.45517951391841549 0.28744713339643402 0 -0.4742171756229781 0.29053071370487649 0 -0.46444405413232648 0.31262910215515849 0 -0.44688836268686982 0.30838939696861323 0 -0.45517951391841549 0.28744713339643402 0 -0.46444405413232648 0.31262910215515849 0 -0.4742171756229781 0.29053071370487649 0 -0.48848222274461639 0.30260995519672251 0 -0.45517951391841549 0.28744713339643402 0 -0.4742171756229781 0.29053071370487649 0 -0.47737730888876168 0.27453606187641189 0 -0.4742171756229781 0.29053071370487649 0 -0.48848222274461639 0.30260995519672251 0 -0.48560277843077171 0.27543131589965553 0 -0.49999999999999978 0.28339482971816271 0 -0.48848222274461639 0.30260995519672251 0 -0.48560277843077171 0.27543131589965553 0 -0.48848222274461639 0.30260995519672251 0 -0.48560277843077171 0.27543131589965553 0 -0.49999999999999978 0.28339482971816271 0 -0.48848222274461639 0.30260995519672251 0 -0.5 0.30898076625152809 0 -0.49117283958362418 0.245103093964054 0 -0.5 0.25814370275047099 0 -0.48343137892175581 0.25493580440754038 0 -0.5 0.25814370275047099 0 -0.48560277843077171 0.27543131589965553 0 -0.48343137892175581 0.25493580440754038 0 -0.48560277843077171 0.27543131589965553 0 -0.48343137892175581 0.25493580440754038 0 -0.49999999999999978 0.28339482971816271 0 -0.5 0.25814370275047099 0 -0.48560277843077171 0.27543131589965553 0 -0.49999999999999978 0.28339482971816271 0 -0.48560277843077171 0.27543131589965553 0 -0.48560277843077171 0.27543131589965553 0 -0.47344642454939012 0.25807110851235632 0 -0.46424352903243821 0.26361690595126569 0 -0.48560277843077171 0.27543131589965553 0 -0.46424352903243821 0.26361690595126569 0 -0.4742171756229781 0.29053071370487649 0 -0.48560277843077171 0.27543131589965553 0 -0.47737730888876168 0.27453606187641189 0 -0.48560277843077171 0.27543131589965553 0 -0.47737730888876168 0.27453606187641189 0 -0.46424352903243821 0.26361690595126569 0 -0.48560277843077171 0.27543131589965553 0 -0.47344642454939012 0.25807110851235632 0 -0.48343137892175581 0.25493580440754038 0 -0.47365194578558489 0.2474261756056359 0 -0.47344642454939012 0.25807110851235632 0 -0.48343137892175581 0.25493580440754038 0 -0.47365194578558489 0.2474261756056359 0 -0.46030249057640132 0.24894534069768401 0 -0.47344642454939012 0.25807110851235632 0 -0.46030249057640132 0.24894534069768401 0 -0.46424352903243821 0.26361690595126569 0 -0.44288427963410359 0.25180249600287791 0 -0.46030249057640132 0.24894534069768401 0 -0.47344642454939012 0.25807110851235632 0 -0.46424352903243821 0.26361690595126569 0 -0.46424352903243821 0.26361690595126569 0 -0.44288427963410359 0.25180249600287791 0 -0.45517951391841549 0.28744713339643402 0 -0.47737730888876168 0.27453606187641189 0 -0.46424352903243821 0.26361690595126569 0 -0.45517951391841549 0.28744713339643402 0 -0.47737730888876168 0.27453606187641189 0 -0.45517951391841549 0.28744713339643402 0 -0.46424352903243821 0.26361690595126569 0 -0.44787619358717529 0.2679925024764408 0 -0.44787619358717529 0.2679925024764408 0 -0.43807892599250092 0.26258988100891789 0 -0.43212888899081309 0.27222434745504098 0 -0.43787654018669131 0.2839162159729165 0 -0.44787619358717529 0.2679925024764408 0 -0.43212888899081309 0.27222434745504098 0 -0.43787654018669131 0.2839162159729165 0 -0.45517951391841549 0.28744713339643402 0 -0.44787619358717529 0.2679925024764408 0 -0.46424352903243821 0.26361690595126569 0 -0.44787619358717529 0.2679925024764408 0 -0.44288427963410359 0.25180249600287791 0 -0.44787619358717529 0.2679925024764408 0 -0.43807892599250092 0.26258988100891789 0 -0.44288427963410359 0.25180249600287791 0 -0.43807892599250092 0.26258988100891789 0 -0.44288427963410359 0.25180249600287791 0 -0.42942634175791178 0.25834017810131199 0 -0.43439993591206999 0.24298843020603611 0 -0.44288427963410359 0.25180249600287791 0 -0.42942634175791178 0.25834017810131199 0 -0.43807892599250092 0.26258988100891789 0 -0.42942634175791178 0.25834017810131199 0 -0.43212888899081309 0.27222434745504098 0 -0.43439993591206999 0.24298843020603611 0 -0.42942634175791178 0.25834017810131199 0 -0.42117545011479679 0.25014549038947931 0 -0.41011544326189359 0.24952867831187109 0 -0.42117545011479679 0.25014549038947931 0 -0.41465428747906918 0.25869390839173839 0 -0.42942634175791178 0.25834017810131199 0 -0.42117545011479679 0.25014549038947931 0 -0.41465428747906918 0.25869390839173839 0 -0.42942634175791178 0.25834017810131199 0 -0.41465428747906918 0.25869390839173839 0 -0.41844449995698879 0.27275514459995009 0 -0.41465428747906918 0.25869390839173839 0 -0.40713871072179342 0.26698754418920062 0 -0.40268744864481582 0.25725073362471551 0 -0.41011544326189359 0.24952867831187109 0 -0.41465428747906918 0.25869390839173839 0 -0.40268744864481582 0.25725073362471551 0 -0.41844449995698879 0.27275514459995009 0 -0.42342219237605522 0.28425044917685882 0 -0.40596227472392132 0.27944180398015639 0 -0.40713871072179342 0.26698754418920062 0 -0.41844449995698879 0.27275514459995009 0 -0.40596227472392132 0.27944180398015639 0 -0.41465428747906918 0.25869390839173839 0 -0.40713871072179342 0.26698754418920062 0 -0.41844449995698879 0.27275514459995009 0 -0.41844449995698879 0.27275514459995009 0 -0.43212888899081309 0.27222434745504098 0 -0.42342219237605522 0.28425044917685882 0 -0.42942634175791178 0.25834017810131199 0 -0.41844449995698879 0.27275514459995009 0 -0.43212888899081309 0.27222434745504098 0 -0.43787654018669131 0.2839162159729165 0 -0.43212888899081309 0.27222434745504098 0 -0.42342219237605522 0.28425044917685882 0 -0.42342219237605522 0.28425044917685882 0 -0.43298171894806953 0.30035820491645587 0 -0.41424213489338307 0.29315275691495729 0 -0.43787654018669131 0.2839162159729165 0 -0.42342219237605522 0.28425044917685882 0 -0.43298171894806953 0.30035820491645587 0 -0.41078392397772351 0.31326927643647801 0 -0.43292959080586851 0.31841570978925071 0 -0.43298171894806953 0.30035820491645587 0 -0.41078392397772351 0.31326927643647801 0 -0.43298171894806953 0.30035820491645587 0 -0.43298171894806953 0.30035820491645587 0 -0.41344530447343231 0.30256475823530499 0 -0.41424213489338307 0.29315275691495729 0 -0.41078392397772351 0.31326927643647801 0 -0.43298171894806953 0.30035820491645587 0 -0.41344530447343231 0.30256475823530499 0 -0.41344530447343231 0.30256475823530499 0 -0.41424213489338307 0.29315275691495729 0 -0.40555355091350431 0.29858586387824698 0 -0.41344530447343231 0.30256475823530499 0 -0.40346949298950952 0.30699587793950739 0 -0.40555355091350431 0.29858586387824698 0 -0.41078392397772351 0.31326927643647801 0 -0.40809339850702953 0.31545022162474889 0 -0.40346949298950952 0.30699587793950739 0 -0.41078392397772351 0.31326927643647801 0 -0.41344530447343231 0.30256475823530499 0 -0.40346949298950952 0.30699587793950739 0 -0.42342219237605522 0.28425044917685882 0 -0.41424213489338307 0.29315275691495729 0 -0.40596227472392132 0.27944180398015639 0 -0.41424213489338307 0.29315275691495729 0 -0.40172374532223581 0.29093692160117662 0 -0.40555355091350431 0.29858586387824698 0 -0.41424213489338307 0.29315275691495729 0 -0.40172374532223581 0.29093692160117662 0 -0.40596227472392132 0.27944180398015639 0 -0.40172374532223581 0.29093692160117662 0 -0.38816938983638061 0.28468698962311328 0 -0.40596227472392132 0.27944180398015639 0 -0.40172374532223581 0.29093692160117662 0 -0.40555355091350431 0.29858586387824698 0 -0.39449567559901749 0.29835538251852928 0 -0.40172374532223581 0.29093692160117662 0 -0.39449567559901749 0.29835538251852928 0 -0.38816938983638061 0.28468698962311328 0 -0.40809339850702953 0.31545022162474889 0 -0.40346949298950952 0.30699587793950739 0 -0.38325720620819048 0.31248473346024708 0 -0.40346949298950952 0.30699587793950739 0 -0.39449567559901749 0.29835538251852928 0 -0.38325720620819048 0.31248473346024708 0 -0.40346949298950952 0.30699587793950739 0 -0.40555355091350431 0.29858586387824698 0 -0.39449567559901749 0.29835538251852928 0 -0.39449567559901749 0.29835538251852928 0 -0.37840615119775428 0.2991801549961477 0 -0.38325720620819048 0.31248473346024708 0 -0.39449567559901749 0.29835538251852928 0 -0.37840615119775428 0.2991801549961477 0 -0.38816938983638061 0.28468698962311328 0 -0.37840615119775428 0.2991801549961477 0 -0.38816938983638061 0.28468698962311328 0 -0.3676874704358315 0.29085442408310369 0 -0.38816938983638061 0.28468698962311328 0 -0.39394504280417192 0.2667961303494425 0 -0.36768648396105108 0.26900825103244191 0 -0.38830289254671763 0.25018958328788471 0 -0.36706940300080659 0.26145848834748558 0 -0.38830289254671763 0.25018958328788471 0 -0.36768648396105108 0.26900825103244191 0 -0.38830289254671763 0.25018958328788471 0 -0.39394504280417192 0.2667961303494425 0 -0.36768648396105108 0.26900825103244191 0 -0.38830289254671763 0.25018958328788471 0 -0.40268744864481582 0.25725073362471551 0 -0.39394504280417192 0.2667961303494425 0 -0.40142426697920691 0.24989543508756221 0 -0.38830289254671763 0.25018958328788471 0 -0.40268744864481582 0.25725073362471551 0 -0.41011544326189359 0.24952867831187109 0 -0.40142426697920691 0.24989543508756221 0 -0.40268744864481582 0.25725073362471551 0 -0.40713871072179342 0.26698754418920062 0 -0.40268744864481582 0.25725073362471551 0 -0.39394504280417192 0.2667961303494425 0 -0.40713871072179342 0.26698754418920062 0 -0.40596227472392132 0.27944180398015639 0 -0.39394504280417192 0.2667961303494425 0 -0.38816938983638061 0.28468698962311328 0 -0.40596227472392132 0.27944180398015639 0 -0.39394504280417192 0.2667961303494425 0 -0.34583591345489539 0.27272739340708613 0 -0.36768648396105108 0.26900825103244191 0 -0.34707007537538492 0.28782691877699962 0 -0.36768648396105108 0.26900825103244191 0 -0.34707007537538492 0.28782691877699962 0 -0.34583591345489539 0.27272739340708613 0 -0.36706940300080659 0.26145848834748558 0 -0.34583591345489539 0.27272739340708613 0 -0.35035315060422467 0.25628194805284132 0 -0.36706940300080659 0.26145848834748558 0 -0.35851219757856018 0.2440752524803281 0 -0.35035315060422467 0.25628194805284132 0 -0.36706940300080659 0.26145848834748558 0 -0.38830289254671763 0.25018958328788471 0 -0.36706940300080659 0.26145848834748558 0 -0.36768648396105108 0.26900825103244191 0 -0.34583591345489539 0.27272739340708613 0 -0.36706940300080659 0.26145848834748558 0 -0.36768648396105108 0.26900825103244191 0 -0.38816938983638061 0.28468698962311328 0 -0.36768648396105108 0.26900825103244191 0 -0.3676874704358315 0.29085442408310369 0 -0.36768648396105108 0.26900825103244191 0 -0.3676874704358315 0.29085442408310369 0 -0.34707007537538492 0.28782691877699962 0 -0.37840615119775428 0.2991801549961477 0 -0.3676874704358315 0.29085442408310369 0 -0.35842101390935133 0.30951924529574532 0 -0.37840615119775428 0.2991801549961477 0 -0.38325720620819048 0.31248473346024708 0 -0.35842101390935133 0.30951924529574532 0 -0.38325720620819048 0.31248473346024708 0 -0.35842101390935133 0.30951924529574532 0 -0.35842101390935133 0.30951924529574532 0 -0.34707007537538492 0.28782691877699962 0 -0.33358482161051223 0.3065537571312435 0 -0.35842101390935133 0.30951924529574532 0 -0.33358482161051223 0.3065537571312435 0 -0.34037882327379471 0.31537596778606092 0 -0.35842101390935133 0.30951924529574532 0 -0.33358482161051223 0.3065537571312435 0 -0.3676874704358315 0.29085442408310369 0 -0.35842101390935133 0.30951924529574532 0 -0.34707007537538492 0.28782691877699962 0 -0.34583591345489539 0.27272739340708613 0 -0.34707007537538492 0.28782691877699962 0 -0.32460242390898308 0.28399629846668462 0 -0.34707007537538492 0.28782691877699962 0 -0.32645366678971871 0.30664558652155721 0 -0.32460242390898308 0.28399629846668462 0 -0.34707007537538492 0.28782691877699962 0 -0.33358482161051223 0.3065537571312435 0 -0.32645366678971871 0.30664558652155721 0 -0.34707007537538492 0.28782691877699962 0 -0.32645366678971871 0.30664558652155721 0 -0.33358482161051223 0.3065537571312435 0 -0.32645366678971871 0.30664558652155721 0 -0.33093308545939021 0.31498960873832382 0 -0.33358482161051223 0.3065537571312435 0 -0.33093308545939021 0.31498960873832382 0 -0.34037882327379471 0.31537596778606092 0 -0.32645366678971871 0.30664558652155721 0 -0.31521984105651663 0.30473027636639921 0 -0.30583725820405261 0.32546425426611492 0 -0.32645366678971871 0.30664558652155721 0 -0.31521984105651663 0.30473027636639921 0 -0.32460242390898308 0.28399629846668462 0 -0.31521984105651663 0.30473027636639921 0 -0.32460242390898308 0.28399629846668462 0 -0.32460242390898308 0.28399629846668462 0 -0.30313445169040598 0.29538964670698481 0 -0.31521984105651663 0.30473027636639921 0 -0.32460242390898308 0.28399629846668462 0 -0.30313445169040598 0.29538964670698481 0 -0.32460242390898308 0.28399629846668462 0 -0.31786847743648661 0.2708732585233915 0 -0.30481078321613142 0.28016352719578552 0 -0.32460242390898308 0.28399629846668462 0 -0.31786847743648661 0.2708732585233915 0 -0.33446326196059012 0.26220545457543448 0 -0.31786847743648661 0.2708732585233915 0 -0.31940376434390022 0.2596157168612428 0 -0.30606215375282741 0.26838529551780838 0 -0.34583591345489539 0.27272739340708613 0 -0.32460242390898308 0.28399629846668462 0 -0.33446326196059012 0.26220545457543448 0 -0.34583591345489539 0.27272739340708613 0 -0.32460242390898308 0.28399629846668462 0 -0.32460242390898308 0.28399629846668462 0 -0.33446326196059012 0.26220545457543448 0 -0.3443241000121996 0.24041461068418571 0 -0.35035315060422467 0.25628194805284132 0 -0.33446326196059012 0.26220545457543448 0 -0.34583591345489539 0.27272739340708613 0 -0.35035315060422467 0.25628194805284132 0 -0.33446326196059012 0.26220545457543448 0 -0.3443241000121996 0.24041461068418571 0 -0.33446326196059012 0.26220545457543448 0 -0.3443241000121996 0.24041461068418571 0 -0.33446326196059012 0.26220545457543448 0 -0.33074662450541248 0.25002147010888148 0 -0.33446326196059012 0.26220545457543448 0 -0.33074662450541248 0.25002147010888148 0 -0.31940376434390022 0.2596157168612428 0 -0.31918450862209119 0.2494813401128361 0 -0.33074662450541248 0.25002147010888148 0 -0.31940376434390022 0.2596157168612428 0 -0.31786847743648661 0.2708732585233915 0 -0.33446326196059012 0.26220545457543448 0 -0.31940376434390022 0.2596157168612428 0 -0.31918450862209119 0.2494813401128361 0 -0.31940376434390022 0.2596157168612428 0 -0.30423161915187408 0.25386660526631438 0 -0.31940376434390022 0.2596157168612428 0 -0.30423161915187408 0.25386660526631438 0 -0.30606215375282741 0.26838529551780838 0 -0.30423161915187408 0.25386660526631438 0 -0.30606215375282741 0.26838529551780838 0 -0.29634642904557079 0.26165803707096991 0 -0.30481078321613142 0.28016352719578552 0 -0.30606215375282741 0.26838529551780838 0 -0.29029066610725601 0.27254740639570069 0 -0.30606215375282741 0.26838529551780838 0 -0.29029066610725601 0.27254740639570069 0 -0.29634642904557079 0.26165803707096991 0 -0.31786847743648661 0.2708732585233915 0 -0.30481078321613142 0.28016352719578552 0 -0.30606215375282741 0.26838529551780838 0 -0.30481078321613142 0.28016352719578552 0 -0.29029066610725601 0.27254740639570069 0 -0.28620846050299309 0.28831285297012038 0 -0.29029066610725601 0.27254740639570069 0 -0.27154002279135142 0.27672869025608771 0 -0.28620846050299309 0.28831285297012038 0 -0.29029066610725601 0.27254740639570069 0 -0.2870677430497493 0.26166830647838291 0 -0.27865742171552349 0.26586628216722918 0 -0.30423161915187408 0.25386660526631438 0 -0.28999118535458368 0.25029147387940059 0 -0.29634642904557079 0.26165803707096991 0 -0.29029066610725601 0.27254740639570069 0 -0.29634642904557079 0.26165803707096991 0 -0.2870677430497493 0.26166830647838291 0 -0.28999118535458368 0.25029147387940059 0 -0.29634642904557079 0.26165803707096991 0 -0.2870677430497493 0.26166830647838291 0 -0.28999118535458368 0.25029147387940059 0 -0.2870677430497493 0.26166830647838291 0 -0.27754560397625377 0.25571541236035561 0 -0.26514066087552751 0.24989382703442681 0 -0.27754560397625377 0.25571541236035561 0 -0.26684307265300711 0.26267159534561929 0 -0.2870677430497493 0.26166830647838291 0 -0.27754560397625377 0.25571541236035561 0 -0.27865742171552349 0.26586628216722918 0 -0.27754560397625377 0.25571541236035561 0 -0.26684307265300711 0.26267159534561929 0 -0.27865742171552349 0.26586628216722918 0 -0.29029066610725601 0.27254740639570069 0 -0.27865742171552349 0.26586628216722918 0 -0.27154002279135142 0.27672869025608771 0 -0.26684307265300711 0.26267159534561929 0 -0.27865742171552349 0.26586628216722918 0 -0.27154002279135142 0.27672869025608771 0 -0.27154002279135142 0.27672869025608771 0 -0.25676435495807309 0.26979764268142681 0 -0.25440051171921318 0.28351699692352261 0 -0.26684307265300711 0.26267159534561929 0 -0.27154002279135142 0.27672869025608771 0 -0.25676435495807309 0.26979764268142681 0 -0.25676435495807309 0.26979764268142681 0 -0.25440051171921318 0.28351699692352261 0 -0.24241104495175289 0.27007332305091569 0 -0.25676435495807309 0.26979764268142681 0 -0.25326758024003238 0.25706308409811779 0 -0.24241104495175289 0.27007332305091569 0 -0.26514066087552751 0.24989382703442681 0 -0.26684307265300711 0.26267159534561929 0 -0.25326758024003238 0.25706308409811779 0 -0.26684307265300711 0.26267159534561929 0 -0.25676435495807309 0.26979764268142681 0 -0.25326758024003238 0.25706308409811779 0 -0.26677670661419922 0.29662285636466762 0 -0.26019850725324972 0.31817634318758109 0 -0.24111765687857489 0.30214485005039943 0 -0.25440051171921318 0.28351699692352261 0 -0.26677670661419922 0.29662285636466762 0 -0.24111765687857489 0.30214485005039943 0 -0.27154002279135142 0.27672869025608771 0 -0.25440051171921318 0.28351699692352261 0 -0.26677670661419922 0.29662285636466762 0 -0.27154002279135142 0.27672869025608771 0 -0.26677670661419922 0.29662285636466762 0 -0.28620846050299309 0.28831285297012038 0 -0.28166647947182788 0.30678299494728289 0 -0.26019850725324972 0.31817634318758109 0 -0.26677670661419922 0.29662285636466762 0 -0.28166647947182788 0.30678299494728289 0 -0.28620846050299309 0.28831285297012038 0 -0.26677670661419922 0.29662285636466762 0 -0.28166647947182788 0.30678299494728289 0 -0.26019850725324972 0.31817634318758109 0 -0.28166647947182788 0.30678299494728289 0 -0.30313445169040598 0.29538964670698481 0 -0.30091673598171759 0.31074770738982788 0 -0.28166647947182788 0.30678299494728289 0 -0.30313445169040598 0.29538964670698481 0 -0.28166647947182788 0.30678299494728289 0 -0.28620846050299309 0.28831285297012038 0 -0.30313445169040598 0.29538964670698481 0 -0.30481078321613142 0.28016352719578552 0 -0.28620846050299309 0.28831285297012038 0 -0.30313445169040598 0.29538964670698481 0 -0.32460242390898308 0.28399629846668462 0 -0.30481078321613142 0.28016352719578552 0 -0.30313445169040598 0.29538964670698481 0 -0.31521984105651663 0.30473027636639921 0 -0.30313445169040598 0.29538964670698481 0 -0.30091673598171759 0.31074770738982788 0 -0.31521984105651663 0.30473027636639921 0 -0.30091673598171759 0.31074770738982788 0 -0.30583725820405261 0.32546425426611492 0 -0.31521984105651663 0.30473027636639921 0 -0.30583725820405261 0.32546425426611492 0 -0.30583725820405261 0.32546425426611492 0 -0.31041632565773158 0.33115067427717071 0 -0.32081716635880131 0.32330992451423213 0 -0.30583725820405261 0.32546425426611492 0 -0.3044085476180235 0.32862147165301392 0 -0.30583725820405261 0.32546425426611492 0 -0.29756227029270482 0.33301766724038778 0 -0.29402241333904178 0.32183380469784412 0 -0.30091673598171759 0.31074770738982788 0 -0.30583725820405261 0.32546425426611492 0 -0.29402241333904178 0.32183380469784412 0 -0.30876235294792381 0.34343098013155088 0 -0.31117392282607648 0.33710346680253428 0 -0.31702306249761097 0.34048652378696981 0 -0.30876235294792381 0.34343098013155088 0 -0.30485794609124911 0.33646755074113938 0 -0.30180176803685937 0.34232512348570709 0 -0.30876235294792381 0.34343098013155088 0 -0.31117392282607648 0.33710346680253428 0 -0.30485794609124911 0.33646755074113938 0 -0.30485794609124911 0.33646755074113938 0 -0.31041632565773158 0.33115067427717071 0 -0.3044085476180235 0.32862147165301392 0 -0.31117392282607648 0.33710346680253428 0 -0.30485794609124911 0.33646755074113938 0 -0.31041632565773158 0.33115067427717071 0 -0.30583725820405261 0.32546425426611492 0 -0.31041632565773158 0.33115067427717071 0 -0.3044085476180235 0.32862147165301392 0 -0.30485794609124911 0.33646755074113938 0 -0.29756227029270482 0.33301766724038778 0 -0.3044085476180235 0.32862147165301392 0 -0.30583725820405261 0.32546425426611492 0 -0.29756227029270482 0.33301766724038778 0 -0.30583725820405261 0.32546425426611492 0 -0.29756227029270482 0.33301766724038778 0 -0.3044085476180235 0.32862147165301392 0 -0.29756227029270482 0.33301766724038778 0 -0.30180176803685937 0.34232512348570709 0 -0.29429453318856558 0.34455084012609222 0 -0.30485794609124911 0.33646755074113938 0 -0.29756227029270482 0.33301766724038778 0 -0.30180176803685937 0.34232512348570709 0 -0.29756227029270482 0.33301766724038778 0 -0.28938819398480659 0.33788899804198058 0 -0.29429453318856558 0.34455084012609222 0 -0.29756227029270482 0.33301766724038778 0 -0.28938819398480659 0.33788899804198058 0 -0.28850970201974402 0.33023932593068722 0 -0.29756227029270482 0.33301766724038778 0 -0.28850970201974402 0.33023932593068722 0 -0.29402241333904178 0.32183380469784412 0 -0.28938819398480659 0.33788899804198058 0 -0.28850970201974402 0.33023932593068722 0 -0.27991435005790122 0.33504007581025952 0 -0.28850970201974402 0.33023932593068722 0 -0.28166128242426569 0.32341608386296389 0 -0.27991435005790122 0.33504007581025952 0 -0.28938819398480659 0.33788899804198058 0 -0.28258024705347551 0.34317256178395489 0 -0.27991435005790122 0.33504007581025952 0 -0.28938819398480659 0.33788899804198058 0 -0.28258024705347551 0.34317256178395489 0 -0.29429453318856558 0.34455084012609222 0 -0.28166647947182788 0.30678299494728289 0 -0.30091673598171759 0.31074770738982788 0 -0.29402241333904178 0.32183380469784412 0 -0.28166647947182788 0.30678299494728289 0 -0.29402241333904178 0.32183380469784412 0 -0.28166128242426569 0.32341608386296389 0 -0.28850970201974402 0.33023932593068722 0 -0.29402241333904178 0.32183380469784412 0 -0.28166128242426569 0.32341608386296389 0 -0.28166128242426569 0.32341608386296389 0 -0.26953505142128709 0.32968716798037262 0 -0.26019850725324972 0.31817634318758109 0 -0.28166647947182788 0.30678299494728289 0 -0.28166128242426569 0.32341608386296389 0 -0.26019850725324972 0.31817634318758109 0 -0.28166128242426569 0.32341608386296389 0 -0.27991435005790122 0.33504007581025952 0 -0.26953505142128709 0.32968716798037262 0 -0.28258024705347551 0.34317256178395489 0 -0.27991435005790122 0.33504007581025952 0 -0.26152497450656248 0.3421101355913726 0 -0.27991435005790122 0.33504007581025952 0 -0.26953505142128709 0.32968716798037262 0 -0.26152497450656248 0.3421101355913726 0 -0.26953505142128709 0.32968716798037262 0 -0.26152497450656248 0.3421101355913726 0 -0.26019850725324972 0.31817634318758109 0 -0.26152497450656248 0.3421101355913726 0 -0.26019850725324972 0.31817634318758109 0 -0.23527076548358339 0.3279475118326749 0 -0.25605856337378208 0.36220775902141888 0 -0.25784933886290851 0.37485398387924312 0 -0.23988172758300019 0.36658598944966192 0 -0.25605856337378208 0.36220775902141888 0 -0.26655219446843742 0.35423649166481491 0 -0.2722099739407674 0.3677361329232488 0 -0.25605856337378208 0.36220775902141888 0 -0.25784933886290851 0.37485398387924312 0 -0.2722099739407674 0.3677361329232488 0 -0.26152497450656248 0.3421101355913726 0 -0.26655219446843742 0.35423649166481491 0 -0.2453252054073333 0.35220022397956058 0 -0.25605856337378208 0.36220775902141888 0 -0.26655219446843742 0.35423649166481491 0 -0.2453252054073333 0.35220022397956058 0 -0.26655219446843742 0.35423649166481491 0 -0.2453252054073333 0.35220022397956058 0 -0.28258024705347551 0.34317256178395489 0 -0.26152497450656248 0.3421101355913726 0 -0.28777918352954163 0.35627275935006969 0 -0.26152497450656248 0.3421101355913726 0 -0.28777918352954163 0.35627275935006969 0 -0.26152497450656248 0.3421101355913726 0 -0.26655219446843742 0.35423649166481491 0 -0.28777918352954163 0.35627275935006969 0 -0.26655219446843742 0.35423649166481491 0 -0.28777918352954163 0.35627275935006969 0 -0.26655219446843742 0.35423649166481491 0 -0.2722099739407674 0.3677361329232488 0 -0.28777918352954163 0.35627275935006969 0 -0.28777918352954163 0.35627275935006969 0 -0.30879132548439753 0.36760759181866642 0 -0.2912015492615474 0.37587971808960963 0 -0.2722099739407674 0.3677361329232488 0 -0.28777918352954163 0.35627275935006969 0 -0.2912015492615474 0.37587971808960963 0 -0.28777918352954163 0.35627275935006969 0 -0.30565643089403582 0.35798769221241861 0 -0.28258024705347551 0.34317256178395489 0 -0.28777918352954163 0.35627275935006969 0 -0.29429453318856558 0.34455084012609222 0 -0.28777918352954163 0.35627275935006969 0 -0.29429453318856558 0.34455084012609222 0 -0.30208616790187759 0.34911181451664408 0 -0.28777918352954163 0.35627275935006969 0 -0.30208616790187759 0.34911181451664408 0 -0.30565643089403582 0.35798769221241861 0 -0.30876235294792381 0.34343098013155088 0 -0.30180176803685937 0.34232512348570709 0 -0.30208616790187759 0.34911181451664408 0 -0.30180176803685937 0.34232512348570709 0 -0.29429453318856558 0.34455084012609222 0 -0.30208616790187759 0.34911181451664408 0 -0.30208616790187759 0.34911181451664408 0 -0.30565643089403582 0.35798769221241861 0 -0.31405696246548881 0.34952473437742948 0 -0.30876235294792381 0.34343098013155088 0 -0.30208616790187759 0.34911181451664408 0 -0.31405696246548881 0.34952473437742948 0 -0.30879132548439753 0.36760759181866642 0 -0.32258917397368209 0.37123768201762369 0 -0.30463799536811359 0.38239416761558331 0 -0.28777918352954163 0.35627275935006969 0 -0.30879132548439753 0.36760759181866642 0 -0.28777918352954163 0.35627275935006969 0 -0.30565643089403582 0.35798769221241861 0 -0.30879132548439753 0.36760759181866642 0 -0.30565643089403582 0.35798769221241861 0 -0.30879132548439753 0.36760759181866642 0 -0.32353367825853002 0.3597026250747678 0 -0.30879132548439753 0.36760759181866642 0 -0.32353367825853002 0.3597026250747678 0 -0.32258917397368209 0.37123768201762369 0 -0.32353367825853002 0.3597026250747678 0 -0.32258917397368209 0.37123768201762369 0 -0.33425475844580532 0.36246131328530629 0 -0.32258917397368209 0.37123768201762369 0 -0.33425475844580532 0.36246131328530629 0 -0.34446641402412698 0.37075403553709718 0 -0.33425475844580532 0.36246131328530629 0 -0.34446641402412698 0.37075403553709718 0 -0.34423726313831671 0.3581706805485223 0 -0.33842973642137297 0.35173591720616992 0 -0.33474079362859221 0.3430293610574518 0 -0.34880895618673052 0.34249869348407708 0 -0.33425475844580532 0.36246131328530629 0 -0.33842973642137297 0.35173591720616992 0 -0.34423726313831671 0.3581706805485223 0 -0.33842973642137297 0.35173591720616992 0 -0.34423726313831671 0.3581706805485223 0 -0.34736665855951743 0.351370978116475 0 -0.32353367825853002 0.3597026250747678 0 -0.33842973642137297 0.35173591720616992 0 -0.32554680913952511 0.3449548230485337 0 -0.32353367825853002 0.3597026250747678 0 -0.33425475844580532 0.36246131328530629 0 -0.33842973642137297 0.35173591720616992 0 -0.33842973642137297 0.35173591720616992 0 -0.32554680913952511 0.3449548230485337 0 -0.33474079362859221 0.3430293610574518 0 -0.30565643089403582 0.35798769221241861 0 -0.32353367825853002 0.3597026250747678 0 -0.32353367825853002 0.3597026250747678 0 -0.32554680913952511 0.3449548230485337 0 -0.31405696246548881 0.34952473437742948 0 -0.30565643089403582 0.35798769221241861 0 -0.32353367825853002 0.3597026250747678 0 -0.31405696246548881 0.34952473437742948 0 -0.32554680913952511 0.3449548230485337 0 -0.31405696246548881 0.34952473437742948 0 -0.31702306249761097 0.34048652378696981 0 -0.30876235294792381 0.34343098013155088 0 -0.31405696246548881 0.34952473437742948 0 -0.31702306249761097 0.34048652378696981 0 -0.31117392282607648 0.33710346680253428 0 -0.31702306249761097 0.34048652378696981 0 -0.31734744080575611 0.33257473630220241 0 -0.31702306249761097 0.34048652378696981 0 -0.31734744080575611 0.33257473630220241 0 -0.32651964373584069 0.33462696767274891 0 -0.31117392282607648 0.33710346680253428 0 -0.31041632565773158 0.33115067427717071 0 -0.31734744080575611 0.33257473630220241 0 -0.31041632565773158 0.33115067427717071 0 -0.31734744080575611 0.33257473630220241 0 -0.32081716635880131 0.32330992451423213 0 -0.31734744080575611 0.33257473630220241 0 -0.32651964373584069 0.33462696767274891 0 -0.32081716635880131 0.32330992451423213 0 -0.32554680913952511 0.3449548230485337 0 -0.31702306249761097 0.34048652378696981 0 -0.32651964373584069 0.33462696767274891 0 -0.32645366678971871 0.30664558652155721 0 -0.30583725820405261 0.32546425426611492 0 -0.32081716635880131 0.32330992451423213 0 -0.32645366678971871 0.30664558652155721 0 -0.30583725820405261 0.32546425426611492 0 -0.32645366678971871 0.30664558652155721 0 -0.32081716635880131 0.32330992451423213 0 -0.33093308545939021 0.31498960873832382 0 -0.32651964373584069 0.33462696767274891 0 -0.32081716635880131 0.32330992451423213 0 -0.33343094926412398 0.32306280773852519 0 -0.33093308545939021 0.31498960873832382 0 -0.33343094926412398 0.32306280773852519 0 -0.34037882327379471 0.31537596778606092 0 -0.32081716635880131 0.32330992451423213 0 -0.33093308545939021 0.31498960873832382 0 -0.33343094926412398 0.32306280773852519 0 -0.33343094926412398 0.32306280773852519 0 -0.33688090727225478 0.33389215426708407 0 -0.34505898044467698 0.32408968644415331 0 -0.33343094926412398 0.32306280773852519 0 -0.34037882327379471 0.31537596778606092 0 -0.34505898044467698 0.32408968644415331 0 -0.32651964373584069 0.33462696767274891 0 -0.33474079362859221 0.3430293610574518 0 -0.33688090727225478 0.33389215426708407 0 -0.32554680913952511 0.3449548230485337 0 -0.32651964373584069 0.33462696767274891 0 -0.33474079362859221 0.3430293610574518 0 -0.32651964373584069 0.33462696767274891 0 -0.33343094926412398 0.32306280773852519 0 -0.33688090727225478 0.33389215426708407 0 -0.33688090727225478 0.33389215426708407 0 -0.34685381335049947 0.3326894481417027 0 -0.34505898044467698 0.32408968644415331 0 -0.33474079362859221 0.3430293610574518 0 -0.33688090727225478 0.33389215426708407 0 -0.34880895618673052 0.34249869348407708 0 -0.33688090727225478 0.33389215426708407 0 -0.34880895618673052 0.34249869348407708 0 -0.34685381335049947 0.3326894481417027 0 -0.34685381335049947 0.3326894481417027 0 -0.35666640949833578 0.3302772583714963 0 -0.34505898044467698 0.32408968644415331 0 -0.34880895618673052 0.34249869348407708 0 -0.34685381335049947 0.3326894481417027 0 -0.35666640949833578 0.3302772583714963 0 -0.34880895618673052 0.34249869348407708 0 -0.35666640949833578 0.3302772583714963 0 -0.36393778296984242 0.34282354619478278 0 -0.35842101390935133 0.30951924529574532 0 -0.34037882327379471 0.31537596778606092 0 -0.34505898044467698 0.32408968644415331 0 -0.35842101390935133 0.30951924529574532 0 -0.35666640949833578 0.3302772583714963 0 -0.34505898044467698 0.32408968644415331 0 -0.38325720620819048 0.31248473346024708 0 -0.35842101390935133 0.30951924529574532 0 -0.37055052341606198 0.32629742975721249 0 -0.35842101390935133 0.30951924529574532 0 -0.35666640949833578 0.3302772583714963 0 -0.37055052341606198 0.32629742975721249 0 -0.35666640949833578 0.3302772583714963 0 -0.37055052341606198 0.32629742975721249 0 -0.36393778296984242 0.34282354619478278 0 -0.37802061419387639 0.3387666600891418 0 -0.37055052341606198 0.32629742975721249 0 -0.36393778296984242 0.34282354619478278 0 -0.37154259520952182 0.35562699103504181 0 -0.35800450461682443 0.36319051328606933 0 -0.35581197783081348 0.35468536356542119 0 -0.37802061419387639 0.3387666600891418 0 -0.36393778296984242 0.34282354619478278 0 -0.37154259520952182 0.35562699103504181 0 -0.36393778296984242 0.34282354619478278 0 -0.37154259520952182 0.35562699103504181 0 -0.35581197783081348 0.35468536356542119 0 -0.3711001775150351 0.37276956215463353 0 -0.35800450461682443 0.36319051328606933 0 -0.35529334477430319 0.37366563924173452 0 -0.37154259520952182 0.35562699103504181 0 -0.3711001775150351 0.37276956215463353 0 -0.35800450461682443 0.36319051328606933 0 -0.37154259520952182 0.35562699103504181 0 -0.35800450461682443 0.36319051328606933 0 -0.35800450461682443 0.36319051328606933 0 -0.34446641402412698 0.37075403553709718 0 -0.35581197783081348 0.35468536356542119 0 -0.34446641402412698 0.37075403553709718 0 -0.35581197783081348 0.35468536356542119 0 -0.34446641402412698 0.37075403553709718 0 -0.34423726313831671 0.3581706805485223 0 -0.35581197783081348 0.35468536356542119 0 -0.35800450461682443 0.36319051328606933 0 -0.35529334477430319 0.37366563924173452 0 -0.34446641402412698 0.37075403553709718 0 -0.35800450461682443 0.36319051328606933 0 -0.34446641402412698 0.37075403553709718 0 -0.34423726313831671 0.3581706805485223 0 -0.34736665855951743 0.351370978116475 0 -0.35581197783081348 0.35468536356542119 0 -0.33842973642137297 0.35173591720616992 0 -0.34880895618673052 0.34249869348407708 0 -0.34736665855951743 0.351370978116475 0 -0.34880895618673052 0.34249869348407708 0 -0.34736665855951743 0.351370978116475 0 -0.35581197783081348 0.35468536356542119 0 -0.34880895618673052 0.34249869348407708 0 -0.36393778296984242 0.34282354619478278 0 -0.35581197783081348 0.35468536356542119 0 -0.35391353834970601 0.39122716752929743 0 -0.37243011352597832 0.39301721607496382 0 -0.34897931606268062 0.40650667312647132 0 -0.34897931606268062 0.40650667312647132 0 -0.34196458743091751 0.39183024572647501 0 -0.35391353834970601 0.39122716752929743 0 -0.34897931606268062 0.40650667312647132 0 -0.34196458743091751 0.39183024572647501 0 -0.35391353834970601 0.39122716752929743 0 -0.34695419830201629 0.38277265864538518 0 -0.34196458743091751 0.39183024572647501 0 -0.35529334477430319 0.37366563924173452 0 -0.34446641402412698 0.37075403553709718 0 -0.34695419830201629 0.38277265864538518 0 -0.35529334477430319 0.37366563924173452 0 -0.34695419830201629 0.38277265864538518 0 -0.35973526829649127 0.38310461680208469 0 -0.35391353834970601 0.39122716752929743 0 -0.34695419830201629 0.38277265864538518 0 -0.35973526829649127 0.38310461680208469 0 -0.35391353834970601 0.39122716752929743 0 -0.35973526829649127 0.38310461680208469 0 -0.37243011352597832 0.39301721607496382 0 -0.3711001775150351 0.37276956215463353 0 -0.35973526829649127 0.38310461680208469 0 -0.37243011352597832 0.39301721607496382 0 -0.3711001775150351 0.37276956215463353 0 -0.35529334477430319 0.37366563924173452 0 -0.35973526829649127 0.38310461680208469 0 -0.37243011352597832 0.39301721607496382 0 -0.34897931606268062 0.40650667312647132 0 -0.38309851505166598 0.40530116389237381 0 -0.37243011352597832 0.39301721607496382 0 -0.36652633038821952 0.40864794336345239 0 -0.37243011352597832 0.39301721607496382 0 -0.36652633038821952 0.40864794336345239 0 -0.34897931606268062 0.40650667312647132 0 -0.37653316771840839 0.4176416153564495 0 -0.36652633038821952 0.40864794336345239 0 -0.35972268720394052 0.42898427915557391 0 -0.37584939707081078 0.42886750914075178 0 -0.37653316771840839 0.4176416153564495 0 -0.35972268720394052 0.42898427915557391 0 -0.37584939707081078 0.42886750914075178 0 -0.35972268720394052 0.42898427915557391 0 -0.37354910286858328 0.43873026812664528 0 -0.35972268720394052 0.42898427915557391 0 -0.34286674792977317 0.4256071694805621 0 -0.34976680262622079 0.44506855975036519 0 -0.34897931606268062 0.40650667312647132 0 -0.34058528011168049 0.4113351224628759 0 -0.34286674792977317 0.4256071694805621 0 -0.35972268720394052 0.42898427915557391 0 -0.34897931606268062 0.40650667312647132 0 -0.36652633038821952 0.40864794336345239 0 -0.35972268720394052 0.42898427915557391 0 -0.34897931606268062 0.40650667312647132 0 -0.35972268720394052 0.42898427915557391 0 -0.34897931606268062 0.40650667312647132 0 -0.34286674792977317 0.4256071694805621 0 -0.34897931606268062 0.40650667312647132 0 -0.34058528011168049 0.4113351224628759 0 -0.34058528011168049 0.4113351224628759 0 -0.32991031816495953 0.4090042702862422 0 -0.33803835814597122 0.40246600567028162 0 -0.34897931606268062 0.40650667312647132 0 -0.34058528011168049 0.4113351224628759 0 -0.33803835814597122 0.40246600567028162 0 -0.34058528011168049 0.4113351224628759 0 -0.34286674792977317 0.4256071694805621 0 -0.32868199056685332 0.4223020793824197 0 -0.34058528011168049 0.4113351224628759 0 -0.32991031816495953 0.4090042702862422 0 -0.32868199056685332 0.4223020793824197 0 -0.34286674792977317 0.4256071694805621 0 -0.32868199056685332 0.4223020793824197 0 -0.33001293518112051 0.44035437749441819 0 -0.34286674792977317 0.4256071694805621 0 -0.33001293518112051 0.44035437749441819 0 -0.34976680262622079 0.44506855975036519 0 -0.32868199056685332 0.4223020793824197 0 -0.31814259777514642 0.43292045731956702 0 -0.31394918218624029 0.41397545637099259 0 -0.32868199056685332 0.4223020793824197 0 -0.31814259777514642 0.43292045731956702 0 -0.33001293518112051 0.44035437749441819 0 -0.32991031816495953 0.4090042702862422 0 -0.32868199056685332 0.4223020793824197 0 -0.31394918218624029 0.41397545637099259 0 -0.31394918218624029 0.41397545637099259 0 -0.3292077981051838 0.39236474595404502 0 -0.31394918218624029 0.41397545637099259 0 -0.3292077981051838 0.39236474595404502 0 -0.31231835193029472 0.3992569230840472 0 -0.32991031816495953 0.4090042702862422 0 -0.31394918218624029 0.41397545637099259 0 -0.3292077981051838 0.39236474595404502 0 -0.3292077981051838 0.39236474595404502 0 -0.31985087226111952 0.3845063587743216 0 -0.31231835193029472 0.3992569230840472 0 -0.32991031816495953 0.4090042702862422 0 -0.3292077981051838 0.39236474595404502 0 -0.33803835814597122 0.40246600567028162 0 -0.3292077981051838 0.39236474595404502 0 -0.34196458743091751 0.39183024572647501 0 -0.33803835814597122 0.40246600567028162 0 -0.34897931606268062 0.40650667312647132 0 -0.34196458743091751 0.39183024572647501 0 -0.33803835814597122 0.40246600567028162 0 -0.34695419830201629 0.38277265864538518 0 -0.3292077981051838 0.39236474595404502 0 -0.34196458743091751 0.39183024572647501 0 -0.34446641402412698 0.37075403553709718 0 -0.3292077981051838 0.39236474595404502 0 -0.34446641402412698 0.37075403553709718 0 -0.34695419830201629 0.38277265864538518 0 -0.3292077981051838 0.39236474595404502 0 -0.32258917397368209 0.37123768201762369 0 -0.34446641402412698 0.37075403553709718 0 -0.31985087226111952 0.3845063587743216 0 -0.34446641402412698 0.37075403553709718 0 -0.31985087226111952 0.3845063587743216 0 -0.34446641402412698 0.37075403553709718 0 -0.3292077981051838 0.39236474595404502 0 -0.31985087226111952 0.3845063587743216 0 -0.32258917397368209 0.37123768201762369 0 -0.31985087226111952 0.3845063587743216 0 -0.30463799536811359 0.38239416761558331 0 -0.30463799536811359 0.38239416761558331 0 -0.29523533049811218 0.39825868201154607 0 -0.2912015492615474 0.37587971808960963 0 -0.31985087226111952 0.3845063587743216 0 -0.30463799536811359 0.38239416761558331 0 -0.29523533049811218 0.39825868201154607 0 -0.30879132548439753 0.36760759181866642 0 -0.30463799536811359 0.38239416761558331 0 -0.2912015492615474 0.37587971808960963 0 -0.31985087226111952 0.3845063587743216 0 -0.31231835193029472 0.3992569230840472 0 -0.29523533049811218 0.39825868201154607 0 -0.31985087226111952 0.3845063587743216 0 -0.29523533049811218 0.39825868201154607 0 -0.31231835193029472 0.3992569230840472 0 -0.29523533049811218 0.39825868201154607 0 -0.30334857660081771 0.40717937230933071 0 -0.29523533049811218 0.39825868201154607 0 -0.27061978873510489 0.41201100524877082 0 -0.29523533049811218 0.39825868201154607 0 -0.29186002629895907 0.4108422522792084 0 -0.30334857660081771 0.40717937230933071 0 -0.29523533049811218 0.39825868201154607 0 -0.2912015492615474 0.37587971808960963 0 -0.27458182584515578 0.38525309892905402 0 -0.2722099739407674 0.3677361329232488 0 -0.2912015492615474 0.37587971808960963 0 -0.27458182584515578 0.38525309892905402 0 -0.25784933886290851 0.37485398387924312 0 -0.2722099739407674 0.3677361329232488 0 -0.27458182584515578 0.38525309892905402 0 -0.29523533049811218 0.39825868201154607 0 -0.27458182584515578 0.38525309892905402 0 -0.27061978873510489 0.41201100524877082 0 -0.27458182584515578 0.38525309892905402 0 -0.25910406929571139 0.38965268220176502 0 -0.27061978873510489 0.41201100524877082 0 -0.25910406929571139 0.38965268220176502 0 -0.27061978873510489 0.41201100524877082 0 -0.2443500639851908 0.39837909495007429 0 -0.25784933886290851 0.37485398387924312 0 -0.27458182584515578 0.38525309892905402 0 -0.25910406929571139 0.38965268220176502 0 -0.25784933886290851 0.37485398387924312 0 -0.25910406929571139 0.38965268220176502 0 -0.24158943087403609 0.38255653378656829 0 -0.2598370263441464 0.43213527885263803 0 -0.27061978873510489 0.41201100524877082 0 -0.24600424697209761 0.4257633284859953 0 -0.2598370263441464 0.43213527885263803 0 -0.27504745615928028 0.43290362868808913 0 -0.25969832395210551 0.44630105008611798 0 -0.2598370263441464 0.43213527885263803 0 -0.24600424697209761 0.4257633284859953 0 -0.24969468466221459 0.43595247846769769 0 -0.27061978873510489 0.41201100524877082 0 -0.24600424697209761 0.4257633284859953 0 -0.27061978873510489 0.41201100524877082 0 -0.24600424697209761 0.4257633284859953 0 -0.2443500639851908 0.39837909495007429 0 -0.2598370263441464 0.43213527885263803 0 -0.27061978873510489 0.41201100524877082 0 -0.27504745615928028 0.43290362868808913 0 -0.27061978873510489 0.41201100524877082 0 -0.27504745615928028 0.43290362868808913 0 -0.28555931393035883 0.42556123879193092 0 -0.27504745615928028 0.43290362868808913 0 -0.28555931393035883 0.42556123879193092 0 -0.28584691378034582 0.43758980068960102 0 -0.29186002629895907 0.4108422522792084 0 -0.29869056626729718 0.43558616678794038 0 -0.28555931393035883 0.42556123879193092 0 -0.29186002629895907 0.4108422522792084 0 -0.29869056626729718 0.43558616678794038 0 -0.28555931393035883 0.42556123879193092 0 -0.29869056626729718 0.43558616678794038 0 -0.28584691378034582 0.43758980068960102 0 -0.27061978873510489 0.41201100524877082 0 -0.28555931393035883 0.42556123879193092 0 -0.29186002629895907 0.4108422522792084 0 -0.29523533049811218 0.39825868201154607 0 -0.27061978873510489 0.41201100524877082 0 -0.29186002629895907 0.4108422522792084 0 -0.31394918218624029 0.41397545637099259 0 -0.30334857660081771 0.40717937230933071 0 -0.29869056626729718 0.43558616678794038 0 -0.29186002629895907 0.4108422522792084 0 -0.30334857660081771 0.40717937230933071 0 -0.29869056626729718 0.43558616678794038 0 -0.31394918218624029 0.41397545637099259 0 -0.31231835193029472 0.3992569230840472 0 -0.30334857660081771 0.40717937230933071 0 -0.31394918218624029 0.41397545637099259 0 -0.29869056626729718 0.43558616678794038 0 -0.31814259777514642 0.43292045731956702 0 -0.31394918218624029 0.41397545637099259 0 -0.29869056626729718 0.43558616678794038 0 -0.31814259777514642 0.43292045731956702 0 -0.29869056626729718 0.43558616678794038 0 -0.3201198202606525 0.44979588684404032 0 -0.29869056626729718 0.43558616678794038 0 -0.305606513960338 0.46063947432390268 0 -0.3201198202606525 0.44979588684404032 0 -0.29869056626729718 0.43558616678794038 0 -0.305606513960338 0.46063947432390268 0 -0.2894510982580174 0.44867198457219287 0 -0.29869056626729718 0.43558616678794038 0 -0.305606513960338 0.46063947432390268 0 -0.305606513960338 0.46063947432390268 0 -0.29239805579082773 0.46137965097539418 0 -0.29352574122233149 0.47520190042356208 0 -0.305606513960338 0.46063947432390268 0 -0.29239805579082773 0.46137965097539418 0 -0.2894510982580174 0.44867198457219287 0 -0.2894510982580174 0.44867198457219287 0 -0.28021163024873791 0.46175780235644548 0 -0.29239805579082773 0.46137965097539418 0 -0.2894510982580174 0.44867198457219287 0 -0.28021163024873791 0.46175780235644548 0 -0.29239805579082773 0.46137965097539418 0 -0.28021163024873791 0.46175780235644548 0 -0.29352574122233149 0.47520190042356208 0 -0.29869056626729718 0.43558616678794038 0 -0.2894510982580174 0.44867198457219287 0 -0.29869056626729718 0.43558616678794038 0 -0.2894510982580174 0.44867198457219287 0 -0.28584691378034582 0.43758980068960102 0 -0.2894510982580174 0.44867198457219287 0 -0.27534044096439442 0.44767613041278698 0 -0.28021163024873791 0.46175780235644548 0 -0.2894510982580174 0.44867198457219287 0 -0.28584691378034582 0.43758980068960102 0 -0.27534044096439442 0.44767613041278698 0 -0.27504745615928028 0.43290362868808913 0 -0.28584691378034582 0.43758980068960102 0 -0.27534044096439442 0.44767613041278698 0 -0.27504745615928028 0.43290362868808913 0 -0.27534044096439442 0.44767613041278698 0 -0.25969832395210551 0.44630105008611798 0 -0.27534044096439442 0.44767613041278698 0 -0.26524015835723602 0.45637184299185291 0 -0.25969832395210551 0.44630105008611798 0 -0.27534044096439442 0.44767613041278698 0 -0.28021163024873791 0.46175780235644548 0 -0.26524015835723602 0.45637184299185291 0 -0.28021163024873791 0.46175780235644548 0 -0.26524015835723602 0.45637184299185291 0 -0.25988404178816071 0.46889251858451231 0 -0.26524015835723602 0.45637184299185291 0 -0.25106635483278189 0.45723171351940212 0 -0.25969832395210551 0.44630105008611798 0 -0.25106635483278189 0.45723171351940212 0 -0.25988404178816071 0.46889251858451231 0 -0.2397622704317566 0.46824087401610759 0 -0.26524015835723602 0.45637184299185291 0 -0.25106635483278189 0.45723171351940212 0 -0.25988404178816071 0.46889251858451231 0 -0.25106635483278189 0.45723171351940212 0 -0.25969832395210551 0.44630105008611798 0 -0.24570445994529549 0.44602800398266518 0 -0.25969832395210551 0.44630105008611798 0 -0.24570445994529549 0.44602800398266518 0 -0.24969468466221459 0.43595247846769769 0 -0.2598370263441464 0.43213527885263803 0 -0.25969832395210551 0.44630105008611798 0 -0.24969468466221459 0.43595247846769769 0 -0.26294943836109252 0.5 0 -0.25043335358253288 0.48364354866496112 0 -0.23759464357622839 0.5 0 -0.26294943836109252 0.5 0 -0.25043335358253288 0.48364354866496112 0 -0.27401482991175852 0.48205270122567351 0 -0.25043335358253288 0.48364354866496112 0 -0.25988404178816071 0.46889251858451231 0 -0.2397622704317566 0.46824087401610759 0 -0.25043335358253288 0.48364354866496112 0 -0.25988404178816071 0.46889251858451231 0 -0.27401482991175852 0.48205270122567351 0 -0.28021163024873791 0.46175780235644548 0 -0.25988404178816071 0.46889251858451231 0 -0.27401482991175852 0.48205270122567351 0 -0.26294943836109252 0.5 0 -0.27401482991175852 0.48205270122567351 0 -0.28830423314595649 0.49999999999999928 0 -0.27401482991175852 0.48205270122567351 0 -0.28830423314595649 0.49999999999999928 0 -0.29352574122233149 0.47520190042356208 0 -0.28021163024873791 0.46175780235644548 0 -0.27401482991175852 0.48205270122567351 0 -0.29352574122233149 0.47520190042356208 0 -0.305606513960338 0.46063947432390268 0 -0.29352574122233149 0.47520190042356208 0 -0.31252246165337882 0.48569278185986509 0 -0.305606513960338 0.46063947432390268 0 -0.31252246165337882 0.48569278185986509 0 -0.28830423314595649 0.49999999999999928 0 -0.31252246165337882 0.48569278185986509 0 -0.31314248616849522 0.48793884639743851 0 -0.28830423314595649 0.49999999999999928 0 -0.31252246165337882 0.48569278185986509 0 -0.28830423314595649 0.49999999999999928 0 -0.3133595208995329 0.5 0 -0.31314248616849522 0.48793884639743851 0 -0.28830423314595649 0.49999999999999928 0 -0.29352574122233149 0.47520190042356208 0 -0.31252246165337882 0.48569278185986509 0 -0.3133595208995329 0.5 0 -0.31314248616849522 0.48793884639743851 0 -0.32488305789206601 0.48874516966346548 0 -0.3133595208995329 0.5 0 -0.32488305789206601 0.48874516966346548 0 -0.33841480865310919 0.5 0 -0.31252246165337882 0.48569278185986509 0 -0.31314248616849522 0.48793884639743851 0 -0.32488305789206601 0.48874516966346548 0 -0.31252246165337882 0.48569278185986509 0 -0.31314248616849522 0.48793884639743851 0 -0.32488305789206601 0.48874516966346548 0 -0.33950945796900339 0.48641162353839812 0 -0.33841480865310919 0.5 0 -0.33950945796900339 0.48641162353839812 0 -0.33841480865310919 0.5 0 -0.35125808948683002 0.49039336116482302 0 -0.33950945796900339 0.48641162353839812 0 -0.33183699388398519 0.47428248296813569 0 -0.35115433992902662 0.4786371038955663 0 -0.32488305789206601 0.48874516966346548 0 -0.33950945796900339 0.48641162353839812 0 -0.33183699388398519 0.47428248296813569 0 -0.31252246165337882 0.48569278185986509 0 -0.32488305789206601 0.48874516966346548 0 -0.33183699388398519 0.47428248296813569 0 -0.305606513960338 0.46063947432390268 0 -0.31252246165337882 0.48569278185986509 0 -0.33183699388398519 0.47428248296813569 0 -0.31252246165337882 0.48569278185986509 0 -0.33183699388398519 0.47428248296813569 0 -0.305606513960338 0.46063947432390268 0 -0.33183699388398519 0.47428248296813569 0 -0.3201198202606525 0.44979588684404032 0 -0.31814259777514642 0.43292045731956702 0 -0.3201198202606525 0.44979588684404032 0 -0.33001293518112051 0.44035437749441819 0 -0.3201198202606525 0.44979588684404032 0 -0.33001293518112051 0.44035437749441819 0 -0.3364293144960277 0.45499236217027778 0 -0.33001293518112051 0.44035437749441819 0 -0.3364293144960277 0.45499236217027778 0 -0.34976680262622079 0.44506855975036519 0 -0.33183699388398519 0.47428248296813569 0 -0.3201198202606525 0.44979588684404032 0 -0.3364293144960277 0.45499236217027778 0 -0.33183699388398519 0.47428248296813569 0 -0.35115152611459138 0.46287218407640568 0 -0.33183699388398519 0.47428248296813569 0 -0.3364293144960277 0.45499236217027778 0 -0.35115152611459138 0.46287218407640568 0 -0.35115152611459138 0.46287218407640568 0 -0.34976680262622079 0.44506855975036519 0 -0.37046605834519858 0.45146188518467761 0 -0.3364293144960277 0.45499236217027778 0 -0.35115152611459138 0.46287218407640568 0 -0.34976680262622079 0.44506855975036519 0 -0.35972268720394052 0.42898427915557391 0 -0.37046605834519858 0.45146188518467761 0 -0.35972268720394052 0.42898427915557391 0 -0.34976680262622079 0.44506855975036519 0 -0.37046605834519858 0.45146188518467761 0 -0.35972268720394052 0.42898427915557391 0 -0.37046605834519858 0.45146188518467761 0 -0.37354910286858328 0.43873026812664528 0 -0.37046605834519858 0.45146188518467761 0 -0.37435379485781012 0.44916515673733032 0 -0.37354910286858328 0.43873026812664528 0 -0.37046605834519858 0.45146188518467761 0 -0.37435379485781012 0.44916515673733032 0 -0.3723422045807272 0.45538721508166252 0 -0.37046605834519858 0.45146188518467761 0 -0.37435379485781012 0.44916515673733032 0 -0.37046605834519858 0.45146188518467761 0 -0.3723422045807272 0.45538721508166252 0 -0.36363437984663349 0.46900479843544629 0 -0.35115152611459138 0.46287218407640568 0 -0.37046605834519858 0.45146188518467761 0 -0.36363437984663349 0.46900479843544629 0 -0.35115152611459138 0.46287218407640568 0 -0.37046605834519858 0.45146188518467761 0 -0.37046605834519858 0.45146188518467761 0 -0.3723422045807272 0.45538721508166252 0 -0.37603865402138942 0.46312103839849728 0 -0.3723422045807272 0.45538721508166252 0 -0.3723422045807272 0.45538721508166252 0 -0.36363437984663349 0.46900479843544629 0 -0.37603865402138942 0.46312103839849728 0 -0.3723422045807272 0.45538721508166252 0 -0.36363437984663349 0.46900479843544629 0 -0.37603865402138942 0.46312103839849728 0 -0.36287341213654362 0.47601552804935482 0 -0.36322912635143301 0.48877279517319511 0 -0.37603865402138942 0.46312103839849728 0 -0.37199060061793748 0.48564455607314289 0 -0.36322912635143301 0.48877279517319511 0 -0.37603865402138942 0.46312103839849728 0 -0.36287341213654362 0.47601552804935482 0 -0.36363437984663349 0.46900479843544629 0 -0.37603865402138942 0.46312103839849728 0 -0.36322912635143301 0.48877279517319511 0 -0.37604997806537138 0.49252608024469408 0 -0.37199060061793748 0.48564455607314289 0 -0.36322912635143301 0.48877279517319511 0 -0.37604997806537138 0.49252608024469408 0 -0.36347009640668571 0.5 0 -0.36322912635143301 0.48877279517319511 0 -0.33841480865310919 0.5 0 -0.36347009640668571 0.5 0 -0.35125808948683002 0.49039336116482302 0 -0.36322912635143301 0.48877279517319511 0 -0.35125808948683002 0.49039336116482302 0 -0.35115433992902662 0.4786371038955663 0 -0.36347009640668571 0.5 0 -0.36322912635143301 0.48877279517319511 0 -0.35125808948683002 0.49039336116482302 0 -0.33950945796900339 0.48641162353839812 0 -0.35125808948683002 0.49039336116482302 0 -0.35115433992902662 0.4786371038955663 0 -0.33183699388398519 0.47428248296813569 0 -0.35115152611459138 0.46287218407640568 0 -0.35115433992902662 0.4786371038955663 0 -0.35115152611459138 0.46287218407640568 0 -0.36363437984663349 0.46900479843544629 0 -0.35115433992902662 0.4786371038955663 0 -0.36287341213654362 0.47601552804935482 0 -0.36363437984663349 0.46900479843544629 0 -0.35115433992902662 0.4786371038955663 0 -0.36287341213654362 0.47601552804935482 0 -0.36322912635143301 0.48877279517319511 0 -0.35115433992902662 0.4786371038955663 0 -0.1476141775 0.48009315797777991 0 -0.15465381980926779 0.49070894060106901 0 -0.16373433436500071 0.4806827333221475 0 -0.1476141775 0.48009315797777991 0 -0.16103529020506741 0.46140617838963338 0 -0.1476141775 0.48009315797777991 0 -0.1466806603565855 0.46517698076345398 0 -0.16103529020506741 0.46140617838963338 0 -0.1476141775 0.48009315797777991 0 -0.13411485293406841 0.47215599502781053 0 -0.1466806603565855 0.46517698076345398 0 -0.1476141775 0.48009315797777991 0 -0.14315419646705521 0.5 0 -0.15465381980926779 0.49070894060106901 0 -0.14315419646705521 0.5 0 -0.15465381980926779 0.49070894060106901 0 -0.1650196252367776 0.5 0 -0.1476141775 0.48009315797777991 0 -0.1341930647949327 0.49878013756592637 0 -0.1476141775 0.48009315797777991 0 -0.14315419646705521 0.5 0 -0.1341930647949327 0.49878013756592637 0 -0.14315419646705521 0.5 0 -0.1341930647949327 0.49878013756592637 0 -0.12128876769733279 0.49999999999999839 0 -0.1476141775 0.48009315797777991 0 -0.1341930647949327 0.49878013756592637 0 -0.1269324822763519 0.48863663614791658 0 -0.1341930647949327 0.49878013756592637 0 -0.1269324822763519 0.48863663614791658 0 -0.12128876769733279 0.49999999999999839 0 -0.1476141775 0.48009315797777991 0 -0.1269324822763519 0.48863663614791658 0 -0.13411485293406841 0.47215599502781053 0 -0.1269324822763519 0.48863663614791658 0 -0.13411485293406841 0.47215599502781053 0 -0.1228014186443184 0.47705841065588628 0 -0.13411485293406841 0.47215599502781053 0 -0.1225191036568119 0.46284418382078357 0 -0.1228014186443184 0.47705841065588628 0 -0.13411485293406841 0.47215599502781053 0 -0.138141275170343 0.45912660080104301 0 -0.1225191036568119 0.46284418382078357 0 -0.138141275170343 0.45912660080104301 0 -0.12527501376817099 0.44727076333871302 0 -0.1225191036568119 0.46284418382078357 0 -0.13411485293406841 0.47215599502781053 0 -0.138141275170343 0.45912660080104301 0 -0.1466806603565855 0.46517698076345398 0 -0.12527501376817099 0.44727076333871302 0 -0.13893510771283679 0.44409608154283298 0 -0.12988187258907391 0.43244883811048968 0 -0.138141275170343 0.45912660080104301 0 -0.12527501376817099 0.44727076333871302 0 -0.13893510771283679 0.44409608154283298 0 -0.13893510771283679 0.44409608154283298 0 -0.15151845244243969 0.44040806649347769 0 -0.14190405568863909 0.43236835287673919 0 -0.138141275170343 0.45912660080104301 0 -0.13893510771283679 0.44409608154283298 0 -0.14958281450343089 0.45318388875033649 0 -0.13893510771283679 0.44409608154283298 0 -0.15151845244243969 0.44040806649347769 0 -0.14958281450343089 0.45318388875033649 0 -0.15151845244243969 0.44040806649347769 0 -0.14958281450343089 0.45318388875033649 0 -0.16018258411726119 0.44662297145228091 0 -0.138141275170343 0.45912660080104301 0 -0.1466806603565855 0.46517698076345398 0 -0.14958281450343089 0.45318388875033649 0 -0.1466806603565855 0.46517698076345398 0 -0.14958281450343089 0.45318388875033649 0 -0.16103529020506741 0.46140617838963338 0 -0.1608178924592544 0.46362950673702902 0 -0.17764725919840271 0.45742512330480051 0 -0.16103529020506741 0.46140617838963338 0 -0.17445640291013659 0.44271919880148808 0 -0.17764725919840271 0.45742512330480051 0 -0.1476141775 0.48009315797777991 0 -0.1608178924592544 0.46362950673702902 0 -0.16103529020506741 0.46140617838963338 0 -0.1608178924592544 0.46362950673702902 0 -0.17764725919840271 0.45742512330480051 0 -0.17111641065627731 0.47011248125409438 0 -0.1608178924592544 0.46362950673702902 0 -0.16103529020506741 0.46140617838963338 0 -0.17764725919840271 0.45742512330480051 0 -0.14958281450343089 0.45318388875033649 0 -0.16103529020506741 0.46140617838963338 0 -0.16018258411726119 0.44662297145228091 0 -0.16103529020506741 0.46140617838963338 0 -0.16018258411726119 0.44662297145228091 0 -0.17445640291013659 0.44271919880148808 0 -0.16103529020506741 0.46140617838963338 0 -0.17445640291013659 0.44271919880148808 0 -0.15151845244243969 0.44040806649347769 0 -0.16018258411726119 0.44662297145228091 0 -0.16265100630596599 0.43481237082046897 0 -0.16018258411726119 0.44662297145228091 0 -0.17445640291013659 0.44271919880148808 0 -0.16265100630596599 0.43481237082046897 0 -0.17445640291013659 0.44271919880148808 0 -0.17764725919840271 0.45742512330480051 0 -0.17445640291013659 0.44271919880148808 0 -0.17764725919840271 0.45742512330480051 0 -0.18787703587813631 0.44180582590403988 0 -0.17445640291013659 0.44271919880148808 0 -0.18787703587813631 0.44180582590403988 0 -0.18445577994087689 0.42879649666985897 0 -0.17764725919840271 0.45742512330480051 0 -0.1822661566024513 0.4787125616524005 0 -0.17764725919840271 0.45742512330480051 0 -0.1822661566024513 0.4787125616524005 0 -0.19263254262128571 0.46657822692108958 0 -0.17764725919840271 0.45742512330480051 0 -0.1822661566024513 0.4787125616524005 0 -0.17111641065627731 0.47011248125409438 0 -0.1822661566024513 0.4787125616524005 0 -0.16373433436500071 0.4806827333221475 0 -0.17111641065627731 0.47011248125409438 0 -0.1476141775 0.48009315797777991 0 -0.1608178924592544 0.46362950673702902 0 -0.16373433436500071 0.4806827333221475 0 -0.1608178924592544 0.46362950673702902 0 -0.16373433436500071 0.4806827333221475 0 -0.17111641065627731 0.47011248125409438 0 -0.15465381980926779 0.49070894060106901 0 -0.16373433436500071 0.4806827333221475 0 -0.1650196252367776 0.5 0 -0.1822661566024513 0.4787125616524005 0 -0.16373433436500071 0.4806827333221475 0 -0.1650196252367776 0.5 0 -0.1822661566024513 0.4787125616524005 0 -0.1650196252367776 0.5 0 -0.18688505400649999 0.50000000000000033 0 -0.1822661566024513 0.4787125616524005 0 -0.18688505400649999 0.50000000000000033 0 -0.18688505400649999 0.50000000000000033 0 -0.1962765720233646 0.48415579008328369 0 -0.21223984879136409 0.5 0 -0.1822661566024513 0.4787125616524005 0 -0.18688505400649999 0.50000000000000033 0 -0.1962765720233646 0.48415579008328369 0 -0.1962765720233646 0.48415579008328369 0 -0.2081436908473448 0.46298149647710207 0 -0.19263254262128571 0.46657822692108958 0 -0.1822661566024513 0.4787125616524005 0 -0.1962765720233646 0.48415579008328369 0 -0.19263254262128571 0.46657822692108958 0 -0.1962765720233646 0.48415579008328369 0 -0.2081436908473448 0.46298149647710207 0 -0.2124113595093538 0.47874922217060129 0 -0.225452609709269 0.46759649804956632 0 -0.2081436908473448 0.46298149647710207 0 -0.1962765720233646 0.48415579008328369 0 -0.2124113595093538 0.47874922217060129 0 -0.2081436908473448 0.46298149647710207 0 -0.2124113595093538 0.47874922217060129 0 -0.21223984879136409 0.5 0 -0.22839489742620139 0.48267519816347371 0 -0.1962765720233646 0.48415579008328369 0 -0.2124113595093538 0.47874922217060129 0 -0.21223984879136409 0.5 0 -0.21223984879136409 0.5 0 -0.22839489742620139 0.48267519816347371 0 -0.23759464357622839 0.5 0 -0.2124113595093538 0.47874922217060129 0 -0.22839489742620139 0.48267519816347371 0 -0.225452609709269 0.46759649804956632 0 -0.22839489742620139 0.48267519816347371 0 -0.2397622704317566 0.46824087401610759 0 -0.225452609709269 0.46759649804956632 0 -0.25043335358253288 0.48364354866496112 0 -0.22839489742620139 0.48267519816347371 0 -0.2397622704317566 0.46824087401610759 0 -0.25043335358253288 0.48364354866496112 0 -0.22839489742620139 0.48267519816347371 0 -0.23759464357622839 0.5 0 -0.24570445994529549 0.44602800398266518 0 -0.23415138788022261 0.45332539425220142 0 -0.23684002223621439 0.43560287627720962 0 -0.25106635483278189 0.45723171351940212 0 -0.24570445994529549 0.44602800398266518 0 -0.23415138788022261 0.45332539425220142 0 -0.24570445994529549 0.44602800398266518 0 -0.24969468466221459 0.43595247846769769 0 -0.23684002223621439 0.43560287627720962 0 -0.25106635483278189 0.45723171351940212 0 -0.2397622704317566 0.46824087401610759 0 -0.23415138788022261 0.45332539425220142 0 -0.23415138788022261 0.45332539425220142 0 -0.225452609709269 0.46759649804956632 0 -0.22193962452704069 0.45642764791244811 0 -0.2397622704317566 0.46824087401610759 0 -0.23415138788022261 0.45332539425220142 0 -0.225452609709269 0.46759649804956632 0 -0.23415138788022261 0.45332539425220142 0 -0.22001080967132619 0.44180720287092112 0 -0.23684002223621439 0.43560287627720962 0 -0.23415138788022261 0.45332539425220142 0 -0.22193962452704069 0.45642764791244811 0 -0.22001080967132619 0.44180720287092112 0 -0.22001080967132619 0.44180720287092112 0 -0.2213887052090901 0.43951565172321999 0 -0.23684002223621439 0.43560287627720962 0 -0.22001080967132619 0.44180720287092112 0 -0.23684002223621439 0.43560287627720962 0 -0.22001080967132619 0.44180720287092112 0 -0.2213887052090901 0.43951565172321999 0 -0.22001080967132619 0.44180720287092112 0 -0.2081436908473448 0.46298149647710207 0 -0.22001080967132619 0.44180720287092112 0 -0.2081436908473448 0.46298149647710207 0 -0.19882903443486469 0.4496161630878614 0 -0.22001080967132619 0.44180720287092112 0 -0.2213887052090901 0.43951565172321999 0 -0.20809688997983861 0.43308340100946641 0 -0.22001080967132619 0.44180720287092112 0 -0.19882903443486469 0.4496161630878614 0 -0.22001080967132619 0.44180720287092112 0 -0.19882903443486469 0.4496161630878614 0 -0.20809688997983861 0.43308340100946641 0 -0.22193962452704069 0.45642764791244811 0 -0.22001080967132619 0.44180720287092112 0 -0.2081436908473448 0.46298149647710207 0 -0.225452609709269 0.46759649804956632 0 -0.22193962452704069 0.45642764791244811 0 -0.2081436908473448 0.46298149647710207 0 -0.17764725919840271 0.45742512330480051 0 -0.19882903443486469 0.4496161630878614 0 -0.17764725919840271 0.45742512330480051 0 -0.19263254262128571 0.46657822692108958 0 -0.19882903443486469 0.4496161630878614 0 -0.2081436908473448 0.46298149647710207 0 -0.19263254262128571 0.46657822692108958 0 -0.19882903443486469 0.4496161630878614 0 -0.17764725919840271 0.45742512330480051 0 -0.19882903443486469 0.4496161630878614 0 -0.18787703587813631 0.44180582590403988 0 -0.19882903443486469 0.4496161630878614 0 -0.18787703587813631 0.44180582590403988 0 -0.20809688997983861 0.43308340100946641 0 -0.18787703587813631 0.44180582590403988 0 -0.1958407296365893 0.42598768792564201 0 -0.18445577994087689 0.42879649666985897 0 -0.18787703587813631 0.44180582590403988 0 -0.1958407296365893 0.42598768792564201 0 -0.20809688997983861 0.43308340100946641 0 -0.1958407296365893 0.42598768792564201 0 -0.1899138480288958 0.4112247501659585 0 -0.18445577994087689 0.42879649666985897 0 -0.1958407296365893 0.42598768792564201 0 -0.1899138480288958 0.4112247501659585 0 -0.20624285925723099 0.41475229342403852 0 -0.1899138480288958 0.4112247501659585 0 -0.20624285925723099 0.41475229342403852 0 -0.20231555098877649 0.3928362547231295 0 -0.20624285925723099 0.41475229342403852 0 -0.21823193365029989 0.42159785419673912 0 -0.22259744178285731 0.40171051053419782 0 -0.2213887052090901 0.43951565172321999 0 -0.21823193365029989 0.42159785419673912 0 -0.20809688997983861 0.43308340100946641 0 -0.1958407296365893 0.42598768792564201 0 -0.20624285925723099 0.41475229342403852 0 -0.20809688997983861 0.43308340100946641 0 -0.20624285925723099 0.41475229342403852 0 -0.21823193365029989 0.42159785419673912 0 -0.20809688997983861 0.43308340100946641 0 -0.2213887052090901 0.43951565172321999 0 -0.23283377202248251 0.41892741429277291 0 -0.24600424697209761 0.4257633284859953 0 -0.2213887052090901 0.43951565172321999 0 -0.24600424697209761 0.4257633284859953 0 -0.2213887052090901 0.43951565172321999 0 -0.21823193365029989 0.42159785419673912 0 -0.23283377202248251 0.41892741429277291 0 -0.2213887052090901 0.43951565172321999 0 -0.23283377202248251 0.41892741429277291 0 -0.21823193365029989 0.42159785419673912 0 -0.23283377202248251 0.41892741429277291 0 -0.22259744178285731 0.40171051053419782 0 -0.23283377202248251 0.41892741429277291 0 -0.2443500639851908 0.39837909495007429 0 -0.22259744178285731 0.40171051053419782 0 -0.23283377202248251 0.41892741429277291 0 -0.24600424697209761 0.4257633284859953 0 -0.2443500639851908 0.39837909495007429 0 -0.23283377202248251 0.41892741429277291 0 -0.2443500639851908 0.39837909495007429 0 -0.2213887052090901 0.43951565172321999 0 -0.24600424697209761 0.4257633284859953 0 -0.23684002223621439 0.43560287627720962 0 -0.24600424697209761 0.4257633284859953 0 -0.24969468466221459 0.43595247846769769 0 -0.23684002223621439 0.43560287627720962 0 -0.25910406929571139 0.38965268220176502 0 -0.24158943087403609 0.38255653378656829 0 -0.2443500639851908 0.39837909495007429 0 -0.24158943087403609 0.38255653378656829 0 -0.2443500639851908 0.39837909495007429 0 -0.22259744178285731 0.40171051053419782 0 -0.24158943087403609 0.38255653378656829 0 -0.22259744178285731 0.40171051053419782 0 -0.22448495719612829 0.37464428345451478 0 -0.22259744178285731 0.40171051053419782 0 -0.20231555098877649 0.3928362547231295 0 -0.22448495719612829 0.37464428345451478 0 -0.20231555098877649 0.3928362547231295 0 -0.20529364700646191 0.37393031713003633 0 -0.22448495719612829 0.37464428345451478 0 -0.20624285925723099 0.41475229342403852 0 -0.22259744178285731 0.40171051053419782 0 -0.20231555098877649 0.3928362547231295 0 -0.1899138480288958 0.4112247501659585 0 -0.20231555098877649 0.3928362547231295 0 -0.18190613841910361 0.3954284846156545 0 -0.20231555098877649 0.3928362547231295 0 -0.18190613841910361 0.3954284846156545 0 -0.18703468020508829 0.37357904558642602 0 -0.20231555098877649 0.3928362547231295 0 -0.18703468020508829 0.37357904558642602 0 -0.20529364700646191 0.37393031713003633 0 -0.16202560761179219 0.38542851546800971 0 -0.18190613841910361 0.3954284846156545 0 -0.18703468020508829 0.37357904558642602 0 -0.16202560761179219 0.38542851546800971 0 -0.18190613841910361 0.3954284846156545 0 -0.16824100526096511 0.41407385713474881 0 -0.16202560761179219 0.38542851546800971 0 -0.16824100526096511 0.41407385713474881 0 -0.14954505589470701 0.39753935677675561 0 -0.16202560761179219 0.38542851546800971 0 -0.16824100526096511 0.41407385713474881 0 -0.1899138480288958 0.4112247501659585 0 -0.18190613841910361 0.3954284846156545 0 -0.16824100526096511 0.41407385713474881 0 -0.1899138480288958 0.4112247501659585 0 -0.18445577994087689 0.42879649666985897 0 -0.16824100526096511 0.41407385713474881 0 -0.17445640291013659 0.44271919880148808 0 -0.18445577994087689 0.42879649666985897 0 -0.16824100526096511 0.41407385713474881 0 -0.17445640291013659 0.44271919880148808 0 -0.18445577994087689 0.42879649666985897 0 -0.17445640291013659 0.44271919880148808 0 -0.16824100526096511 0.41407385713474881 0 -0.16265100630596599 0.43481237082046897 0 -0.16824100526096511 0.41407385713474881 0 -0.15348659607316281 0.4258214709533753 0 -0.17445640291013659 0.44271919880148808 0 -0.16265100630596599 0.43481237082046897 0 -0.16824100526096511 0.41407385713474881 0 -0.16824100526096511 0.41407385713474881 0 -0.15202698666739589 0.41256058324125677 0 -0.15348659607316281 0.4258214709533753 0 -0.16824100526096511 0.41407385713474881 0 -0.15202698666739589 0.41256058324125677 0 -0.14954505589470701 0.39753935677675561 0 -0.15202698666739589 0.41256058324125677 0 -0.1445780700735709 0.42070559515356087 0 -0.15348659607316281 0.4258214709533753 0 -0.15202698666739589 0.41256058324125677 0 -0.1445780700735709 0.42070559515356087 0 -0.1381477570512058 0.40690934613842589 0 -0.15151845244243969 0.44040806649347769 0 -0.15348659607316281 0.4258214709533753 0 -0.14190405568863909 0.43236835287673919 0 -0.15151845244243969 0.44040806649347769 0 -0.16265100630596599 0.43481237082046897 0 -0.15348659607316281 0.4258214709533753 0 -0.1445780700735709 0.42070559515356087 0 -0.15348659607316281 0.4258214709533753 0 -0.14190405568863909 0.43236835287673919 0 -0.13893510771283679 0.44409608154283298 0 -0.14190405568863909 0.43236835287673919 0 -0.12988187258907391 0.43244883811048968 0 -0.1445780700735709 0.42070559515356087 0 -0.14190405568863909 0.43236835287673919 0 -0.13255125122444519 0.41899893237203961 0 -0.14190405568863909 0.43236835287673919 0 -0.12988187258907391 0.43244883811048968 0 -0.13255125122444519 0.41899893237203961 0 -0.12988187258907391 0.43244883811048968 0 -0.13255125122444519 0.41899893237203961 0 -0.1188950727170586 0.41406135335441258 0 -0.1381477570512058 0.40690934613842589 0 -0.13255125122444519 0.41899893237203961 0 -0.1188950727170586 0.41406135335441258 0 -0.1445780700735709 0.42070559515356087 0 -0.1381477570512058 0.40690934613842589 0 -0.13255125122444519 0.41899893237203961 0 -0.1381477570512058 0.40690934613842589 0 -0.125503091717383 0.39623629605416738 0 -0.1188950727170586 0.41406135335441258 0 -0.1381477570512058 0.40690934613842589 0 -0.13653600200377039 0.39075761490782401 0 -0.125503091717383 0.39623629605416738 0 -0.13653600200377039 0.39075761490782401 0 -0.125503091717383 0.39623629605416738 0 -0.1240031805753686 0.38028462390653178 0 -0.13653600200377039 0.39075761490782401 0 -0.1402929767731125 0.3755062237702681 0 -0.1240031805753686 0.38028462390653178 0 -0.16202560761179219 0.38542851546800971 0 -0.1402929767731125 0.3755062237702681 0 -0.14954505589470701 0.39753935677675561 0 -0.13653600200377039 0.39075761490782401 0 -0.1402929767731125 0.3755062237702681 0 -0.14954505589470701 0.39753935677675561 0 -0.1381477570512058 0.40690934613842589 0 -0.13653600200377039 0.39075761490782401 0 -0.14954505589470701 0.39753935677675561 0 -0.15202698666739589 0.41256058324125677 0 -0.1381477570512058 0.40690934613842589 0 -0.14954505589470701 0.39753935677675561 0 -0.15581020996261921 0.35678317380127061 0 -0.14001712898047861 0.3469588576380262 0 -0.14959481231344629 0.32813783213453152 0 -0.15581020996261921 0.35678317380127061 0 -0.14053616188192339 0.35909061427084488 0 -0.14001712898047861 0.3469588576380262 0 -0.16202560761179219 0.38542851546800971 0 -0.1402929767731125 0.3755062237702681 0 -0.15581020996261921 0.35678317380127061 0 -0.1402929767731125 0.3755062237702681 0 -0.15581020996261921 0.35678317380127061 0 -0.14053616188192339 0.35909061427084488 0 -0.1402929767731125 0.3755062237702681 0 -0.12602433181148351 0.3571142018738146 0 -0.1402929767731125 0.3755062237702681 0 -0.12602433181148351 0.3571142018738146 0 -0.1240031805753686 0.38028462390653178 0 -0.12602433181148351 0.3571142018738146 0 -0.1240031805753686 0.38028462390653178 0 -0.1402929767731125 0.3755062237702681 0 -0.12602433181148351 0.3571142018738146 0 -0.14053616188192339 0.35909061427084488 0 -0.12602433181148351 0.3571142018738146 0 -0.14001712898047861 0.3469588576380262 0 -0.1282057991618295 0.33210592032862368 0 -0.12602433181148351 0.3571142018738146 0 -0.1282057991618295 0.33210592032862368 0 -0.12602433181148351 0.3571142018738146 0 -0.14053616188192339 0.35909061427084488 0 -0.14001712898047861 0.3469588576380262 0 -0.14001712898047861 0.3469588576380262 0 -0.1282057991618295 0.33210592032862368 0 -0.14959481231344629 0.32813783213453152 0 -0.1282057991618295 0.33210592032862368 0 -0.13038726651217669 0.30709763878343299 0 -0.1282057991618295 0.33210592032862368 0 -0.1373723505126325 0.31897858042009958 0 -0.14959481231344629 0.32813783213453152 0 -0.1282057991618295 0.33210592032862368 0 -0.1373723505126325 0.31897858042009958 0 -0.13038726651217669 0.30709763878343299 0 -0.1282057991618295 0.33210592032862368 0 -0.13038726651217669 0.30709763878343299 0 -0.1194781435219297 0.31874532343827672 0 -0.1373723505126325 0.31897858042009958 0 -0.14959481231344629 0.32813783213453152 0 -0.1433794146642734 0.29949249046779253 0 -0.14959481231344629 0.32813783213453152 0 -0.1433794146642734 0.29949249046779253 0 -0.15581020996261921 0.35678317380127061 0 -0.14959481231344629 0.32813783213453152 0 -0.15581020996261921 0.35678317380127061 0 -0.14959481231344629 0.32813783213453152 0 -0.16866666239729389 0.33730690117968348 0 -0.16866666239729389 0.33730690117968348 0 -0.1645151192891576 0.31701242508614291 0 -0.1821382216478932 0.3231919525594536 0 -0.14959481231344629 0.32813783213453152 0 -0.16866666239729389 0.33730690117968348 0 -0.1645151192891576 0.31701242508614291 0 -0.14959481231344629 0.32813783213453152 0 -0.1645151192891576 0.31701242508614291 0 -0.15903410605367979 0.30708421606270841 0 -0.1645151192891576 0.31701242508614291 0 -0.1821382216478932 0.3231919525594536 0 -0.1782046441680275 0.30256853612082563 0 -0.16866666239729389 0.33730690117968348 0 -0.1821382216478932 0.3231919525594536 0 -0.18433598580985869 0.34083831621740163 0 -0.16866666239729389 0.33730690117968348 0 -0.18433598580985869 0.34083831621740163 0 -0.1756056253607885 0.35787770727930102 0 -0.15581020996261921 0.35678317380127061 0 -0.16866666239729389 0.33730690117968348 0 -0.1756056253607885 0.35787770727930102 0 -0.16202560761179219 0.38542851546800971 0 -0.15581020996261921 0.35678317380127061 0 -0.16202560761179219 0.38542851546800971 0 -0.15581020996261921 0.35678317380127061 0 -0.1756056253607885 0.35787770727930102 0 -0.16202560761179219 0.38542851546800971 0 -0.1756056253607885 0.35787770727930102 0 -0.18703468020508829 0.37357904558642602 0 -0.1756056253607885 0.35787770727930102 0 -0.18703468020508829 0.37357904558642602 0 -0.20414367962929009 0.35489395763856257 0 -0.18703468020508829 0.37357904558642602 0 -0.20414367962929009 0.35489395763856257 0 -0.20529364700646191 0.37393031713003633 0 -0.18433598580985869 0.34083831621740163 0 -0.1756056253607885 0.35787770727930102 0 -0.20414367962929009 0.35489395763856257 0 -0.20414367962929009 0.35489395763856257 0 -0.22502196289651569 0.35163199453295341 0 -0.20504621820466271 0.33484959796162039 0 -0.20414367962929009 0.35489395763856257 0 -0.22448495719612829 0.37464428345451478 0 -0.22502196289651569 0.35163199453295341 0 -0.20414367962929009 0.35489395763856257 0 -0.20529364700646191 0.37393031713003633 0 -0.22448495719612829 0.37464428345451478 0 -0.22448495719612829 0.37464428345451478 0 -0.22502196289651569 0.35163199453295341 0 -0.23988172758300019 0.36658598944966192 0 -0.22502196289651569 0.35163199453295341 0 -0.2453252054073333 0.35220022397956058 0 -0.23527076548358339 0.3279475118326749 0 -0.22502196289651569 0.35163199453295341 0 -0.2453252054073333 0.35220022397956058 0 -0.23988172758300019 0.36658598944966192 0 -0.24158943087403609 0.38255653378656829 0 -0.22448495719612829 0.37464428345451478 0 -0.23988172758300019 0.36658598944966192 0 -0.25605856337378208 0.36220775902141888 0 -0.2453252054073333 0.35220022397956058 0 -0.23988172758300019 0.36658598944966192 0 -0.25784933886290851 0.37485398387924312 0 -0.24158943087403609 0.38255653378656829 0 -0.23988172758300019 0.36658598944966192 0 -0.23527076548358339 0.3279475118326749 0 -0.2090165564606043 0.31378488807397731 0 -0.24111765687857489 0.30214485005039943 0 -0.26019850725324972 0.31817634318758109 0 -0.23527076548358339 0.3279475118326749 0 -0.24111765687857489 0.30214485005039943 0 -0.26152497450656248 0.3421101355913726 0 -0.2453252054073333 0.35220022397956058 0 -0.23527076548358339 0.3279475118326749 0 -0.26152497450656248 0.3421101355913726 0 -0.23527076548358339 0.3279475118326749 0 -0.22502196289651569 0.35163199453295341 0 -0.23527076548358339 0.3279475118326749 0 -0.20504621820466271 0.33484959796162039 0 -0.23527076548358339 0.3279475118326749 0 -0.2090165564606043 0.31378488807397731 0 -0.23527076548358339 0.3279475118326749 0 -0.2090165564606043 0.31378488807397731 0 -0.20504621820466271 0.33484959796162039 0 -0.18433598580985869 0.34083831621740163 0 -0.20414367962929009 0.35489395763856257 0 -0.20504621820466271 0.33484959796162039 0 -0.1821382216478932 0.3231919525594536 0 -0.18433598580985869 0.34083831621740163 0 -0.20504621820466271 0.33484959796162039 0 -0.1821382216478932 0.3231919525594536 0 -0.2090165564606043 0.31378488807397731 0 -0.1782046441680275 0.30256853612082563 0 -0.1821382216478932 0.3231919525594536 0 -0.2090165564606043 0.31378488807397731 0 -0.20504621820466271 0.33484959796162039 0 -0.2090165564606043 0.31378488807397731 0 -0.19963098838620011 0.28731481562284938 0 -0.1782046441680275 0.30256853612082563 0 -0.2090165564606043 0.31378488807397731 0 -0.19963098838620011 0.28731481562284938 0 -0.22259947593225671 0.28945705769974928 0 -0.19963098838620011 0.28731481562284938 0 -0.22259947593225671 0.28945705769974928 0 -0.21508679825684049 0.27175539357994039 0 -0.2090165564606043 0.31378488807397731 0 -0.22259947593225671 0.28945705769974928 0 -0.24111765687857489 0.30214485005039943 0 -0.22259947593225671 0.28945705769974928 0 -0.2378508838372663 0.28352881492670662 0 -0.24111765687857489 0.30214485005039943 0 -0.22259947593225671 0.28945705769974928 0 -0.2378508838372663 0.28352881492670662 0 -0.2292584163106573 0.27407579205227672 0 -0.25440051171921318 0.28351699692352261 0 -0.2378508838372663 0.28352881492670662 0 -0.24111765687857489 0.30214485005039943 0 -0.24241104495175289 0.27007332305091569 0 -0.22940925178741731 0.25881226129073298 0 -0.23966954056684589 0.24974278742119771 0 -0.25326758024003238 0.25706308409811779 0 -0.24241104495175289 0.27007332305091569 0 -0.23966954056684589 0.24974278742119771 0 -0.25440051171921318 0.28351699692352261 0 -0.2378508838372663 0.28352881492670662 0 -0.24241104495175289 0.27007332305091569 0 -0.2378508838372663 0.28352881492670662 0 -0.24241104495175289 0.27007332305091569 0 -0.2292584163106573 0.27407579205227672 0 -0.24241104495175289 0.27007332305091569 0 -0.2292584163106573 0.27407579205227672 0 -0.22940925178741731 0.25881226129073298 0 -0.22259947593225671 0.28945705769974928 0 -0.2292584163106573 0.27407579205227672 0 -0.21508679825684049 0.27175539357994039 0 -0.2292584163106573 0.27407579205227672 0 -0.22940925178741731 0.25881226129073298 0 -0.21508679825684049 0.27175539357994039 0 -0.22940925178741731 0.25881226129073298 0 -0.21347215756102739 0.25251870249194708 0 -0.21508679825684049 0.27175539357994039 0 -0.22940925178741731 0.25881226129073298 0 -0.21347215756102739 0.25251870249194708 0 -0.23149411076855561 0.23875683139904441 0 -0.21347215756102739 0.25251870249194708 0 -0.21508679825684049 0.27175539357994039 0 -0.1954502043534998 0.26628057358485052 0 -0.21347215756102739 0.25251870249194708 0 -0.1954502043534998 0.26628057358485052 0 -0.19963098838620011 0.28731481562284938 0 -0.21508679825684049 0.27175539357994039 0 -0.1954502043534998 0.26628057358485052 0 -0.19963098838620011 0.28731481562284938 0 -0.1954502043534998 0.26628057358485052 0 -0.1774282511459721 0.28004244467775391 0 -0.21347215756102739 0.25251870249194708 0 -0.1954502043534998 0.26628057358485052 0 -0.19622113745117939 0.24904086306622361 0 -0.1954502043534998 0.26628057358485052 0 -0.18072545278017979 0.26261469631910489 0 -0.19622113745117939 0.24904086306622361 0 -0.18072545278017979 0.26261469631910489 0 -0.19622113745117939 0.24904086306622361 0 -0.179648865911753 0.2485538322107981 0 -0.18072545278017979 0.26261469631910489 0 -0.17383361683358009 0.25556926036502597 0 -0.16832031597112859 0.26135780712949458 0 -0.18072545278017979 0.26261469631910489 0 -0.17383361683358009 0.25556926036502597 0 -0.179648865911753 0.2485538322107981 0 -0.17383361683358009 0.25556926036502597 0 -0.16871246723279221 0.24889991057487421 0 -0.179648865911753 0.2485538322107981 0 -0.17383361683358009 0.25556926036502597 0 -0.16832031597112859 0.26135780712949458 0 -0.16871246723279221 0.24889991057487421 0 -0.159677140666034 0.2527399548196706 0 -0.1614163485961585 0.26908591693043721 0 -0.1493252707877136 0.27148794954465338 0 -0.16832031597112859 0.26135780712949458 0 -0.159677140666034 0.2527399548196706 0 -0.16871246723279221 0.24889991057487421 0 -0.16832031597112859 0.26135780712949458 0 -0.159677140666034 0.2527399548196706 0 -0.1614163485961585 0.26908591693043721 0 -0.16238489729655761 0.27902363899589722 0 -0.1614163485961585 0.26908591693043721 0 -0.1774282511459721 0.28004244467775391 0 -0.16832031597112859 0.26135780712949458 0 -0.1614163485961585 0.26908591693043721 0 -0.1774282511459721 0.28004244467775391 0 -0.16238489729655761 0.27902363899589722 0 -0.1614163485961585 0.26908591693043721 0 -0.1493252707877136 0.27148794954465338 0 -0.1954502043534998 0.26628057358485052 0 -0.18072545278017979 0.26261469631910489 0 -0.1774282511459721 0.28004244467775391 0 -0.1954502043534998 0.26628057358485052 0 -0.1774282511459721 0.28004244467775391 0 -0.18072545278017979 0.26261469631910489 0 -0.16832031597112859 0.26135780712949458 0 -0.1774282511459721 0.28004244467775391 0 -0.19963098838620011 0.28731481562284938 0 -0.1774282511459721 0.28004244467775391 0 -0.1782046441680275 0.30256853612082563 0 -0.1645151192891576 0.31701242508614291 0 -0.1782046441680275 0.30256853612082563 0 -0.15903410605367979 0.30708421606270841 0 -0.1782046441680275 0.30256853612082563 0 -0.15903410605367979 0.30708421606270841 0 -0.15940629793844449 0.29380431577065741 0 -0.16238489729655761 0.27902363899589722 0 -0.15940629793844449 0.29380431577065741 0 -0.1493252707877136 0.27148794954465338 0 -0.16238489729655761 0.27902363899589722 0 -0.1774282511459721 0.28004244467775391 0 -0.15940629793844449 0.29380431577065741 0 -0.1774282511459721 0.28004244467775391 0 -0.15940629793844449 0.29380431577065741 0 -0.1774282511459721 0.28004244467775391 0 -0.1782046441680275 0.30256853612082563 0 -0.15940629793844449 0.29380431577065741 0 -0.14737190486352841 0.30020853915466389 0 -0.1493252707877136 0.27148794954465338 0 -0.1433794146642734 0.29949249046779253 0 -0.14737190486352841 0.30020853915466389 0 -0.1493252707877136 0.27148794954465338 0 -0.15940629793844449 0.29380431577065741 0 -0.14737190486352841 0.30020853915466389 0 -0.1493252707877136 0.27148794954465338 0 -0.14959481231344629 0.32813783213453152 0 -0.15903410605367979 0.30708421606270841 0 -0.14737190486352841 0.30020853915466389 0 -0.14959481231344629 0.32813783213453152 0 -0.1433794146642734 0.29949249046779253 0 -0.14737190486352841 0.30020853915466389 0 -0.15903410605367979 0.30708421606270841 0 -0.15940629793844449 0.29380431577065741 0 -0.14737190486352841 0.30020853915466389 0 -0.1373723505126325 0.31897858042009958 0 -0.1433794146642734 0.29949249046779253 0 -0.13038726651217669 0.30709763878343299 0 -0.1433794146642734 0.29949249046779253 0 -0.13256873386252399 0.28208935723824241 0 -0.1371640170151005 0.27084714880105348 0 -0.13038726651217669 0.30709763878343299 0 -0.13256873386252399 0.28208935723824241 0 -0.13038726651217669 0.30709763878343299 0 -0.12597638298448349 0.28360280761684947 0 -0.13256873386252399 0.28208935723824241 0 -0.1433794146642734 0.29949249046779253 0 -0.1371640170151005 0.27084714880105348 0 -0.1433794146642734 0.29949249046779253 0 -0.13038726651217669 0.30709763878343299 0 -0.13256873386252399 0.28208935723824241 0 -0.12597638298448349 0.28360280761684947 0 -0.138627509848188 0.26318508377574518 0 -0.12597638298448349 0.28360280761684947 0 -0.138627509848188 0.26318508377574518 0 -0.1243801497225144 0.26337727663682092 0 -0.12597638298448349 0.28360280761684947 0 -0.13256873386252399 0.28208935723824241 0 -0.1371640170151005 0.27084714880105348 0 -0.12597638298448349 0.28360280761684947 0 -0.1371640170151005 0.27084714880105348 0 -0.138627509848188 0.26318508377574518 0 -0.138627509848188 0.26318508377574518 0 -0.1308394710298327 0.2488483282277692 0 -0.14242645318165731 0.24442352261436001 0 -0.138627509848188 0.26318508377574518 0 -0.1243801497225144 0.26337727663682092 0 -0.1308394710298327 0.2488483282277692 0 -0.138627509848188 0.26318508377574518 0 -0.14242645318165731 0.24442352261436001 0 -0.1512786367118952 0.2427673599346426 0 -0.138627509848188 0.26318508377574518 0 -0.1512786367118952 0.2427673599346426 0 -0.159677140666034 0.2527399548196706 0 -0.1493252707877136 0.27148794954465338 0 -0.1512786367118952 0.2427673599346426 0 -0.1493252707877136 0.27148794954465338 0 -0.1512786367118952 0.2427673599346426 0 -0.138627509848188 0.26318508377574518 0 -0.1493252707877136 0.27148794954465338 0 -0.1512786367118952 0.2427673599346426 0 -0.1433794146642734 0.29949249046779253 0 -0.1371640170151005 0.27084714880105348 0 -0.1493252707877136 0.27148794954465338 0 -0.1371640170151005 0.27084714880105348 0 -0.138627509848188 0.26318508377574518 0 -0.1493252707877136 0.27148794954465338 0 -0.1008051990905996 0.27583585535236188 0 -0.1118099664611025 0.27025146131200528 0 -0.10866939212228501 0.28891484365425169 0 -0.1008051990905996 0.27583585535236188 0 -0.096835962579829779 0.26139226243562519 0 -0.086489395361525404 0.28111320999475559 0 -0.1008051990905996 0.27583585535236188 0 -0.096835962579829779 0.26139226243562519 0 -0.1118099664611025 0.27025146131200528 0 -0.096835962579829779 0.26139226243562519 0 -0.1146474182889652 0.25099870225173498 0 -0.094297662418357825 0.24434196597060751 0 -0.096835962579829779 0.26139226243562519 0 -0.1146474182889652 0.25099870225173498 0 -0.1118099664611025 0.27025146131200528 0 -0.1146474182889652 0.25099870225173498 0 -0.1243801497225144 0.26337727663682092 0 -0.1118099664611025 0.27025146131200528 0 -0.1146474182889652 0.25099870225173498 0 -0.1243801497225144 0.26337727663682092 0 -0.1308394710298327 0.2488483282277692 0 -0.12597638298448349 0.28360280761684947 0 -0.1243801497225144 0.26337727663682092 0 -0.1118099664611025 0.27025146131200528 0 -0.12597638298448349 0.28360280761684947 0 -0.1118099664611025 0.27025146131200528 0 -0.10866939212228501 0.28891484365425169 0 -0.12597638298448349 0.28360280761684947 0 -0.11332525612077909 0.30402053145795382 0 -0.10866939212228501 0.28891484365425169 0 -0.12597638298448349 0.28360280761684947 0 -0.11332525612077909 0.30402053145795382 0 -0.13038726651217669 0.30709763878343299 0 -0.12597638298448349 0.28360280761684947 0 -0.11332525612077909 0.30402053145795382 0 -0.13038726651217669 0.30709763878343299 0 -0.11332525612077909 0.30402053145795382 0 -0.1194781435219297 0.31874532343827672 0 -0.11332525612077909 0.30402053145795382 0 -0.098439426068808872 0.30091927545780128 0 -0.090812395096414839 0.31172666067268612 0 -0.11332525612077909 0.30402053145795382 0 -0.098439426068808872 0.30091927545780128 0 -0.10866939212228501 0.28891484365425169 0 -0.098439426068808872 0.30091927545780128 0 -0.10866939212228501 0.28891484365425169 0 -0.080950660935756535 0.29901506604631373 0 -0.1008051990905996 0.27583585535236188 0 -0.10866939212228501 0.28891484365425169 0 -0.086489395361525404 0.28111320999475559 0 -0.10866939212228501 0.28891484365425169 0 -0.080950660935756535 0.29901506604631373 0 -0.080950660935756535 0.29901506604631373 0 -0.067772676431379617 0.28202888549395638 0 -0.086489395361525404 0.28111320999475559 0 -0.10866939212228501 0.28891484365425169 0 -0.080950660935756535 0.29901506604631373 0 -0.086489395361525404 0.28111320999475559 0 -0.098439426068808872 0.30091927545780128 0 -0.090812395096414839 0.31172666067268612 0 -0.080950660935756535 0.29901506604631373 0 -0.090812395096414839 0.31172666067268612 0 -0.080950660935756535 0.29901506604631373 0 -0.080675235780919216 0.31553385638458398 0 -0.090812395096414839 0.31172666067268612 0 -0.080950660935756535 0.29901506604631373 0 -0.080950660935756535 0.29901506604631373 0 -0.069515508965223433 0.31441099931722399 0 -0.080675235780919216 0.31553385638458398 0 -0.080950660935756535 0.29901506604631373 0 -0.066025164424181854 0.29675712171638552 0 -0.055637177719114923 0.30823885801158402 0 -0.080950660935756535 0.29901506604631373 0 -0.055637177719114923 0.30823885801158402 0 -0.080950660935756535 0.29901506604631373 0 -0.055637177719114923 0.30823885801158402 0 -0.069515508965223433 0.31441099931722399 0 -0.080950660935756535 0.29901506604631373 0 -0.067772676431379617 0.28202888549395638 0 -0.066025164424181854 0.29675712171638552 0 -0.067772676431379617 0.28202888549395638 0 -0.054450521844447403 0.30095711294116062 0 -0.080950660935756535 0.29901506604631373 0 -0.066025164424181854 0.29675712171638552 0 -0.067772676431379617 0.28202888549395638 0 -0.067772676431379617 0.28202888549395638 0 -0.06096756812722301 0.27325722558691362 0 -0.067772676431379617 0.28202888549395638 0 -0.081035169424868991 0.2631854257322821 0 -0.067772676431379617 0.28202888549395638 0 -0.081035169424868991 0.2631854257322821 0 -0.06096756812722301 0.27325722558691362 0 -0.096835962579829779 0.26139226243562519 0 -0.086489395361525404 0.28111320999475559 0 -0.081035169424868991 0.2631854257322821 0 -0.067772676431379617 0.28202888549395638 0 -0.086489395361525404 0.28111320999475559 0 -0.081035169424868991 0.2631854257322821 0 -0.096835962579829779 0.26139226243562519 0 -0.081035169424868991 0.2631854257322821 0 -0.094297662418357825 0.24434196597060751 0 -0.081035169424868991 0.2631854257322821 0 -0.094297662418357825 0.24434196597060751 0 -0.077385408006408807 0.2456015583571669 0 -0.081035169424868991 0.2631854257322821 0 -0.094297662418357825 0.24434196597060751 0 -0.081035169424868991 0.2631854257322821 0 -0.065146725769984384 0.25557775971542163 0 -0.06096756812722301 0.27325722558691362 0 -0.081035169424868991 0.2631854257322821 0 -0.065146725769984384 0.25557775971542163 0 -0.077385408006408807 0.2456015583571669 0 -0.065146725769984384 0.25557775971542163 0 -0.06096756812722301 0.27325722558691362 0 -0.046551905474436057 0.25248837651674683 0 -0.05050121365944292 0.27672274472895347 0 -0.046551905474436057 0.25248837651674683 0 -0.06096756812722301 0.27325722558691362 0 -0.05050121365944292 0.27672274472895347 0 -0.046551905474436057 0.25248837651674683 0 -0.06096756812722301 0.27325722558691362 0 -0.05050121365944292 0.27672274472895347 0 -0.058422995015623133 0.28324149218774591 0 -0.067772676431379617 0.28202888549395638 0 -0.06096756812722301 0.27325722558691362 0 -0.058422995015623133 0.28324149218774591 0 -0.05050121365944292 0.27672274472895347 0 -0.039295159292734777 0.27018461831938612 0 -0.046551905474436057 0.25248837651674683 0 -0.05050121365944292 0.27672274472895347 0 -0.039295159292734777 0.27018461831938612 0 -0.034893780377096652 0.28481314107691408 0 -0.039295159292734777 0.27018461831938612 0 -0.03529085930102363 0.26094816979033097 0 -0.028138574855209791 0.2727649550817432 0 -0.039295159292734777 0.27018461831938612 0 -0.028138574855209791 0.2727649550817432 0 -0.034893780377096652 0.28481314107691408 0 -0.039295159292734777 0.27018461831938612 0 -0.046551905474436057 0.25248837651674683 0 -0.03529085930102363 0.26094816979033097 0 -0.046551905474436057 0.25248837651674683 0 -0.03529085930102363 0.26094816979033097 0 -0.046551905474436057 0.25248837651674683 0 -0.03529085930102363 0.26094816979033097 0 -0.032464527279818488 0.24642702389396021 0 -0.03529085930102363 0.26094816979033097 0 -0.020122777570162561 0.25765885386021331 0 -0.032464527279818488 0.24642702389396021 0 -0.03529085930102363 0.26094816979033097 0 -0.020122777570162561 0.25765885386021331 0 -0.028138574855209791 0.2727649550817432 0 -0.028138574855209791 0.2727649550817432 0 -0.02175205352643398 0.28223693645058562 0 -0.034893780377096652 0.28481314107691408 0 -0.028138574855209791 0.2727649550817432 0 -0.01432775362952622 0.27253516280732609 0 -0.02175205352643398 0.28223693645058562 0 -0.020122777570162561 0.25765885386021331 0 -0.028138574855209791 0.2727649550817432 0 -0.01432775362952622 0.27253516280732609 0 -0.01432775362952622 0.27253516280732609 0 -0.009640990682695038 0.28679660611612467 0 -0.02175205352643398 0.28223693645058562 0 -0.01432775362952622 0.27253516280732609 0 -0.001922751658390245 0.27573026243385101 0 -0.009640990682695038 0.28679660611612467 0 -0.001922751658390245 0.27573026243385101 0 -0.0067724870967775571 0.26171292494688392 0 0.0062042270835937427 0.26632014723944758 0 -0.01432775362952622 0.27253516280732609 0 -0.001922751658390245 0.27573026243385101 0 -0.0067724870967775571 0.26171292494688392 0 -0.0067724870967775571 0.26171292494688392 0 -0.009851134998242736 0.2492170496898001 0 0.0073431443550527123 0.2488386479659444 0 -0.020122777570162561 0.25765885386021331 0 -0.0067724870967775571 0.26171292494688392 0 -0.009851134998242736 0.2492170496898001 0 -0.020122777570162561 0.25765885386021331 0 -0.01432775362952622 0.27253516280732609 0 -0.0067724870967775571 0.26171292494688392 0 -0.01208976840895265 0.30064448631867952 0 -0.027616994977189561 0.3123755022038528 0 -0.0036328059871815698 0.32105137359826458 0 -0.01208976840895265 0.30064448631867952 0 0.0002506162298585416 0.2938102725008484 0 0.0047102477580184057 0.30542836264005091 0 -0.01208976840895265 0.30064448631867952 0 -0.0036328059871815698 0.32105137359826458 0 0.0047102477580184057 0.30542836264005091 0 -0.01208976840895265 0.30064448631867952 0 -0.009640990682695038 0.28679660611612467 0 0.0002506162298585416 0.2938102725008484 0 -0.001922751658390245 0.27573026243385101 0 -0.009640990682695038 0.28679660611612467 0 0.0052202909797062977 0.28637655574755139 0 -0.009640990682695038 0.28679660611612467 0 0.0052202909797062977 0.28637655574755139 0 0.0002506162298585416 0.2938102725008484 0 -0.01208976840895265 0.30064448631867952 0 -0.009640990682695038 0.28679660611612467 0 -0.02221723939395126 0.29386705332017943 0 -0.009640990682695038 0.28679660611612467 0 -0.02221723939395126 0.29386705332017943 0 -0.02175205352643398 0.28223693645058562 0 -0.02221723939395126 0.29386705332017943 0 -0.02175205352643398 0.28223693645058562 0 -0.034893780377096652 0.28481314107691408 0 -0.02221723939395126 0.29386705332017943 0 -0.032969953003516052 0.29717106936451021 0 -0.034893780377096652 0.28481314107691408 0 -0.01208976840895265 0.30064448631867952 0 -0.027902934632120031 0.30267177193421069 0 -0.027616994977189561 0.3123755022038528 0 -0.02221723939395126 0.29386705332017943 0 -0.027902934632120031 0.30267177193421069 0 -0.032969953003516052 0.29717106936451021 0 -0.01208976840895265 0.30064448631867952 0 -0.02221723939395126 0.29386705332017943 0 -0.027902934632120031 0.30267177193421069 0 -0.01208976840895265 0.30064448631867952 0 -0.027616994977189561 0.3123755022038528 0 -0.027902934632120031 0.30267177193421069 0 -0.027616994977189561 0.3123755022038528 0 -0.036401303919968292 0.30919792823176551 0 -0.027616994977189561 0.3123755022038528 0 -0.036401303919968292 0.30919792823176551 0 -0.041467269558106229 0.3063479487194874 0 -0.03070859914221714 0.31471124821819429 0 -0.027902934632120031 0.30267177193421069 0 -0.036401303919968292 0.30919792823176551 0 -0.034685365278427541 0.30384717956249341 0 -0.027616994977189561 0.3123755022038528 0 -0.036401303919968292 0.30919792823176551 0 -0.03070859914221714 0.31471124821819429 0 -0.041467269558106229 0.3063479487194874 0 -0.034893780377096652 0.28481314107691408 0 -0.047052172593079887 0.30200649992078499 0 -0.036401303919968292 0.30919792823176551 0 -0.041467269558106229 0.3063479487194874 0 -0.03070859914221714 0.31471124821819429 0 -0.036401303919968292 0.30919792823176551 0 -0.034685365278427541 0.30384717956249341 0 -0.041467269558106229 0.3063479487194874 0 -0.034685365278427541 0.30384717956249341 0 -0.032969953003516052 0.29717106936451021 0 -0.041467269558106229 0.3063479487194874 0 -0.027902934632120031 0.30267177193421069 0 -0.034685365278427541 0.30384717956249341 0 -0.032969953003516052 0.29717106936451021 0 -0.041467269558106229 0.3063479487194874 0 -0.047052172593079887 0.30200649992078499 0 -0.041467269558106229 0.3063479487194874 0 -0.043405021931739229 0.31269604232335729 0 -0.033040200538904871 0.31647280253713339 0 -0.041467269558106229 0.3063479487194874 0 -0.047148407050272158 0.31133201804887323 0 -0.047052172593079887 0.30200649992078499 0 -0.041467269558106229 0.3063479487194874 0 -0.047148407050272158 0.31133201804887323 0 -0.043405021931739229 0.31269604232335729 0 -0.047148407050272158 0.31133201804887323 0 -0.043405021931739229 0.31269604232335729 0 -0.046135139485305732 0.31277167698762798 0 -0.047148407050272158 0.31133201804887323 0 -0.043405021931739229 0.31269604232335729 0 -0.047148407050272158 0.31133201804887323 0 -0.046135139485305732 0.31277167698762798 0 -0.041467269558106229 0.3063479487194874 0 -0.043405021931739229 0.31269604232335729 0 -0.041467269558106229 0.3063479487194874 0 -0.034893780377096652 0.28481314107691408 0 -0.034893780377096652 0.28481314107691408 0 -0.04691879449804983 0.28985469676246989 0 -0.047052172593079887 0.30200649992078499 0 -0.032969953003516052 0.29717106936451021 0 -0.041467269558106229 0.3063479487194874 0 -0.034893780377096652 0.28481314107691408 0 -0.05050121365944292 0.27672274472895347 0 -0.034893780377096652 0.28481314107691408 0 -0.04691879449804983 0.28985469676246989 0 -0.067772676431379617 0.28202888549395638 0 -0.058422995015623133 0.28324149218774591 0 -0.054450521844447403 0.30095711294116062 0 -0.067772676431379617 0.28202888549395638 0 -0.054450521844447403 0.30095711294116062 0 -0.05050121365944292 0.27672274472895347 0 -0.058422995015623133 0.28324149218774591 0 -0.054450521844447403 0.30095711294116062 0 -0.05050121365944292 0.27672274472895347 0 -0.054450521844447403 0.30095711294116062 0 -0.05050121365944292 0.27672274472895347 0 -0.04691879449804983 0.28985469676246989 0 -0.054450521844447403 0.30095711294116062 0 -0.047148407050272158 0.31133201804887323 0 -0.055637177719114923 0.30823885801158402 0 -0.0508688664517905 0.31585268727176968 0 -0.047148407050272158 0.31133201804887323 0 -0.054450521844447403 0.30095711294116062 0 -0.055637177719114923 0.30823885801158402 0 -0.047148407050272158 0.31133201804887323 0 -0.054450521844447403 0.30095711294116062 0 -0.047148407050272158 0.31133201804887323 0 -0.055637177719114923 0.30823885801158402 0 -0.047148407050272158 0.31133201804887323 0 -0.047052172593079887 0.30200649992078499 0 -0.054450521844447403 0.30095711294116062 0 -0.04691879449804983 0.28985469676246989 0 -0.047052172593079887 0.30200649992078499 0 -0.054450521844447403 0.30095711294116062 0 -0.066025164424181854 0.29675712171638552 0 -0.054450521844447403 0.30095711294116062 0 -0.055637177719114923 0.30823885801158402 0 -0.054450521844447403 0.30095711294116062 0 -0.055637177719114923 0.30823885801158402 0 -0.055637177719114923 0.30823885801158402 0 -0.057413336338204793 0.31913800286480398 0 -0.069515508965223433 0.31441099931722399 0 -0.055637177719114923 0.30823885801158402 0 -0.057413336338204793 0.31913800286480398 0 -0.057413336338204793 0.31913800286480398 0 -0.058158242946837288 0.32789758442849859 0 -0.065685367856751442 0.32667678450978332 0 -0.057413336338204793 0.31913800286480398 0 -0.048010271666055017 0.32778288044595838 0 -0.0508688664517905 0.31585268727176968 0 -0.057413336338204793 0.31913800286480398 0 -0.058158242946837288 0.32789758442849859 0 -0.048010271666055017 0.32778288044595838 0 -0.055637177719114923 0.30823885801158402 0 -0.057413336338204793 0.31913800286480398 0 -0.0508688664517905 0.31585268727176968 0 -0.048010271666055017 0.32778288044595838 0 -0.0508688664517905 0.31585268727176968 0 -0.046135139485305732 0.31277167698762798 0 -0.047148407050272158 0.31133201804887323 0 -0.0508688664517905 0.31585268727176968 0 -0.046135139485305732 0.31277167698762798 0 -0.048010271666055017 0.32778288044595838 0 -0.0615239959263384 0.33799266989344851 0 -0.05321597628450736 0.34483681398346339 0 -0.048010271666055017 0.32778288044595838 0 -0.05321597628450736 0.34483681398346339 0 -0.048010271666055017 0.32778288044595838 0 -0.041088610858506187 0.33958941828061961 0 -0.05321597628450736 0.34483681398346339 0 -0.058158242946837288 0.32789758442849859 0 -0.0615239959263384 0.33799266989344851 0 -0.065685367856751442 0.32667678450978332 0 -0.058158242946837288 0.32789758442849859 0 -0.048010271666055017 0.32778288044595838 0 -0.0615239959263384 0.33799266989344851 0 -0.048010271666055017 0.32778288044595838 0 -0.0615239959263384 0.33799266989344851 0 -0.048010271666055017 0.32778288044595838 0 -0.041088610858506187 0.33958941828061961 0 -0.033456824686427723 0.32902941018556342 0 -0.041088610858506187 0.33958941828061961 0 -0.033456824686427723 0.32902941018556342 0 -0.029244722376591242 0.34249162805573791 0 -0.048010271666055017 0.32778288044595838 0 -0.043405021931739229 0.31269604232335729 0 -0.033040200538904871 0.31647280253713339 0 -0.048010271666055017 0.32778288044595838 0 -0.043405021931739229 0.31269604232335729 0 -0.048010271666055017 0.32778288044595838 0 -0.043405021931739229 0.31269604232335729 0 -0.046135139485305732 0.31277167698762798 0 -0.048010271666055017 0.32778288044595838 0 -0.033040200538904871 0.31647280253713339 0 -0.048010271666055017 0.32778288044595838 0 -0.033456824686427723 0.32902941018556342 0 -0.033040200538904871 0.31647280253713339 0 -0.033456824686427723 0.32902941018556342 0 -0.033040200538904871 0.31647280253713339 0 -0.029107500744465869 0.31790580977897842 0 -0.041467269558106229 0.3063479487194874 0 -0.033040200538904871 0.31647280253713339 0 -0.03070859914221714 0.31471124821819429 0 -0.043405021931739229 0.31269604232335729 0 -0.033040200538904871 0.31647280253713339 0 -0.033040200538904871 0.31647280253713339 0 -0.03070859914221714 0.31471124821819429 0 -0.027616994977189561 0.3123755022038528 0 -0.03070859914221714 0.31471124821819429 0 -0.0091828971020781504 0.33144434683747709 0 -0.033040200538904871 0.31647280253713339 0 -0.03070859914221714 0.31471124821819429 0 -0.029107500744465869 0.31790580977897842 0 -0.03070859914221714 0.31471124821819429 0 -0.0091828971020781504 0.33144434683747709 0 -0.033456824686427723 0.32902941018556342 0 -0.029107500744465869 0.31790580977897842 0 -0.0091828971020781504 0.33144434683747709 0 -0.03070859914221714 0.31471124821819429 0 -0.029107500744465869 0.31790580977897842 0 -0.0091828971020781504 0.33144434683747709 0 -0.027616994977189561 0.3123755022038528 0 -0.03070859914221714 0.31471124821819429 0 -0.033040200538904871 0.31647280253713339 0 -0.029107500744465869 0.31790580977897842 0 -0.033456824686427723 0.32902941018556342 0 -0.029244722376591242 0.34249162805573791 0 -0.0091828971020781504 0.33144434683747709 0 -0.029244722376591242 0.34249162805573791 0 -0.0091828971020781504 0.33144434683747709 0 -0.022630272000586021 0.35662559243589897 0 -0.0091828971020781504 0.33144434683747709 0 0.0071625896765701164 0.34415058246862018 0 -0.0091828971020781504 0.33144434683747709 0 -0.010171404441168619 0.34216115631457938 0 -0.022630272000586021 0.35662559243589897 0 -0.0091828971020781504 0.33144434683747709 0 -0.010171404441168619 0.34216115631457938 0 0.0071625896765701164 0.34415058246862018 0 -0.027616994977189561 0.3123755022038528 0 -0.0091828971020781504 0.33144434683747709 0 -0.0036328059871815698 0.32105137359826458 0 -0.0091828971020781504 0.33144434683747709 0 -0.0036328059871815698 0.32105137359826458 0 0.003688673359198378 0.33163964097880089 0 -0.0091828971020781504 0.33144434683747709 0 -0.0036328059871815698 0.32105137359826458 0 -0.027616994977189561 0.3123755022038528 0 -0.0036328059871815698 0.32105137359826458 0 -0.0078876661509746284 0.36967855728998988 0 -0.0061426812322846122 0.35173638376527089 0 0.0090027216144773076 0.37449649904780519 0 -0.010171404441168619 0.34216115631457938 0 -0.0061426812322846122 0.35173638376527089 0 -0.022630272000586021 0.35662559243589897 0 -0.0078876661509746284 0.36967855728998988 0 -0.0061426812322846122 0.35173638376527089 0 -0.022630272000586021 0.35662559243589897 0 -0.010171404441168619 0.34216115631457938 0 -0.0061426812322846122 0.35173638376527089 0 0.011561651081145249 0.36170087970048043 0 -0.029244722376591242 0.34249162805573791 0 -0.022630272000586021 0.35662559243589897 0 -0.039865007235359608 0.35576937253912949 0 -0.0091828971020781504 0.33144434683747709 0 -0.022630272000586021 0.35662559243589897 0 -0.022630272000586021 0.35662559243589897 0 -0.036077646899095317 0.38180683803431992 0 -0.017188921622752752 0.3830256661404291 0 -0.022630272000586021 0.35662559243589897 0 -0.036077646899095317 0.38180683803431992 0 -0.0078876661509746284 0.36967855728998988 0 -0.022630272000586021 0.35662559243589897 0 -0.017188921622752752 0.3830256661404291 0 -0.039865007235359608 0.35576937253912949 0 -0.058421680902960203 0.36189074752096828 0 -0.036077646899095317 0.38180683803431992 0 -0.022630272000586021 0.35662559243589897 0 -0.039865007235359608 0.35576937253912949 0 -0.036077646899095317 0.38180683803431992 0 -0.041088610858506187 0.33958941828061961 0 -0.039865007235359608 0.35576937253912949 0 -0.05321597628450736 0.34483681398346339 0 -0.041088610858506187 0.33958941828061961 0 -0.029244722376591242 0.34249162805573791 0 -0.039865007235359608 0.35576937253912949 0 -0.039865007235359608 0.35576937253912949 0 -0.05321597628450736 0.34483681398346339 0 -0.058421680902960203 0.36189074752096828 0 -0.05321597628450736 0.34483681398346339 0 -0.058421680902960203 0.36189074752096828 0 -0.05321597628450736 0.34483681398346339 0 -0.058421680902960203 0.36189074752096828 0 -0.064659789765553297 0.35172717204094378 0 -0.0615239959263384 0.33799266989344851 0 -0.05321597628450736 0.34483681398346339 0 -0.064659789765553297 0.35172717204094378 0 -0.058421680902960203 0.36189074752096828 0 -0.075099575527339146 0.36571316946589971 0 -0.064659789765553297 0.35172717204094378 0 -0.058421680902960203 0.36189074752096828 0 -0.075099575527339146 0.36571316946589971 0 -0.062312298662471337 0.38635062654932062 0 -0.075099575527339146 0.36571316946589971 0 -0.097759986994141873 0.36815253503698953 0 -0.086896385105099463 0.38570773051780632 0 -0.075099575527339146 0.36571316946589971 0 -0.087886852392206963 0.34507571238247892 0 -0.097759986994141873 0.36815253503698953 0 -0.075099575527339146 0.36571316946589971 0 -0.087886852392206963 0.34507571238247892 0 -0.075099575527339146 0.36571316946589971 0 -0.087886852392206963 0.34507571238247892 0 -0.075037720186621304 0.34820245934093907 0 -0.075099575527339146 0.36571316946589971 0 -0.075037720186621304 0.34820245934093907 0 -0.064659789765553297 0.35172717204094378 0 -0.0615239959263384 0.33799266989344851 0 -0.075037720186621304 0.34820245934093907 0 -0.064659789765553297 0.35172717204094378 0 -0.0615239959263384 0.33799266989344851 0 -0.075037720186621304 0.34820245934093907 0 -0.0615239959263384 0.33799266989344851 0 -0.074648159599463776 0.3353156509964213 0 -0.065685367856751442 0.32667678450978332 0 -0.074648159599463776 0.3353156509964213 0 -0.065685367856751442 0.32667678450978332 0 -0.076216857485324183 0.32491392671674768 0 -0.0615239959263384 0.33799266989344851 0 -0.075037720186621304 0.34820245934093907 0 -0.074648159599463776 0.3353156509964213 0 -0.057413336338204793 0.31913800286480398 0 -0.069515508965223433 0.31441099931722399 0 -0.065685367856751442 0.32667678450978332 0 -0.069515508965223433 0.31441099931722399 0 -0.065685367856751442 0.32667678450978332 0 -0.076216857485324183 0.32491392671674768 0 -0.069515508965223433 0.31441099931722399 0 -0.076216857485324183 0.32491392671674768 0 -0.080675235780919216 0.31553385638458398 0 -0.090812395096414839 0.31172666067268612 0 -0.085880756421877036 0.32760262916994842 0 -0.1006741292570744 0.32443825529905768 0 -0.090812395096414839 0.31172666067268612 0 -0.080675235780919216 0.31553385638458398 0 -0.085880756421877036 0.32760262916994842 0 -0.076216857485324183 0.32491392671674768 0 -0.080675235780919216 0.31553385638458398 0 -0.085880756421877036 0.32760262916994842 0 -0.087886852392206963 0.34507571238247892 0 -0.074648159599463776 0.3353156509964213 0 -0.085880756421877036 0.32760262916994842 0 -0.087886852392206963 0.34507571238247892 0 -0.085880756421877036 0.32760262916994842 0 -0.1006741292570744 0.32443825529905768 0 -0.087886852392206963 0.34507571238247892 0 -0.075037720186621304 0.34820245934093907 0 -0.074648159599463776 0.3353156509964213 0 -0.074648159599463776 0.3353156509964213 0 -0.076216857485324183 0.32491392671674768 0 -0.085880756421877036 0.32760262916994842 0 -0.087886852392206963 0.34507571238247892 0 -0.1006741292570744 0.32443825529905768 0 -0.11334923053427901 0.34077622858643608 0 -0.087886852392206963 0.34507571238247892 0 -0.1006741292570744 0.32443825529905768 0 -0.1006741292570744 0.32443825529905768 0 -0.11334923053427901 0.34077622858643608 0 -0.11332525612077909 0.30402053145795382 0 -0.1006741292570744 0.32443825529905768 0 -0.11332525612077909 0.30402053145795382 0 -0.090812395096414839 0.31172666067268612 0 -0.1006741292570744 0.32443825529905768 0 -0.090812395096414839 0.31172666067268612 0 -0.1006741292570744 0.32443825529905768 0 -0.11332525612077909 0.30402053145795382 0 -0.1006741292570744 0.32443825529905768 0 -0.1194781435219297 0.31874532343827672 0 -0.1006741292570744 0.32443825529905768 0 -0.1194781435219297 0.31874532343827672 0 -0.11334923053427901 0.34077622858643608 0 -0.12602433181148351 0.3571142018738146 0 -0.1282057991618295 0.33210592032862368 0 -0.11334923053427901 0.34077622858643608 0 -0.1282057991618295 0.33210592032862368 0 -0.1194781435219297 0.31874532343827672 0 -0.11334923053427901 0.34077622858643608 0 -0.12602433181148351 0.3571142018738146 0 -0.11334923053427901 0.34077622858643608 0 -0.12602433181148351 0.3571142018738146 0 -0.11334923053427901 0.34077622858643608 0 -0.10820058404202711 0.35596284509703929 0 -0.12602433181148351 0.3571142018738146 0 -0.1130309964431768 0.37004026196208789 0 -0.10820058404202711 0.35596284509703929 0 -0.12602433181148351 0.3571142018738146 0 -0.1130309964431768 0.37004026196208789 0 -0.1240031805753686 0.38028462390653178 0 -0.1130309964431768 0.37004026196208789 0 -0.097759986994141873 0.36815253503698953 0 -0.10820058404202711 0.35596284509703929 0 -0.087886852392206963 0.34507571238247892 0 -0.11334923053427901 0.34077622858643608 0 -0.10820058404202711 0.35596284509703929 0 -0.087886852392206963 0.34507571238247892 0 -0.097759986994141873 0.36815253503698953 0 -0.10820058404202711 0.35596284509703929 0 -0.097638352259560884 0.40471044626887642 0 -0.10916689879286311 0.38868710389606448 0 -0.086896385105099463 0.38570773051780632 0 -0.097638352259560884 0.40471044626887642 0 -0.10916689879286311 0.38868710389606448 0 -0.1188950727170586 0.41406135335441258 0 -0.1130309964431768 0.37004026196208789 0 -0.097759986994141873 0.36815253503698953 0 -0.10916689879286311 0.38868710389606448 0 -0.097759986994141873 0.36815253503698953 0 -0.10916689879286311 0.38868710389606448 0 -0.086896385105099463 0.38570773051780632 0 -0.125503091717383 0.39623629605416738 0 -0.10916689879286311 0.38868710389606448 0 -0.1240031805753686 0.38028462390653178 0 -0.1130309964431768 0.37004026196208789 0 -0.10916689879286311 0.38868710389606448 0 -0.1240031805753686 0.38028462390653178 0 -0.125503091717383 0.39623629605416738 0 -0.10916689879286311 0.38868710389606448 0 -0.1188950727170586 0.41406135335441258 0 -0.12988187258907391 0.43244883811048968 0 -0.1188950727170586 0.41406135335441258 0 -0.1163766237962814 0.43470705736923038 0 -0.1188950727170586 0.41406135335441258 0 -0.1163766237962814 0.43470705736923038 0 -0.1026198951875264 0.42861115658686733 0 -0.097638352259560884 0.40471044626887642 0 -0.1188950727170586 0.41406135335441258 0 -0.1026198951875264 0.42861115658686733 0 -0.097638352259560884 0.40471044626887642 0 -0.1026198951875264 0.42861115658686733 0 -0.085323765641798596 0.42456525161818598 0 -0.097638352259560884 0.40471044626887642 0 -0.085323765641798596 0.42456525161818598 0 -0.074487439028761523 0.40754535535803832 0 -0.085323765641798596 0.42456525161818598 0 -0.065075298218747413 0.43610717435784152 0 -0.088281041770850333 0.44148782153790239 0 -0.1026198951875264 0.42861115658686733 0 -0.085323765641798596 0.42456525161818598 0 -0.088281041770850333 0.44148782153790239 0 -0.085323765641798596 0.42456525161818598 0 -0.065075298218747413 0.43610717435784152 0 -0.074487439028761523 0.40754535535803832 0 -0.074487439028761523 0.40754535535803832 0 -0.051336525797962107 0.41038026444719983 0 -0.065075298218747413 0.43610717435784152 0 -0.074487439028761523 0.40754535535803832 0 -0.051336525797962107 0.41038026444719983 0 -0.074487439028761523 0.40754535535803832 0 -0.086896385105099463 0.38570773051780632 0 -0.062312298662471337 0.38635062654932062 0 -0.097638352259560884 0.40471044626887642 0 -0.074487439028761523 0.40754535535803832 0 -0.086896385105099463 0.38570773051780632 0 -0.097638352259560884 0.40471044626887642 0 -0.074487439028761523 0.40754535535803832 0 -0.075099575527339146 0.36571316946589971 0 -0.086896385105099463 0.38570773051780632 0 -0.062312298662471337 0.38635062654932062 0 -0.075099575527339146 0.36571316946589971 0 -0.062312298662471337 0.38635062654932062 0 -0.058421680902960203 0.36189074752096828 0 -0.062312298662471337 0.38635062654932062 0 -0.036077646899095317 0.38180683803431992 0 -0.062312298662471337 0.38635062654932062 0 -0.049525021797603923 0.40698808363274158 0 -0.062312298662471337 0.38635062654932062 0 -0.036077646899095317 0.38180683803431992 0 -0.049525021797603923 0.40698808363274158 0 -0.074487439028761523 0.40754535535803832 0 -0.062312298662471337 0.38635062654932062 0 -0.049525021797603923 0.40698808363274158 0 -0.036658542719044132 0.40172189365717631 0 -0.036077646899095317 0.38180683803431992 0 -0.049525021797603923 0.40698808363274158 0 -0.036077646899095317 0.38180683803431992 0 -0.049525021797603923 0.40698808363274158 0 -0.036077646899095317 0.38180683803431992 0 -0.017188921622752752 0.3830256661404291 0 -0.01753183089724079 0.39774049864982391 0 -0.036658542719044132 0.40172189365717631 0 -0.01753183089724079 0.39774049864982391 0 -0.028738062396042961 0.41314752415140771 0 -0.036658542719044132 0.40172189365717631 0 -0.036077646899095317 0.38180683803431992 0 -0.01753183089724079 0.39774049864982391 0 -0.01753183089724079 0.39774049864982391 0 -0.0024791775137270639 0.38250864506054583 0 0.0010789675472111021 0.39544154876169679 0 -0.01753183089724079 0.39774049864982391 0 0.0013591684760722901 0.40889267102744248 0 0.0010789675472111021 0.39544154876169679 0 -0.0078876661509746284 0.36967855728998988 0 -0.0024791775137270639 0.38250864506054583 0 0.0090027216144773076 0.37449649904780519 0 -0.0078876661509746284 0.36967855728998988 0 -0.017188921622752752 0.3830256661404291 0 -0.0024791775137270639 0.38250864506054583 0 -0.017188921622752752 0.3830256661404291 0 -0.01753183089724079 0.39774049864982391 0 -0.0024791775137270639 0.38250864506054583 0 -0.011491293584143599 0.43253524290370438 0 -0.01037424867440725 0.41539623641222168 0 0.00033908460589540191 0.42224738645748211 0 -0.01037424867440725 0.41539623641222168 0 0.0013591684760722901 0.40889267102744248 0 0.00033908460589540191 0.42224738645748211 0 -0.01753183089724079 0.39774049864982391 0 -0.01037424867440725 0.41539623641222168 0 0.0013591684760722901 0.40889267102744248 0 -0.01037424867440725 0.41539623641222168 0 -0.028738062396042961 0.41314752415140771 0 -0.011491293584143599 0.43253524290370438 0 -0.01037424867440725 0.41539623641222168 0 -0.028738062396042961 0.41314752415140771 0 -0.01753183089724079 0.39774049864982391 0 -0.01037424867440725 0.41539623641222168 0 -0.028738062396042961 0.41314752415140771 0 -0.011491293584143599 0.43253524290370438 0 -0.028738062396042961 0.41314752415140771 0 -0.03204312842275546 0.43520220835006812 0 -0.03204312842275546 0.43520220835006812 0 -0.047101876117678319 0.41089881189059052 0 -0.03204312842275546 0.43520220835006812 0 -0.051219489553763597 0.42697463261644703 0 -0.049958002242212002 0.44942487067668241 0 -0.03204312842275546 0.43520220835006812 0 -0.047101876117678319 0.41089881189059052 0 -0.051219489553763597 0.42697463261644703 0 -0.028738062396042961 0.41314752415140771 0 -0.03204312842275546 0.43520220835006812 0 -0.047101876117678319 0.41089881189059052 0 -0.036658542719044132 0.40172189365717631 0 -0.028738062396042961 0.41314752415140771 0 -0.047101876117678319 0.41089881189059052 0 -0.028738062396042961 0.41314752415140771 0 -0.047101876117678319 0.41089881189059052 0 -0.036658542719044132 0.40172189365717631 0 -0.049525021797603923 0.40698808363274158 0 -0.047101876117678319 0.41089881189059052 0 -0.047101876117678319 0.41089881189059052 0 -0.051336525797962107 0.41038026444719983 0 -0.051219489553763597 0.42697463261644703 0 -0.074487439028761523 0.40754535535803832 0 -0.049525021797603923 0.40698808363274158 0 -0.051336525797962107 0.41038026444719983 0 -0.049525021797603923 0.40698808363274158 0 -0.047101876117678319 0.41089881189059052 0 -0.049525021797603923 0.40698808363274158 0 -0.047101876117678319 0.41089881189059052 0 -0.051336525797962107 0.41038026444719983 0 -0.049525021797603923 0.40698808363274158 0 -0.051336525797962107 0.41038026444719983 0 -0.047101876117678319 0.41089881189059052 0 -0.051336525797962107 0.41038026444719983 0 -0.065075298218747413 0.43610717435784152 0 -0.051336525797962107 0.41038026444719983 0 -0.051219489553763597 0.42697463261644703 0 -0.065075298218747413 0.43610717435784152 0 -0.051336525797962107 0.41038026444719983 0 -0.065075298218747413 0.43610717435784152 0 -0.051219489553763597 0.42697463261644703 0 -0.049958002242212002 0.44942487067668241 0 -0.065075298218747413 0.43610717435784152 0 -0.049958002242212002 0.44942487067668241 0 -0.070210722280935778 0.4541034895566195 0 -0.049958002242212002 0.44942487067668241 0 -0.05985768922058337 0.46200889271892681 0 -0.070210722280935778 0.4541034895566195 0 -0.049958002242212002 0.44942487067668241 0 -0.05985768922058337 0.46200889271892681 0 -0.040004537895053691 0.46711242524053298 0 -0.049958002242212002 0.44942487067668241 0 -0.040004537895053691 0.46711242524053298 0 -0.022149587145779241 0.45592007710635429 0 -0.03204312842275546 0.43520220835006812 0 -0.049958002242212002 0.44942487067668241 0 -0.022149587145779241 0.45592007710635429 0 -0.011491293584143599 0.43253524290370438 0 -0.03204312842275546 0.43520220835006812 0 -0.022149587145779241 0.45592007710635429 0 -0.040004537895053691 0.46711242524053298 0 -0.022149587145779241 0.45592007710635429 0 -0.022519879441192901 0.48126775405924938 0 -0.022149587145779241 0.45592007710635429 0 0.0011837768080978819 0.47425892433904521 0 0.00075904117010897748 0.44930835498749733 0 -0.011491293584143599 0.43253524290370438 0 -0.022149587145779241 0.45592007710635429 0 0.00075904117010897748 0.44930835498749733 0 -0.010062368565043389 0.5 0 -0.022519879441192901 0.48126775405924938 0 0.0011837768080978819 0.47425892433904521 0 -0.022149587145779241 0.45592007710635429 0 -0.022519879441192901 0.48126775405924938 0 0.0011837768080978819 0.47425892433904521 0 -0.010062368565043389 0.5 0 -0.022519879441192901 0.48126775405924938 0 -0.039773433540772118 0.5 0 -0.040004537895053691 0.46711242524053298 0 -0.039773433540772118 0.5 0 -0.060301113045183652 0.47756959385231529 0 -0.040004537895053691 0.46711242524053298 0 -0.022519879441192901 0.48126775405924938 0 -0.039773433540772118 0.5 0 -0.05985768922058337 0.46200889271892681 0 -0.040004537895053691 0.46711242524053298 0 -0.060301113045183652 0.47756959385231529 0 -0.039773433540772118 0.5 0 -0.060301113045183652 0.47756959385231529 0 -0.069484498516500848 0.5 0 -0.069484498516500848 0.5 0 -0.08900481706588341 0.48091704213423359 0 -0.07510398224088928 0.47607788592744199 0 -0.060301113045183652 0.47756959385231529 0 -0.069484498516500848 0.5 0 -0.07510398224088928 0.47607788592744199 0 -0.069484498516500848 0.5 0 -0.08900481706588341 0.48091704213423359 0 -0.099195563492229438 0.49999999999998629 0 -0.08900481706588341 0.48091704213423359 0 -0.07510398224088928 0.47607788592744199 0 -0.078814070639532052 0.4618340842684836 0 -0.08900481706588341 0.48091704213423359 0 -0.078814070639532052 0.4618340842684836 0 -0.078814070639532052 0.4618340842684836 0 -0.1000514191684329 0.48091704213424041 0 -0.08900481706588341 0.48091704213423359 0 -0.078814070639532052 0.4618340842684836 0 -0.1000514191684329 0.48091704213424041 0 -0.060301113045183652 0.47756959385231529 0 -0.07510398224088928 0.47607788592744199 0 -0.078814070639532052 0.4618340842684836 0 -0.05985768922058337 0.46200889271892681 0 -0.060301113045183652 0.47756959385231529 0 -0.078814070639532052 0.4618340842684836 0 -0.05985768922058337 0.46200889271892681 0 -0.070210722280935778 0.4541034895566195 0 -0.078814070639532052 0.4618340842684836 0 -0.070210722280935778 0.4541034895566195 0 -0.078814070639532052 0.4618340842684836 0 -0.065075298218747413 0.43610717435784152 0 -0.088281041770850333 0.44148782153790239 0 -0.078814070639532052 0.4618340842684836 0 -0.065075298218747413 0.43610717435784152 0 -0.070210722280935778 0.4541034895566195 0 -0.078814070639532052 0.4618340842684836 0 -0.065075298218747413 0.43610717435784152 0 -0.078814070639532052 0.4618340842684836 0 -0.088281041770850333 0.44148782153790239 0 -0.078814070639532052 0.4618340842684836 0 -0.1052112647195769 0.45114317545566951 0 -0.078814070639532052 0.4618340842684836 0 -0.1052112647195769 0.45114317545566951 0 -0.1000514191684329 0.48091704213424041 0 -0.1052112647195769 0.45114317545566951 0 -0.1225191036568119 0.46284418382078357 0 -0.1000514191684329 0.48091704213424041 0 -0.1163766237962814 0.43470705736923038 0 -0.1026198951875264 0.42861115658686733 0 -0.1052112647195769 0.45114317545566951 0 -0.1026198951875264 0.42861115658686733 0 -0.088281041770850333 0.44148782153790239 0 -0.1052112647195769 0.45114317545566951 0 -0.12527501376817099 0.44727076333871302 0 -0.1163766237962814 0.43470705736923038 0 -0.1052112647195769 0.45114317545566951 0 -0.12527501376817099 0.44727076333871302 0 -0.12988187258907391 0.43244883811048968 0 -0.1163766237962814 0.43470705736923038 0 -0.12527501376817099 0.44727076333871302 0 -0.1052112647195769 0.45114317545566951 0 -0.1225191036568119 0.46284418382078357 0 -0.1269324822763519 0.48863663614791658 0 -0.1228014186443184 0.47705841065588628 0 -0.1000514191684329 0.48091704213424041 0 -0.1225191036568119 0.46284418382078357 0 -0.1228014186443184 0.47705841065588628 0 -0.1000514191684329 0.48091704213424041 0 -0.12128876769733279 0.49999999999999839 0 -0.1000514191684329 0.48091704213424041 0 -0.1269324822763519 0.48863663614791658 0 -0.12128876769733279 0.49999999999999839 0 -0.1000514191684329 0.48091704213424041 0 -0.08900481706588341 0.48091704213423359 0 -0.099195563492229438 0.49999999999998629 0 -0.1000514191684329 0.48091704213424041 0 -0.12128876769733279 0.49999999999999839 0 -0.099195563492229438 0.49999999999998629 0 -0.1000514191684329 0.48091704213424041 0 -0.08900481706588341 0.48091704213423359 0 -0.099195563492229438 0.49999999999998629 0 -0.1624894112332792 0.077933904895636133 0 -0.17605004850149639 0.092703782042403954 0 -0.16059944871675219 0.1057222660743297 0 -0.1624894112332792 0.077933904895636133 0 -0.16059944871675219 0.1057222660743297 0 -0.1624894112332792 0.077933904895636133 0 -0.1643793737498041 0.050145543716942131 0 -0.1624894112332792 0.077933904895636133 0 -0.15207515116277609 0.06154304126105814 0 -0.1643793737498041 0.050145543716942131 0 -0.1624894112332792 0.077933904895636133 0 -0.18267495057822189 0.073308935571981398 0 -0.1643793737498041 0.050145543716942131 0 -0.18267495057822189 0.073308935571981398 0 -0.17605004850149639 0.092703782042403954 0 -0.19368992993442161 0.092249002628309332 0 -0.1624894112332792 0.077933904895636133 0 -0.18267495057822189 0.073308935571981398 0 -0.17605004850149639 0.092703782042403954 0 -0.17605004850149639 0.092703782042403954 0 -0.1807965020448071 0.11430480104176249 0 -0.16059944871675219 0.1057222660743297 0 -0.17605004850149639 0.092703782042403954 0 -0.1807965020448071 0.11430480104176249 0 -0.19368992993442161 0.092249002628309332 0 -0.1807965020448071 0.11430480104176249 0 -0.20099355537286251 0.1228873360091944 0 -0.17978115666180541 0.12923355437812661 0 -0.1807965020448071 0.11430480104176249 0 -0.1700393343631619 0.1211506631735299 0 -0.17978115666180541 0.12923355437812661 0 -0.1807965020448071 0.11430480104176249 0 -0.1700393343631619 0.1211506631735299 0 -0.16059944871675219 0.1057222660743297 0 -0.1807965020448071 0.11430480104176249 0 -0.16059944871675219 0.1057222660743297 0 -0.1700393343631619 0.1211506631735299 0 -0.15948355971711359 0.12085224137322439 0 -0.16059944871675219 0.1057222660743297 0 -0.15948355971711359 0.12085224137322439 0 -0.16059944871675219 0.1057222660743297 0 -0.15948355971711359 0.12085224137322439 0 -0.16059944871675219 0.1057222660743297 0 -0.15025884663195349 0.1013281310717844 0 -0.1624894112332792 0.077933904895636133 0 -0.16059944871675219 0.1057222660743297 0 -0.15025884663195349 0.1013281310717844 0 -0.16059944871675219 0.1057222660743297 0 -0.15025884663195349 0.1013281310717844 0 -0.15025884663195349 0.1013281310717844 0 -0.14512529378140929 0.099146679345569158 0 -0.143204282325782 0.1107983981436865 0 -0.15025884663195349 0.1013281310717844 0 -0.14512529378140929 0.099146679345569158 0 -0.15948355971711359 0.12085224137322439 0 -0.15025884663195349 0.1013281310717844 0 -0.143204282325782 0.1107983981436865 0 -0.15948355971711359 0.12085224137322439 0 -0.15025884663195349 0.1013281310717844 0 -0.15948355971711359 0.12085224137322439 0 -0.143204282325782 0.1107983981436865 0 -0.14645554820955589 0.12506885999065009 0 -0.143204282325782 0.1107983981436865 0 -0.13282892113159689 0.1164379651530635 0 -0.14645554820955589 0.12506885999065009 0 -0.13282892113159689 0.1164379651530635 0 -0.12746562234065481 0.091200007769910343 0 -0.143204282325782 0.1107983981436865 0 -0.13282892113159689 0.1164379651530635 0 -0.12746562234065481 0.091200007769910343 0 -0.14512529378140929 0.099146679345569158 0 -0.143204282325782 0.1107983981436865 0 -0.12746562234065481 0.091200007769910343 0 -0.14512529378140929 0.099146679345569158 0 -0.12746562234065481 0.091200007769910343 0 -0.13792207128435149 0.075217339285947205 0 -0.15025884663195349 0.1013281310717844 0 -0.13792207128435149 0.075217339285947205 0 -0.1624894112332792 0.077933904895636133 0 -0.15025884663195349 0.1013281310717844 0 -0.13792207128435149 0.075217339285947205 0 -0.15025884663195349 0.1013281310717844 0 -0.14512529378140929 0.099146679345569158 0 -0.13792207128435149 0.075217339285947205 0 -0.1624894112332792 0.077933904895636133 0 -0.13792207128435149 0.075217339285947205 0 -0.15207515116277609 0.06154304126105814 0 -0.13792207128435149 0.075217339285947205 0 -0.15207515116277609 0.06154304126105814 0 -0.14091612846897511 0.055875839700929159 0 -0.12746562234065481 0.091200007769910343 0 -0.13792207128435149 0.075217339285947205 0 -0.1221023235497127 0.065962050386757176 0 -0.13792207128435149 0.075217339285947205 0 -0.12591093871202491 0.058307828586916681 0 -0.1221023235497127 0.065962050386757176 0 -0.13792207128435149 0.075217339285947205 0 -0.12558529593674889 0.049106547500110273 0 -0.14091612846897511 0.055875839700929159 0 -0.13792207128435149 0.075217339285947205 0 -0.12591093871202491 0.058307828586916681 0 -0.12558529593674889 0.049106547500110273 0 -0.13792207128435149 0.075217339285947205 0 -0.12558529593674889 0.049106547500110273 0 -0.12558529593674889 0.049106547500110273 0 -0.13700608991958499 0.046740682510904623 0 -0.14091612846897511 0.055875839700929159 0 -0.12558529593674889 0.049106547500110273 0 -0.13110833496863261 0.03623236614172734 0 -0.13700608991958499 0.046740682510904623 0 -0.13110833496863261 0.03623236614172734 0 -0.13700608991958499 0.046740682510904623 0 -0.1488734548435304 0.044700203492303713 0 -0.13110833496863261 0.03623236614172734 0 -0.1488734548435304 0.044700203492303713 0 -0.14331108913949589 0.023376727184504831 0 -0.1488734548435304 0.044700203492303713 0 -0.14331108913949589 0.023376727184504831 0 -0.1488734548435304 0.044700203492303713 0 -0.15207515116277609 0.06154304126105814 0 -0.14091612846897511 0.055875839700929159 0 -0.1488734548435304 0.044700203492303713 0 -0.15207515116277609 0.06154304126105814 0 -0.1643793737498041 0.050145543716942131 0 -0.13700608991958499 0.046740682510904623 0 -0.1488734548435304 0.044700203492303713 0 -0.14091612846897511 0.055875839700929159 0 -0.13815278026811689 0.0036022134506508261 0 -0.14331108913949589 0.023376727184504831 0 -0.1241423493821691 0.0094976288708057185 0 -0.1181713946700622 -0.0025812021860843089 0 -0.13815278026811689 0.0036022134506508261 0 -0.1241423493821691 0.0094976288708057185 0 -0.14331108913949589 0.023376727184504831 0 -0.1241423493821691 0.0094976288708057185 0 -0.11333543709990949 0.02470790527428365 0 -0.14331108913949589 0.023376727184504831 0 -0.11333543709990949 0.02470790527428365 0 -0.13110833496863261 0.03623236614172734 0 -0.14331108913949589 0.023376727184504831 0 -0.11333543709990949 0.02470790527428365 0 -0.1488734548435304 0.044700203492303713 0 -0.14331108913949589 0.023376727184504831 0 -0.16626933626633139 0.022357182538248369 0 -0.14331108913949589 0.023376727184504831 0 -0.16626933626633139 0.022357182538248369 0 -0.14331108913949589 0.023376727184504831 0 -0.15421755017297681 0.0099716609369338398 0 -0.16626933626633139 0.022357182538248369 0 -0.13815278026811689 0.0036022134506508261 0 -0.14331108913949589 0.023376727184504831 0 -0.13815278026811689 0.0036022134506508261 0 -0.14331108913949589 0.023376727184504831 0 -0.15421755017297681 0.0099716609369338398 0 -0.15144941548332261 -0.008840690932706622 0 -0.13815278026811689 0.0036022134506508261 0 -0.15421755017297681 0.0099716609369338398 0 -0.1678440908656996 -0.00079663622403244871 0 -0.15421755017297681 0.0099716609369338398 0 -0.16653861657979949 0.018397919566867201 0 -0.15144941548332261 -0.008840690932706622 0 -0.1678440908656996 -0.00079663622403244871 0 -0.15421755017297681 0.0099716609369338398 0 -0.1678440908656996 -0.00079663622403244871 0 -0.16653861657979949 0.018397919566867201 0 -0.16626933626633139 0.022357182538248369 0 -0.16653861657979949 0.018397919566867201 0 -0.15421755017297681 0.0099716609369338398 0 -0.16626933626633139 0.022357182538248369 0 -0.16653861657979949 0.018397919566867201 0 -0.16626933626633139 0.022357182538248369 0 -0.16653861657979949 0.018397919566867201 0 -0.189281349566885 0.021335250209072201 0 -0.16705372885145939 0.02634507384839167 0 -0.189281349566885 0.021335250209072201 0 -0.1903030621628298 0.02775014897305865 0 -0.16705372885145939 0.02634507384839167 0 -0.1903030621628298 0.02775014897305865 0 -0.16705372885145939 0.02634507384839167 0 -0.1761986116082421 0.033517084880781263 0 -0.1903030621628298 0.02775014897305865 0 -0.16626933626633139 0.022357182538248369 0 -0.189281349566885 0.021335250209072201 0 -0.16705372885145939 0.02634507384839167 0 -0.16626933626633139 0.022357182538248369 0 -0.189281349566885 0.021335250209072201 0 -0.1678440908656996 -0.00079663622403244871 0 -0.16653861657979949 0.018397919566867201 0 -0.18797277877572729 0.0053307518273322581 0 -0.16653861657979949 0.018397919566867201 0 -0.18797277877572729 0.0053307518273322581 0 -0.189281349566885 0.021335250209072201 0 -0.16653861657979949 0.018397919566867201 0 -0.18797277877572729 0.0053307518273322581 0 -0.16705372885145939 0.02634507384839167 0 -0.16626933626633139 0.022357182538248369 0 -0.1643793737498041 0.050145543716942131 0 -0.1488734548435304 0.044700203492303713 0 -0.16626933626633139 0.022357182538248369 0 -0.1643793737498041 0.050145543716942131 0 -0.16705372885145939 0.02634507384839167 0 -0.1643793737498041 0.050145543716942131 0 -0.1761986116082421 0.033517084880781263 0 -0.16626933626633139 0.022357182538248369 0 -0.1643793737498041 0.050145543716942131 0 -0.1643793737498041 0.050145543716942131 0 -0.1761986116082421 0.033517084880781263 0 -0.18007554187081631 0.041661803183391188 0 -0.1761986116082421 0.033517084880781263 0 -0.1838918974946501 0.034989203086508637 0 -0.1903030621628298 0.02775014897305865 0 -0.1761986116082421 0.033517084880781263 0 -0.1838918974946501 0.034989203086508637 0 -0.18007554187081631 0.041661803183391188 0 -0.1838918974946501 0.034989203086508637 0 -0.18007554187081631 0.041661803183391188 0 -0.18997173810511819 0.039799931226383853 0 -0.18007554187081631 0.041661803183391188 0 -0.18677119444599119 0.054011278391505643 0 -0.18997173810511819 0.039799931226383853 0 -0.18267495057822189 0.073308935571981398 0 -0.1643793737498041 0.050145543716942131 0 -0.18677119444599119 0.054011278391505643 0 -0.1643793737498041 0.050145543716942131 0 -0.18007554187081631 0.041661803183391188 0 -0.18677119444599119 0.054011278391505643 0 -0.18677119444599119 0.054011278391505643 0 -0.19949795329594849 0.04686321108219145 0 -0.19972739776002471 0.064860868045490294 0 -0.19949795329594849 0.04686321108219145 0 -0.20941111964164591 0.054817678415581862 0 -0.19972739776002471 0.064860868045490294 0 -0.18677119444599119 0.054011278391505643 0 -0.18997173810511819 0.039799931226383853 0 -0.19949795329594849 0.04686321108219145 0 -0.1838918974946501 0.034989203086508637 0 -0.18997173810511819 0.039799931226383853 0 -0.1903030621628298 0.02775014897305865 0 -0.18997173810511819 0.039799931226383853 0 -0.20038328697030411 0.03632621157284243 0 -0.1903030621628298 0.02775014897305865 0 -0.18997173810511819 0.039799931226383853 0 -0.20038328697030411 0.03632621157284243 0 -0.19949795329594849 0.04686321108219145 0 -0.20038328697030411 0.03632621157284243 0 -0.19949795329594849 0.04686321108219145 0 -0.20951089881336649 0.040830896519261833 0 -0.20038328697030411 0.03632621157284243 0 -0.20951089881336649 0.040830896519261833 0 -0.2135523954742001 0.02915522409772563 0 -0.21700390951838339 0.038601213121359418 0 -0.2135523954742001 0.02915522409772563 0 -0.22508400004718859 0.037265293223436587 0 -0.20951089881336649 0.040830896519261833 0 -0.21700390951838339 0.038601213121359418 0 -0.2135523954742001 0.02915522409772563 0 -0.20951089881336649 0.040830896519261833 0 -0.21700390951838339 0.038601213121359418 0 -0.21986834373877859 0.047153438645013639 0 -0.20941111964164591 0.054817678415581862 0 -0.2209275567952175 0.066546947851736662 0 -0.19972739776002471 0.064860868045490294 0 -0.20941111964164591 0.054817678415581862 0 -0.21986834373877859 0.047153438645013639 0 -0.2209275567952175 0.066546947851736662 0 -0.20951089881336649 0.040830896519261833 0 -0.20941111964164591 0.054817678415581862 0 -0.21986834373877859 0.047153438645013639 0 -0.19949795329594849 0.04686321108219145 0 -0.20951089881336649 0.040830896519261833 0 -0.20941111964164591 0.054817678415581862 0 -0.18797277877572729 0.0053307518273322581 0 -0.200411888144788 0.01236944214476529 0 -0.189281349566885 0.021335250209072201 0 -0.20897313684704319 -0.0077659201182895231 0 -0.18797277877572729 0.0053307518273322581 0 -0.200411888144788 0.01236944214476529 0 -0.200411888144788 0.01236944214476529 0 -0.189281349566885 0.021335250209072201 0 -0.21229336286743861 0.020313317879895789 0 -0.189281349566885 0.021335250209072201 0 -0.21229336286743861 0.020313317879895789 0 -0.1903030621628298 0.02775014897305865 0 -0.2135523954742001 0.02915522409772563 0 -0.189281349566885 0.021335250209072201 0 -0.1903030621628298 0.02775014897305865 0 -0.21229336286743861 0.020313317879895789 0 -0.20038328697030411 0.03632621157284243 0 -0.1903030621628298 0.02775014897305865 0 -0.2135523954742001 0.02915522409772563 0 -0.1903030621628298 0.02775014897305865 0 -0.2135523954742001 0.02915522409772563 0 -0.21229336286743861 0.020313317879895789 0 -0.20897313684704319 -0.0077659201182895231 0 -0.200411888144788 0.01236944214476529 0 -0.21271953224306511 0.0065740773990296091 0 -0.200411888144788 0.01236944214476529 0 -0.21229336286743861 0.020313317879895789 0 -0.21271953224306511 0.0065740773990296091 0 -0.21229336286743861 0.020313317879895789 0 -0.21271953224306511 0.0065740773990296091 0 -0.22230454318445189 0.0091935388833337649 0 -0.2326394355431752 -0.00078560325659636498 0 -0.2353053761679921 0.019291385550719228 0 -0.2326394355431752 -0.00078560325659636498 0 -0.22230454318445189 0.0091935388833337649 0 -0.2353053761679921 0.019291385550719228 0 -0.2326394355431752 -0.00078560325659636498 0 -0.2213220285472188 -0.002729299831286901 0 -0.22230454318445189 0.0091935388833337649 0 -0.2213220285472188 -0.002729299831286901 0 -0.21271953224306511 0.0065740773990296091 0 -0.22230454318445189 0.0091935388833337649 0 -0.2135523954742001 0.02915522409772563 0 -0.23680172878557049 0.030560299222391639 0 -0.21229336286743861 0.020313317879895789 0 -0.22230454318445189 0.0091935388833337649 0 -0.2353053761679921 0.019291385550719228 0 -0.2135523954742001 0.02915522409772563 0 -0.21229336286743861 0.020313317879895789 0 -0.2353053761679921 0.019291385550719228 0 -0.2135523954742001 0.02915522409772563 0 -0.23680172878557049 0.030560299222391639 0 -0.2353053761679921 0.019291385550719228 0 -0.21229336286743861 0.020313317879895789 0 -0.2353053761679921 0.019291385550719228 0 -0.2629257696391944 0.032139107503370692 0 -0.23680172878557049 0.030560299222391639 0 -0.24669922415481119 0.01878540020039926 0 -0.23680172878557049 0.030560299222391639 0 -0.2353053761679921 0.019291385550719228 0 -0.24669922415481119 0.01878540020039926 0 -0.2353053761679921 0.019291385550719228 0 -0.23680172878557049 0.030560299222391639 0 -0.24669922415481119 0.01878540020039926 0 -0.2353053761679921 0.019291385550719228 0 -0.24669922415481119 0.01878540020039926 0 -0.2353053761679921 0.019291385550719228 0 -0.2405646766438343 0.0091839260783183954 0 -0.2326394355431752 -0.00078560325659636498 0 -0.24941015007505499 0.0020021033111519062 0 -0.2405646766438343 0.0091839260783183954 0 -0.24669922415481119 0.01878540020039926 0 -0.24941015007505499 0.0020021033111519062 0 -0.2405646766438343 0.0091839260783183954 0 -0.2326394355431752 -0.00078560325659636498 0 -0.2353053761679921 0.019291385550719228 0 -0.2405646766438343 0.0091839260783183954 0 -0.229644504171409 0.055705808303336192 0 -0.2410690089377765 0.06269684984768556 0 -0.2209275567952175 0.066546947851736662 0 -0.229644504171409 0.055705808303336192 0 -0.21986834373877859 0.047153438645013639 0 -0.23893536886167371 0.046628574535038617 0 -0.229644504171409 0.055705808303336192 0 -0.21986834373877859 0.047153438645013639 0 -0.2209275567952175 0.066546947851736662 0 -0.21700390951838339 0.038601213121359418 0 -0.21986834373877859 0.047153438645013639 0 -0.22508400004718859 0.037265293223436587 0 -0.2135523954742001 0.02915522409772563 0 -0.23680172878557049 0.030560299222391639 0 -0.22508400004718859 0.037265293223436587 0 -0.21986834373877859 0.047153438645013639 0 -0.22508400004718859 0.037265293223436587 0 -0.23893536886167371 0.046628574535038617 0 -0.23680172878557049 0.030560299222391639 0 -0.22508400004718859 0.037265293223436587 0 -0.23893536886167371 0.046628574535038617 0 -0.2629257696391944 0.032139107503370692 0 -0.23680172878557049 0.030560299222391639 0 -0.24911457105796389 0.040407001002397837 0 -0.23680172878557049 0.030560299222391639 0 -0.23893536886167371 0.046628574535038617 0 -0.2629257696391944 0.032139107503370692 0 -0.23680172878557049 0.030560299222391639 0 -0.23680172878557049 0.030560299222391639 0 -0.23893536886167371 0.046628574535038617 0 -0.24911457105796389 0.040407001002397837 0 -0.25779541694541708 0.05230002274879042 0 -0.23893536886167371 0.046628574535038617 0 -0.24911457105796389 0.040407001002397837 0 -0.25779541694541708 0.05230002274879042 0 -0.23893536886167371 0.046628574535038617 0 -0.2410690089377765 0.06269684984768556 0 -0.23893536886167371 0.046628574535038617 0 -0.2410690089377765 0.06269684984768556 0 -0.229644504171409 0.055705808303336192 0 -0.23893536886167371 0.046628574535038617 0 -0.2410690089377765 0.06269684984768556 0 -0.25555186485622727 0.067343727925693153 0 -0.2410690089377765 0.06269684984768556 0 -0.23894199771163591 0.079115076684348098 0 -0.25817220947922193 0.083631228929667178 0 -0.23894199771163591 0.079115076684348098 0 -0.23449714135245739 0.098591905977062022 0 -0.23894199771163591 0.079115076684348098 0 -0.22235681354152931 0.086088574263066764 0 -0.23449714135245739 0.098591905977062022 0 -0.2410690089377765 0.06269684984768556 0 -0.23894199771163591 0.079115076684348098 0 -0.2209275567952175 0.066546947851736662 0 -0.23894199771163591 0.079115076684348098 0 -0.22235681354152931 0.086088574263066764 0 -0.2209275567952175 0.066546947851736662 0 -0.2209275567952175 0.066546947851736662 0 -0.20582278955427261 0.080292745435994586 0 -0.19972739776002471 0.064860868045490294 0 -0.22235681354152931 0.086088574263066764 0 -0.2209275567952175 0.066546947851736662 0 -0.20582278955427261 0.080292745435994586 0 -0.22235681354152931 0.086088574263066764 0 -0.20582278955427261 0.080292745435994586 0 -0.20964019492248859 0.1050499578326053 0 -0.20582278955427261 0.080292745435994586 0 -0.19368992993442161 0.092249002628309332 0 -0.20964019492248859 0.1050499578326053 0 -0.18267495057822189 0.073308935571981398 0 -0.20582278955427261 0.080292745435994586 0 -0.19368992993442161 0.092249002628309332 0 -0.18267495057822189 0.073308935571981398 0 -0.18677119444599119 0.054011278391505643 0 -0.19972739776002471 0.064860868045490294 0 -0.18267495057822189 0.073308935571981398 0 -0.20582278955427261 0.080292745435994586 0 -0.19972739776002471 0.064860868045490294 0 -0.1807965020448071 0.11430480104176249 0 -0.20099355537286251 0.1228873360091944 0 -0.20964019492248859 0.1050499578326053 0 -0.1807965020448071 0.11430480104176249 0 -0.20099355537286251 0.1228873360091944 0 -0.1807965020448071 0.11430480104176249 0 -0.19368992993442161 0.092249002628309332 0 -0.20964019492248859 0.1050499578326053 0 -0.20099355537286251 0.1228873360091944 0 -0.2266623277859105 0.11520788225129661 0 -0.21013707198753731 0.12677278156385621 0 -0.20099355537286251 0.1228873360091944 0 -0.2266623277859105 0.11520788225129661 0 -0.20099355537286251 0.1228873360091944 0 -0.20964019492248859 0.1050499578326053 0 -0.2266623277859105 0.11520788225129661 0 -0.20099355537286251 0.1228873360091944 0 -0.21013707198753731 0.12677278156385621 0 -0.2266623277859105 0.11520788225129661 0 -0.23182230293312969 0.11918916301755569 0 -0.21013707198753731 0.12677278156385621 0 -0.23182230293312969 0.11918916301755569 0 -0.21013707198753731 0.12677278156385621 0 -0.23182230293312969 0.11918916301755569 0 -0.23184082777318371 0.12725660699035529 0 -0.21013707198753731 0.12677278156385621 0 -0.2266623277859105 0.11520788225129661 0 -0.23182230293312969 0.11918916301755569 0 -0.2426065221746222 0.1184147781426656 0 -0.23182230293312969 0.11918916301755569 0 -0.23724116890669339 0.12341427315168201 0 -0.23184082777318371 0.12725660699035529 0 -0.20964019492248859 0.1050499578326053 0 -0.2266623277859105 0.11520788225129661 0 -0.23449714135245739 0.098591905977062022 0 -0.22235681354152931 0.086088574263066764 0 -0.20964019492248859 0.1050499578326053 0 -0.23449714135245739 0.098591905977062022 0 -0.25233110019895871 0.1075284284933994 0 -0.25817220947922193 0.083631228929667178 0 -0.23449714135245739 0.098591905977062022 0 -0.25233110019895871 0.1075284284933994 0 -0.2266623277859105 0.11520788225129661 0 -0.23449714135245739 0.098591905977062022 0 -0.25233110019895871 0.1075284284933994 0 -0.2266623277859105 0.11520788225129661 0 -0.2426065221746222 0.1184147781426656 0 -0.26085550307746891 0.1200972237242246 0 -0.2426065221746222 0.1184147781426656 0 -0.24589548800783631 0.12616297823714651 0 -0.25233110019895871 0.1075284284933994 0 -0.2266623277859105 0.11520788225129661 0 -0.23182230293312969 0.11918916301755569 0 -0.23724116890669339 0.12341427315168201 0 -0.2426065221746222 0.1184147781426656 0 -0.23724116890669339 0.12341427315168201 0 -0.2426065221746222 0.1184147781426656 0 -0.24589548800783631 0.12616297823714651 0 -0.24589548800783631 0.12616297823714651 0 -0.2439554601546205 0.1336375746584898 0 -0.23779228991715401 0.12893495630342591 0 -0.25210526497973501 0.13178059591490179 0 -0.24589548800783631 0.12616297823714651 0 -0.2439554601546205 0.1336375746584898 0 -0.2439554601546205 0.1336375746584898 0 -0.22811649631173631 0.13441295735833139 0 -0.2460959206359353 0.1420531331528066 0 -0.22811649631173631 0.13441295735833139 0 -0.2460959206359353 0.1420531331528066 0 -0.2439554601546205 0.1336375746584898 0 -0.23779228991715401 0.12893495630342591 0 -0.22811649631173631 0.13441295735833139 0 -0.25372730107532632 0.13848082698432629 0 -0.2439554601546205 0.1336375746584898 0 -0.2460959206359353 0.1420531331528066 0 -0.25372730107532632 0.13848082698432629 0 -0.25210526497973501 0.13178059591490179 0 -0.2439554601546205 0.1336375746584898 0 -0.25372730107532632 0.13848082698432629 0 -0.2460959206359353 0.1420531331528066 0 -0.23724116890669339 0.12341427315168201 0 -0.24589548800783631 0.12616297823714651 0 -0.23779228991715401 0.12893495630342591 0 -0.23724116890669339 0.12341427315168201 0 -0.23779228991715401 0.12893495630342591 0 -0.23184082777318371 0.12725660699035529 0 -0.23184082777318371 0.12725660699035529 0 -0.22811649631173631 0.13441295735833139 0 -0.21013707198753731 0.12677278156385621 0 -0.23779228991715401 0.12893495630342591 0 -0.23184082777318371 0.12725660699035529 0 -0.22811649631173631 0.13441295735833139 0 -0.22811649631173631 0.13441295735833139 0 -0.22504815432736919 0.14396612940476419 0 -0.2460959206359353 0.1420531331528066 0 -0.22811649631173631 0.13441295735833139 0 -0.21013707198753731 0.12677278156385621 0 -0.22811649631173631 0.13441295735833139 0 -0.22504815432736919 0.14396612940476419 0 -0.21635091390460379 0.13909176359539629 0 -0.2194728425730231 0.1545155947930574 0 -0.22504815432736919 0.14396612940476419 0 -0.2460959206359353 0.1420531331528066 0 -0.2194728425730231 0.1545155947930574 0 -0.2460959206359353 0.1420531331528066 0 -0.2194728425730231 0.1545155947930574 0 -0.2387941262006068 0.15513175214698441 0 -0.22356330224349799 0.1590757905132551 0 -0.2194728425730231 0.1545155947930574 0 -0.22504815432736919 0.14396612940476419 0 -0.21520459821154839 0.14975719812423041 0 -0.22504815432736919 0.14396612940476419 0 -0.21635091390460379 0.13909176359539629 0 -0.21520459821154839 0.14975719812423041 0 -0.2194728425730231 0.1545155947930574 0 -0.2387941262006068 0.15513175214698441 0 -0.2460959206359353 0.1420531331528066 0 -0.25297912011680079 0.15414079139644829 0 -0.2387941262006068 0.15513175214698441 0 -0.2460959206359353 0.1420531331528066 0 -0.25143193596248581 0.166662886957337 0 -0.25297912011680079 0.15414079139644829 0 -0.2387941262006068 0.15513175214698441 0 -0.25143193596248581 0.166662886957337 0 -0.23925615687244289 0.17657076523044271 0 -0.22356330224349799 0.1590757905132551 0 -0.25143193596248581 0.166662886957337 0 -0.2387941262006068 0.15513175214698441 0 -0.22356330224349799 0.1590757905132551 0 -0.25143193596248581 0.166662886957337 0 -0.22356330224349799 0.1590757905132551 0 -0.25494901150138938 0.19406573994762891 0 -0.2373998300745109 0.18194639934005799 0 -0.2369968320138193 0.18582306410530039 0 -0.25494901150138938 0.19406573994762891 0 -0.23925615687244289 0.17657076523044271 0 -0.2373998300745109 0.18194639934005799 0 -0.25494901150138938 0.19406573994762891 0 -0.23925615687244289 0.17657076523044271 0 -0.25724179381568918 0.18025987749978181 0 -0.25143193596248581 0.166662886957337 0 -0.23925615687244289 0.17657076523044271 0 -0.2373998300745109 0.18194639934005799 0 -0.2369968320138193 0.18582306410530039 0 -0.23925615687244289 0.17657076523044271 0 -0.2373998300745109 0.18194639934005799 0 -0.21736471878226599 0.17680905298873559 0 -0.2373998300745109 0.18194639934005799 0 -0.2369968320138193 0.18582306410530039 0 -0.21736471878226599 0.17680905298873559 0 -0.2369968320138193 0.18582306410530039 0 -0.21736471878226599 0.17680905298873559 0 -0.23925615687244289 0.17657076523044271 0 -0.22356330224349799 0.1590757905132551 0 -0.23925615687244289 0.17657076523044271 0 -0.22356330224349799 0.1590757905132551 0 -0.21736471878226599 0.17680905298873559 0 -0.22356330224349799 0.1590757905132551 0 -0.21481750798669941 0.15669479167507891 0 -0.2194728425730231 0.1545155947930574 0 -0.22356330224349799 0.1590757905132551 0 -0.21481750798669941 0.15669479167507891 0 -0.2194728425730231 0.1545155947930574 0 -0.22356330224349799 0.1590757905132551 0 -0.21481750798669941 0.15669479167507891 0 -0.20044048213150331 0.1634247848335669 0 -0.19449707001368641 0.15116265385153529 0 -0.21105988307026721 0.16738906251675009 0 -0.21736471878226599 0.17680905298873559 0 -0.19773260555071229 0.1677950418721719 0 -0.22356330224349799 0.1590757905132551 0 -0.21481750798669941 0.15669479167507891 0 -0.21105988307026721 0.16738906251675009 0 -0.22356330224349799 0.1590757905132551 0 -0.21105988307026721 0.16738906251675009 0 -0.21736471878226599 0.17680905298873559 0 -0.21481750798669941 0.15669479167507891 0 -0.21105988307026721 0.16738906251675009 0 -0.20044048213150331 0.1634247848335669 0 -0.21481750798669941 0.15669479167507891 0 -0.20044048213150331 0.1634247848335669 0 -0.21736471878226599 0.17680905298873559 0 -0.19773260555071229 0.1677950418721719 0 -0.20185780095625999 0.1902557675221947 0 -0.21736471878226599 0.17680905298873559 0 -0.19773260555071229 0.1677950418721719 0 -0.19773260555071229 0.1677950418721719 0 -0.1819852057503562 0.1932098577856525 0 -0.18468906785984471 0.17079813947258859 0 -0.19773260555071229 0.1677950418721719 0 -0.1819852057503562 0.1932098577856525 0 -0.19773260555071229 0.1677950418721719 0 -0.20185780095625999 0.1902557675221947 0 -0.1819852057503562 0.1932098577856525 0 -0.20044048213150331 0.1634247848335669 0 -0.19511557201736801 0.15993277311183471 0 -0.19449707001368641 0.15116265385153529 0 -0.20044048213150331 0.1634247848335669 0 -0.19438650971674939 0.1662586945269442 0 -0.19511557201736801 0.15993277311183471 0 -0.21105988307026721 0.16738906251675009 0 -0.20044048213150331 0.1634247848335669 0 -0.19773260555071229 0.1677950418721719 0 -0.20044048213150331 0.1634247848335669 0 -0.19773260555071229 0.1677950418721719 0 -0.20044048213150331 0.1634247848335669 0 -0.19438650971674939 0.1662586945269442 0 -0.20044048213150331 0.1634247848335669 0 -0.19773260555071229 0.1677950418721719 0 -0.19438650971674939 0.1662586945269442 0 -0.19773260555071229 0.1677950418721719 0 -0.19438650971674939 0.1662586945269442 0 -0.19773260555071229 0.1677950418721719 0 -0.19438650971674939 0.1662586945269442 0 -0.18468906785984471 0.17079813947258859 0 -0.19438650971674939 0.1662586945269442 0 -0.18468906785984471 0.17079813947258859 0 -0.19438650971674939 0.1662586945269442 0 -0.19511557201736801 0.15993277311183471 0 -0.18606945463788019 0.15543794887759471 0 -0.19449707001368641 0.15116265385153529 0 -0.2040062850461746 0.1402180675120866 0 -0.18403148812107969 0.13590225731020181 0 -0.19449707001368641 0.15116265385153529 0 -0.18403148812107969 0.13590225731020181 0 -0.18606945463788019 0.15543794887759471 0 -0.19511557201736801 0.15993277311183471 0 -0.19449707001368641 0.15116265385153529 0 -0.18606945463788019 0.15543794887759471 0 -0.20099355537286251 0.1228873360091944 0 -0.17978115666180541 0.12923355437812661 0 -0.21013707198753731 0.12677278156385621 0 -0.18403148812107969 0.13590225731020181 0 -0.20099355537286251 0.1228873360091944 0 -0.21013707198753731 0.12677278156385621 0 -0.18403148812107969 0.13590225731020181 0 -0.2040062850461746 0.1402180675120866 0 -0.21013707198753731 0.12677278156385621 0 -0.18403148812107969 0.13590225731020181 0 -0.20099355537286251 0.1228873360091944 0 -0.18403148812107969 0.13590225731020181 0 -0.17978115666180541 0.12923355437812661 0 -0.2040062850461746 0.1402180675120866 0 -0.21013707198753731 0.12677278156385621 0 -0.21635091390460379 0.13909176359539629 0 -0.22811649631173631 0.13441295735833139 0 -0.21013707198753731 0.12677278156385621 0 -0.21635091390460379 0.13909176359539629 0 -0.21481750798669941 0.15669479167507891 0 -0.19449707001368641 0.15116265385153529 0 -0.2040062850461746 0.1402180675120866 0 -0.21635091390460379 0.13909176359539629 0 -0.21520459821154839 0.14975719812423041 0 -0.21481750798669941 0.15669479167507891 0 -0.19449707001368641 0.15116265385153529 0 -0.21520459821154839 0.14975719812423041 0 -0.19449707001368641 0.15116265385153529 0 -0.2040062850461746 0.1402180675120866 0 -0.21520459821154839 0.14975719812423041 0 -0.2194728425730231 0.1545155947930574 0 -0.21520459821154839 0.14975719812423041 0 -0.2194728425730231 0.1545155947930574 0 -0.21481750798669941 0.15669479167507891 0 -0.21520459821154839 0.14975719812423041 0 -0.2194728425730231 0.1545155947930574 0 -0.21481750798669941 0.15669479167507891 0 -0.21347215756102739 0.25251870249194708 0 -0.23149411076855561 0.23875683139904441 0 -0.22940925178741731 0.25881226129073298 0 -0.23149411076855561 0.23875683139904441 0 -0.23966954056684589 0.24974278742119771 0 -0.22940925178741731 0.25881226129073298 0 -0.23149411076855561 0.23875683139904441 0 -0.23149411076855561 0.23875683139904441 0 -0.23966954056684589 0.24974278742119771 0 -0.24037487428319329 0.2406829616640776 0 -0.25118169536926999 0.24232664462912029 0 -0.25326758024003238 0.25706308409811779 0 -0.23966954056684589 0.24974278742119771 0 -0.25118169536926999 0.24232664462912029 0 -0.23966954056684589 0.24974278742119771 0 -0.24037487428319329 0.2406829616640776 0 -0.25118169536926999 0.24232664462912029 0 -0.24037487428319329 0.2406829616640776 0 -0.24085534625018751 0.23160843219474819 0 -0.25438630058476719 0.23159706701897281 0 -0.25118169536926999 0.24232664462912029 0 -0.24085534625018751 0.23160843219474819 0 -0.23149411076855561 0.23875683139904441 0 -0.24037487428319329 0.2406829616640776 0 -0.24085534625018751 0.23160843219474819 0 -0.23149411076855561 0.23875683139904441 0 -0.24085534625018751 0.23160843219474819 0 -0.23149411076855561 0.23875683139904441 0 -0.24085534625018751 0.23160843219474819 0 -0.2342454713911879 0.2122899477521725 0 -0.24085534625018751 0.23160843219474819 0 -0.24662169849348139 0.220491517552519 0 -0.2342454713911879 0.2122899477521725 0 -0.25438630058476719 0.23159706701897281 0 -0.24085534625018751 0.23160843219474819 0 -0.24662169849348139 0.220491517552519 0 -0.23149411076855561 0.23875683139904441 0 -0.2200080465644623 0.22231232186067501 0 -0.2342454713911879 0.2122899477521725 0 -0.23149411076855561 0.23875683139904441 0 -0.2342454713911879 0.2122899477521725 0 -0.23149411076855561 0.23875683139904441 0 -0.2200080465644623 0.22231232186067501 0 -0.2101276960054948 0.2361339902906581 0 -0.2200080465644623 0.22231232186067501 0 -0.2342454713911879 0.2122899477521725 0 -0.21567093900155471 0.20243484198870251 0 -0.24662169849348139 0.220491517552519 0 -0.2342454713911879 0.2122899477521725 0 -0.24823958982994451 0.20761031216453971 0 -0.25494901150138938 0.19406573994762891 0 -0.2369968320138193 0.18582306410530039 0 -0.24823958982994451 0.20761031216453971 0 -0.2369968320138193 0.18582306410530039 0 -0.2342454713911879 0.2122899477521725 0 -0.25494901150138938 0.19406573994762891 0 -0.2369968320138193 0.18582306410530039 0 -0.2369968320138193 0.18582306410530039 0 -0.2342454713911879 0.2122899477521725 0 -0.24823958982994451 0.20761031216453971 0 -0.2369968320138193 0.18582306410530039 0 -0.21736471878226599 0.17680905298873559 0 -0.21567093900155471 0.20243484198870251 0 -0.2369968320138193 0.18582306410530039 0 -0.2342454713911879 0.2122899477521725 0 -0.21567093900155471 0.20243484198870251 0 -0.21567093900155471 0.20243484198870251 0 -0.20185780095625999 0.1902557675221947 0 -0.19653553569641061 0.21103004297571101 0 -0.21736471878226599 0.17680905298873559 0 -0.21567093900155471 0.20243484198870251 0 -0.20185780095625999 0.1902557675221947 0 -0.20185780095625999 0.1902557675221947 0 -0.19653553569641061 0.21103004297571101 0 -0.1819852057503562 0.1932098577856525 0 -0.21567093900155471 0.20243484198870251 0 -0.19653553569641061 0.21103004297571101 0 -0.2064846219074119 0.22115202600373809 0 -0.2200080465644623 0.22231232186067501 0 -0.21567093900155471 0.20243484198870251 0 -0.2064846219074119 0.22115202600373809 0 -0.2200080465644623 0.22231232186067501 0 -0.2064846219074119 0.22115202600373809 0 -0.2101276960054948 0.2361339902906581 0 -0.2064846219074119 0.22115202600373809 0 -0.19609131129152779 0.2321974609416966 0 -0.2101276960054948 0.2361339902906581 0 -0.19653553569641061 0.21103004297571101 0 -0.19609131129152779 0.2321974609416966 0 -0.18116455862076289 0.22541106732041791 0 -0.19653553569641061 0.21103004297571101 0 -0.2064846219074119 0.22115202600373809 0 -0.19609131129152779 0.2321974609416966 0 -0.19609131129152779 0.2321974609416966 0 -0.18116455862076289 0.22541106732041791 0 -0.19609131129152779 0.2321974609416966 0 -0.18534258089922581 0.23832195933858399 0 -0.18116455862076289 0.22541106732041791 0 -0.19609131129152779 0.2321974609416966 0 -0.19622113745117939 0.24904086306622361 0 -0.2101276960054948 0.2361339902906581 0 -0.19609131129152779 0.2321974609416966 0 -0.19622113745117939 0.24904086306622361 0 -0.18534258089922581 0.23832195933858399 0 -0.21347215756102739 0.25251870249194708 0 -0.23149411076855561 0.23875683139904441 0 -0.2101276960054948 0.2361339902906581 0 -0.21347215756102739 0.25251870249194708 0 -0.19622113745117939 0.24904086306622361 0 -0.2101276960054948 0.2361339902906581 0 -0.159677140666034 0.2527399548196706 0 -0.16231477710640119 0.2462781787596923 0 -0.16871246723279221 0.24889991057487421 0 -0.159677140666034 0.2527399548196706 0 -0.16231477710640119 0.2462781787596923 0 -0.15701760608405929 0.24348323364938659 0 -0.16231477710640119 0.2462781787596923 0 -0.15701760608405929 0.24348323364938659 0 -0.1638518944427195 0.2399896159948379 0 -0.15701760608405929 0.24348323364938659 0 -0.1638518944427195 0.2399896159948379 0 -0.15272502220143991 0.2404330303676778 0 -0.1638518944427195 0.2399896159948379 0 -0.16871246723279221 0.24889991057487421 0 -0.17358703122090599 0.23640657315378361 0 -0.16231477710640119 0.2462781787596923 0 -0.1638518944427195 0.2399896159948379 0 -0.16871246723279221 0.24889991057487421 0 -0.19622113745117939 0.24904086306622361 0 -0.179648865911753 0.2485538322107981 0 -0.18534258089922581 0.23832195933858399 0 -0.16871246723279221 0.24889991057487421 0 -0.179648865911753 0.2485538322107981 0 -0.17358703122090599 0.23640657315378361 0 -0.179648865911753 0.2485538322107981 0 -0.18534258089922581 0.23832195933858399 0 -0.17358703122090599 0.23640657315378361 0 -0.17358703122090599 0.23640657315378361 0 -0.18116455862076289 0.22541106732041791 0 -0.16623780595000059 0.21862467369913341 0 -0.18534258089922581 0.23832195933858399 0 -0.17358703122090599 0.23640657315378361 0 -0.18116455862076289 0.22541106732041791 0 -0.18116455862076289 0.22541106732041791 0 -0.16623780595000059 0.21862467369913341 0 -0.1638518944427195 0.2399896159948379 0 -0.17358703122090599 0.23640657315378361 0 -0.16623780595000059 0.21862467369913341 0 -0.16623780595000059 0.21862467369913341 0 -0.15332008533108929 0.21275167916756141 0 -0.15272502220143991 0.2404330303676778 0 -0.1638518944427195 0.2399896159948379 0 -0.16623780595000059 0.21862467369913341 0 -0.15272502220143991 0.2404330303676778 0 -0.16623780595000059 0.21862467369913341 0 -0.15272502220143991 0.2404330303676778 0 -0.19653553569641061 0.21103004297571101 0 -0.18116455862076289 0.22541106732041791 0 -0.1819852057503562 0.1932098577856525 0 -0.18116455862076289 0.22541106732041791 0 -0.16623780595000059 0.21862467369913341 0 -0.1819852057503562 0.1932098577856525 0 -0.16623780595000059 0.21862467369913341 0 -0.1819852057503562 0.1932098577856525 0 -0.1651550615733284 0.19903682716991661 0 -0.16623780595000059 0.21862467369913341 0 -0.1651550615733284 0.19903682716991661 0 -0.15332008533108929 0.21275167916756141 0 -0.16623780595000059 0.21862467369913341 0 -0.15332008533108929 0.21275167916756141 0 -0.16623780595000059 0.21862467369913341 0 -0.1819852057503562 0.1932098577856525 0 -0.1819852057503562 0.1932098577856525 0 -0.1651550615733284 0.19903682716991661 0 -0.16937685252959631 0.18041956140001289 0 -0.1651550615733284 0.19903682716991661 0 -0.1548553583055999 0.1901783637972235 0 -0.16937685252959631 0.18041956140001289 0 -0.1651550615733284 0.19903682716991661 0 -0.1548553583055999 0.1901783637972235 0 -0.15332008533108929 0.21275167916756141 0 -0.14824242464794049 0.1889689502862322 0 -0.13855442272930971 0.19261048031147929 0 -0.15332008533108929 0.21275167916756141 0 -0.1548553583055999 0.1901783637972235 0 -0.14824242464794049 0.1889689502862322 0 -0.15332008533108929 0.21275167916756141 0 -0.1548553583055999 0.1901783637972235 0 -0.15332008533108929 0.21275167916756141 0 -0.13855442272930971 0.19261048031147929 0 -0.13203625478152251 0.20307506329109579 0 -0.15332008533108929 0.21275167916756141 0 -0.14824242464794049 0.1889689502862322 0 -0.13855442272930971 0.19261048031147929 0 -0.1384883571012763 0.18117922521568741 0 -0.13203625478152251 0.20307506329109579 0 -0.12688807041861741 0.17656891077308301 0 -0.13203625478152251 0.20307506329109579 0 -0.12688807041861741 0.17656891077308301 0 -0.1194754936942608 0.18715720688671289 0 -0.13855442272930971 0.19261048031147929 0 -0.13203625478152251 0.20307506329109579 0 -0.12688807041861741 0.17656891077308301 0 -0.13203625478152251 0.20307506329109579 0 -0.1371414165692042 0.22935970801910141 0 -0.1157883856557919 0.21418677564368521 0 -0.13203625478152251 0.20307506329109579 0 -0.1371414165692042 0.22935970801910141 0 -0.13203625478152251 0.20307506329109579 0 -0.15332008533108929 0.21275167916756141 0 -0.1371414165692042 0.22935970801910141 0 -0.13203625478152251 0.20307506329109579 0 -0.15332008533108929 0.21275167916756141 0 -0.15332008533108929 0.21275167916756141 0 -0.1371414165692042 0.22935970801910141 0 -0.15272502220143991 0.2404330303676778 0 -0.15332008533108929 0.21275167916756141 0 -0.15272502220143991 0.2404330303676778 0 -0.1371414165692042 0.22935970801910141 0 -0.1157883856557919 0.21418677564368521 0 -0.1371414165692042 0.22935970801910141 0 -0.12655140489496089 0.23844128907215831 0 -0.1201745765770706 0.2286753539981555 0 -0.1371414165692042 0.22935970801910141 0 -0.13849364616330731 0.23632185259941421 0 -0.1371414165692042 0.22935970801910141 0 -0.13849364616330731 0.23632185259941421 0 -0.12655140489496089 0.23844128907215831 0 -0.13849364616330731 0.23632185259941421 0 -0.12655140489496089 0.23844128907215831 0 -0.1308394710298327 0.2488483282277692 0 -0.13849364616330731 0.23632185259941421 0 -0.1308394710298327 0.2488483282277692 0 -0.14242645318165731 0.24442352261436001 0 -0.1371414165692042 0.22935970801910141 0 -0.15272502220143991 0.2404330303676778 0 -0.13849364616330731 0.23632185259941421 0 -0.14242645318165731 0.24442352261436001 0 -0.15272502220143991 0.2404330303676778 0 -0.1371414165692042 0.22935970801910141 0 -0.13849364616330731 0.23632185259941421 0 -0.15272502220143991 0.2404330303676778 0 -0.15272502220143991 0.2404330303676778 0 -0.1512786367118952 0.2427673599346426 0 -0.15701760608405929 0.24348323364938659 0 -0.15272502220143991 0.2404330303676778 0 -0.15701760608405929 0.24348323364938659 0 -0.15272502220143991 0.2404330303676778 0 -0.1512786367118952 0.2427673599346426 0 -0.159677140666034 0.2527399548196706 0 -0.15701760608405929 0.24348323364938659 0 -0.1512786367118952 0.2427673599346426 0 -0.14242645318165731 0.24442352261436001 0 -0.15272502220143991 0.2404330303676778 0 -0.1512786367118952 0.2427673599346426 0 -0.15792590425462219 0.1450317330565479 0 -0.18403148812107969 0.13590225731020181 0 -0.15856875795074729 0.13557977274705571 0 -0.17978115666180541 0.12923355437812661 0 -0.1700393343631619 0.1211506631735299 0 -0.15856875795074729 0.13557977274705571 0 -0.17978115666180541 0.12923355437812661 0 -0.15792590425462219 0.1450317330565479 0 -0.15856875795074729 0.13557977274705571 0 -0.15792590425462219 0.1450317330565479 0 -0.15856875795074729 0.13557977274705571 0 -0.18403148812107969 0.13590225731020181 0 -0.1700393343631619 0.1211506631735299 0 -0.15948355971711359 0.12085224137322439 0 -0.15856875795074729 0.13557977274705571 0 -0.15948355971711359 0.12085224137322439 0 -0.15856875795074729 0.13557977274705571 0 -0.15856875795074729 0.13557977274705571 0 -0.18403148812107969 0.13590225731020181 0 -0.17978115666180541 0.12923355437812661 0 -0.15792590425462219 0.1450317330565479 0 -0.18403148812107969 0.13590225731020181 0 -0.17377546374296929 0.15679521011544009 0 -0.18403148812107969 0.13590225731020181 0 -0.18606945463788019 0.15543794887759471 0 -0.17377546374296929 0.15679521011544009 0 -0.19438650971674939 0.1662586945269442 0 -0.18606945463788019 0.15543794887759471 0 -0.17377546374296929 0.15679521011544009 0 -0.19438650971674939 0.1662586945269442 0 -0.17377546374296929 0.15679521011544009 0 -0.19438650971674939 0.1662586945269442 0 -0.18468906785984471 0.17079813947258859 0 -0.17377546374296929 0.15679521011544009 0 -0.18468906785984471 0.17079813947258859 0 -0.17377546374296929 0.15679521011544009 0 -0.17105800385313061 0.1689044898537318 0 -0.1819852057503562 0.1932098577856525 0 -0.18468906785984471 0.17079813947258859 0 -0.16937685252959631 0.18041956140001289 0 -0.18468906785984471 0.17079813947258859 0 -0.16937685252959631 0.18041956140001289 0 -0.17105800385313061 0.1689044898537318 0 -0.1548553583055999 0.1901783637972235 0 -0.16937685252959631 0.18041956140001289 0 -0.1563906312801121 0.16760504842688581 0 -0.16937685252959631 0.18041956140001289 0 -0.17105800385313061 0.1689044898537318 0 -0.1563906312801121 0.16760504842688581 0 -0.17377546374296929 0.15679521011544009 0 -0.17105800385313061 0.1689044898537318 0 -0.1563906312801121 0.16760504842688581 0 -0.15792590425462219 0.1450317330565479 0 -0.17377546374296929 0.15679521011544009 0 -0.1563906312801121 0.16760504842688581 0 -0.15792590425462219 0.1450317330565479 0 -0.1563906312801121 0.16760504842688581 0 -0.14423177850247279 0.17009614076289009 0 -0.1402211323570057 0.1512233312395479 0 -0.15792590425462219 0.1450317330565479 0 -0.1563906312801121 0.16760504842688581 0 -0.14836577318213759 0.15935507433709289 0 -0.14423177850247279 0.17009614076289009 0 -0.14836577318213759 0.15935507433709289 0 -0.1402211323570057 0.1512233312395479 0 -0.1563906312801121 0.16760504842688581 0 -0.14423177850247279 0.17009614076289009 0 -0.14836577318213759 0.15935507433709289 0 -0.14824242464794049 0.1889689502862322 0 -0.1563906312801121 0.16760504842688581 0 -0.14423177850247279 0.17009614076289009 0 -0.1548553583055999 0.1901783637972235 0 -0.14824242464794049 0.1889689502862322 0 -0.1563906312801121 0.16760504842688581 0 -0.14824242464794049 0.1889689502862322 0 -0.14423177850247279 0.17009614076289009 0 -0.14824242464794049 0.1889689502862322 0 -0.14423177850247279 0.17009614076289009 0 -0.1384883571012763 0.18117922521568741 0 -0.1548553583055999 0.1901783637972235 0 -0.1563906312801121 0.16760504842688581 0 -0.14423177850247279 0.17009614076289009 0 -0.12688807041861741 0.17656891077308301 0 -0.1384883571012763 0.18117922521568741 0 -0.13855442272930971 0.19261048031147929 0 -0.12688807041861741 0.17656891077308301 0 -0.1384883571012763 0.18117922521568741 0 -0.14423177850247279 0.17009614076289009 0 -0.12688807041861741 0.17656891077308301 0 -0.13566051708140711 0.1609116208342562 0 -0.14423177850247279 0.17009614076289009 0 -0.13566051708140711 0.1609116208342562 0 -0.1402211323570057 0.1512233312395479 0 -0.12688807041861741 0.17656891077308301 0 -0.13566051708140711 0.1609116208342562 0 -0.121739886055709 0.1500627582550709 0 -0.13109304467505881 0.1519615702176848 0 -0.1301927102352701 0.14610419784718881 0 -0.121739886055709 0.1500627582550709 0 -0.13566051708140711 0.1609116208342562 0 -0.13109304467505881 0.1519615702176848 0 -0.121739886055709 0.1500627582550709 0 -0.13109304467505881 0.1519615702176848 0 -0.1301927102352701 0.14610419784718881 0 -0.13561007005577799 0.14849875529799941 0 -0.1301927102352701 0.14610419784718881 0 -0.12891008408878199 0.1369512370085883 0 -0.121739886055709 0.1500627582550709 0 -0.1301927102352701 0.14610419784718881 0 -0.1336104663010225 0.1430466684566008 0 -0.12891008408878199 0.1369512370085883 0 -0.1381922199225388 0.14167592253621669 0 -0.13561007005577799 0.14849875529799941 0 -0.1402211323570057 0.1512233312395479 0 -0.1381922199225388 0.14167592253621669 0 -0.1402211323570057 0.1512233312395479 0 -0.1336104663010225 0.1430466684566008 0 -0.1381922199225388 0.14167592253621669 0 -0.1336104663010225 0.1430466684566008 0 -0.1381922199225388 0.14167592253621669 0 -0.13561007005577799 0.14849875529799941 0 -0.1301927102352701 0.14610419784718881 0 -0.1336104663010225 0.1430466684566008 0 -0.13561007005577799 0.14849875529799941 0 -0.13566051708140711 0.1609116208342562 0 -0.13109304467505881 0.1519615702176848 0 -0.135575674749777 0.153383830439282 0 -0.13566051708140711 0.1609116208342562 0 -0.135575674749777 0.153383830439282 0 -0.1402211323570057 0.1512233312395479 0 -0.13109304467505881 0.1519615702176848 0 -0.135575674749777 0.153383830439282 0 -0.13561007005577799 0.14849875529799941 0 -0.135575674749777 0.153383830439282 0 -0.13561007005577799 0.14849875529799941 0 -0.1402211323570057 0.1512233312395479 0 -0.15792590425462219 0.1450317330565479 0 -0.1381922199225388 0.14167592253621669 0 -0.1402211323570057 0.1512233312395479 0 -0.15792590425462219 0.1450317330565479 0 -0.15856875795074729 0.13557977274705571 0 -0.1381922199225388 0.14167592253621669 0 -0.15792590425462219 0.1450317330565479 0 -0.1402211323570057 0.1512233312395479 0 -0.15792590425462219 0.1450317330565479 0 -0.14836577318213759 0.15935507433709289 0 -0.1402211323570057 0.1512233312395479 0 -0.15856875795074729 0.13557977274705571 0 -0.1381922199225388 0.14167592253621669 0 -0.14645554820955589 0.12506885999065009 0 -0.15856875795074729 0.13557977274705571 0 -0.1381922199225388 0.14167592253621669 0 -0.15948355971711359 0.12085224137322439 0 -0.15856875795074729 0.13557977274705571 0 -0.14645554820955589 0.12506885999065009 0 -0.13282892113159689 0.1164379651530635 0 -0.12891008408878199 0.1369512370085883 0 -0.1165917016928006 0.12355660573705871 0 -0.13282892113159689 0.1164379651530635 0 -0.1381922199225388 0.14167592253621669 0 -0.12891008408878199 0.1369512370085883 0 -0.13282892113159689 0.1164379651530635 0 -0.1381922199225388 0.14167592253621669 0 -0.14645554820955589 0.12506885999065009 0 -0.13282892113159689 0.1164379651530635 0 -0.1381922199225388 0.14167592253621669 0 -0.1336104663010225 0.1430466684566008 0 -0.1381922199225388 0.14167592253621669 0 -0.12891008408878199 0.1369512370085883 0 -0.121739886055709 0.1500627582550709 0 -0.1165917016928006 0.12355660573705871 0 -0.102785925530629 0.13104505210542769 0 -0.1104761281940943 0.14107850709363931 0 -0.1165917016928006 0.12355660573705871 0 -0.12891008408878199 0.1369512370085883 0 -0.121739886055709 0.1500627582550709 0 -0.1165917016928006 0.12355660573705871 0 -0.1104761281940943 0.14107850709363931 0 -0.121739886055709 0.1500627582550709 0 -0.1165917016928006 0.12355660573705871 0 -0.102785925530629 0.13104505210542769 0 -0.1010662197610699 0.14674880002015009 0 -0.087378640859265222 0.13660977040495259 0 -0.102785925530629 0.13104505210542769 0 -0.1010662197610699 0.14674880002015009 0 -0.1104761281940943 0.14107850709363931 0 -0.1010662197610699 0.14674880002015009 0 -0.11019690793026291 0.15397931935048911 0 -0.10015918113466291 0.16394916056261541 0 -0.1010662197610699 0.14674880002015009 0 -0.10015918113466291 0.16394916056261541 0 -0.088683306081730626 0.15257203353808119 0 -0.1010662197610699 0.14674880002015009 0 -0.11019690793026291 0.15397931935048911 0 -0.1104761281940943 0.14107850709363931 0 -0.11019690793026291 0.15397931935048911 0 -0.1104761281940943 0.14107850709363931 0 -0.121739886055709 0.1500627582550709 0 -0.12688807041861741 0.17656891077308301 0 -0.121739886055709 0.1500627582550709 0 -0.12688807041861741 0.17656891077308301 0 -0.121739886055709 0.1500627582550709 0 -0.1132419382810855 0.1651648927037741 0 -0.11019690793026291 0.15397931935048911 0 -0.121739886055709 0.1500627582550709 0 -0.1132419382810855 0.1651648927037741 0 -0.12688807041861741 0.17656891077308301 0 -0.1132419382810855 0.1651648927037741 0 -0.1098705528849797 0.17884779087582101 0 -0.12688807041861741 0.17656891077308301 0 -0.1194754936942608 0.18715720688671289 0 -0.1098705528849797 0.17884779087582101 0 -0.1194754936942608 0.18715720688671289 0 -0.1098705528849797 0.17884779087582101 0 -0.1082089982703084 0.19224208808430829 0 -0.1098705528849797 0.17884779087582101 0 -0.09550636471424348 0.18153330708601101 0 -0.10015918113466291 0.16394916056261541 0 -0.1098705528849797 0.17884779087582101 0 -0.09550636471424348 0.18153330708601101 0 -0.1082089982703084 0.19224208808430829 0 -0.11019690793026291 0.15397931935048911 0 -0.1132419382810855 0.1651648927037741 0 -0.10015918113466291 0.16394916056261541 0 -0.1132419382810855 0.1651648927037741 0 -0.1098705528849797 0.17884779087582101 0 -0.10015918113466291 0.16394916056261541 0 -0.10015918113466291 0.16394916056261541 0 -0.080664831439192675 0.1677724490829792 0 -0.088683306081730626 0.15257203353808119 0 -0.080664831439192675 0.1677724490829792 0 -0.074282019591657367 0.15048233791064369 0 -0.088683306081730626 0.15257203353808119 0 -0.09550636471424348 0.18153330708601101 0 -0.10015918113466291 0.16394916056261541 0 -0.080664831439192675 0.1677724490829792 0 -0.09550636471424348 0.18153330708601101 0 -0.080664831439192675 0.1677724490829792 0 -0.080333382999105959 0.18498730633286009 0 -0.080664831439192675 0.1677724490829792 0 -0.080333382999105959 0.18498730633286009 0 -0.065240259260107708 0.17467356102914591 0 -0.080333382999105959 0.18498730633286009 0 -0.065240259260107708 0.17467356102914591 0 -0.066735121618555993 0.18873861447571941 0 -0.080664831439192675 0.1677724490829792 0 -0.074282019591657367 0.15048233791064369 0 -0.062155435182972819 0.16076775616370209 0 -0.080664831439192675 0.1677724490829792 0 -0.065240259260107708 0.17467356102914591 0 -0.062155435182972819 0.16076775616370209 0 -0.074282019591657367 0.15048233791064369 0 -0.056519278583926413 0.137676974217052 0 -0.062155435182972819 0.16076775616370209 0 -0.074282019591657367 0.15048233791064369 0 -0.07227697969267427 0.12976460446056379 0 -0.087378640859265222 0.13660977040495259 0 -0.074282019591657367 0.15048233791064369 0 -0.07227697969267427 0.12976460446056379 0 -0.056519278583926413 0.137676974217052 0 -0.102785925530629 0.13104505210542769 0 -0.087378640859265222 0.13660977040495259 0 -0.086710529424237515 0.1216991122054919 0 -0.07227697969267427 0.12976460446056379 0 -0.087378640859265222 0.13660977040495259 0 -0.086710529424237515 0.1216991122054919 0 -0.074282019591657367 0.15048233791064369 0 -0.087378640859265222 0.13660977040495259 0 -0.088683306081730626 0.15257203353808119 0 -0.1010662197610699 0.14674880002015009 0 -0.087378640859265222 0.13660977040495259 0 -0.088683306081730626 0.15257203353808119 0 -0.094297662418357825 0.24434196597060751 0 -0.11264624351824019 0.23759116350031781 0 -0.1075601554118467 0.2254985062089328 0 -0.1146474182889652 0.25099870225173498 0 -0.094297662418357825 0.24434196597060751 0 -0.11264624351824019 0.23759116350031781 0 -0.094297662418357825 0.24434196597060751 0 -0.1075601554118467 0.2254985062089328 0 -0.1146474182889652 0.25099870225173498 0 -0.12655140489496089 0.23844128907215831 0 -0.1308394710298327 0.2488483282277692 0 -0.1146474182889652 0.25099870225173498 0 -0.12655140489496089 0.23844128907215831 0 -0.11264624351824019 0.23759116350031781 0 -0.12655140489496089 0.23844128907215831 0 -0.11264624351824019 0.23759116350031781 0 -0.1201745765770706 0.2286753539981555 0 -0.11264624351824019 0.23759116350031781 0 -0.1201745765770706 0.2286753539981555 0 -0.1075601554118467 0.2254985062089328 0 -0.1371414165692042 0.22935970801910141 0 -0.1201745765770706 0.2286753539981555 0 -0.1157883856557919 0.21418677564368521 0 -0.1201745765770706 0.2286753539981555 0 -0.1075601554118467 0.2254985062089328 0 -0.1157883856557919 0.21418677564368521 0 -0.094297662418357825 0.24434196597060751 0 -0.1075601554118467 0.2254985062089328 0 -0.082114353121076872 0.2257723014061005 0 -0.1075601554118467 0.2254985062089328 0 -0.09989557694439774 0.212414263850778 0 -0.082114353121076872 0.2257723014061005 0 -0.09989557694439774 0.212414263850778 0 -0.1157883856557919 0.21418677564368521 0 -0.094435354742379546 0.1990138432682689 0 -0.1157883856557919 0.21418677564368521 0 -0.094435354742379546 0.1990138432682689 0 -0.1075601554118467 0.2254985062089328 0 -0.09989557694439774 0.212414263850778 0 -0.1157883856557919 0.21418677564368521 0 -0.13203625478152251 0.20307506329109579 0 -0.1157883856557919 0.21418677564368521 0 -0.1082089982703084 0.19224208808430829 0 -0.13203625478152251 0.20307506329109579 0 -0.1082089982703084 0.19224208808430829 0 -0.13203625478152251 0.20307506329109579 0 -0.1194754936942608 0.18715720688671289 0 -0.1082089982703084 0.19224208808430829 0 -0.09550636471424348 0.18153330708601101 0 -0.1082089982703084 0.19224208808430829 0 -0.094435354742379546 0.1990138432682689 0 -0.1157883856557919 0.21418677564368521 0 -0.1082089982703084 0.19224208808430829 0 -0.094435354742379546 0.1990138432682689 0 -0.09550636471424348 0.18153330708601101 0 -0.080333382999105959 0.18498730633286009 0 -0.094435354742379546 0.1990138432682689 0 -0.094435354742379546 0.1990138432682689 0 -0.080383673461114233 0.1976083232081422 0 -0.082372491622983893 0.20847499375769779 0 -0.080333382999105959 0.18498730633286009 0 -0.094435354742379546 0.1990138432682689 0 -0.080383673461114233 0.1976083232081422 0 -0.080333382999105959 0.18498730633286009 0 -0.080383673461114233 0.1976083232081422 0 -0.066735121618555993 0.18873861447571941 0 -0.066735121618555993 0.18873861447571941 0 -0.068202902174654176 0.2010249259348573 0 -0.054516716326720151 0.19432440830603279 0 -0.080383673461114233 0.1976083232081422 0 -0.066735121618555993 0.18873861447571941 0 -0.068202902174654176 0.2010249259348573 0 -0.080383673461114233 0.1976083232081422 0 -0.068202902174654176 0.2010249259348573 0 -0.082372491622983893 0.20847499375769779 0 -0.068202902174654176 0.2010249259348573 0 -0.070044352823934897 0.21252289763753249 0 -0.082372491622983893 0.20847499375769779 0 -0.068202902174654176 0.2010249259348573 0 -0.070044352823934897 0.21252289763753249 0 -0.057556911301850519 0.207051872036565 0 -0.070044352823934897 0.21252289763753249 0 -0.06088960266095321 0.22159877288135521 0 -0.057556911301850519 0.207051872036565 0 -0.09989557694439774 0.212414263850778 0 -0.094435354742379546 0.1990138432682689 0 -0.082372491622983893 0.20847499375769779 0 -0.09989557694439774 0.212414263850778 0 -0.082372491622983893 0.20847499375769779 0 -0.082114353121076872 0.2257723014061005 0 -0.070044352823934897 0.21252289763753249 0 -0.082372491622983893 0.20847499375769779 0 -0.082114353121076872 0.2257723014061005 0 -0.09989557694439774 0.212414263850778 0 -0.082114353121076872 0.2257723014061005 0 -0.070044352823934897 0.21252289763753249 0 -0.082114353121076872 0.2257723014061005 0 -0.06088960266095321 0.22159877288135521 0 -0.082114353121076872 0.2257723014061005 0 -0.064333129297755975 0.23913033896142291 0 -0.082114353121076872 0.2257723014061005 0 -0.064333129297755975 0.23913033896142291 0 -0.06088960266095321 0.22159877288135521 0 -0.065146725769984384 0.25557775971542163 0 -0.077385408006408807 0.2456015583571669 0 -0.064333129297755975 0.23913033896142291 0 -0.082114353121076872 0.2257723014061005 0 -0.077385408006408807 0.2456015583571669 0 -0.064333129297755975 0.23913033896142291 0 -0.094297662418357825 0.24434196597060751 0 -0.082114353121076872 0.2257723014061005 0 -0.077385408006408807 0.2456015583571669 0 -0.046551905474436057 0.25248837651674683 0 -0.032464527279818488 0.24642702389396021 0 -0.043256638402520392 0.23226743861132451 0 -0.046551905474436057 0.25248837651674683 0 -0.043256638402520392 0.23226743861132451 0 -0.032464527279818488 0.24642702389396021 0 -0.043256638402520392 0.23226743861132451 0 -0.024354663311192942 0.23058776182367319 0 -0.046551905474436057 0.25248837651674683 0 -0.064333129297755975 0.23913033896142291 0 -0.043256638402520392 0.23226743861132451 0 -0.065146725769984384 0.25557775971542163 0 -0.046551905474436057 0.25248837651674683 0 -0.064333129297755975 0.23913033896142291 0 -0.046551905474436057 0.25248837651674683 0 -0.064333129297755975 0.23913033896142291 0 -0.06088960266095321 0.22159877288135521 0 -0.043256638402520392 0.23226743861132451 0 -0.049387093036663589 0.21326184077160151 0 -0.064333129297755975 0.23913033896142291 0 -0.06088960266095321 0.22159877288135521 0 -0.043256638402520392 0.23226743861132451 0 -0.043256638402520392 0.23226743861132451 0 -0.039961371330603949 0.21204650070590231 0 -0.043256638402520392 0.23226743861132451 0 -0.039961371330603949 0.21204650070590231 0 -0.049387093036663589 0.21326184077160151 0 -0.043256638402520392 0.23226743861132451 0 -0.032752818331228971 0.22027328627636919 0 -0.039961371330603949 0.21204650070590231 0 -0.043256638402520392 0.23226743861132451 0 -0.032752818331228971 0.22027328627636919 0 -0.024354663311192942 0.23058776182367319 0 -0.032752818331228971 0.22027328627636919 0 -0.031286937683437828 0.21086880979656589 0 -0.039961371330603949 0.21204650070590231 0 -0.031286937683437828 0.21086880979656589 0 -0.036215736248366777 0.2077913815050004 0 -0.030149551306474488 0.20242148298512061 0 -0.036215736248366777 0.2077913815050004 0 -0.043465084672950877 0.20582873253241291 0 -0.030149551306474488 0.20242148298512061 0 -0.031286937683437828 0.21086880979656589 0 -0.036215736248366777 0.2077913815050004 0 -0.039961371330603949 0.21204650070590231 0 -0.036215736248366777 0.2077913815050004 0 -0.043465084672950877 0.20582873253241291 0 -0.039961371330603949 0.21204650070590231 0 -0.043465084672950877 0.20582873253241291 0 -0.039961371330603949 0.21204650070590231 0 -0.049387093036663589 0.21326184077160151 0 -0.06088960266095321 0.22159877288135521 0 -0.049387093036663589 0.21326184077160151 0 -0.057556911301850519 0.207051872036565 0 -0.049387093036663589 0.21326184077160151 0 -0.057556911301850519 0.207051872036565 0 -0.05010480601233451 0.2019633269937649 0 -0.043465084672950877 0.20582873253241291 0 -0.049387093036663589 0.21326184077160151 0 -0.05010480601233451 0.2019633269937649 0 -0.05010480601233451 0.2019633269937649 0 -0.054516716326720151 0.19432440830603279 0 -0.044941655887137437 0.1962393967332248 0 -0.057556911301850519 0.207051872036565 0 -0.05010480601233451 0.2019633269937649 0 -0.054516716326720151 0.19432440830603279 0 -0.068202902174654176 0.2010249259348573 0 -0.057556911301850519 0.207051872036565 0 -0.054516716326720151 0.19432440830603279 0 -0.066735121618555993 0.18873861447571941 0 -0.054516716326720151 0.19432440830603279 0 -0.055489883517693267 0.18316329648091481 0 -0.054516716326720151 0.19432440830603279 0 -0.044941655887137437 0.1962393967332248 0 -0.041940420349666468 0.18421212159064829 0 -0.043465084672950877 0.20582873253241291 0 -0.02173101272786622 0.19155681610059291 0 -0.043465084672950877 0.20582873253241291 0 -0.036384462872792171 0.19279858435504571 0 -0.02173101272786622 0.19155681610059291 0 -0.043465084672950877 0.20582873253241291 0 -0.030149551306474488 0.20242148298512061 0 -0.02173101272786622 0.19155681610059291 0 -0.044941655887137437 0.1962393967332248 0 -0.036384462872792171 0.19279858435504571 0 -0.041940420349666468 0.18421212159064829 0 -0.043465084672950877 0.20582873253241291 0 -0.05010480601233451 0.2019633269937649 0 -0.044941655887137437 0.1962393967332248 0 -0.043465084672950877 0.20582873253241291 0 -0.044941655887137437 0.1962393967332248 0 -0.036384462872792171 0.19279858435504571 0 -0.036384462872792171 0.19279858435504571 0 -0.041940420349666468 0.18421212159064829 0 -0.030032802846654359 0.18565350845955719 0 -0.036384462872792171 0.19279858435504571 0 -0.02173101272786622 0.19155681610059291 0 -0.030032802846654359 0.18565350845955719 0 -0.030149551306474488 0.20242148298512061 0 -0.02051162807657295 0.20084591885622791 0 -0.02173101272786622 0.19155681610059291 0 -0.02051162807657295 0.20084591885622791 0 -0.02173101272786622 0.19155681610059291 0 -0.012447406093524051 0.19695173938675589 0 -0.02051162807657295 0.20084591885622791 0 -0.012447406093524051 0.19695173938675589 0 -0.01398381157231891 0.20625241919120421 0 -0.02173101272786622 0.19155681610059291 0 -0.01320751740101442 0.18595976952233551 0 -0.02173101272786622 0.19155681610059291 0 -0.0055858246544130538 0.19106999461701099 0 -0.01320751740101442 0.18595976952233551 0 -0.02173101272786622 0.19155681610059291 0 -0.0055858246544130538 0.19106999461701099 0 -0.012447406093524051 0.19695173938675589 0 -0.0055858246544130538 0.19106999461701099 0 -0.00060913801310155213 0.20003749942497229 0 -0.012447406093524051 0.19695173938675589 0 -0.00060913801310155213 0.20003749942497229 0 -0.012447406093524051 0.19695173938675589 0 -0.01398381157231891 0.20625241919120421 0 -0.00060913801310155213 0.20003749942497229 0 -0.01398381157231891 0.20625241919120421 0 0.0040726003524663894 0.21213581314609001 0 -0.01398381157231891 0.20625241919120421 0 -0.0090891165611164514 0.22115965710215629 0 0.0040726003524663894 0.21213581314609001 0 -0.01398381157231891 0.20625241919120421 0 -0.02321598792434007 0.21611210520594371 0 -0.0090891165611164514 0.22115965710215629 0 -0.02051162807657295 0.20084591885622791 0 -0.01398381157231891 0.20625241919120421 0 -0.024246358682681091 0.20704713661746599 0 -0.01398381157231891 0.20625241919120421 0 -0.02321598792434007 0.21611210520594371 0 -0.024246358682681091 0.20704713661746599 0 -0.030149551306474488 0.20242148298512061 0 -0.02051162807657295 0.20084591885622791 0 -0.024246358682681091 0.20704713661746599 0 -0.031286937683437828 0.21086880979656589 0 -0.030149551306474488 0.20242148298512061 0 -0.024246358682681091 0.20704713661746599 0 -0.031286937683437828 0.21086880979656589 0 -0.02321598792434007 0.21611210520594371 0 -0.024246358682681091 0.20704713661746599 0 -0.032752818331228971 0.22027328627636919 0 -0.031286937683437828 0.21086880979656589 0 -0.02321598792434007 0.21611210520594371 0 -0.032752818331228971 0.22027328627636919 0 -0.02321598792434007 0.21611210520594371 0 -0.024354663311192942 0.23058776182367319 0 -0.02321598792434007 0.21611210520594371 0 -0.024354663311192942 0.23058776182367319 0 -0.0090891165611164514 0.22115965710215629 0 -0.0090891165611164514 0.22115965710215629 0 -0.0073947002020734731 0.23660487616355871 0 0.011808741713781519 0.22676854717410569 0 -0.024354663311192942 0.23058776182367319 0 -0.0090891165611164514 0.22115965710215629 0 -0.0073947002020734731 0.23660487616355871 0 -0.0073947002020734731 0.23660487616355871 0 -0.009851134998242736 0.2492170496898001 0 0.0073431443550527123 0.2488386479659444 0 -0.0073947002020734731 0.23660487616355871 0 -0.009851134998242736 0.2492170496898001 0 -0.020225172410722941 0.24305759322567261 0 -0.032464527279818488 0.24642702389396021 0 -0.024354663311192942 0.23058776182367319 0 -0.020225172410722941 0.24305759322567261 0 -0.024354663311192942 0.23058776182367319 0 -0.0073947002020734731 0.23660487616355871 0 -0.020225172410722941 0.24305759322567261 0 -0.020122777570162561 0.25765885386021331 0 -0.009851134998242736 0.2492170496898001 0 -0.020225172410722941 0.24305759322567261 0 -0.020122777570162561 0.25765885386021331 0 -0.032464527279818488 0.24642702389396021 0 -0.020225172410722941 0.24305759322567261 0 -0.034907184613231668 0.14467402672119919 0 -0.045780261903513628 0.1589961679713249 0 -0.028562697015791529 0.16125190829186481 0 -0.034907184613231668 0.14467402672119919 0 -0.056519278583926413 0.137676974217052 0 -0.045780261903513628 0.1589961679713249 0 -0.034907184613231668 0.14467402672119919 0 -0.056519278583926413 0.137676974217052 0 -0.034907184613231668 0.14467402672119919 0 -0.042723805851941743 0.129667945155269 0 -0.056519278583926413 0.137676974217052 0 -0.034907184613231668 0.14467402672119919 0 -0.042723805851941743 0.129667945155269 0 -0.026241103030808632 0.13403564342417651 0 -0.042723805851941743 0.129667945155269 0 -0.026241103030808632 0.13403564342417651 0 -0.031456753505602369 0.1211725390155985 0 -0.042723805851941743 0.129667945155269 0 -0.056519278583926413 0.137676974217052 0 -0.058145419354060007 0.1216065432660092 0 -0.07227697969267427 0.12976460446056379 0 -0.056519278583926413 0.137676974217052 0 -0.058145419354060007 0.1216065432660092 0 -0.056519278583926413 0.137676974217052 0 -0.062155435182972819 0.16076775616370209 0 -0.045780261903513628 0.1589961679713249 0 -0.062155435182972819 0.16076775616370209 0 -0.050841856728580208 0.17259974590838201 0 -0.045780261903513628 0.1589961679713249 0 -0.065240259260107708 0.17467356102914591 0 -0.062155435182972819 0.16076775616370209 0 -0.050841856728580208 0.17259974590838201 0 -0.065240259260107708 0.17467356102914591 0 -0.066735121618555993 0.18873861447571941 0 -0.055489883517693267 0.18316329648091481 0 -0.065240259260107708 0.17467356102914591 0 -0.055489883517693267 0.18316329648091481 0 -0.050841856728580208 0.17259974590838201 0 -0.055489883517693267 0.18316329648091481 0 -0.050841856728580208 0.17259974590838201 0 -0.041940420349666468 0.18421212159064829 0 -0.054516716326720151 0.19432440830603279 0 -0.055489883517693267 0.18316329648091481 0 -0.041940420349666468 0.18421212159064829 0 -0.050841856728580208 0.17259974590838201 0 -0.041940420349666468 0.18421212159064829 0 -0.038824776225921308 0.17074229758740619 0 -0.041940420349666468 0.18421212159064829 0 -0.038824776225921308 0.17074229758740619 0 -0.028823601827218881 0.17538351308016581 0 -0.041940420349666468 0.18421212159064829 0 -0.030032802846654359 0.18565350845955719 0 -0.028823601827218881 0.17538351308016581 0 -0.045780261903513628 0.1589961679713249 0 -0.038824776225921308 0.17074229758740619 0 -0.028562697015791529 0.16125190829186481 0 -0.050841856728580208 0.17259974590838201 0 -0.045780261903513628 0.1589961679713249 0 -0.038824776225921308 0.17074229758740619 0 -0.038824776225921308 0.17074229758740619 0 -0.028562697015791529 0.16125190829186481 0 -0.028823601827218881 0.17538351308016581 0 -0.028562697015791529 0.16125190829186481 0 -0.01328451298785269 0.16876485190436941 0 -0.013295090642536211 0.15167107922534409 0 -0.028562697015791529 0.16125190829186481 0 -0.028823601827218881 0.17538351308016581 0 -0.01328451298785269 0.16876485190436941 0 -0.02142917314455382 0.18144346282561599 0 -0.01320751740101442 0.18595976952233551 0 -0.01328451298785269 0.16876485190436941 0 -0.02173101272786622 0.19155681610059291 0 -0.030032802846654359 0.18565350845955719 0 -0.02142917314455382 0.18144346282561599 0 -0.030032802846654359 0.18565350845955719 0 -0.028823601827218881 0.17538351308016581 0 -0.02142917314455382 0.18144346282561599 0 -0.028823601827218881 0.17538351308016581 0 -0.02142917314455382 0.18144346282561599 0 -0.01328451298785269 0.16876485190436941 0 -0.02173101272786622 0.19155681610059291 0 -0.02142917314455382 0.18144346282561599 0 -0.01320751740101442 0.18595976952233551 0 -0.01320751740101442 0.18595976952233551 0 -0.01328451298785269 0.16876485190436941 0 3.059217218447791e-06 0.17728489966877289 0 -0.01320751740101442 0.18595976952233551 0 -0.01328451298785269 0.16876485190436941 0 -0.01320751740101442 0.18595976952233551 0 3.059217218447791e-06 0.17728489966877289 0 -0.0055858246544130538 0.19106999461701099 0 -0.01320751740101442 0.18595976952233551 0 3.059217218447791e-06 0.17728489966877289 0 -0.01328451298785269 0.16876485190436941 0 -0.013295090642536211 0.15167107922534409 0 0.0042210202598831209 0.15734203123114859 0 -0.01328451298785269 0.16876485190436941 0 0.0042210202598831209 0.15734203123114859 0 3.059217218447791e-06 0.17728489966877289 0 -0.01328451298785269 0.16876485190436941 0 -0.013295090642536211 0.15167107922534409 0 -0.0058201945686504426 0.1438008545315542 0 -0.013295090642536211 0.15167107922534409 0 -0.01330650985939184 0.13321731955752811 0 -0.013295090642536211 0.15167107922534409 0 0.0042210202598831209 0.15734203123114859 0 -0.0058201945686504426 0.1438008545315542 0 -0.013295090642536211 0.15167107922534409 0 0.0042210202598831209 0.15734203123114859 0 -0.013295090642536211 0.15167107922534409 0 -0.01330650985939184 0.13321731955752811 0 -0.034907184613231668 0.14467402672119919 0 -0.013295090642536211 0.15167107922534409 0 -0.034907184613231668 0.14467402672119919 0 -0.013295090642536211 0.15167107922534409 0 -0.026241103030808632 0.13403564342417651 0 -0.034907184613231668 0.14467402672119919 0 -0.028562697015791529 0.16125190829186481 0 -0.013295090642536211 0.15167107922534409 0 -0.013295090642536211 0.15167107922534409 0 -0.026241103030808632 0.13403564342417651 0 -0.01330650985939184 0.13321731955752811 0 -0.026241103030808632 0.13403564342417651 0 -0.02175727371214797 0.1238109508701203 0 -0.031456753505602369 0.1211725390155985 0 -0.026241103030808632 0.13403564342417651 0 -0.01330650985939184 0.13321731955752811 0 -0.02175727371214797 0.1238109508701203 0 -0.0058201945686504426 0.1438008545315542 0 -0.01330650985939184 0.13321731955752811 0 0.003822030176161644 0.1381973971303187 0 -0.01330650985939184 0.13321731955752811 0 -0.0041156739740950132 0.1224202395901087 0 0.003822030176161644 0.1381973971303187 0 -0.01330650985939184 0.13321731955752811 0 -0.0041156739740950132 0.1224202395901087 0 -0.013317929076256041 0.1147635598897121 0 -0.01330650985939184 0.13321731955752811 0 -0.013317929076256041 0.1147635598897121 0 -0.0041156739740950132 0.1224202395901087 0 -0.013317929076256041 0.1147635598897121 0 0.0017371169864060601 0.116089427830274 0 -0.0041156739740950132 0.1224202395901087 0 -0.013317929076256041 0.1147635598897121 0 -0.013317929076256041 0.1147635598897121 0 6.5448797501928578e-05 0.10703563395645301 0 0.0017371169864060601 0.116089427830274 0 -0.013317929076256041 0.1147635598897121 0 -0.013327761386432491 0.09887428384206326 0 6.5448797501928578e-05 0.10703563395645301 0 -0.013317929076256041 0.1147635598897121 0 -0.013327761386432491 0.09887428384206326 0 -0.013327761386432491 0.09887428384206326 0 0.0021822522697273238 0.094475177052334769 0 6.5448797501928578e-05 0.10703563395645301 0 -0.013317929076256041 0.1147635598897121 0 -0.013327761386432491 0.09887428384206326 0 -0.026457017476875989 0.10383126228202 0 -0.013317929076256041 0.1147635598897121 0 -0.026457017476875989 0.10383126228202 0 -0.013327761386432491 0.09887428384206326 0 -0.024912354040412761 0.094628442144003982 0 -0.026457017476875989 0.10383126228202 0 -0.024912354040412761 0.094628442144003982 0 -0.026457017476875989 0.10383126228202 0 -0.039596105877495208 0.092898964674326998 0 -0.01330650985939184 0.13321731955752811 0 -0.013317929076256041 0.1147635598897121 0 -0.02175727371214797 0.1238109508701203 0 -0.024511094119591039 0.1148909714386758 0 -0.031456753505602369 0.1211725390155985 0 -0.031906245472660751 0.1107849126940348 0 -0.026457017476875989 0.10383126228202 0 -0.024511094119591039 0.1148909714386758 0 -0.031906245472660751 0.1107849126940348 0 -0.024511094119591039 0.1148909714386758 0 -0.02175727371214797 0.1238109508701203 0 -0.031456753505602369 0.1211725390155985 0 -0.013317929076256041 0.1147635598897121 0 -0.024511094119591039 0.1148909714386758 0 -0.02175727371214797 0.1238109508701203 0 -0.013317929076256041 0.1147635598897121 0 -0.026457017476875989 0.10383126228202 0 -0.024511094119591039 0.1148909714386758 0 -0.0090993382297974955 0.066740615952886662 0 -0.0008354227529697709 0.057362658882293457 0 0.0050686360126358521 0.068473887925386612 0 -0.0090993382297974955 0.066740615952886662 0 -0.0022125403724556039 0.076318095984771628 0 0.0050686360126358521 0.068473887925386612 0 -0.0090993382297974955 0.066740615952886662 0 -0.013597160839036421 0.077279961621136539 0 -0.02335840483489085 0.068407883036994868 0 -0.0090993382297974955 0.066740615952886662 0 -0.0022125403724556039 0.076318095984771628 0 -0.013597160839036421 0.077279961621136539 0 -0.013597160839036421 0.077279961621136539 0 -0.0060965157609311274 0.085723806154309232 0 -0.01736534690662575 0.087357006854531807 0 -0.0022125403724556039 0.076318095984771628 0 -0.013597160839036421 0.077279961621136539 0 -0.0060965157609311274 0.085723806154309232 0 -0.0022125403724556039 0.076318095984771628 0 -0.0060965157609311274 0.085723806154309232 0 0.0069173803036743954 0.081423172471221383 0 -0.013327761386432491 0.09887428384206326 0 -0.0060965157609311274 0.085723806154309232 0 0.0021822522697273238 0.094475177052334769 0 -0.013327761386432491 0.09887428384206326 0 -0.0060965157609311274 0.085723806154309232 0 -0.01736534690662575 0.087357006854531807 0 -0.013327761386432491 0.09887428384206326 0 -0.024912354040412761 0.094628442144003982 0 -0.01736534690662575 0.087357006854531807 0 -0.024912354040412761 0.094628442144003982 0 -0.01736534690662575 0.087357006854531807 0 -0.031316628438867372 0.085803201879420796 0 -0.01736534690662575 0.087357006854531807 0 -0.02345081892951769 0.07913236174332508 0 -0.031316628438867372 0.085803201879420796 0 -0.02345081892951769 0.07913236174332508 0 -0.032843759237984368 0.07466585024787005 0 -0.031316628438867372 0.085803201879420796 0 -0.013597160839036421 0.077279961621136539 0 -0.01736534690662575 0.087357006854531807 0 -0.02345081892951769 0.07913236174332508 0 -0.013597160839036421 0.077279961621136539 0 -0.02345081892951769 0.07913236174332508 0 -0.02335840483489085 0.068407883036994868 0 -0.02345081892951769 0.07913236174332508 0 -0.02335840483489085 0.068407883036994868 0 -0.032843759237984368 0.07466585024787005 0 -0.02335840483489085 0.068407883036994868 0 -0.034419532214680762 0.065778139485364082 0 -0.032843759237984368 0.07466585024787005 0 -0.02335840483489085 0.068407883036994868 0 -0.034419532214680762 0.065778139485364082 0 -0.03059060777838098 0.055064396563898062 0 -0.0090993382297974955 0.066740615952886662 0 -0.02335840483489085 0.068407883036994868 0 -0.020177576071396568 0.057609986169770561 0 -0.043569479855391391 0.069527757205365581 0 -0.05294782532035637 0.062362381152032291 0 -0.041964560719806747 0.059332167183711503 0 -0.043569479855391391 0.069527757205365581 0 -0.034419532214680762 0.065778139485364082 0 -0.041964560719806747 0.059332167183711503 0 -0.043569479855391391 0.069527757205365581 0 -0.034419532214680762 0.065778139485364082 0 -0.032843759237984368 0.07466585024787005 0 -0.043569479855391391 0.069527757205365581 0 -0.032843759237984368 0.07466585024787005 0 -0.0407385848359176 0.079623151775775655 0 -0.043569479855391391 0.069527757205365581 0 -0.0407385848359176 0.079623151775775655 0 -0.0549374377133083 0.080134303975373466 0 -0.0407385848359176 0.079623151775775655 0 -0.039596105877495208 0.092898964674326998 0 -0.0549374377133083 0.080134303975373466 0 -0.032843759237984368 0.07466585024787005 0 -0.0407385848359176 0.079623151775775655 0 -0.031316628438867372 0.085803201879420796 0 -0.024912354040412761 0.094628442144003982 0 -0.031316628438867372 0.085803201879420796 0 -0.039596105877495208 0.092898964674326998 0 -0.0407385848359176 0.079623151775775655 0 -0.031316628438867372 0.085803201879420796 0 -0.039596105877495208 0.092898964674326998 0 -0.039596105877495208 0.092898964674326998 0 -0.062246345347618859 0.090231180631050817 0 -0.0549374377133083 0.080134303975373466 0 -0.039596105877495208 0.092898964674326998 0 -0.062246345347618859 0.090231180631050817 0 -0.039596105877495208 0.092898964674326998 0 -0.0549374377133083 0.080134303975373466 0 -0.062246345347618859 0.090231180631050817 0 -0.0549374377133083 0.080134303975373466 0 -0.067418894655001338 0.079892632848545336 0 -0.043569479855391391 0.069527757205365581 0 -0.0549374377133083 0.080134303975373466 0 -0.05294782532035637 0.062362381152032291 0 -0.0549374377133083 0.080134303975373466 0 -0.07027876954912099 0.067369643276419436 0 -0.05294782532035637 0.062362381152032291 0 -0.042723805851941743 0.129667945155269 0 -0.044715826386928517 0.1132478961625146 0 -0.031456753505602369 0.1211725390155985 0 -0.044715826386928517 0.1132478961625146 0 -0.031456753505602369 0.1211725390155985 0 -0.031906245472660751 0.1107849126940348 0 -0.044715826386928517 0.1132478961625146 0 -0.031906245472660751 0.1107849126940348 0 -0.038744510462760777 0.1048794069779001 0 -0.026457017476875989 0.10383126228202 0 -0.031906245472660751 0.1107849126940348 0 -0.038744510462760777 0.1048794069779001 0 -0.026457017476875989 0.10383126228202 0 -0.039596105877495208 0.092898964674326998 0 -0.038744510462760777 0.1048794069779001 0 -0.024912354040412761 0.094628442144003982 0 -0.039596105877495208 0.092898964674326998 0 -0.026457017476875989 0.10383126228202 0 -0.039596105877495208 0.092898964674326998 0 -0.039596105877495208 0.092898964674326998 0 -0.038744510462760777 0.1048794069779001 0 -0.049041222082952238 0.1014160196874123 0 -0.044715826386928517 0.1132478961625146 0 -0.038744510462760777 0.1048794069779001 0 -0.049041222082952238 0.1014160196874123 0 -0.044715826386928517 0.1132478961625146 0 -0.049041222082952238 0.1014160196874123 0 -0.059903322339957807 0.10582264999126891 0 -0.039596105877495208 0.092898964674326998 0 -0.062246345347618859 0.090231180631050817 0 -0.049041222082952238 0.1014160196874123 0 -0.062246345347618859 0.090231180631050817 0 -0.049041222082952238 0.1014160196874123 0 -0.059903322339957807 0.10582264999126891 0 -0.044715826386928517 0.1132478961625146 0 -0.059903322339957807 0.10582264999126891 0 -0.058145419354060007 0.1216065432660092 0 -0.042723805851941743 0.129667945155269 0 -0.044715826386928517 0.1132478961625146 0 -0.058145419354060007 0.1216065432660092 0 -0.07227697969267427 0.12976460446056379 0 -0.072733303268931279 0.113459189609387 0 -0.086710529424237515 0.1216991122054919 0 -0.059903322339957807 0.10582264999126891 0 -0.058145419354060007 0.1216065432660092 0 -0.072733303268931279 0.113459189609387 0 -0.07227697969267427 0.12976460446056379 0 -0.058145419354060007 0.1216065432660092 0 -0.072733303268931279 0.113459189609387 0 -0.086710529424237515 0.1216991122054919 0 -0.085309555212550403 0.1055344163622003 0 -0.099778771981374886 0.11378164029042 0 -0.072733303268931279 0.113459189609387 0 -0.086710529424237515 0.1216991122054919 0 -0.085309555212550403 0.1055344163622003 0 -0.085309555212550403 0.1055344163622003 0 -0.084896584817742607 0.087563396587775399 0 -0.09820834102744197 0.099258107553965524 0 -0.085309555212550403 0.1055344163622003 0 -0.072778980098535229 0.10056171426224091 0 -0.084896584817742607 0.087563396587775399 0 -0.072733303268931279 0.113459189609387 0 -0.085309555212550403 0.1055344163622003 0 -0.072778980098535229 0.10056171426224091 0 -0.059903322339957807 0.10582264999126891 0 -0.072733303268931279 0.113459189609387 0 -0.072778980098535229 0.10056171426224091 0 -0.062246345347618859 0.090231180631050817 0 -0.059903322339957807 0.10582264999126891 0 -0.072778980098535229 0.10056171426224091 0 -0.062246345347618859 0.090231180631050817 0 -0.067418894655001338 0.079892632848545336 0 -0.084896584817742607 0.087563396587775399 0 -0.067418894655001338 0.079892632848545336 0 -0.07027876954912099 0.067369643276419436 0 -0.084896584817742607 0.087563396587775399 0 -0.062246345347618859 0.090231180631050817 0 -0.072778980098535229 0.10056171426224091 0 -0.084896584817742607 0.087563396587775399 0 -0.062246345347618859 0.090231180631050817 0 -0.084896584817742607 0.087563396587775399 0 -0.0549374377133083 0.080134303975373466 0 -0.07027876954912099 0.067369643276419436 0 -0.0549374377133083 0.080134303975373466 0 -0.067418894655001338 0.079892632848545336 0 -0.07027876954912099 0.067369643276419436 0 -0.07027876954912099 0.067369643276419436 0 -0.092230522187420283 0.066866885482022562 0 -0.083912097269127406 0.054549003359343172 0 -0.07027876954912099 0.067369643276419436 0 -0.092230522187420283 0.066866885482022562 0 -0.084896584817742607 0.087563396587775399 0 -0.084896584817742607 0.087563396587775399 0 -0.1075468242878664 0.084895612544499982 0 -0.084896584817742607 0.087563396587775399 0 -0.1075468242878664 0.084895612544499982 0 -0.09820834102744197 0.099258107553965524 0 -0.092230522187420283 0.066866885482022562 0 -0.084896584817742607 0.087563396587775399 0 -0.1075468242878664 0.084895612544499982 0 -0.092230522187420283 0.066866885482022562 0 -0.1075468242878664 0.084895612544499982 0 -0.1071156195455496 0.067870328641350147 0 -0.092230522187420283 0.066866885482022562 0 -0.1071156195455496 0.067870328641350147 0 -0.106582808157199 0.053756766152120862 0 -0.1075468242878664 0.084895612544499982 0 -0.1071156195455496 0.067870328641350147 0 -0.1221023235497127 0.065962050386757176 0 -0.1071156195455496 0.067870328641350147 0 -0.1221023235497127 0.065962050386757176 0 -0.106582808157199 0.053756766152120862 0 -0.12746562234065481 0.091200007769910343 0 -0.1221023235497127 0.065962050386757176 0 -0.12746562234065481 0.091200007769910343 0 -0.1075468242878664 0.084895612544499982 0 -0.1135099688376756 0.104515471984932 0 -0.12746562234065481 0.091200007769910343 0 -0.1075468242878664 0.084895612544499982 0 -0.1221023235497127 0.065962050386757176 0 -0.13282892113159689 0.1164379651530635 0 -0.12746562234065481 0.091200007769910343 0 -0.1135099688376756 0.104515471984932 0 -0.1135099688376756 0.104515471984932 0 -0.1165917016928006 0.12355660573705871 0 -0.099778771981374886 0.11378164029042 0 -0.13282892113159689 0.1164379651530635 0 -0.1135099688376756 0.104515471984932 0 -0.1165917016928006 0.12355660573705871 0 -0.102785925530629 0.13104505210542769 0 -0.1165917016928006 0.12355660573705871 0 -0.099778771981374886 0.11378164029042 0 -0.102785925530629 0.13104505210542769 0 -0.086710529424237515 0.1216991122054919 0 -0.099778771981374886 0.11378164029042 0 -0.085309555212550403 0.1055344163622003 0 -0.099778771981374886 0.11378164029042 0 -0.09820834102744197 0.099258107553965524 0 -0.1075468242878664 0.084895612544499982 0 -0.1135099688376756 0.104515471984932 0 -0.09820834102744197 0.099258107553965524 0 -0.1135099688376756 0.104515471984932 0 -0.099778771981374886 0.11378164029042 0 -0.09820834102744197 0.099258107553965524 0 -0.1025606774901668 0.017469206819977729 0 -0.10849684676369881 0.024922780514777781 0 -0.1032617009915668 0.01488633452690208 0 -0.10849684676369881 0.024922780514777781 0 -0.1032617009915668 0.01488633452690208 0 -0.10849684676369881 0.024922780514777781 0 -0.1032617009915668 0.01488633452690208 0 -0.11333543709990949 0.02470790527428365 0 -0.10310003774110831 0.022513924187285251 0 -0.1025606774901668 0.017469206819977729 0 -0.10849684676369881 0.024922780514777781 0 -0.1025606774901668 0.017469206819977729 0 -0.1032617009915668 0.01488633452690208 0 -0.10849684676369881 0.024922780514777781 0 -0.1046837267399276 0.025092116008218091 0 -0.1069745984646845 0.033661432479157247 0 -0.1046837267399276 0.025092116008218091 0 -0.1002335230263653 0.02745462938256233 0 -0.1069745984646845 0.033661432479157247 0 -0.10849684676369881 0.024922780514777781 0 -0.1046837267399276 0.025092116008218091 0 -0.10310003774110831 0.022513924187285251 0 -0.10849684676369881 0.024922780514777781 0 -0.1046837267399276 0.025092116008218091 0 -0.1046837267399276 0.025092116008218091 0 -0.1015088672176736 0.0244843393989988 0 -0.1002335230263653 0.02745462938256233 0 -0.10310003774110831 0.022513924187285251 0 -0.1046837267399276 0.025092116008218091 0 -0.1015088672176736 0.0244843393989988 0 -0.1002335230263653 0.02745462938256233 0 -0.097198337524896539 0.032473601798351889 0 -0.092779720453696979 0.024187083414967749 0 -0.1015088672176736 0.0244843393989988 0 -0.1002335230263653 0.02745462938256233 0 -0.098881723158327967 0.022600927738153809 0 -0.1002335230263653 0.02745462938256233 0 -0.1069745984646845 0.033661432479157247 0 -0.097198337524896539 0.032473601798351889 0 -0.1002335230263653 0.02745462938256233 0 -0.098881723158327967 0.022600927738153809 0 -0.092779720453696979 0.024187083414967749 0 -0.097195122130640563 0.017662678730705719 0 -0.092779720453696979 0.024187083414967749 0 -0.092394438182031746 0.01332339429936274 0 -0.098881723158327967 0.022600927738153809 0 -0.097195122130640563 0.017662678730705719 0 -0.092779720453696979 0.024187083414967749 0 -0.10310003774110831 0.022513924187285251 0 -0.1015088672176736 0.0244843393989988 0 -0.098881723158327967 0.022600927738153809 0 -0.10310003774110831 0.022513924187285251 0 -0.1025606774901668 0.017469206819977729 0 -0.098881723158327967 0.022600927738153809 0 -0.1025606774901668 0.017469206819977729 0 -0.098881723158327967 0.022600927738153809 0 -0.097195122130640563 0.017662678730705719 0 -0.1025606774901668 0.017469206819977729 0 -0.097195122130640563 0.017662678730705719 0 -0.1032617009915668 0.01488633452690208 0 -0.10774104573326319 -0.0016174993693268509 0 -0.1032617009915668 0.01488633452690208 0 -0.10774104573326319 -0.0016174993693268509 0 -0.1032617009915668 0.01488633452690208 0 -0.11333543709990949 0.02470790527428365 0 -0.094265725298619388 -0.0023601048427703999 0 -0.1032617009915668 0.01488633452690208 0 -0.097195122130640563 0.017662678730705719 0 -0.1032617009915668 0.01488633452690208 0 -0.092394438182031746 0.01332339429936274 0 -0.094265725298619388 -0.0023601048427703999 0 -0.1032617009915668 0.01488633452690208 0 -0.092394438182031746 0.01332339429936274 0 -0.094265725298619388 -0.0023601048427703999 0 -0.10774104573326319 -0.0016174993693268509 0 -0.1032617009915668 0.01488633452690208 0 -0.10774104573326319 -0.0016174993693268509 0 -0.1241423493821691 0.0094976288708057185 0 -0.11333543709990949 0.02470790527428365 0 -0.10774104573326319 -0.0016174993693268509 0 -0.11333543709990949 0.02470790527428365 0 -0.1181713946700622 -0.0025812021860843089 0 -0.10774104573326319 -0.0016174993693268509 0 -0.1241423493821691 0.0094976288708057185 0 -0.10849684676369881 0.024922780514777781 0 -0.11333543709990949 0.02470790527428365 0 -0.1167390247587712 0.040724093003603877 0 -0.10849684676369881 0.024922780514777781 0 -0.11333543709990949 0.02470790527428365 0 -0.13110833496863261 0.03623236614172734 0 -0.11333543709990949 0.02470790527428365 0 -0.1167390247587712 0.040724093003603877 0 -0.10849684676369881 0.024922780514777781 0 -0.1167390247587712 0.040724093003603877 0 -0.1167390247587712 0.040724093003603877 0 -0.106582808157199 0.053756766152120862 0 -0.1069745984646845 0.033661432479157247 0 -0.11333543709990949 0.02470790527428365 0 -0.1167390247587712 0.040724093003603877 0 -0.10849684676369881 0.024922780514777781 0 -0.1167390247587712 0.040724093003603877 0 -0.1069745984646845 0.033661432479157247 0 -0.12558529593674889 0.049106547500110273 0 -0.13110833496863261 0.03623236614172734 0 -0.1167390247587712 0.040724093003603877 0 -0.12591093871202491 0.058307828586916681 0 -0.1167390247587712 0.040724093003603877 0 -0.12591093871202491 0.058307828586916681 0 -0.1221023235497127 0.065962050386757176 0 -0.1167390247587712 0.040724093003603877 0 -0.12591093871202491 0.058307828586916681 0 -0.12558529593674889 0.049106547500110273 0 -0.1167390247587712 0.040724093003603877 0 -0.1221023235497127 0.065962050386757176 0 -0.1167390247587712 0.040724093003603877 0 -0.1221023235497127 0.065962050386757176 0 -0.1167390247587712 0.040724093003603877 0 -0.106582808157199 0.053756766152120862 0 -0.092230522187420283 0.066866885482022562 0 -0.106582808157199 0.053756766152120862 0 -0.094932984675380708 0.045076316288124203 0 -0.106582808157199 0.053756766152120862 0 -0.1069745984646845 0.033661432479157247 0 -0.094932984675380708 0.045076316288124203 0 -0.1069745984646845 0.033661432479157247 0 -0.094932984675380708 0.045076316288124203 0 -0.097198337524896539 0.032473601798351889 0 -0.094932984675380708 0.045076316288124203 0 -0.097198337524896539 0.032473601798351889 0 -0.088976181813777991 0.032767064373513413 0 -0.094932984675380708 0.045076316288124203 0 -0.088976181813777991 0.032767064373513413 0 -0.082621289550401836 0.04096864090557753 0 -0.094932984675380708 0.045076316288124203 0 -0.082621289550401836 0.04096864090557753 0 -0.083912097269127406 0.054549003359343172 0 -0.082621289550401836 0.04096864090557753 0 -0.071760961213654273 0.034562682224675463 0 -0.081324324475018001 0.027490822289154799 0 -0.088976181813777991 0.032767064373513413 0 -0.082621289550401836 0.04096864090557753 0 -0.081324324475018001 0.027490822289154799 0 -0.092230522187420283 0.066866885482022562 0 -0.094932984675380708 0.045076316288124203 0 -0.083912097269127406 0.054549003359343172 0 -0.082621289550401836 0.04096864090557753 0 -0.083912097269127406 0.054549003359343172 0 -0.072560703422054659 0.046532590500654912 0 -0.07027876954912099 0.067369643276419436 0 -0.072560703422054659 0.046532590500654912 0 -0.062126076109541892 0.054340455394879708 0 -0.07027876954912099 0.067369643276419436 0 -0.083912097269127406 0.054549003359343172 0 -0.072560703422054659 0.046532590500654912 0 -0.072560703422054659 0.046532590500654912 0 -0.062126076109541892 0.054340455394879708 0 -0.060957356691590282 0.04057886864549938 0 -0.082621289550401836 0.04096864090557753 0 -0.071760961213654273 0.034562682224675463 0 -0.072560703422054659 0.046532590500654912 0 -0.071760961213654273 0.034562682224675463 0 -0.072560703422054659 0.046532590500654912 0 -0.060957356691590282 0.04057886864549938 0 -0.071760961213654273 0.034562682224675463 0 -0.060907911184289731 0.02551667380547391 0 -0.060957356691590282 0.04057886864549938 0 -0.0724538838492155 0.022959111031406038 0 -0.081457108673496925 0.019104603274460921 0 -0.069847239115426257 0.0070044371115614984 0 -0.0724538838492155 0.022959111031406038 0 -0.069847239115426257 0.0070044371115614984 0 -0.060907911184289731 0.02551667380547391 0 -0.071760961213654273 0.034562682224675463 0 -0.0724538838492155 0.022959111031406038 0 -0.060907911184289731 0.02551667380547391 0 -0.071760961213654273 0.034562682224675463 0 -0.0724538838492155 0.022959111031406038 0 -0.081324324475018001 0.027490822289154799 0 -0.081324324475018001 0.027490822289154799 0 -0.081457108673496925 0.019104603274460921 0 -0.092779720453696979 0.024187083414967749 0 -0.0724538838492155 0.022959111031406038 0 -0.081324324475018001 0.027490822289154799 0 -0.081457108673496925 0.019104603274460921 0 -0.081457108673496925 0.019104603274460921 0 -0.092779720453696979 0.024187083414967749 0 -0.092394438182031746 0.01332339429936274 0 -0.088976181813777991 0.032767064373513413 0 -0.081324324475018001 0.027490822289154799 0 -0.092779720453696979 0.024187083414967749 0 -0.097198337524896539 0.032473601798351889 0 -0.088976181813777991 0.032767064373513413 0 -0.092779720453696979 0.024187083414967749 0 -0.094265725298619388 -0.0023601048427703999 0 -0.069847239115426257 0.0070044371115614984 0 -0.094265725298619388 -0.0023601048427703999 0 -0.092394438182031746 0.01332339429936274 0 -0.069847239115426257 0.0070044371115614984 0 -0.081457108673496925 0.019104603274460921 0 -0.092394438182031746 0.01332339429936274 0 -0.069847239115426257 0.0070044371115614984 0 -0.069847239115426257 0.0070044371115614984 0 -0.04542875293223296 0.016368979065893071 0 -0.05856250024346886 -0.0021767338190804729 0 -0.04542875293223296 0.016368979065893071 0 -0.045167015119953358 0.0027835274451912741 0 -0.05856250024346886 -0.0021767338190804729 0 -0.069847239115426257 0.0070044371115614984 0 -0.04542875293223296 0.016368979065893071 0 -0.069847239115426257 0.0070044371115614984 0 -0.060907911184289731 0.02551667380547391 0 -0.04542875293223296 0.016368979065893071 0 -0.060907911184289731 0.02551667380547391 0 -0.047032316646228887 0.03039070772110429 0 -0.04542875293223296 0.016368979065893071 0 -0.04542875293223296 0.016368979065893071 0 -0.035360101948448283 0.021583776898379151 0 -0.021010266749039649 0.025733521020224661 0 -0.047032316646228887 0.03039070772110429 0 -0.04542875293223296 0.016368979065893071 0 -0.035360101948448283 0.021583776898379151 0 -0.04542875293223296 0.016368979065893071 0 -0.021010266749039649 0.025733521020224661 0 -0.04542875293223296 0.016368979065893071 0 -0.034261965130275747 0.01075812983157109 0 -0.021010266749039649 0.025733521020224661 0 -0.047032316646228887 0.03039070772110429 0 -0.035360101948448283 0.021583776898379151 0 -0.035699791796772698 0.034059515661981503 0 -0.034261965130275747 0.01075812983157109 0 -0.045167015119953358 0.0027835274451912741 0 -0.027745219728069748 0.0020412740592563781 0 -0.04542875293223296 0.016368979065893071 0 -0.034261965130275747 0.01075812983157109 0 -0.045167015119953358 0.0027835274451912741 0 -0.07027876954912099 0.067369643276419436 0 -0.05294782532035637 0.062362381152032291 0 -0.062126076109541892 0.054340455394879708 0 -0.05294782532035637 0.062362381152032291 0 -0.062126076109541892 0.054340455394879708 0 -0.048086252111583669 0.044205555150923212 0 -0.05294782532035637 0.062362381152032291 0 -0.048086252111583669 0.044205555150923212 0 -0.041964560719806747 0.059332167183711503 0 -0.062126076109541892 0.054340455394879708 0 -0.048086252111583669 0.044205555150923212 0 -0.060957356691590282 0.04057886864549938 0 -0.060907911184289731 0.02551667380547391 0 -0.047032316646228887 0.03039070772110429 0 -0.060957356691590282 0.04057886864549938 0 -0.047032316646228887 0.03039070772110429 0 -0.048086252111583669 0.044205555150923212 0 -0.060957356691590282 0.04057886864549938 0 -0.048086252111583669 0.044205555150923212 0 -0.02758740729511356 0.042777272702688607 0 -0.048086252111583669 0.044205555150923212 0 -0.035699791796772698 0.034059515661981503 0 -0.02758740729511356 0.042777272702688607 0 -0.047032316646228887 0.03039070772110429 0 -0.048086252111583669 0.044205555150923212 0 -0.035699791796772698 0.034059515661981503 0 -0.048086252111583669 0.044205555150923212 0 -0.03059060777838098 0.055064396563898062 0 -0.02758740729511356 0.042777272702688607 0 -0.048086252111583669 0.044205555150923212 0 -0.041964560719806747 0.059332167183711503 0 -0.03059060777838098 0.055064396563898062 0 -0.034419532214680762 0.065778139485364082 0 -0.041964560719806747 0.059332167183711503 0 -0.03059060777838098 0.055064396563898062 0 -0.02335840483489085 0.068407883036994868 0 -0.020177576071396568 0.057609986169770561 0 -0.03059060777838098 0.055064396563898062 0 -0.03059060777838098 0.055064396563898062 0 -0.019338584806023889 0.050193658746676452 0 -0.02758740729511356 0.042777272702688607 0 -0.020177576071396568 0.057609986169770561 0 -0.019338584806023889 0.050193658746676452 0 -0.011248770406584469 0.054167648042569287 0 -0.020177576071396568 0.057609986169770561 0 -0.03059060777838098 0.055064396563898062 0 -0.019338584806023889 0.050193658746676452 0 -0.019338584806023889 0.050193658746676452 0 -0.02758740729511356 0.042777272702688607 0 -0.0070885624786433824 0.041348990254455029 0 -0.02758740729511356 0.042777272702688607 0 -0.021224332213546079 0.0314663835764174 0 -0.0070885624786433824 0.041348990254455029 0 -0.02758740729511356 0.042777272702688607 0 -0.0070885624786433824 0.041348990254455029 0 -0.035699791796772698 0.034059515661981503 0 -0.02758740729511356 0.042777272702688607 0 -0.021224332213546079 0.0314663835764174 0 -0.021224332213546079 0.0314663835764174 0 -0.0070885624786433824 0.041348990254455029 0 -0.021010266749039649 0.025733521020224661 0 -0.0070885624786433824 0.041348990254455029 0 -0.021010266749039649 0.025733521020224661 0 0.0034082194341547821 0.035098062974553423 0 -0.021224332213546079 0.0314663835764174 0 -0.0070885624786433824 0.041348990254455029 0 -0.0070885624786433824 0.041348990254455029 0 0.0065332767530591907 0.040399871703559478 0 -0.0070885624786433824 0.041348990254455029 0 -0.011248770406584469 0.054167648042569287 0 -0.0008354227529697709 0.057362658882293457 0 -0.019338584806023889 0.050193658746676452 0 -0.0070885624786433824 0.041348990254455029 0 -0.011248770406584469 0.054167648042569287 0 -0.0090993382297974955 0.066740615952886662 0 -0.011248770406584469 0.054167648042569287 0 -0.0008354227529697709 0.057362658882293457 0 -0.0090993382297974955 0.066740615952886662 0 -0.020177576071396568 0.057609986169770561 0 -0.011248770406584469 0.054167648042569287 0 -0.022401161908924491 -0.0086887829394291655 0 -0.027745219728069748 0.0020412740592563781 0 -0.0094964712373844205 0.01320464001756186 0 -0.027745219728069748 0.0020412740592563781 0 -0.024169605367092489 0.011927999953745719 0 -0.0094964712373844205 0.01320464001756186 0 -0.022401161908924491 -0.0086887829394291655 0 -0.0094964712373844205 0.01320464001756186 0 -0.034261965130275747 0.01075812983157109 0 -0.027745219728069748 0.0020412740592563781 0 -0.024169605367092489 0.011927999953745719 0 -0.034261965130275747 0.01075812983157109 0 -0.024169605367092489 0.011927999953745719 0 -0.021010266749039649 0.025733521020224661 0 -0.035360101948448283 0.021583776898379151 0 -0.021224332213546079 0.0314663835764174 0 -0.021010266749039649 0.025733521020224661 0 -0.035360101948448283 0.021583776898379151 0 -0.021224332213546079 0.0314663835764174 0 -0.035360101948448283 0.021583776898379151 0 -0.035699791796772698 0.034059515661981503 0 -0.021224332213546079 0.0314663835764174 0 -0.024169605367092489 0.011927999953745719 0 -0.021010266749039649 0.025733521020224661 0 -0.0094964712373844205 0.01320464001756186 0 -0.0094964712373844205 0.01320464001756186 0 0.0034082194341547821 0.035098062974553423 0 -0.0094964712373844205 0.01320464001756186 0 0.0057536008799286172 0.020868983252248421 0 0.0034082194341547821 0.035098062974553423 0 -0.021010266749039649 0.025733521020224661 0 -0.0094964712373844205 0.01320464001756186 0 0.0034082194341547821 0.035098062974553423 0 -0.021010266749039649 0.025733521020224661 0 0.0034082194341547821 0.035098062974553423 0 -0.012757401769296239 -0.0061955889141616319 0 -0.0094964712373844205 0.01320464001756186 0 0.01144595960643194 0.0094896450035882145 0 -0.012757401769296239 -0.0061955889141616319 0 0.01144595960643194 0.0094896450035882145 0 -0.012757401769296239 -0.0061955889141616319 0 0.01144595960643194 0.0094896450035882145 0 0.0088835792673592484 -0.00060076243150794517 0 -0.0094964712373844205 0.01320464001756186 0 0.01144595960643194 0.0094896450035882145 0 0.0057536008799286172 0.020868983252248421 0 0.03052456030401458 0.004994064051146439 0 0.0088835792673592484 -0.00060076243150794517 0 0.0069692068873070771 -0.0018413908764851859 0 0.01144595960643194 0.0094896450035882145 0 0.0057536008799286172 0.020868983252248421 0 0.017656695716510129 0.025683585013291401 0 0.0057536008799286172 0.020868983252248421 0 0.017656695716510129 0.025683585013291401 0 0.0034082194341547821 0.035098062974553423 0 0.01144595960643194 0.0094896450035882145 0 0.017656695716510129 0.025683585013291401 0 0.035649320982160171 0.025174878921338021 0 0.017656695716510129 0.025683585013291401 0 0.02563115333599756 0.032284817219339991 0 0.035649320982160171 0.025174878921338021 0 0.01144595960643194 0.0094896450035882145 0 0.035649320982160171 0.025174878921338021 0 0.01144595960643194 0.0094896450035882145 0 0.03052456030401458 0.004994064051146439 0 0.035649320982160171 0.025174878921338021 0 0.01144595960643194 0.0094896450035882145 0 0.03052456030401458 0.004994064051146439 0 0.0088835792673592484 -0.00060076243150794517 0 0.03052456030401458 0.004994064051146439 0 0.0088835792673592484 -0.00060076243150794517 0 0.03052456030401458 0.004994064051146439 0 0.0069692068873070771 -0.0018413908764851859 0 0.0065332767530591907 0.040399871703559478 0 0.020847222114550059 0.048682156017657928 0 0.017032716043134111 0.058212671021239122 0 -0.0070885624786433824 0.041348990254455029 0 -0.0008354227529697709 0.057362658882293457 0 0.017032716043134111 0.058212671021239122 0 -0.0008354227529697709 0.057362658882293457 0 0.017032716043134111 0.058212671021239122 0 0.0050686360126358521 0.068473887925386612 0 0.0065332767530591907 0.040399871703559478 0 0.017032716043134111 0.058212671021239122 0 -0.0070885624786433824 0.041348990254455029 0 0.017032716043134111 0.058212671021239122 0 -0.0070885624786433824 0.041348990254455029 0 0.0065332767530591907 0.040399871703559478 0 0.017032716043134111 0.058212671021239122 0 0.015587862341574509 0.039768982217445473 0 0.0065332767530591907 0.040399871703559478 0 0.015587862341574509 0.039768982217445473 0 0.0065332767530591907 0.040399871703559478 0 0.020847222114550059 0.048682156017657928 0 0.0065332767530591907 0.040399871703559478 0 0.0034082194341547821 0.035098062974553423 0 -0.0070885624786433824 0.041348990254455029 0 0.0065332767530591907 0.040399871703559478 0 0.0034082194341547821 0.035098062974553423 0 0.015587862341574509 0.039768982217445473 0 0.0065332767530591907 0.040399871703559478 0 0.0034082194341547821 0.035098062974553423 0 0.017656695716510129 0.025683585013291401 0 0.015587862341574509 0.039768982217445473 0 0.0034082194341547821 0.035098062974553423 0 0.015587862341574509 0.039768982217445473 0 0.0034082194341547821 0.035098062974553423 0 0.015587862341574509 0.039768982217445473 0 0.02563115333599756 0.032284817219339991 0 0.033630734303745871 0.038511822725284639 0 0.015587862341574509 0.039768982217445473 0 0.032461067597776977 0.04623989271289311 0 0.033630734303745871 0.038511822725284639 0 0.015587862341574509 0.039768982217445473 0 0.020847222114550059 0.048682156017657928 0 0.032461067597776977 0.04623989271289311 0 0.015587862341574509 0.039768982217445473 0 0.033630734303745871 0.038511822725284639 0 0.015587862341574509 0.039768982217445473 0 0.032461067597776977 0.04623989271289311 0 0.017656695716510129 0.025683585013291401 0 0.015587862341574509 0.039768982217445473 0 0.02563115333599756 0.032284817219339991 0 0.020847222114550059 0.048682156017657928 0 0.03052263491486908 0.059047253445104607 0 0.032461067597776977 0.04623989271289311 0 0.03052263491486908 0.059047253445104607 0 0.017032716043134111 0.058212671021239122 0 0.032368189740536207 0.068934015356568901 0 0.020847222114550059 0.048682156017657928 0 0.03052263491486908 0.059047253445104607 0 0.017032716043134111 0.058212671021239122 0 0.032461067597776977 0.04623989271289311 0 0.048115987387047643 0.052243588112292107 0 0.038702744930707467 0.061633452948584667 0 0.032461067597776977 0.04623989271289311 0 0.048115987387047643 0.052243588112292107 0 0.042379827878108477 0.043788575717291313 0 0.032461067597776977 0.04623989271289311 0 0.048115987387047643 0.052243588112292107 0 0.038702744930707467 0.061633452948584667 0 0.048115987387047643 0.052243588112292107 0 0.049064167988235263 0.067237834114224709 0 0.03052263491486908 0.059047253445104607 0 0.038702744930707467 0.061633452948584667 0 0.032461067597776977 0.04623989271289311 0 0.03052263491486908 0.059047253445104607 0 0.032461067597776977 0.04623989271289311 0 0.033630734303745871 0.038511822725284639 0 0.056604755447685923 0.036911079295154053 0 0.042379827878108477 0.043788575717291313 0 0.033630734303745871 0.038511822725284639 0 0.056604755447685923 0.036911079295154053 0 0.033630734303745871 0.038511822725284639 0 0.056604755447685923 0.036911079295154053 0 0.042969405629524712 0.02991873404993918 0 0.042379827878108477 0.043788575717291313 0 0.032461067597776977 0.04623989271289311 0 0.033630734303745871 0.038511822725284639 0 0.032461067597776977 0.04623989271289311 0 0.033630734303745871 0.038511822725284639 0 0.033630734303745871 0.038511822725284639 0 0.035649320982160171 0.025174878921338021 0 0.02563115333599756 0.032284817219339991 0 0.033630734303745871 0.038511822725284639 0 0.035649320982160171 0.025174878921338021 0 0.056604755447685923 0.036911079295154053 0 0.048115987387047643 0.052243588112292107 0 0.064571117292952909 0.046326938069080441 0 0.042379827878108477 0.043788575717291313 0 0.056604755447685923 0.036911079295154053 0 0.048115987387047643 0.052243588112292107 0 0.048115987387047643 0.052243588112292107 0 0.063770907176318295 0.058247283511690909 0 0.049064167988235263 0.067237834114224709 0 0.048115987387047643 0.052243588112292107 0 0.064571117292952909 0.046326938069080441 0 0.063770907176318295 0.058247283511690909 0 0.048115987387047643 0.052243588112292107 0 0.063770907176318295 0.058247283511690909 0 0.03052456030401458 0.004994064051146439 0 0.038395754797625657 0.0070289980187163772 0 0.035649320982160171 0.025174878921338021 0 0.038395754797625657 0.0070289980187163772 0 0.042292419207166261 0.021761305744453931 0 0.046832329125690388 0.017576609263002019 0 0.038395754797625657 0.0070289980187163772 0 0.046832329125690388 0.017576609263002019 0 0.050871110569237023 0.015463180102178819 0 0.03052456030401458 0.004994064051146439 0 0.038395754797625657 0.0070289980187163772 0 0.038395754797625657 0.0070289980187163772 0 0.035649320982160171 0.025174878921338021 0 0.038395754797625657 0.0070289980187163772 0 0.035649320982160171 0.025174878921338021 0 0.042292419207166261 0.021761305744453931 0 0.033630734303745871 0.038511822725284639 0 0.035649320982160171 0.025174878921338021 0 0.042969405629524712 0.02991873404993918 0 0.035649320982160171 0.025174878921338021 0 0.042969405629524712 0.02991873404993918 0 0.042292419207166261 0.021761305744453931 0 0.042969405629524712 0.02991873404993918 0 0.042292419207166261 0.021761305744453931 0 0.049559136253644678 0.025272210256569051 0 0.035649320982160171 0.025174878921338021 0 0.042969405629524712 0.02991873404993918 0 0.042292419207166261 0.021761305744453931 0 0.046832329125690388 0.017576609263002019 0 0.049559136253644678 0.025272210256569051 0 0.046832329125690388 0.017576609263002019 0 0.05217485751633575 0.020177383081934602 0 0.050871110569237023 0.015463180102178819 0 0.046832329125690388 0.017576609263002019 0 0.05217485751633575 0.020177383081934602 0 0.049559136253644678 0.025272210256569051 0 0.05217485751633575 0.020177383081934602 0 0.049559136253644678 0.025272210256569051 0 0.057191335898137893 0.024762668428599411 0 0.05217485751633575 0.020177383081934602 0 0.056987289458120129 0.018746339272127661 0 0.050871110569237023 0.015463180102178819 0 0.056604755447685923 0.036911079295154053 0 0.049559136253644678 0.025272210256569051 0 0.057191335898137893 0.024762668428599411 0 0.056604755447685923 0.036911079295154053 0 0.042969405629524712 0.02991873404993918 0 0.049559136253644678 0.025272210256569051 0 0.056604755447685923 0.036911079295154053 0 0.057191335898137893 0.024762668428599411 0 0.068709728066348327 0.02699650438208491 0 0.057191335898137893 0.024762668428599411 0 0.056987289458120129 0.018746339272127661 0 0.064885658189730508 0.020781393750447939 0 0.056987289458120129 0.018746339272127661 0 0.060001449867119389 0.013547871181566799 0 0.064885658189730508 0.020781393750447939 0 0.056987289458120129 0.018746339272127661 0 0.060001449867119389 0.013547871181566799 0 0.050871110569237023 0.015463180102178819 0 0.05217485751633575 0.020177383081934602 0 0.057191335898137893 0.024762668428599411 0 0.056987289458120129 0.018746339272127661 0 0.038395754797625657 0.0070289980187163772 0 0.063611110947010926 0.01354790499964831 0 0.055178452084847222 -0.0019276438637697969 0 0.038395754797625657 0.0070289980187163772 0 0.060001449867119389 0.013547871181566799 0 0.063611110947010926 0.01354790499964831 0 0.038395754797625657 0.0070289980187163772 0 0.060001449867119389 0.013547871181566799 0 0.050871110569237023 0.015463180102178819 0 0.038395754797625657 0.0070289980187163772 0 0.063611110947010926 0.01354790499964831 0 0.038395754797625657 0.0070289980187163772 0 0.060001449867119389 0.013547871181566799 0 0.075628619070943648 0.00099664393814992338 0 0.063611110947010926 0.01354790499964831 0 0.088826467096395453 0.020066811980582931 0 0.075628619070943648 0.00099664393814992338 0 0.063611110947010926 0.01354790499964831 0 0.055178452084847222 -0.0019276438637697969 0 0.075628619070943648 0.00099664393814992338 0 0.089859016564825936 0.0038210315699359421 0 0.088826467096395453 0.020066811980582931 0 0.088826467096395453 0.020066811980582931 0 0.08164327285532022 0.019828044650868831 0 0.103285095843521 0.026108218120170851 0 0.090635776933116308 0.028629713189999219 0 0.08164327285532022 0.019828044650868831 0 0.103285095843521 0.026108218120170851 0 0.08164327285532022 0.019828044650868831 0 0.103285095843521 0.026108218120170851 0 0.090635776933116308 0.028629713189999219 0 0.08164327285532022 0.019828044650868831 0 0.083246675259848135 0.02719124822356447 0 0.090635776933116308 0.028629713189999219 0 0.083246675259848135 0.02719124822356447 0 0.079578776591625933 0.035310335865022052 0 0.078467856559180788 0.02718882948502949 0 0.083246675259848135 0.02719124822356447 0 0.079578776591625933 0.035310335865022052 0 0.08164327285532022 0.019828044650868831 0 0.078467856559180788 0.02718882948502949 0 0.083246675259848135 0.02719124822356447 0 0.08164327285532022 0.019828044650868831 0 0.078467856559180788 0.02718882948502949 0 0.068709728066348327 0.02699650438208491 0 0.060001449867119389 0.013547871181566799 0 0.08164327285532022 0.019828044650868831 0 0.063611110947010926 0.01354790499964831 0 0.088826467096395453 0.020066811980582931 0 0.078467856559180788 0.02718882948502949 0 0.068709728066348327 0.02699650438208491 0 0.079578776591625933 0.035310335865022052 0 0.08164327285532022 0.019828044650868831 0 0.064885658189730508 0.020781393750447939 0 0.068709728066348327 0.02699650438208491 0 0.060001449867119389 0.013547871181566799 0 0.08164327285532022 0.019828044650868831 0 0.064885658189730508 0.020781393750447939 0 0.060001449867119389 0.013547871181566799 0 0.063611110947010926 0.01354790499964831 0 0.08164327285532022 0.019828044650868831 0 0.063611110947010926 0.01354790499964831 0 0.088826467096395453 0.020066811980582931 0 0.08164327285532022 0.019828044650868831 0 0.057191335898137893 0.024762668428599411 0 0.064885658189730508 0.020781393750447939 0 0.068709728066348327 0.02699650438208491 0 0.056604755447685923 0.036911079295154053 0 0.079578776591625933 0.035310335865022052 0 0.056604755447685923 0.036911079295154053 0 0.064571117292952909 0.046326938069080441 0 0.079578776591625933 0.035310335865022052 0 0.056604755447685923 0.036911079295154053 0 0.068709728066348327 0.02699650438208491 0 0.079578776591625933 0.035310335865022052 0 0.064571117292952909 0.046326938069080441 0 0.074785159862086739 0.048922403561243062 0 0.079578776591625933 0.035310335865022052 0 0.074785159862086739 0.048922403561243062 0 0.083333617815166114 0.055813209613481962 0 0.074933847671004875 0.066116525944797208 0 0.063770907176318295 0.058247283511690909 0 0.074785159862086739 0.048922403561243062 0 0.074933847671004875 0.066116525944797208 0 0.064571117292952909 0.046326938069080441 0 0.063770907176318295 0.058247283511690909 0 0.074785159862086739 0.048922403561243062 0 0.083333617815166114 0.055813209613481962 0 0.084926697404531973 0.064758053971591997 0 0.074933847671004875 0.066116525944797208 0 0.074785159862086739 0.048922403561243062 0 0.083333617815166114 0.055813209613481962 0 0.087862262629129939 0.042818590692518067 0 0.083333617815166114 0.055813209613481962 0 0.087862262629129939 0.042818590692518067 0 0.094160121509077016 0.056450473897259407 0 0.083333617815166114 0.055813209613481962 0 0.094160121509077016 0.056450473897259407 0 0.084926697404531973 0.064758053971591997 0 0.090635776933116308 0.028629713189999219 0 0.079578776591625933 0.035310335865022052 0 0.1025527977355659 0.033709592434891057 0 0.079578776591625933 0.035310335865022052 0 0.087862262629129939 0.042818590692518067 0 0.1025527977355659 0.033709592434891057 0 0.079578776591625933 0.035310335865022052 0 0.1025527977355659 0.033709592434891057 0 0.074785159862086739 0.048922403561243062 0 0.079578776591625933 0.035310335865022052 0 0.087862262629129939 0.042818590692518067 0 0.087862262629129939 0.042818590692518067 0 0.1025527977355659 0.033709592434891057 0 0.087862262629129939 0.042818590692518067 0 0.100593893690446 0.046459987768455807 0 0.1025527977355659 0.033709592434891057 0 0.100593893690446 0.046459987768455807 0 0.1025527977355659 0.033709592434891057 0 0.11125295347910449 0.044235286582697028 0 0.100593893690446 0.046459987768455807 0 0.094160121509077016 0.056450473897259407 0 0.1086694243749079 0.058065971626194562 0 0.087862262629129939 0.042818590692518067 0 0.100593893690446 0.046459987768455807 0 0.094160121509077016 0.056450473897259407 0 0.100593893690446 0.046459987768455807 0 0.1086694243749079 0.058065971626194562 0 0.11125295347910449 0.044235286582697028 0 0.1086694243749079 0.058065971626194562 0 0.11125295347910449 0.044235286582697028 0 0.12651810576341729 0.050302752328837227 0 0.11125295347910449 0.044235286582697028 0 0.11793054583118549 0.0326381287551075 0 0.12651810576341729 0.050302752328837227 0 0.1025527977355659 0.033709592434891057 0 0.11793054583118549 0.0326381287551075 0 0.1025527977355659 0.033709592434891057 0 0.11125295347910449 0.044235286582697028 0 0.11793054583118549 0.0326381287551075 0 0.1140418232457794 0.026585718961519889 0 0.1183174958598085 0.01025556531129249 0 0.13126591499994281 0.015905766145567019 0 0.1140418232457794 0.026585718961519889 0 0.13126591499994281 0.015905766145567019 0 0.11793054583118549 0.0326381287551075 0 0.1140418232457794 0.026585718961519889 0 0.13330829392680521 0.031566665075324213 0 0.1140418232457794 0.026585718961519889 0 0.13330829392680521 0.031566665075324213 0 0.1025527977355659 0.033709592434891057 0 0.11793054583118549 0.0326381287551075 0 0.1140418232457794 0.026585718961519889 0 0.1140418232457794 0.026585718961519889 0 0.1183174958598085 0.01025556531129249 0 0.10323644798107071 0.0062004188101722332 0 0.1183174958598085 0.01025556531129249 0 0.13209524965815869 0.0039907213177849564 0 0.11857905208712689 -0.0082820132257927503 0 0.1183174958598085 0.01025556531129249 0 0.10323644798107071 0.0062004188101722332 0 0.11857905208712689 -0.0082820132257927503 0 0.089859016564825936 0.0038210315699359421 0 0.088826467096395453 0.020066811980582931 0 0.10323644798107071 0.0062004188101722332 0 0.088826467096395453 0.020066811980582931 0 0.1140418232457794 0.026585718961519889 0 0.088826467096395453 0.020066811980582931 0 0.1140418232457794 0.026585718961519889 0 0.10323644798107071 0.0062004188101722332 0 0.088826467096395453 0.020066811980582931 0 0.1140418232457794 0.026585718961519889 0 0.103285095843521 0.026108218120170851 0 0.090635776933116308 0.028629713189999219 0 0.1025527977355659 0.033709592434891057 0 0.103285095843521 0.026108218120170851 0 0.1025527977355659 0.033709592434891057 0 0.1140418232457794 0.026585718961519889 0 0.1025527977355659 0.033709592434891057 0 0.1140418232457794 0.026585718961519889 0 0.103285095843521 0.026108218120170851 0 0.1020424005609705 0.1007780939655338 0 0.1230928237282445 0.080455385072269139 0 0.13495584681596171 0.10939639726307319 0 0.1020424005609705 0.1007780939655338 0 0.1184267252289975 0.1250059157394951 0 0.13495584681596171 0.10939639726307319 0 0.099436482189268094 0.11892787337264039 0 0.080991977393695916 0.1211008028587978 0 0.1036132329614909 0.1349215574544925 0 0.1020424005609705 0.1007780939655338 0 0.099436482189268094 0.11892787337264039 0 0.1184267252289975 0.1250059157394951 0 0.1020424005609705 0.1007780939655338 0 0.099436482189268094 0.11892787337264039 0 0.080991977393695916 0.1211008028587978 0 0.1020424005609705 0.1007780939655338 0 0.1230928237282445 0.080455385072269139 0 0.1086694243749079 0.058065971626194562 0 0.1230928237282445 0.080455385072269139 0 0.1001579970820282 0.076459796072486208 0 0.1086694243749079 0.058065971626194562 0 0.1230928237282445 0.080455385072269139 0 0.12651810576341729 0.050302752328837227 0 0.094160121509077016 0.056450473897259407 0 0.1086694243749079 0.058065971626194562 0 0.1001579970820282 0.076459796072486208 0 0.1020424005609705 0.1007780939655338 0 0.1230928237282445 0.080455385072269139 0 0.1001579970820282 0.076459796072486208 0 0.1020424005609705 0.1007780939655338 0 0.1001579970820282 0.076459796072486208 0 0.086542108186726044 0.091503605894917142 0 0.1001579970820282 0.076459796072486208 0 0.086542108186726044 0.091503605894917142 0 0.085453850153413349 0.07729060735687962 0 0.086542108186726044 0.091503605894917142 0 0.085453850153413349 0.07729060735687962 0 0.074138002522469812 0.084222828832447721 0 0.094160121509077016 0.056450473897259407 0 0.1001579970820282 0.076459796072486208 0 0.084926697404531973 0.064758053971591997 0 0.085453850153413349 0.07729060735687962 0 0.074933847671004875 0.066116525944797208 0 0.074138002522469812 0.084222828832447721 0 0.1001579970820282 0.076459796072486208 0 0.085453850153413349 0.07729060735687962 0 0.084926697404531973 0.064758053971591997 0 0.085453850153413349 0.07729060735687962 0 0.084926697404531973 0.064758053971591997 0 0.074933847671004875 0.066116525944797208 0 0.063770907176318295 0.058247283511690909 0 0.074933847671004875 0.066116525944797208 0 0.060759601473095018 0.074857389457110068 0 0.074933847671004875 0.066116525944797208 0 0.074138002522469812 0.084222828832447721 0 0.060759601473095018 0.074857389457110068 0 0.074138002522469812 0.084222828832447721 0 0.069049583626450278 0.098226985957127574 0 0.055896090234775979 0.091366623975007888 0 0.086542108186726044 0.091503605894917142 0 0.074138002522469812 0.084222828832447721 0 0.069049583626450278 0.098226985957127574 0 0.074138002522469812 0.084222828832447721 0 0.060759601473095018 0.074857389457110068 0 0.055896090234775979 0.091366623975007888 0 0.069049583626450278 0.098226985957127574 0 0.067703586524311465 0.1129820851056193 0 0.054415195654926897 0.1048633673524411 0 0.069049583626450278 0.098226985957127574 0 0.081505692463685789 0.10515740899897071 0 0.067703586524311465 0.1129820851056193 0 0.1020424005609705 0.1007780939655338 0 0.081505692463685789 0.10515740899897071 0 0.080991977393695916 0.1211008028587978 0 0.086542108186726044 0.091503605894917142 0 0.069049583626450278 0.098226985957127574 0 0.081505692463685789 0.10515740899897071 0 0.1020424005609705 0.1007780939655338 0 0.086542108186726044 0.091503605894917142 0 0.081505692463685789 0.10515740899897071 0 0.1020424005609705 0.1007780939655338 0 0.080991977393695916 0.1211008028587978 0 0.081505692463685789 0.10515740899897071 0 0.080991977393695916 0.1211008028587978 0 0.067703586524311465 0.1129820851056193 0 0.069909163599022259 0.119115897524082 0 0.072892687981170184 0.1289200993957399 0 0.080991977393695916 0.1211008028587978 0 0.069909163599022259 0.119115897524082 0 0.072892687981170184 0.1289200993957399 0 0.080991977393695916 0.1211008028587978 0 0.067703586524311465 0.1129820851056193 0 0.069909163599022259 0.119115897524082 0 0.080991977393695916 0.1211008028587978 0 0.067703586524311465 0.1129820851056193 0 0.067703586524311465 0.1129820851056193 0 0.069909163599022259 0.119115897524082 0 0.06135577174158461 0.1187280559412932 0 0.069909163599022259 0.119115897524082 0 0.06135577174158461 0.1187280559412932 0 0.058474984500340547 0.12792626101213209 0 0.06135577174158461 0.1187280559412932 0 0.050957993684137157 0.1200219481327913 0 0.058474984500340547 0.12792626101213209 0 0.050957993684137157 0.1200219481327913 0 0.054415195654926897 0.1048633673524411 0 0.043794032111170812 0.1088846392398089 0 0.06135577174158461 0.1187280559412932 0 0.050957993684137157 0.1200219481327913 0 0.054415195654926897 0.1048633673524411 0 0.067703586524311465 0.1129820851056193 0 0.06135577174158461 0.1187280559412932 0 0.054415195654926897 0.1048633673524411 0 0.067703586524311465 0.1129820851056193 0 0.054415195654926897 0.1048633673524411 0 0.069049583626450278 0.098226985957127574 0 0.054415195654926897 0.1048633673524411 0 0.055896090234775979 0.091366623975007888 0 0.054415195654926897 0.1048633673524411 0 0.040571087323439899 0.098146640093034782 0 0.055896090234775979 0.091366623975007888 0 0.054415195654926897 0.1048633673524411 0 0.043794032111170812 0.1088846392398089 0 0.040571087323439899 0.098146640093034782 0 0.040571087323439899 0.098146640093034782 0 0.025015505766849251 0.09343507093725209 0 0.0303820358791679 0.1088790092979116 0 0.043794032111170812 0.1088846392398089 0 0.040571087323439899 0.098146640093034782 0 0.0303820358791679 0.1088790092979116 0 0.043794032111170812 0.1088846392398089 0 0.03906771239458813 0.1177489849454319 0 0.0303820358791679 0.1088790092979116 0 0.03906771239458813 0.1177489849454319 0 0.028307642974569419 0.1242457680382861 0 0.0303820358791679 0.1088790092979116 0 0.03906771239458813 0.1177489849454319 0 0.028307642974569419 0.1242457680382861 0 0.042487645525690142 0.13288458696529529 0 0.050957993684137157 0.1200219481327913 0 0.03906771239458813 0.1177489849454319 0 0.042487645525690142 0.13288458696529529 0 0.050957993684137157 0.1200219481327913 0 0.043794032111170812 0.1088846392398089 0 0.03906771239458813 0.1177489849454319 0 0.063770907176318295 0.058247283511690909 0 0.049064167988235263 0.067237834114224709 0 0.060759601473095018 0.074857389457110068 0 0.049064167988235263 0.067237834114224709 0 0.060759601473095018 0.074857389457110068 0 0.048932154691008832 0.081392451032867866 0 0.060759601473095018 0.074857389457110068 0 0.048932154691008832 0.081392451032867866 0 0.055896090234775979 0.091366623975007888 0 0.040571087323439899 0.098146640093034782 0 0.048932154691008832 0.081392451032867866 0 0.055896090234775979 0.091366623975007888 0 0.040571087323439899 0.098146640093034782 0 0.048932154691008832 0.081392451032867866 0 0.039684421955779703 0.07609813395042439 0 0.040571087323439899 0.098146640093034782 0 0.028801901683286842 0.07817965555713699 0 0.040571087323439899 0.098146640093034782 0 0.028801901683286842 0.07817965555713699 0 0.025015505766849251 0.09343507093725209 0 0.040571087323439899 0.098146640093034782 0 0.039684421955779703 0.07609813395042439 0 0.028801901683286842 0.07817965555713699 0 0.049064167988235263 0.067237834114224709 0 0.048932154691008832 0.081392451032867866 0 0.039684421955779703 0.07609813395042439 0 0.039684421955779703 0.07609813395042439 0 0.032368189740536207 0.068934015356568901 0 0.028801901683286842 0.07817965555713699 0 0.03052263491486908 0.059047253445104607 0 0.038702744930707467 0.061633452948584667 0 0.032368189740536207 0.068934015356568901 0 0.038702744930707467 0.061633452948584667 0 0.039684421955779703 0.07609813395042439 0 0.032368189740536207 0.068934015356568901 0 0.038702744930707467 0.061633452948584667 0 0.049064167988235263 0.067237834114224709 0 0.039684421955779703 0.07609813395042439 0 0.017032716043134111 0.058212671021239122 0 0.028801901683286842 0.07817965555713699 0 0.017032716043134111 0.058212671021239122 0 0.028801901683286842 0.07817965555713699 0 0.015420601703202631 0.07407190028065988 0 0.017032716043134111 0.058212671021239122 0 0.032368189740536207 0.068934015356568901 0 0.028801901683286842 0.07817965555713699 0 0.017032716043134111 0.058212671021239122 0 0.032368189740536207 0.068934015356568901 0 0.019166664277085969 0.084270813219098656 0 0.028801901683286842 0.07817965555713699 0 0.015420601703202631 0.07407190028065988 0 0.019166664277085969 0.084270813219098656 0 0.028801901683286842 0.07817965555713699 0 0.025015505766849251 0.09343507093725209 0 0.019166664277085969 0.084270813219098656 0 0.025015505766849251 0.09343507093725209 0 0.012865899863566239 0.09105636657036266 0 0.012865899863566239 0.09105636657036266 0 0.0069173803036743954 0.081423172471221383 0 0.0021822522697273238 0.094475177052334769 0 -0.0060965157609311274 0.085723806154309232 0 0.0069173803036743954 0.081423172471221383 0 0.0021822522697273238 0.094475177052334769 0 0.019166664277085969 0.084270813219098656 0 0.0069173803036743954 0.081423172471221383 0 0.015420601703202631 0.07407190028065988 0 0.019166664277085969 0.084270813219098656 0 0.012865899863566239 0.09105636657036266 0 0.0069173803036743954 0.081423172471221383 0 0.017032716043134111 0.058212671021239122 0 0.015420601703202631 0.07407190028065988 0 0.0050686360126358521 0.068473887925386612 0 0.0069173803036743954 0.081423172471221383 0 0.015420601703202631 0.07407190028065988 0 0.0050686360126358521 0.068473887925386612 0 -0.0022125403724556039 0.076318095984771628 0 0.0069173803036743954 0.081423172471221383 0 0.0050686360126358521 0.068473887925386612 0 0.021217736386257069 0.1164945075044783 0 0.0303820358791679 0.1088790092979116 0 0.01429042690147574 0.10379799946729169 0 0.021217736386257069 0.1164945075044783 0 0.01429042690147574 0.10379799946729169 0 0.011541459817780091 0.1169979424199802 0 0.021217736386257069 0.1164945075044783 0 0.011541459817780091 0.1169979424199802 0 0.016545864663827049 0.12842902997845601 0 0.021217736386257069 0.1164945075044783 0 0.028307642974569419 0.1242457680382861 0 0.016545864663827049 0.12842902997845601 0 0.021217736386257069 0.1164945075044783 0 0.028307642974569419 0.1242457680382861 0 0.0303820358791679 0.1088790092979116 0 0.025015505766849251 0.09343507093725209 0 0.0303820358791679 0.1088790092979116 0 0.01429042690147574 0.10379799946729169 0 0.025015505766849251 0.09343507093725209 0 0.012865899863566239 0.09105636657036266 0 0.01429042690147574 0.10379799946729169 0 0.01429042690147574 0.10379799946729169 0 6.5448797501928578e-05 0.10703563395645301 0 0.011541459817780091 0.1169979424199802 0 0.012865899863566239 0.09105636657036266 0 0.01429042690147574 0.10379799946729169 0 0.0021822522697273238 0.094475177052334769 0 0.01429042690147574 0.10379799946729169 0 0.0021822522697273238 0.094475177052334769 0 6.5448797501928578e-05 0.10703563395645301 0 6.5448797501928578e-05 0.10703563395645301 0 0.0017371169864060601 0.116089427830274 0 0.011541459817780091 0.1169979424199802 0 0.011541459817780091 0.1169979424199802 0 0.0060256226077678174 0.1243546663002285 0 0.016545864663827049 0.12842902997845601 0 -0.0041156739740950132 0.1224202395901087 0 0.0017371169864060601 0.116089427830274 0 0.0060256226077678174 0.1243546663002285 0 0.0017371169864060601 0.116089427830274 0 0.011541459817780091 0.1169979424199802 0 0.0060256226077678174 0.1243546663002285 0 -0.0041156739740950132 0.1224202395901087 0 0.0060256226077678174 0.1243546663002285 0 0.003822030176161644 0.1381973971303187 0 0.003822030176161644 0.1381973971303187 0 0.016545864663827049 0.12842902997845601 0 0.017035256863862269 0.14200289970452451 0 0.0060256226077678174 0.1243546663002285 0 0.003822030176161644 0.1381973971303187 0 0.016545864663827049 0.12842902997845601 0 0.016545864663827049 0.12842902997845601 0 0.02788216340741001 0.13734205725634199 0 0.017035256863862269 0.14200289970452451 0 0.028307642974569419 0.1242457680382861 0 0.016545864663827049 0.12842902997845601 0 0.02788216340741001 0.13734205725634199 0 0.02788216340741001 0.13734205725634199 0 0.023580496348441459 0.1495726967030819 0 0.036337320324366568 0.15342560908376959 0 0.023580496348441459 0.1495726967030819 0 0.02173713116230264 0.16301298323695221 0 0.036337320324366568 0.15342560908376959 0 0.023580496348441459 0.1495726967030819 0 0.017035256863862269 0.14200289970452451 0 0.01423141849816746 0.15158522769807839 0 0.02788216340741001 0.13734205725634199 0 0.023580496348441459 0.1495726967030819 0 0.017035256863862269 0.14200289970452451 0 0.023580496348441459 0.1495726967030819 0 0.01423141849816746 0.15158522769807839 0 0.02173713116230264 0.16301298323695221 0 -0.0058201945686504426 0.1438008545315542 0 0.003822030176161644 0.1381973971303187 0 0.0042210202598831209 0.15734203123114859 0 0.003822030176161644 0.1381973971303187 0 0.01423141849816746 0.15158522769807839 0 0.0042210202598831209 0.15734203123114859 0 0.003822030176161644 0.1381973971303187 0 0.017035256863862269 0.14200289970452451 0 0.01423141849816746 0.15158522769807839 0 0.01423141849816746 0.15158522769807839 0 0.0042210202598831209 0.15734203123114859 0 0.02173713116230264 0.16301298323695221 0 0.0042210202598831209 0.15734203123114859 0 3.059217218447791e-06 0.17728489966877289 0 0.02173713116230264 0.16301298323695221 0 3.059217218447791e-06 0.17728489966877289 0 0.01938787187226176 0.1740366219238311 0 0.02173713116230264 0.16301298323695221 0 0.0042210202598831209 0.15734203123114859 0 0.02173713116230264 0.16301298323695221 0 3.059217218447791e-06 0.17728489966877289 0 0.02173713116230264 0.16301298323695221 0 3.059217218447791e-06 0.17728489966877289 0 0.01538481516588818 0.18160409286651841 0 0.01938787187226176 0.1740366219238311 0 3.059217218447791e-06 0.17728489966877289 0 0.01538481516588818 0.18160409286651841 0 0.0068553743452081078 0.18951901850396091 0 -0.0055858246544130538 0.19106999461701099 0 3.059217218447791e-06 0.17728489966877289 0 0.0068553743452081078 0.18951901850396091 0 0.01538481516588818 0.18160409286651841 0 0.0068553743452081078 0.18951901850396091 0 0.01926730959809533 0.19137393268565439 0 0.01538481516588818 0.18160409286651841 0 0.0268910027132593 0.18030332209062719 0 0.01926730959809533 0.19137393268565439 0 0.01538481516588818 0.18160409286651841 0 0.01938787187226176 0.1740366219238311 0 0.0268910027132593 0.18030332209062719 0 0.01938787187226176 0.1740366219238311 0 0.0268910027132593 0.18030332209062719 0 0.030883317144733229 0.16947720399710711 0 0.01938787187226176 0.1740366219238311 0 0.02173713116230264 0.16301298323695221 0 0.030883317144733229 0.16947720399710711 0 0.02173713116230264 0.16301298323695221 0 0.033600600959709077 0.1668538568314431 0 0.02173713116230264 0.16301298323695221 0 0.030883317144733229 0.16947720399710711 0 0.033600600959709077 0.1668538568314431 0 0.02173713116230264 0.16301298323695221 0 0.036337320324366568 0.15342560908376959 0 0.02173713116230264 0.16301298323695221 0 0.033600600959709077 0.1668538568314431 0 0.036337320324366568 0.15342560908376959 0 0.033600600959709077 0.1668538568314431 0 0.053246644470437511 0.14788697811358931 0 0.033600600959709077 0.1668538568314431 0 0.052831536893721068 0.1730799943180151 0 0.030883317144733229 0.16947720399710711 0 0.033600600959709077 0.1668538568314431 0 0.038793414464829083 0.1780033327008044 0 0.030883317144733229 0.16947720399710711 0 0.033600600959709077 0.1668538568314431 0 0.038793414464829083 0.1780033327008044 0 0.033366018351847118 0.1912829257803923 0 0.04920263499159172 0.1887256963464623 0 0.033600600959709077 0.1668538568314431 0 0.038793414464829083 0.1780033327008044 0 0.052831536893721068 0.1730799943180151 0 0.0268910027132593 0.18030332209062719 0 0.038793414464829083 0.1780033327008044 0 0.033366018351847118 0.1912829257803923 0 0.0268910027132593 0.18030332209062719 0 0.030883317144733229 0.16947720399710711 0 0.038793414464829083 0.1780033327008044 0 0.052831536893721068 0.1730799943180151 0 0.072062472827733912 0.17930613180458471 0 0.038793414464829083 0.1780033327008044 0 0.052831536893721068 0.1730799943180151 0 0.04920263499159172 0.1887256963464623 0 0.052831536893721068 0.1730799943180151 0 0.04920263499159172 0.1887256963464623 0 0.072062472827733912 0.17930613180458471 0 0.033600600959709077 0.1668538568314431 0 0.059943223198958562 0.16059724622354229 0 0.053246644470437511 0.14788697811358931 0 0.052831536893721068 0.1730799943180151 0 0.059943223198958562 0.16059724622354229 0 0.072062472827733912 0.17930613180458471 0 0.033600600959709077 0.1668538568314431 0 0.052831536893721068 0.1730799943180151 0 0.059943223198958562 0.16059724622354229 0 0.059943223198958562 0.16059724622354229 0 0.053246644470437511 0.14788697811358931 0 0.072832065916368399 0.15477992992521691 0 0.050957993684137157 0.1200219481327913 0 0.058474984500340547 0.12792626101213209 0 0.042487645525690142 0.13288458696529529 0 0.053246644470437511 0.14788697811358931 0 0.058474984500340547 0.12792626101213209 0 0.072892687981170184 0.1289200993957399 0 0.053246644470437511 0.14788697811358931 0 0.058474984500340547 0.12792626101213209 0 0.042487645525690142 0.13288458696529529 0 0.028307642974569419 0.1242457680382861 0 0.02788216340741001 0.13734205725634199 0 0.042487645525690142 0.13288458696529529 0 0.033600600959709077 0.1668538568314431 0 0.053246644470437511 0.14788697811358931 0 0.036337320324366568 0.15342560908376959 0 0.053246644470437511 0.14788697811358931 0 0.042487645525690142 0.13288458696529529 0 0.036337320324366568 0.15342560908376959 0 0.02788216340741001 0.13734205725634199 0 0.042487645525690142 0.13288458696529529 0 0.036337320324366568 0.15342560908376959 0 0.0073431443550527123 0.2488386479659444 0 0.011808741713781519 0.22676854717410569 0 0.036910724912108769 0.2451304881684036 0 -0.0073947002020734731 0.23660487616355871 0 0.0073431443550527123 0.2488386479659444 0 0.011808741713781519 0.22676854717410569 0 -0.0090891165611164514 0.22115965710215629 0 0.011808741713781519 0.22676854717410569 0 0.0040726003524663894 0.21213581314609001 0 0.011808741713781519 0.22676854717410569 0 0.030895784008077552 0.21872183404325121 0 0.036910724912108769 0.2451304881684036 0 0.030895784008077552 0.21872183404325121 0 0.022070071864645949 0.20569201077052379 0 0.040464197028887663 0.20489449761157669 0 0.011808741713781519 0.22676854717410569 0 0.030895784008077552 0.21872183404325121 0 0.022070071864645949 0.20569201077052379 0 0.022070071864645949 0.20569201077052379 0 0.0040726003524663894 0.21213581314609001 0 0.01033124362946285 0.19975165490624031 0 0.011808741713781519 0.22676854717410569 0 0.022070071864645949 0.20569201077052379 0 0.0040726003524663894 0.21213581314609001 0 -0.00060913801310155213 0.20003749942497229 0 0.0040726003524663894 0.21213581314609001 0 0.01033124362946285 0.19975165490624031 0 -0.00060913801310155213 0.20003749942497229 0 0.01033124362946285 0.19975165490624031 0 0.0068553743452081078 0.18951901850396091 0 -0.0055858246544130538 0.19106999461701099 0 -0.00060913801310155213 0.20003749942497229 0 0.0068553743452081078 0.18951901850396091 0 0.01033124362946285 0.19975165490624031 0 0.0068553743452081078 0.18951901850396091 0 0.01926730959809533 0.19137393268565439 0 0.022070071864645949 0.20569201077052379 0 0.01033124362946285 0.19975165490624031 0 0.01926730959809533 0.19137393268565439 0 0.022070071864645949 0.20569201077052379 0 0.01926730959809533 0.19137393268565439 0 0.033366018351847118 0.1912829257803923 0 0.0268910027132593 0.18030332209062719 0 0.01926730959809533 0.19137393268565439 0 0.033366018351847118 0.1912829257803923 0 0.022070071864645949 0.20569201077052379 0 0.033366018351847118 0.1912829257803923 0 0.040464197028887663 0.20489449761157669 0 0.033366018351847118 0.1912829257803923 0 0.04920263499159172 0.1887256963464623 0 0.040464197028887663 0.20489449761157669 0 0.060345223522529828 0.20124758392586001 0 0.04920263499159172 0.1887256963464623 0 0.072062472827733912 0.17930613180458471 0 0.060345223522529828 0.20124758392586001 0 0.04920263499159172 0.1887256963464623 0 0.040464197028887663 0.20489449761157669 0 0.060345223522529828 0.20124758392586001 0 0.04862797421731932 0.22318903604713181 0 0.060345223522529828 0.20124758392586001 0 0.040464197028887663 0.20489449761157669 0 0.04862797421731932 0.22318903604713181 0 0.060345223522529828 0.20124758392586001 0 0.04862797421731932 0.22318903604713181 0 0.07117727906882193 0.21887184396923809 0 0.030895784008077552 0.21872183404325121 0 0.040464197028887663 0.20489449761157669 0 0.04862797421731932 0.22318903604713181 0 0.030895784008077552 0.21872183404325121 0 0.04862797421731932 0.22318903604713181 0 0.036910724912108769 0.2451304881684036 0 0.04862797421731932 0.22318903604713181 0 0.036910724912108769 0.2451304881684036 0 0.047401390693192311 0.236330333472381 0 0.07117727906882193 0.21887184396923809 0 0.047401390693192311 0.236330333472381 0 0.065459561734573221 0.23897009683162321 0 0.07117727906882193 0.21887184396923809 0 0.04862797421731932 0.22318903604713181 0 0.047401390693192311 0.236330333472381 0 0.07117727906882193 0.21887184396923809 0 0.047401390693192311 0.236330333472381 0 0.055910075532543277 0.2471648422222211 0 0.065459561734573221 0.23897009683162321 0 0.055910075532543277 0.2471648422222211 0 0.065459561734573221 0.23897009683162321 0 0.065901355208508441 0.25290893604919618 0 0.047401390693192311 0.236330333472381 0 0.055910075532543277 0.2471648422222211 0 0.046433617409517902 0.2499875422502417 0 0.047401390693192311 0.236330333472381 0 0.046433617409517902 0.2499875422502417 0 0.036910724912108769 0.2451304881684036 0 0.04862797421731932 0.22318903604713181 0 0.047401390693192311 0.236330333472381 0 0.036910724912108769 0.2451304881684036 0 0.093219254583607233 0.23474802868162661 0 0.085456693173644974 0.24357472966300889 0 0.097019205202770714 0.25194050859221961 0 0.093219254583607233 0.23474802868162661 0 0.085456693173644974 0.24357472966300889 0 0.080302484410520056 0.2320426553436373 0 0.085456693173644974 0.24357472966300889 0 0.07501887658680044 0.2461307846639145 0 0.080302484410520056 0.2320426553436373 0 0.085456693173644974 0.24357472966300889 0 0.07501887658680044 0.2461307846639145 0 0.085315581801550397 0.25546548743293762 0 0.07501887658680044 0.2461307846639145 0 0.065459561734573221 0.23897009683162321 0 0.065901355208508441 0.25290893604919618 0 0.07501887658680044 0.2461307846639145 0 0.065459561734573221 0.23897009683162321 0 0.080302484410520056 0.2320426553436373 0 0.065459561734573221 0.23897009683162321 0 0.07117727906882193 0.21887184396923809 0 0.080302484410520056 0.2320426553436373 0 0.07117727906882193 0.21887184396923809 0 0.080302484410520056 0.2320426553436373 0 0.08279029401383689 0.2185405993907385 0 0.080302484410520056 0.2320426553436373 0 0.089969170608793836 0.2231475442311073 0 0.08279029401383689 0.2185405993907385 0 0.093219254583607233 0.23474802868162661 0 0.080302484410520056 0.2320426553436373 0 0.089969170608793836 0.2231475442311073 0 0.07117727906882193 0.21887184396923809 0 0.077706064917219014 0.1971899805899143 0 0.094953167444451883 0.20141335446609579 0 0.07117727906882193 0.21887184396923809 0 0.094953167444451883 0.20141335446609579 0 0.07117727906882193 0.21887184396923809 0 0.08279029401383689 0.2185405993907385 0 0.094953167444451883 0.20141335446609579 0 0.09138425077718984 0.21275264763012189 0 0.08279029401383689 0.2185405993907385 0 0.094953167444451883 0.20141335446609579 0 0.089969170608793836 0.2231475442311073 0 0.09138425077718984 0.21275264763012189 0 0.096258135589732965 0.21690451238086961 0 0.089969170608793836 0.2231475442311073 0 0.09138425077718984 0.21275264763012189 0 0.08279029401383689 0.2185405993907385 0 0.060345223522529828 0.20124758392586001 0 0.07117727906882193 0.21887184396923809 0 0.077706064917219014 0.1971899805899143 0 0.060345223522529828 0.20124758392586001 0 0.077706064917219014 0.1971899805899143 0 0.072062472827733912 0.17930613180458471 0 0.060345223522529828 0.20124758392586001 0 0.072062472827733912 0.17930613180458471 0 0.077706064917219014 0.1971899805899143 0 0.094953167444451883 0.20141335446609579 0 0.089992181722558226 0.18511098878379209 0 0.094953167444451883 0.20141335446609579 0 0.089992181722558226 0.18511098878379209 0 0.1088430704642176 0.19121408358127651 0 0.089992181722558226 0.18511098878379209 0 0.094953167444451883 0.20141335446609579 0 0.1088430704642176 0.19121408358127651 0 0.089992181722558226 0.18511098878379209 0 0.094953167444451883 0.20141335446609579 0 0.095616454949868437 0.20359299296375591 0 0.094953167444451883 0.20141335446609579 0 0.1088430704642176 0.19121408358127651 0 0.1088430704642176 0.19121408358127651 0 0.1102093384867314 0.20592955438141 0 0.102517361811994 0.20532643708440931 0 0.094953167444451883 0.20141335446609579 0 0.1088430704642176 0.19121408358127651 0 0.102517361811994 0.20532643708440931 0 0.1088430704642176 0.19121408358127651 0 0.1179493804128702 0.2059493202425984 0 0.12664634482092349 0.2026500657554681 0 0.1088430704642176 0.19121408358127651 0 0.12902339495496309 0.1977475916348661 0 0.12664634482092349 0.2026500657554681 0 0.1088430704642176 0.19121408358127651 0 0.1178704647096562 0.18458532316716461 0 0.1088430704642176 0.19121408358127651 0 0.12902339495496309 0.1977475916348661 0 0.1088430704642176 0.19121408358127651 0 0.1178704647096562 0.18458532316716461 0 0.12902339495496309 0.1977475916348661 0 0.1088430704642176 0.19121408358127651 0 0.1102093384867314 0.20592955438141 0 0.1179493804128702 0.2059493202425984 0 0.1102093384867314 0.20592955438141 0 0.1179493804128702 0.2059493202425984 0 0.1148767741944927 0.21345138712005299 0 0.1179493804128702 0.2059493202425984 0 0.12411372503424049 0.20825451543687651 0 0.1226678619087542 0.2145695316655947 0 0.1179493804128702 0.2059493202425984 0 0.12411372503424049 0.20825451543687651 0 0.12664634482092349 0.2026500657554681 0 0.1226678619087542 0.2145695316655947 0 0.1148767741944927 0.21345138712005299 0 0.1186929499521982 0.2213376753863843 0 0.1179493804128702 0.2059493202425984 0 0.1226678619087542 0.2145695316655947 0 0.1148767741944927 0.21345138712005299 0 0.1148767741944927 0.21345138712005299 0 0.1111940446953273 0.22093976337925969 0 0.1186929499521982 0.2213376753863843 0 0.1102093384867314 0.20592955438141 0 0.1148767741944927 0.21345138712005299 0 0.108190756032429 0.21477251821185109 0 0.1148767741944927 0.21345138712005299 0 0.108190756032429 0.21477251821185109 0 0.1111940446953273 0.22093976337925969 0 0.108190756032429 0.21477251821185109 0 0.10119587476495021 0.21389759852604651 0 0.10220505556005161 0.2242416581240893 0 0.108190756032429 0.21477251821185109 0 0.102517361811994 0.20532643708440931 0 0.10119587476495021 0.21389759852604651 0 0.1102093384867314 0.20592955438141 0 0.108190756032429 0.21477251821185109 0 0.102517361811994 0.20532643708440931 0 0.09138425077718984 0.21275264763012189 0 0.095616454949868437 0.20359299296375591 0 0.096536326237679423 0.2104831133929832 0 0.102517361811994 0.20532643708440931 0 0.09886546618403344 0.20779358462569331 0 0.10119587476495021 0.21389759852604651 0 0.09886546618403344 0.20779358462569331 0 0.096536326237679423 0.2104831133929832 0 0.10119587476495021 0.21389759852604651 0 0.09138425077718984 0.21275264763012189 0 0.094953167444451883 0.20141335446609579 0 0.095616454949868437 0.20359299296375591 0 0.094953167444451883 0.20141335446609579 0 0.102517361811994 0.20532643708440931 0 0.095616454949868437 0.20359299296375591 0 0.102517361811994 0.20532643708440931 0 0.09886546618403344 0.20779358462569331 0 0.095616454949868437 0.20359299296375591 0 0.09886546618403344 0.20779358462569331 0 0.095616454949868437 0.20359299296375591 0 0.096536326237679423 0.2104831133929832 0 0.096258135589732965 0.21690451238086961 0 0.10119587476495021 0.21389759852604651 0 0.10220505556005161 0.2242416581240893 0 0.09138425077718984 0.21275264763012189 0 0.096536326237679423 0.2104831133929832 0 0.096258135589732965 0.21690451238086961 0 0.096536326237679423 0.2104831133929832 0 0.096258135589732965 0.21690451238086961 0 0.10119587476495021 0.21389759852604651 0 0.089969170608793836 0.2231475442311073 0 0.096258135589732965 0.21690451238086961 0 0.10220505556005161 0.2242416581240893 0 0.093219254583607233 0.23474802868162661 0 0.089969170608793836 0.2231475442311073 0 0.10220505556005161 0.2242416581240893 0 0.093219254583607233 0.23474802868162661 0 0.10220505556005161 0.2242416581240893 0 0.10554994800167419 0.23932048636216419 0 0.10220505556005161 0.2242416581240893 0 0.1131739195286907 0.22883976574804279 0 0.10554994800167419 0.23932048636216419 0 0.10220505556005161 0.2242416581240893 0 0.1111940446953273 0.22093976337925969 0 0.1131739195286907 0.22883976574804279 0 0.108190756032429 0.21477251821185109 0 0.10220505556005161 0.2242416581240893 0 0.1111940446953273 0.22093976337925969 0 0.1111940446953273 0.22093976337925969 0 0.1186929499521982 0.2213376753863843 0 0.1131739195286907 0.22883976574804279 0 0.1226678619087542 0.2145695316655947 0 0.1186929499521982 0.2213376753863843 0 0.12815630942656051 0.22077838382808551 0 0.1186929499521982 0.2213376753863843 0 0.1220887899593637 0.22944722057727029 0 0.1131739195286907 0.22883976574804279 0 0.1186929499521982 0.2213376753863843 0 0.1220887899593637 0.22944722057727029 0 0.12815630942656051 0.22077838382808551 0 0.1220887899593637 0.22944722057727029 0 0.1131739195286907 0.22883976574804279 0 0.1194207339377997 0.2389123227297584 0 0.1220887899593637 0.22944722057727029 0 0.1194207339377997 0.2389123227297584 0 0.13121230263393849 0.23347931516438691 0 0.1194207339377997 0.2389123227297584 0 0.10554994800167419 0.23932048636216419 0 0.11270144933883711 0.25478878554246431 0 0.1131739195286907 0.22883976574804279 0 0.1194207339377997 0.2389123227297584 0 0.10554994800167419 0.23932048636216419 0 0.1194207339377997 0.2389123227297584 0 0.1298690356980956 0.24858105869450511 0 0.11270144933883711 0.25478878554246431 0 0.10554994800167419 0.23932048636216419 0 0.11270144933883711 0.25478878554246431 0 0.097019205202770714 0.25194050859221961 0 0.093219254583607233 0.23474802868162661 0 0.10554994800167419 0.23932048636216419 0 0.097019205202770714 0.25194050859221961 0 0.088393213082653854 0.1487255624171322 0 0.087524820490062799 0.13769516798695239 0 0.077625612293574967 0.14447302923930719 0 0.088393213082653854 0.1487255624171322 0 0.082358536605981025 0.1600259590828742 0 0.088393213082653854 0.1487255624171322 0 0.077625612293574967 0.14447302923930719 0 0.082358536605981025 0.1600259590828742 0 0.077625612293574967 0.14447302923930719 0 0.082358536605981025 0.1600259590828742 0 0.088393213082653854 0.1487255624171322 0 0.082358536605981025 0.1600259590828742 0 0.095249079882238991 0.15937700911209149 0 0.088393213082653854 0.1487255624171322 0 0.087524820490062799 0.13769516798695239 0 0.10133877710116231 0.14801148333846231 0 0.080991977393695916 0.1211008028587978 0 0.1036132329614909 0.1349215574544925 0 0.080991977393695916 0.1211008028587978 0 0.087524820490062799 0.13769516798695239 0 0.1036132329614909 0.1349215574544925 0 0.080991977393695916 0.1211008028587978 0 0.087524820490062799 0.13769516798695239 0 0.072892687981170184 0.1289200993957399 0 0.087524820490062799 0.13769516798695239 0 0.072892687981170184 0.1289200993957399 0 0.077625612293574967 0.14447302923930719 0 0.053246644470437511 0.14788697811358931 0 0.072892687981170184 0.1289200993957399 0 0.072892687981170184 0.1289200993957399 0 0.077625612293574967 0.14447302923930719 0 0.053246644470437511 0.14788697811358931 0 0.072892687981170184 0.1289200993957399 0 0.077625612293574967 0.14447302923930719 0 0.080991977393695916 0.1211008028587978 0 0.072892687981170184 0.1289200993957399 0 0.069909163599022259 0.119115897524082 0 0.058474984500340547 0.12792626101213209 0 0.072892687981170184 0.1289200993957399 0 0.053246644470437511 0.14788697811358931 0 0.077625612293574967 0.14447302923930719 0 0.072832065916368399 0.15477992992521691 0 0.077625612293574967 0.14447302923930719 0 0.072832065916368399 0.15477992992521691 0 0.082358536605981025 0.1600259590828742 0 0.059943223198958562 0.16059724622354229 0 0.072832065916368399 0.15477992992521691 0 0.073703161997228053 0.1647275205924002 0 0.059943223198958562 0.16059724622354229 0 0.073703161997228053 0.1647275205924002 0 0.072062472827733912 0.17930613180458471 0 0.073703161997228053 0.1647275205924002 0 0.072062472827733912 0.17930613180458471 0 0.079363420278980551 0.1656345451746003 0 0.073703161997228053 0.1647275205924002 0 0.079363420278980551 0.1656345451746003 0 0.072832065916368399 0.15477992992521691 0 0.077064296199639781 0.16129198869377309 0 0.082358536605981025 0.1600259590828742 0 0.072832065916368399 0.15477992992521691 0 0.073703161997228053 0.1647275205924002 0 0.077064296199639781 0.16129198869377309 0 0.073703161997228053 0.1647275205924002 0 0.077064296199639781 0.16129198869377309 0 0.079363420278980551 0.1656345451746003 0 0.072062472827733912 0.17930613180458471 0 0.079363420278980551 0.1656345451746003 0 0.072062472827733912 0.17930613180458471 0 0.080401701664708156 0.174974243530478 0 0.079363420278980551 0.1656345451746003 0 0.080401701664708156 0.174974243530478 0 0.089992181722558226 0.18511098878379209 0 0.084306326175648649 0.16642661806820411 0 0.077706064917219014 0.1971899805899143 0 0.072062472827733912 0.17930613180458471 0 0.089992181722558226 0.18511098878379209 0 0.089992181722558226 0.18511098878379209 0 0.084306326175648649 0.16642661806820411 0 0.072062472827733912 0.17930613180458471 0 0.080401701664708156 0.174974243530478 0 0.089992181722558226 0.18511098878379209 0 0.089992181722558226 0.18511098878379209 0 0.084306326175648649 0.16642661806820411 0 0.09689761389449425 0.17577754609274729 0 0.072062472827733912 0.17930613180458471 0 0.089992181722558226 0.18511098878379209 0 0.082358536605981025 0.1600259590828742 0 0.084306326175648649 0.16642661806820411 0 0.082358536605981025 0.1600259590828742 0 0.079363420278980551 0.1656345451746003 0 0.077064296199639781 0.16129198869377309 0 0.082358536605981025 0.1600259590828742 0 0.079363420278980551 0.1656345451746003 0 0.082358536605981025 0.1600259590828742 0 0.079363420278980551 0.1656345451746003 0 0.084306326175648649 0.16642661806820411 0 0.080401701664708156 0.174974243530478 0 0.079363420278980551 0.1656345451746003 0 0.084306326175648649 0.16642661806820411 0 0.079363420278980551 0.1656345451746003 0 0.084306326175648649 0.16642661806820411 0 0.082358536605981025 0.1600259590828742 0 0.084306326175648649 0.16642661806820411 0 0.095249079882238991 0.15937700911209149 0 0.084306326175648649 0.16642661806820411 0 0.095249079882238991 0.15937700911209149 0 0.1087698880539619 0.17034676638781771 0 0.084306326175648649 0.16642661806820411 0 0.1087698880539619 0.17034676638781771 0 0.09689761389449425 0.17577754609274729 0 0.084306326175648649 0.16642661806820411 0 0.1087698880539619 0.17034676638781771 0 0.095249079882238991 0.15937700911209149 0 0.1087698880539619 0.17034676638781771 0 0.11080062493210489 0.15799804107759841 0 0.1088430704642176 0.19121408358127651 0 0.089992181722558226 0.18511098878379209 0 0.1045220596258085 0.18122581113117281 0 0.089992181722558226 0.18511098878379209 0 0.09689761389449425 0.17577754609274729 0 0.1045220596258085 0.18122581113117281 0 0.1087698880539619 0.17034676638781771 0 0.09689761389449425 0.17577754609274729 0 0.1045220596258085 0.18122581113117281 0 0.1087698880539619 0.17034676638781771 0 0.13323344993227521 0.17426691470743111 0 0.1087698880539619 0.17034676638781771 0 0.1178704647096562 0.18458532316716461 0 0.13323344993227521 0.17426691470743111 0 0.1088430704642176 0.19121408358127651 0 0.1045220596258085 0.18122581113117281 0 0.1178704647096562 0.18458532316716461 0 0.1087698880539619 0.17034676638781771 0 0.1045220596258085 0.18122581113117281 0 0.1178704647096562 0.18458532316716461 0 0.1087698880539619 0.17034676638781771 0 0.1224108910938754 0.1635126344994331 0 0.13323344993227521 0.17426691470743111 0 0.1087698880539619 0.17034676638781771 0 0.11080062493210489 0.15799804107759841 0 0.1224108910938754 0.1635126344994331 0 0.11080062493210489 0.15799804107759841 0 0.1224108910938754 0.1635126344994331 0 0.12623448852928579 0.14874231205018751 0 0.1036132329614909 0.1349215574544925 0 0.12623448852928579 0.14874231205018751 0 0.11080062493210489 0.15799804107759841 0 0.10133877710116231 0.14801148333846231 0 0.12623448852928579 0.14874231205018751 0 0.10133877710116231 0.14801148333846231 0 0.1036132329614909 0.1349215574544925 0 0.12623448852928579 0.14874231205018751 0 0.095249079882238991 0.15937700911209149 0 0.11080062493210489 0.15799804107759841 0 0.10133877710116231 0.14801148333846231 0 0.088393213082653854 0.1487255624171322 0 0.095249079882238991 0.15937700911209149 0 0.10133877710116231 0.14801148333846231 0 0.099436482189268094 0.11892787337264039 0 0.1036132329614909 0.1349215574544925 0 0.1184267252289975 0.1250059157394951 0 0.087524820490062799 0.13769516798695239 0 0.10133877710116231 0.14801148333846231 0 0.1036132329614909 0.1349215574544925 0 0.1036132329614909 0.1349215574544925 0 0.1184267252289975 0.1250059157394951 0 0.12623448852928579 0.14874231205018751 0 0.1184267252289975 0.1250059157394951 0 0.14532841743112559 0.13814295249385269 0 0.12623448852928579 0.14874231205018751 0 0.14532841743112559 0.13814295249385269 0 0.1623789968923644 0.13151720018765889 0 0.15998438107114921 0.14748853051021349 0 0.14532841743112559 0.13814295249385269 0 0.1623789968923644 0.13151720018765889 0 0.15668412459027251 0.1128566436248169 0 0.14532841743112559 0.13814295249385269 0 0.14885574409708069 0.16256306664588249 0 0.15998438107114921 0.14748853051021349 0 0.12623448852928579 0.14874231205018751 0 0.14885574409708069 0.16256306664588249 0 0.14532841743112559 0.13814295249385269 0 0.12623448852928579 0.14874231205018751 0 0.14885574409708069 0.16256306664588249 0 0.1224108910938754 0.1635126344994331 0 0.12623448852928579 0.14874231205018751 0 0.14885574409708069 0.16256306664588249 0 0.1224108910938754 0.1635126344994331 0 0.13323344993227521 0.17426691470743111 0 0.14885574409708069 0.16256306664588249 0 0.1178704647096562 0.18458532316716461 0 0.1308462032522798 0.18617363640925541 0 0.13323344993227521 0.17426691470743111 0 0.1308462032522798 0.18617363640925541 0 0.13323344993227521 0.17426691470743111 0 0.14325750341222479 0.18809471612756001 0 0.13323344993227521 0.17426691470743111 0 0.1576970118105884 0.17818706302704451 0 0.13323344993227521 0.17426691470743111 0 0.1576970118105884 0.17818706302704451 0 0.14325750341222479 0.18809471612756001 0 0.1576970118105884 0.17818706302704451 0 0.14325750341222479 0.18809471612756001 0 0.15417431024282069 0.19069127289815821 0 0.13323344993227521 0.17426691470743111 0 0.14885574409708069 0.16256306664588249 0 0.1576970118105884 0.17818706302704451 0 0.14885574409708069 0.16256306664588249 0 0.1677516234241932 0.15858944986357129 0 0.17147699966487559 0.17638382124157759 0 0.14885574409708069 0.16256306664588249 0 0.17147699966487559 0.17638382124157759 0 0.17147699966487559 0.17638382124157759 0 0.16653900630276111 0.19220221274957219 0 0.1760502032569469 0.18919253593350091 0 0.14885574409708069 0.16256306664588249 0 0.1576970118105884 0.17818706302704451 0 0.17147699966487559 0.17638382124157759 0 0.1576970118105884 0.17818706302704451 0 0.17147699966487559 0.17638382124157759 0 0.16653900630276111 0.19220221274957219 0 0.1576970118105884 0.17818706302704451 0 0.15417431024282069 0.19069127289815821 0 0.16653900630276111 0.19220221274957219 0 0.17147699966487559 0.17638382124157759 0 0.1822086185305605 0.18182247032170379 0 0.17906814807583901 0.1648591436845708 0 0.1822086185305605 0.18182247032170379 0 0.17906814807583901 0.1648591436845708 0 0.18965682147976279 0.17137609879542021 0 0.17147699966487559 0.17638382124157759 0 0.1822086185305605 0.18182247032170379 0 0.1760502032569469 0.18919253593350091 0 0.1677516234241932 0.15858944986357129 0 0.17906814807583901 0.1648591436845708 0 0.1756071235109819 0.14662998336010219 0 0.17906814807583901 0.1648591436845708 0 0.18770770184465971 0.15435303852504989 0 0.18965682147976279 0.17137609879542021 0 0.1677516234241932 0.15858944986357129 0 0.17147699966487559 0.17638382124157759 0 0.17906814807583901 0.1648591436845708 0 0.17906814807583901 0.1648591436845708 0 0.1756071235109819 0.14662998336010219 0 0.18770770184465971 0.15435303852504989 0 0.1756071235109819 0.14662998336010219 0 0.18041857739656089 0.13574033975136479 0 0.18779119306188799 0.1419104282594508 0 0.1756071235109819 0.14662998336010219 0 0.18779119306188799 0.1419104282594508 0 0.18770770184465971 0.15435303852504989 0 0.18041857739656089 0.13574033975136479 0 0.1859932608604222 0.12623047556559919 0 0.1623789968923644 0.13151720018765889 0 0.18041857739656089 0.13574033975136479 0 0.19004719941917991 0.13362442987810549 0 0.18779119306188799 0.1419104282594508 0 0.1859932608604222 0.12623047556559919 0 0.1623789968923644 0.13151720018765889 0 0.1756071235109819 0.14662998336010219 0 0.18041857739656089 0.13574033975136479 0 0.1623789968923644 0.13151720018765889 0 0.18041857739656089 0.13574033975136479 0 0.1859932608604222 0.12623047556559919 0 0.19004719941917991 0.13362442987810549 0 0.14885574409708069 0.16256306664588249 0 0.1677516234241932 0.15858944986357129 0 0.15998438107114921 0.14748853051021349 0 0.1756071235109819 0.14662998336010219 0 0.1623789968923644 0.13151720018765889 0 0.15998438107114921 0.14748853051021349 0 0.1677516234241932 0.15858944986357129 0 0.1756071235109819 0.14662998336010219 0 0.15998438107114921 0.14748853051021349 0 0.14519453423741679 0.24213304984218281 0 0.15516347735574229 0.23055995804065091 0 0.16663760286173701 0.25284005411217658 0 0.14519453423741679 0.24213304984218281 0 0.1298690356980956 0.24858105869450511 0 0.14572629295871151 0.25842166267974442 0 0.1194207339377997 0.2389123227297584 0 0.1298690356980956 0.24858105869450511 0 0.13121230263393849 0.23347931516438691 0 0.14519453423741679 0.24213304984218281 0 0.1298690356980956 0.24858105869450511 0 0.13121230263393849 0.23347931516438691 0 0.14519453423741679 0.24213304984218281 0 0.13121230263393849 0.23347931516438691 0 0.13942506335819341 0.22527337019839819 0 0.1220887899593637 0.22944722057727029 0 0.13121230263393849 0.23347931516438691 0 0.12815630942656051 0.22077838382808551 0 0.12815630942656051 0.22077838382808551 0 0.13942506335819341 0.22527337019839819 0 0.1350687754170386 0.2170487233800136 0 0.13121230263393849 0.23347931516438691 0 0.12815630942656051 0.22077838382808551 0 0.13942506335819341 0.22527337019839819 0 0.13942506335819341 0.22527337019839819 0 0.14111706075931241 0.21745472414059189 0 0.1350687754170386 0.2170487233800136 0 0.13942506335819341 0.22527337019839819 0 0.14835904390242011 0.21954318618285329 0 0.15516347735574229 0.23055995804065091 0 0.14519453423741679 0.24213304984218281 0 0.13942506335819341 0.22527337019839819 0 0.15516347735574229 0.23055995804065091 0 0.13942506335819341 0.22527337019839819 0 0.14835904390242011 0.21954318618285329 0 0.14111706075931241 0.21745472414059189 0 0.14835904390242011 0.21954318618285329 0 0.15516347735574229 0.23055995804065091 0 0.1606220175978654 0.21979869649470671 0 0.1492037194457087 0.2042810996884559 0 0.14801519437868929 0.20673233674875499 0 0.16938404393645479 0.2108146077420438 0 0.14835904390242011 0.21954318618285329 0 0.15420477432998669 0.21364343361088031 0 0.1446610584691472 0.21260113610786249 0 0.15420477432998669 0.21364343361088031 0 0.14801519437868929 0.20673233674875499 0 0.1446610584691472 0.21260113610786249 0 0.14835904390242011 0.21954318618285329 0 0.15420477432998669 0.21364343361088031 0 0.1606220175978654 0.21979869649470671 0 0.14801519437868929 0.20673233674875499 0 0.1446610584691472 0.21260113610786249 0 0.13998151226226549 0.20824006110887411 0 0.1446610584691472 0.21260113610786249 0 0.14111706075931241 0.21745472414059189 0 0.1380713626497628 0.212807204833832 0 0.1446610584691472 0.21260113610786249 0 0.1380713626497628 0.212807204833832 0 0.13998151226226549 0.20824006110887411 0 0.14835904390242011 0.21954318618285329 0 0.1446610584691472 0.21260113610786249 0 0.14111706075931241 0.21745472414059189 0 0.14801519437868929 0.20673233674875499 0 0.12664634482092349 0.2026500657554681 0 0.14801519437868929 0.20673233674875499 0 0.13998151226226549 0.20824006110887411 0 0.12664634482092349 0.2026500657554681 0 0.14111706075931241 0.21745472414059189 0 0.1380713626497628 0.212807204833832 0 0.1350687754170386 0.2170487233800136 0 0.1380713626497628 0.212807204833832 0 0.13321832144208551 0.212592342886014 0 0.1350687754170386 0.2170487233800136 0 0.1380713626497628 0.212807204833832 0 0.13321832144208551 0.212592342886014 0 0.13463365841539779 0.20862422919560489 0 0.12815630942656051 0.22077838382808551 0 0.1350687754170386 0.2170487233800136 0 0.1285975560277571 0.2152404395181246 0 0.13321832144208551 0.212592342886014 0 0.1350687754170386 0.2170487233800136 0 0.1285975560277571 0.2152404395181246 0 0.13321832144208551 0.212592342886014 0 0.1285975560277571 0.2152404395181246 0 0.1291913129944143 0.20984914408384461 0 0.1226678619087542 0.2145695316655947 0 0.1285975560277571 0.2152404395181246 0 0.1291913129944143 0.20984914408384461 0 0.1226678619087542 0.2145695316655947 0 0.12815630942656051 0.22077838382808551 0 0.1285975560277571 0.2152404395181246 0 0.1291913129944143 0.20984914408384461 0 0.13463365841539779 0.20862422919560489 0 0.12664634482092349 0.2026500657554681 0 0.12411372503424049 0.20825451543687651 0 0.1291913129944143 0.20984914408384461 0 0.12664634482092349 0.2026500657554681 0 0.12411372503424049 0.20825451543687651 0 0.1226678619087542 0.2145695316655947 0 0.1291913129944143 0.20984914408384461 0 0.13321832144208551 0.212592342886014 0 0.1291913129944143 0.20984914408384461 0 0.13463365841539779 0.20862422919560489 0 0.13463365841539779 0.20862422919560489 0 0.13998151226226549 0.20824006110887411 0 0.12664634482092349 0.2026500657554681 0 0.1380713626497628 0.212807204833832 0 0.13463365841539779 0.20862422919560489 0 0.13998151226226549 0.20824006110887411 0 0.1492037194457087 0.2042810996884559 0 0.12902339495496309 0.1977475916348661 0 0.14325750341222479 0.18809471612756001 0 0.14801519437868929 0.20673233674875499 0 0.12902339495496309 0.1977475916348661 0 0.12664634482092349 0.2026500657554681 0 0.1492037194457087 0.2042810996884559 0 0.12902339495496309 0.1977475916348661 0 0.1178704647096562 0.18458532316716461 0 0.1308462032522798 0.18617363640925541 0 0.12902339495496309 0.1977475916348661 0 0.1308462032522798 0.18617363640925541 0 0.12902339495496309 0.1977475916348661 0 0.14325750341222479 0.18809471612756001 0 0.1492037194457087 0.2042810996884559 0 0.14325750341222479 0.18809471612756001 0 0.15417431024282069 0.19069127289815821 0 0.1492037194457087 0.2042810996884559 0 0.14801519437868929 0.20673233674875499 0 0.12902339495496309 0.1977475916348661 0 0.1492037194457087 0.2042810996884559 0 0.16653900630276111 0.19220221274957219 0 0.16938404393645479 0.2108146077420438 0 0.16653900630276111 0.19220221274957219 0 0.17699585859365041 0.20172874691492709 0 0.16938404393645479 0.2108146077420438 0 0.1492037194457087 0.2042810996884559 0 0.15417431024282069 0.19069127289815821 0 0.16653900630276111 0.19220221274957219 0 0.16653900630276111 0.19220221274957219 0 0.1760502032569469 0.18919253593350091 0 0.17699585859365041 0.20172874691492709 0 0.1760502032569469 0.18919253593350091 0 0.18303053319288659 0.19382542843972361 0 0.17699585859365041 0.20172874691492709 0 0.1822086185305605 0.18182247032170379 0 0.1760502032569469 0.18919253593350091 0 0.18303053319288659 0.19382542843972361 0 0.1822086185305605 0.18182247032170379 0 0.18303053319288659 0.19382542843972361 0 0.19315641046137641 0.19187645979056681 0 0.18303053319288659 0.19382542843972361 0 0.17699585859365041 0.20172874691492709 0 0.18716996817240189 0.20363082060071519 0 0.18747095116702761 0.21426990169907201 0 0.16938404393645479 0.2108146077420438 0 0.19329613226750711 0.2185562980087572 0 0.18747095116702761 0.21426990169907201 0 0.16938404393645479 0.2108146077420438 0 0.16938404393645479 0.2108146077420438 0 0.19329613226750711 0.2185562980087572 0 0.17699585859365041 0.20172874691492709 0 0.18747095116702761 0.21426990169907201 0 0.16938404393645479 0.2108146077420438 0 0.17699585859365041 0.20172874691492709 0 0.18716996817240189 0.20363082060071519 0 0.18747095116702761 0.21426990169907201 0 0.14801519437868929 0.20673233674875499 0 0.16938404393645479 0.2108146077420438 0 0.15420477432998669 0.21364343361088031 0 0.14801519437868929 0.20673233674875499 0 0.16938404393645479 0.2108146077420438 0 0.1492037194457087 0.2042810996884559 0 0.16938404393645479 0.2108146077420438 0 0.15420477432998669 0.21364343361088031 0 0.16938404393645479 0.2108146077420438 0 0.1606220175978654 0.21979869649470671 0 0.15516347735574229 0.23055995804065091 0 0.1606220175978654 0.21979869649470671 0 0.1760826843110079 0.2305417139618457 0 0.16938404393645479 0.2108146077420438 0 0.1606220175978654 0.21979869649470671 0 0.1760826843110079 0.2305417139618457 0 0.16938404393645479 0.2108146077420438 0 0.1760826843110079 0.2305417139618457 0 0.19329613226750711 0.2185562980087572 0 0.1760826843110079 0.2305417139618457 0 0.18726374077130289 0.24705293046527729 0 0.16663760286173701 0.25284005411217658 0 0.1760826843110079 0.2305417139618457 0 0.18726374077130289 0.24705293046527729 0 0.19834337977066849 0.23467423178642041 0 0.15516347735574229 0.23055995804065091 0 0.1760826843110079 0.2305417139618457 0 0.16663760286173701 0.25284005411217658 0 0.20650902242305039 0.2496889122110886 0 0.2172082205985601 0.22629798827546871 0 0.22551853681199499 0.2481204274969705 0 0.20650902242305039 0.2496889122110886 0 0.19834337977066849 0.23467423178642041 0 0.2172082205985601 0.22629798827546871 0 0.18726374077130289 0.24705293046527729 0 0.20650902242305039 0.2496889122110886 0 0.19834337977066849 0.23467423178642041 0 0.1760826843110079 0.2305417139618457 0 0.19834337977066849 0.23467423178642041 0 0.19329613226750711 0.2185562980087572 0 0.19834337977066849 0.23467423178642041 0 0.2172082205985601 0.22629798827546871 0 0.19329613226750711 0.2185562980087572 0 0.2172082205985601 0.22629798827546871 0 0.20555785839759999 0.21772519565610229 0 0.19329613226750711 0.2185562980087572 0 0.2172082205985601 0.22629798827546871 0 0.19329613226750711 0.2185562980087572 0 0.2172082205985601 0.22629798827546871 0 0.2174822088287254 0.21204368745971991 0 0.20555785839759999 0.21772519565610229 0 0.2174822088287254 0.21204368745971991 0 0.20739783512063359 0.20669940555492849 0 0.21827837199995331 0.19958968932457399 0 0.20739783512063359 0.20669940555492849 0 0.20555785839759999 0.21772519565610229 0 0.19780234272796249 0.21010727651585659 0 0.2174822088287254 0.21204368745971991 0 0.20739783512063359 0.20669940555492849 0 0.20555785839759999 0.21772519565610229 0 0.18747095116702761 0.21426990169907201 0 0.20555785839759999 0.21772519565610229 0 0.19780234272796249 0.21010727651585659 0 0.18747095116702761 0.21426990169907201 0 0.20555785839759999 0.21772519565610229 0 0.18747095116702761 0.21426990169907201 0 0.20555785839759999 0.21772519565610229 0 0.19329613226750711 0.2185562980087572 0 0.18747095116702761 0.21426990169907201 0 0.19130671103521829 0.20883758882846579 0 0.19780234272796249 0.21010727651585659 0 0.18716996817240189 0.20363082060071519 0 0.18747095116702761 0.21426990169907201 0 0.19130671103521829 0.20883758882846579 0 0.18716996817240189 0.20363082060071519 0 0.19130671103521829 0.20883758882846579 0 0.19727835791933271 0.2030042908407145 0 0.20739783512063359 0.20669940555492849 0 0.19780234272796249 0.21010727651585659 0 0.19727835791933271 0.2030042908407145 0 0.19130671103521829 0.20883758882846579 0 0.19780234272796249 0.21010727651585659 0 0.19727835791933271 0.2030042908407145 0 0.19727835791933271 0.2030042908407145 0 0.19315641046137641 0.19187645979056681 0 0.20686460104569809 0.19547989958427439 0 0.18303053319288659 0.19382542843972361 0 0.18716996817240189 0.20363082060071519 0 0.19315641046137641 0.19187645979056681 0 0.18716996817240189 0.20363082060071519 0 0.19727835791933271 0.2030042908407145 0 0.19315641046137641 0.19187645979056681 0 0.19315641046137641 0.19187645979056681 0 0.20686460104569809 0.19547989958427439 0 0.20347750226512221 0.1835674459232694 0 0.20686460104569809 0.19547989958427439 0 0.20347750226512221 0.1835674459232694 0 0.2188328814095038 0.1849309410082017 0 0.20739783512063359 0.20669940555492849 0 0.20686460104569809 0.19547989958427439 0 0.21827837199995331 0.19958968932457399 0 0.20739783512063359 0.20669940555492849 0 0.19727835791933271 0.2030042908407145 0 0.20686460104569809 0.19547989958427439 0 0.20686460104569809 0.19547989958427439 0 0.21827837199995331 0.19958968932457399 0 0.2188328814095038 0.1849309410082017 0 0.21827837199995331 0.19958968932457399 0 0.23006540529913541 0.19498637788380579 0 0.2188328814095038 0.1849309410082017 0 0.21827837199995331 0.19958968932457399 0 0.23006540529913541 0.19498637788380579 0 0.22644417051423099 0.2058565057555154 0 0.23006540529913541 0.19498637788380579 0 0.23748901599270761 0.2068461535460131 0 0.22644417051423099 0.2058565057555154 0 0.24258872893440039 0.19527542480774429 0 0.2479068313357711 0.17885428646209689 0 0.25280643830685939 0.18913636245934229 0 0.23006540529913541 0.19498637788380579 0 0.24258872893440039 0.19527542480774429 0 0.23490298780098079 0.1817050327370956 0 0.24258872893440039 0.19527542480774429 0 0.25103833454343838 0.20199324938570321 0 0.25280643830685939 0.18913636245934229 0 0.24258872893440039 0.19527542480774429 0 0.23748901599270761 0.2068461535460131 0 0.25103833454343838 0.20199324938570321 0 0.23006540529913541 0.19498637788380579 0 0.24258872893440039 0.19527542480774429 0 0.23748901599270761 0.2068461535460131 0 0.23748901599270761 0.2068461535460131 0 0.24465268719549929 0.2193478248335016 0 0.25103833454343838 0.20199324938570321 0 0.23748901599270761 0.2068461535460131 0 0.230296518944201 0.21616616114653711 0 0.24465268719549929 0.2193478248335016 0 0.23748901599270761 0.2068461535460131 0 0.230296518944201 0.21616616114653711 0 0.22644417051423099 0.2058565057555154 0 0.2174822088287254 0.21204368745971991 0 0.21827837199995331 0.19958968932457399 0 0.22644417051423099 0.2058565057555154 0 0.2172082205985601 0.22629798827546871 0 0.2174822088287254 0.21204368745971991 0 0.230296518944201 0.21616616114653711 0 0.2174822088287254 0.21204368745971991 0 0.230296518944201 0.21616616114653711 0 0.22644417051423099 0.2058565057555154 0 0.2172082205985601 0.22629798827546871 0 0.2333194339169683 0.22396291319942191 0 0.241120308929613 0.2340396785421803 0 0.2172082205985601 0.22629798827546871 0 0.241120308929613 0.2340396785421803 0 0.2172082205985601 0.22629798827546871 0 0.230296518944201 0.21616616114653711 0 0.2333194339169683 0.22396291319942191 0 0.2333194339169683 0.22396291319942191 0 0.24465268719549929 0.2193478248335016 0 0.241120308929613 0.2340396785421803 0 0.230296518944201 0.21616616114653711 0 0.2333194339169683 0.22396291319942191 0 0.24465268719549929 0.2193478248335016 0 0.24465268719549929 0.2193478248335016 0 0.241120308929613 0.2340396785421803 0 0.25110082587648008 0.23311653496067139 0 0.241120308929613 0.2340396785421803 0 0.23894811708962671 0.25180138304625138 0 0.25290276725482519 0.2481868517737941 0 0.241120308929613 0.2340396785421803 0 0.22551853681199499 0.2481204274969705 0 0.23894811708962671 0.25180138304625138 0 0.2172082205985601 0.22629798827546871 0 0.241120308929613 0.2340396785421803 0 0.22551853681199499 0.2481204274969705 0 0.20767598917749619 0.149083336576393 0 0.1994117694523192 0.13914022966117251 0 0.21998057040538349 0.1362391241593465 0 0.20767598917749619 0.149083336576393 0 0.21274141150547721 0.16153544218566379 0 0.22312261158637839 0.1503558624920282 0 0.20767598917749619 0.149083336576393 0 0.22312261158637839 0.1503558624920282 0 0.21998057040538349 0.1362391241593465 0 0.19607096984877251 0.12752231314112569 0 0.21998057040538349 0.1362391241593465 0 0.19607096984877251 0.12752231314112569 0 0.21998057040538349 0.1362391241593465 0 0.20960752482848 0.1209437509435394 0 0.1994117694523192 0.13914022966117251 0 0.19607096984877251 0.12752231314112569 0 0.21998057040538349 0.1362391241593465 0 0.1859932608604222 0.12623047556559919 0 0.19607096984877251 0.12752231314112569 0 0.19004719941917991 0.13362442987810549 0 0.1994117694523192 0.13914022966117251 0 0.19004719941917991 0.13362442987810549 0 0.18779119306188799 0.1419104282594508 0 0.1994117694523192 0.13914022966117251 0 0.19607096984877251 0.12752231314112569 0 0.19004719941917991 0.13362442987810549 0 0.1994117694523192 0.13914022966117251 0 0.18779119306188799 0.1419104282594508 0 0.19635682479890679 0.14928797707621669 0 0.20767598917749619 0.149083336576393 0 0.1994117694523192 0.13914022966117251 0 0.19635682479890679 0.14928797707621669 0 0.20767598917749619 0.149083336576393 0 0.19635682479890679 0.14928797707621669 0 0.19919747045817071 0.16195285235901771 0 0.19635682479890679 0.14928797707621669 0 0.18770770184465971 0.15435303852504989 0 0.19919747045817071 0.16195285235901771 0 0.18779119306188799 0.1419104282594508 0 0.19635682479890679 0.14928797707621669 0 0.18770770184465971 0.15435303852504989 0 0.18770770184465971 0.15435303852504989 0 0.18965682147976279 0.17137609879542021 0 0.19919747045817071 0.16195285235901771 0 0.19919747045817071 0.16195285235901771 0 0.19915832802674319 0.1741296826481723 0 0.20989175756114301 0.173069062868622 0 0.18965682147976279 0.17137609879542021 0 0.19919747045817071 0.16195285235901771 0 0.19915832802674319 0.1741296826481723 0 0.1822086185305605 0.18182247032170379 0 0.19315641046137641 0.19187645979056681 0 0.1935680883695173 0.18068295329453229 0 0.18965682147976279 0.17137609879542021 0 0.1935680883695173 0.18068295329453229 0 0.19915832802674319 0.1741296826481723 0 0.1822086185305605 0.18182247032170379 0 0.18965682147976279 0.17137609879542021 0 0.1935680883695173 0.18068295329453229 0 0.1935680883695173 0.18068295329453229 0 0.19915832802674319 0.1741296826481723 0 0.20347750226512221 0.1835674459232694 0 0.19315641046137641 0.19187645979056681 0 0.1935680883695173 0.18068295329453229 0 0.20347750226512221 0.1835674459232694 0 0.20347750226512221 0.1835674459232694 0 0.20989175756114301 0.173069062868622 0 0.2188328814095038 0.1849309410082017 0 0.19915832802674319 0.1741296826481723 0 0.20347750226512221 0.1835674459232694 0 0.20989175756114301 0.173069062868622 0 0.20989175756114301 0.173069062868622 0 0.22504306144056879 0.17147481740483389 0 0.2188328814095038 0.1849309410082017 0 0.20767598917749619 0.149083336576393 0 0.19919747045817071 0.16195285235901771 0 0.21274141150547721 0.16153544218566379 0 0.19919747045817071 0.16195285235901771 0 0.20989175756114301 0.173069062868622 0 0.21274141150547721 0.16153544218566379 0 0.20989175756114301 0.173069062868622 0 0.21274141150547721 0.16153544218566379 0 0.22504306144056879 0.17147481740483389 0 0.23132491588154039 0.15996547436117059 0 0.22504306144056879 0.17147481740483389 0 0.24150558380397569 0.1674958810766688 0 0.21274141150547721 0.16153544218566379 0 0.23132491588154039 0.15996547436117059 0 0.22504306144056879 0.17147481740483389 0 0.21274141150547721 0.16153544218566379 0 0.23132491588154039 0.15996547436117059 0 0.22312261158637839 0.1503558624920282 0 0.23006540529913541 0.19498637788380579 0 0.2188328814095038 0.1849309410082017 0 0.23490298780098079 0.1817050327370956 0 0.22504306144056879 0.17147481740483389 0 0.23490298780098079 0.1817050327370956 0 0.24150558380397569 0.1674958810766688 0 0.22504306144056879 0.17147481740483389 0 0.2188328814095038 0.1849309410082017 0 0.23490298780098079 0.1817050327370956 0 0.24258872893440039 0.19527542480774429 0 0.23490298780098079 0.1817050327370956 0 0.2479068313357711 0.17885428646209689 0 0.23490298780098079 0.1817050327370956 0 0.2479068313357711 0.17885428646209689 0 0.24150558380397569 0.1674958810766688 0 0.23132491588154039 0.15996547436117059 0 0.24150558380397569 0.1674958810766688 0 0.2438901709619947 0.1449559351775673 0 0.24150558380397569 0.1674958810766688 0 0.2438901709619947 0.1449559351775673 0 0.25488593115919073 0.1664807978325423 0 0.2479068313357711 0.17885428646209689 0 0.24150558380397569 0.1674958810766688 0 0.25488593115919073 0.1664807978325423 0 0.2438901709619947 0.1449559351775673 0 0.22312261158637839 0.1503558624920282 0 0.21998057040538349 0.1362391241593465 0 0.23132491588154039 0.15996547436117059 0 0.2438901709619947 0.1449559351775673 0 0.22312261158637839 0.1503558624920282 0 0.2438901709619947 0.1449559351775673 0 0.21998057040538349 0.1362391241593465 0 0.21998057040538349 0.1362391241593465 0 0.23534597784974809 0.1309041938011935 0 0.23322178879653779 0.1156570263214796 0 0.2438901709619947 0.1449559351775673 0 0.21998057040538349 0.1362391241593465 0 0.23534597784974809 0.1309041938011935 0 0.2438901709619947 0.1449559351775673 0 0.23534597784974809 0.1309041938011935 0 0.24852431447848419 0.12481584819857031 0 0.23322178879653779 0.1156570263214796 0 0.25683605276459559 0.1103703016994198 0 0.23322178879653779 0.1156570263214796 0 0.25068533315825942 0.1023303950562687 0 0.25683605276459559 0.1103703016994198 0 0.24852431447848419 0.12481584819857031 0 0.23322178879653779 0.1156570263214796 0 0.25683605276459559 0.1103703016994198 0 0.23534597784974809 0.1309041938011935 0 0.24852431447848419 0.12481584819857031 0 0.23322178879653779 0.1156570263214796 0 0.23413766940459529 0.098751574736304207 0 0.23322178879653779 0.1156570263214796 0 0.25068533315825942 0.1023303950562687 0 0.23413766940459529 0.098751574736304207 0 0.24431063302592579 0.09175982498262579 0 0.25068533315825942 0.1023303950562687 0 0.23413766940459529 0.098751574736304207 0 0.21625470826589799 0.1036060621041934 0 0.2219288842339541 0.08996195333428629 0 0.23413766940459529 0.098751574736304207 0 0.23322178879653779 0.1156570263214796 0 0.21625470826589799 0.1036060621041934 0 0.21998057040538349 0.1362391241593465 0 0.23322178879653779 0.1156570263214796 0 0.20960752482848 0.1209437509435394 0 0.23322178879653779 0.1156570263214796 0 0.20960752482848 0.1209437509435394 0 0.23322178879653779 0.1156570263214796 0 0.20960752482848 0.1209437509435394 0 0.21625470826589799 0.1036060621041934 0 0.20960752482848 0.1209437509435394 0 0.21625470826589799 0.1036060621041934 0 0.19532352868308961 0.1056992702924693 0 0.21625470826589799 0.1036060621041934 0 0.20408381172531079 0.088660059580308898 0 0.2219288842339541 0.08996195333428629 0 0.21625470826589799 0.1036060621041934 0 0.19532352868308961 0.1056992702924693 0 0.20408381172531079 0.088660059580308898 0 0.1859932608604222 0.12623047556559919 0 0.20960752482848 0.1209437509435394 0 0.19182787616220481 0.1157939104836572 0 0.1859932608604222 0.12623047556559919 0 0.19607096984877251 0.12752231314112569 0 0.20960752482848 0.1209437509435394 0 0.1859932608604222 0.12623047556559919 0 0.20960752482848 0.1209437509435394 0 0.19532352868308961 0.1056992702924693 0 0.19182787616220481 0.1157939104836572 0 0.17638719027682739 0.1103021451330211 0 0.20960752482848 0.1209437509435394 0 0.19532352868308961 0.1056992702924693 0 0.19182787616220481 0.1157939104836572 0 0.18807813260164949 0.065124196773524004 0 0.20408381172531079 0.088660059580308898 0 0.18807813260164949 0.065124196773524004 0 0.20408381172531079 0.088660059580308898 0 0.20743705211720631 0.065708763384250288 0 0.18807813260164949 0.065124196773524004 0 0.20408381172531079 0.088660059580308898 0 0.18418774608662911 0.084980174996953262 0 0.19532352868308961 0.1056992702924693 0 0.20408381172531079 0.088660059580308898 0 0.18418774608662911 0.084980174996953262 0 0.20408381172531079 0.088660059580308898 0 0.2216495373701142 0.074341452888054604 0 0.2219288842339541 0.08996195333428629 0 0.20743705211720631 0.065708763384250288 0 0.2216495373701142 0.074341452888054604 0 0.2247827361362284 0.055215483531955267 0 0.20408381172531079 0.088660059580308898 0 0.20743705211720631 0.065708763384250288 0 0.2216495373701142 0.074341452888054604 0 0.2216495373701142 0.074341452888054604 0 0.2363673023271062 0.070456313411216373 0 0.2247827361362284 0.055215483531955267 0 0.2216495373701142 0.074341452888054604 0 0.23490516261139061 0.083724427130963633 0 0.2363673023271062 0.070456313411216373 0 0.2216495373701142 0.074341452888054604 0 0.2219288842339541 0.08996195333428629 0 0.23490516261139061 0.083724427130963633 0 0.23413766940459529 0.098751574736304207 0 0.2219288842339541 0.08996195333428629 0 0.23490516261139061 0.083724427130963633 0 0.23413766940459529 0.098751574736304207 0 0.23490516261139061 0.083724427130963633 0 0.24431063302592579 0.09175982498262579 0 0.23490516261139061 0.083724427130963633 0 0.24919775010682871 0.080170429792483927 0 0.24431063302592579 0.09175982498262579 0 0.24919775010682871 0.080170429792483927 0 0.2363673023271062 0.070456313411216373 0 0.25113787746534871 0.062029058314563082 0 0.2363673023271062 0.070456313411216373 0 0.2247827361362284 0.055215483531955267 0 0.25113787746534871 0.062029058314563082 0 0.23490516261139061 0.083724427130963633 0 0.24919775010682871 0.080170429792483927 0 0.2363673023271062 0.070456313411216373 0 0.23927831989151721 0.048740973295246001 0 0.2247827361362284 0.055215483531955267 0 0.25113787746534871 0.062029058314563082 0 0.2247827361362284 0.055215483531955267 0 0.25113787746534871 0.062029058314563082 0 0.23927831989151721 0.048740973295246001 0 0.25297388129476678 0.040711475860059479 0 0.25113787746534871 0.062029058314563082 0 0.23927831989151721 0.048740973295246001 0 0.2277150422881567 0.037862929248660082 0 0.25297388129476678 0.040711475860059479 0 0.2277150422881567 0.037862929248660082 0 0.24009612728274629 0.02494954269568803 0 0.25297388129476678 0.040711475860059479 0 0.2277150422881567 0.037862929248660082 0 0.25297388129476678 0.040711475860059479 0 0.2277150422881567 0.037862929248660082 0 0.2247827361362284 0.055215483531955267 0 0.2123965856995054 0.041817217165731328 0 0.23927831989151721 0.048740973295246001 0 0.2277150422881567 0.037862929248660082 0 0.2247827361362284 0.055215483531955267 0 0.24791750821287001 0.0002931308882695147 0 0.2356849571190365 0.0086676406587064235 0 0.25367937028198811 0.015704181352227981 0 0.24791750821287001 0.0002931308882695147 0 0.2356849571190365 0.0086676406587064235 0 0.23610350998135721 -0.0075461282908465231 0 0.2356849571190365 0.0086676406587064235 0 0.24009612728274629 0.02494954269568803 0 0.25367937028198811 0.015704181352227981 0 0.24009612728274629 0.02494954269568803 0 0.25367937028198811 0.015704181352227981 0 0.25297388129476678 0.040711475860059479 0 0.2356849571190365 0.0086676406587064235 0 0.24009612728274629 0.02494954269568803 0 0.22066836883817961 0.0196469920323066 0 0.2277150422881567 0.037862929248660082 0 0.22066836883817961 0.0196469920323066 0 0.20957609425880139 0.03005743599153848 0 0.2277150422881567 0.037862929248660082 0 0.24009612728274629 0.02494954269568803 0 0.22066836883817961 0.0196469920323066 0 0.2356849571190365 0.0086676406587064235 0 0.22066836883817961 0.0196469920323066 0 0.20804856663215149 -0.0015634331779642921 0 0.22066836883817961 0.0196469920323066 0 0.2043360651085897 0.018840415313384418 0 0.20804856663215149 -0.0015634331779642921 0 0.22066836883817961 0.0196469920323066 0 0.2043360651085897 0.018840415313384418 0 0.20957609425880139 0.03005743599153848 0 0.2043360651085897 0.018840415313384418 0 0.19505496674576109 0.028589868740038309 0 0.18833232906805489 0.017471212981003011 0 0.2043360651085897 0.018840415313384418 0 0.20957609425880139 0.03005743599153848 0 0.19505496674576109 0.028589868740038309 0 0.19505496674576109 0.028589868740038309 0 0.18833232906805489 0.017471212981003011 0 0.1822797337630167 0.030930327481343872 0 0.18833232906805489 0.017471212981003011 0 0.20804856663215149 -0.0015634331779642921 0 0.18833232906805489 0.017471212981003011 0 0.1906641315900689 0.0001580717851183816 0 0.20804856663215149 -0.0015634331779642921 0 0.2043360651085897 0.018840415313384418 0 0.18833232906805489 0.017471212981003011 0 0.20804856663215149 -0.0015634331779642921 0 0.2247827361362284 0.055215483531955267 0 0.19842759480710809 0.04840190874934748 0 0.20743705211720631 0.065708763384250288 0 0.2247827361362284 0.055215483531955267 0 0.19842759480710809 0.04840190874934748 0 0.2247827361362284 0.055215483531955267 0 0.2123965856995054 0.041817217165731328 0 0.19842759480710809 0.04840190874934748 0 0.2277150422881567 0.037862929248660082 0 0.20957609425880139 0.03005743599153848 0 0.2123965856995054 0.041817217165731328 0 0.20957609425880139 0.03005743599153848 0 0.2123965856995054 0.041817217165731328 0 0.2014814610072321 0.037548328307155328 0 0.2123965856995054 0.041817217165731328 0 0.2014814610072321 0.037548328307155328 0 0.19842759480710809 0.04840190874934748 0 0.2014814610072321 0.037548328307155328 0 0.18853266356133791 0.037877765510997502 0 0.19842759480710809 0.04840190874934748 0 0.20957609425880139 0.03005743599153848 0 0.19505496674576109 0.028589868740038309 0 0.2014814610072321 0.037548328307155328 0 0.19505496674576109 0.028589868740038309 0 0.18853266356133791 0.037877765510997502 0 0.1822797337630167 0.030930327481343872 0 0.19505496674576109 0.028589868740038309 0 0.2014814610072321 0.037548328307155328 0 0.18853266356133791 0.037877765510997502 0 0.18807813260164949 0.065124196773524004 0 0.20743705211720631 0.065708763384250288 0 0.19842759480710809 0.04840190874934748 0 0.18807813260164949 0.065124196773524004 0 0.19842759480710809 0.04840190874934748 0 0.172072453477988 0.04158833396673936 0 0.18807813260164949 0.065124196773524004 0 0.172072453477988 0.04158833396673936 0 0.16608304506342481 0.062871762344574394 0 0.18807813260164949 0.065124196773524004 0 0.172072453477988 0.04158833396673936 0 0.18853266356133791 0.037877765510997502 0 0.17722447597317689 0.036179088675089413 0 0.172072453477988 0.04158833396673936 0 0.19842759480710809 0.04840190874934748 0 0.172072453477988 0.04158833396673936 0 0.18853266356133791 0.037877765510997502 0 0.19842759480710809 0.04840190874934748 0 0.172072453477988 0.04158833396673936 0 0.18853266356133791 0.037877765510997502 0 0.17722447597317689 0.036179088675089413 0 0.1822797337630167 0.030930327481343872 0 0.17722447597317689 0.036179088675089413 0 0.172072453477988 0.04158833396673936 0 0.16861609150395879 0.03650585913997078 0 0.17722447597317689 0.036179088675089413 0 0.16861609150395879 0.03650585913997078 0 0.1822797337630167 0.030930327481343872 0 0.16519367006279151 0.039809967285738559 0 0.1492509819947985 0.035688316180530671 0 0.16519367006279151 0.039809967285738559 0 0.15908651817787769 0.034389883655675468 0 0.1492509819947985 0.035688316180530671 0 0.172072453477988 0.04158833396673936 0 0.16519367006279151 0.039809967285738559 0 0.16861609150395879 0.03650585913997078 0 0.172072453477988 0.04158833396673936 0 0.16519367006279151 0.039809967285738559 0 0.16519367006279151 0.039809967285738559 0 0.16861609150395879 0.03650585913997078 0 0.15908651817787769 0.034389883655675468 0 0.16861609150395879 0.03650585913997078 0 0.1729367763131251 0.028805501392721831 0 0.16381180024295791 0.029441295422983741 0 0.172072453477988 0.04158833396673936 0 0.16861609150395879 0.03650585913997078 0 0.16519367006279151 0.039809967285738559 0 0.16861609150395879 0.03650585913997078 0 0.16861609150395879 0.03650585913997078 0 0.16381180024295791 0.029441295422983741 0 0.15908651817787769 0.034389883655675468 0 0.16381180024295791 0.029441295422983741 0 0.1485600470848816 0.03050398024915443 0 0.16861609150395879 0.03650585913997078 0 0.15908651817787769 0.034389883655675468 0 0.16381180024295791 0.029441295422983741 0 0.16519367006279151 0.039809967285738559 0 0.1441432468955185 0.060132676179004349 0 0.16608304506342481 0.062871762344574394 0 0.172072453477988 0.04158833396673936 0 0.16519367006279151 0.039809967285738559 0 0.16608304506342481 0.062871762344574394 0 0.18833232906805489 0.017471212981003011 0 0.1906641315900689 0.0001580717851183816 0 0.1827135340341336 0.0063848456825513766 0 0.18066133769914439 0.011468328728952931 0 0.17833234948013879 0.023448770121337972 0 0.1732671382142503 -0.0014315138690806329 0 0.17833234948013879 0.023448770121337972 0 0.1696516734795733 0.01239107468594715 0 0.1732671382142503 -0.0014315138690806329 0 0.17833234948013879 0.023448770121337972 0 0.1732671382142503 -0.0014315138690806329 0 0.1827135340341336 0.0063848456825513766 0 0.18066133769914439 0.011468328728952931 0 0.1732671382142503 -0.0014315138690806329 0 0.1827135340341336 0.0063848456825513766 0 0.18230838893869339 -0.0005862331732170681 0 0.1732671382142503 -0.0014315138690806329 0 0.1906641315900689 0.0001580717851183816 0 0.1827135340341336 0.0063848456825513766 0 0.18230838893869339 -0.0005862331732170681 0 0.18833232906805489 0.017471212981003011 0 0.1827135340341336 0.0063848456825513766 0 0.18066133769914439 0.011468328728952931 0 0.18833232906805489 0.017471212981003011 0 0.16861609150395879 0.03650585913997078 0 0.17833234948013879 0.023448770121337972 0 0.18833232906805489 0.017471212981003011 0 0.16861609150395879 0.03650585913997078 0 0.1822797337630167 0.030930327481343872 0 0.18833232906805489 0.017471212981003011 0 0.16861609150395879 0.03650585913997078 0 0.18833232906805489 0.017471212981003011 0 0.18066133769914439 0.011468328728952931 0 0.17833234948013879 0.023448770121337972 0 0.16861609150395879 0.03650585913997078 0 0.17833234948013879 0.023448770121337972 0 0.1729367763131251 0.028805501392721831 0 0.17833234948013879 0.023448770121337972 0 0.1729367763131251 0.028805501392721831 0 0.16749116657935029 0.021634318225763411 0 0.1729367763131251 0.028805501392721831 0 0.16381180024295791 0.029441295422983741 0 0.1729367763131251 0.028805501392721831 0 0.16381180024295791 0.029441295422983741 0 0.16749116657935029 0.021634318225763411 0 0.16381180024295791 0.029441295422983741 0 0.1582230094712094 0.02122314911107568 0 0.16381180024295791 0.029441295422983741 0 0.1582230094712094 0.02122314911107568 0 0.1485600470848816 0.03050398024915443 0 0.16381180024295791 0.029441295422983741 0 0.1582230094712094 0.02122314911107568 0 0.16749116657935029 0.021634318225763411 0 0.1582230094712094 0.02122314911107568 0 0.16749116657935029 0.021634318225763411 0 0.16237386857119021 0.013843853338265599 0 0.1582230094712094 0.02122314911107568 0 0.16237386857119021 0.013843853338265599 0 0.15465108431071881 0.012749695400164979 0 0.16749116657935029 0.021634318225763411 0 0.1696516734795733 0.01239107468594715 0 0.16237386857119021 0.013843853338265599 0 0.17833234948013879 0.023448770121337972 0 0.16749116657935029 0.021634318225763411 0 0.1696516734795733 0.01239107468594715 0 0.15976988824119459 0.0062607884139543992 0 0.14849000675410531 0.0052258133296127713 0 0.16571409850826779 -0.0054541394863414777 0 0.1696516734795733 0.01239107468594715 0 0.16237386857119021 0.013843853338265599 0 0.1666594630979519 0.0050470461669360634 0 0.16237386857119021 0.013843853338265599 0 0.15976988824119459 0.0062607884139543992 0 0.1666594630979519 0.0050470461669360634 0 0.16237386857119021 0.013843853338265599 0 0.15976988824119459 0.0062607884139543992 0 0.15465108431071881 0.012749695400164979 0 0.15976988824119459 0.0062607884139543992 0 0.1666594630979519 0.0050470461669360634 0 0.16571409850826779 -0.0054541394863414777 0 0.1696516734795733 0.01239107468594715 0 0.1666594630979519 0.0050470461669360634 0 0.1732671382142503 -0.0014315138690806329 0 0.14849000675410531 0.0052258133296127713 0 0.14572432742849151 0.01869682419442046 0 0.13126591499994281 0.015905766145567019 0 0.14849000675410531 0.0052258133296127713 0 0.13209524965815869 0.0039907213177849564 0 0.14541357206335959 -0.0045842780024242143 0 0.15976988824119459 0.0062607884139543992 0 0.14849000675410531 0.0052258133296127713 0 0.15465108431071881 0.012749695400164979 0 0.14849000675410531 0.0052258133296127713 0 0.15465108431071881 0.012749695400164979 0 0.14572432742849151 0.01869682419442046 0 0.1582230094712094 0.02122314911107568 0 0.15465108431071881 0.012749695400164979 0 0.14572432742849151 0.01869682419442046 0 0.1582230094712094 0.02122314911107568 0 0.14572432742849151 0.01869682419442046 0 0.1485600470848816 0.03050398024915443 0 0.16381180024295791 0.029441295422983741 0 0.1485600470848816 0.03050398024915443 0 0.14572432742849151 0.01869682419442046 0 0.1485600470848816 0.03050398024915443 0 0.13330829392680521 0.031566665075324213 0 0.1485600470848816 0.03050398024915443 0 0.13330829392680521 0.031566665075324213 0 0.1140418232457794 0.026585718961519889 0 0.13126591499994281 0.015905766145567019 0 0.13330829392680521 0.031566665075324213 0 0.14572432742849151 0.01869682419442046 0 0.13126591499994281 0.015905766145567019 0 0.13330829392680521 0.031566665075324213 0 0.14849000675410531 0.0052258133296127713 0 0.13126591499994281 0.015905766145567019 0 0.13209524965815869 0.0039907213177849564 0 0.14849000675410531 0.0052258133296127713 0 0.13126591499994281 0.015905766145567019 0 0.1183174958598085 0.01025556531129249 0 0.13126591499994281 0.015905766145567019 0 0.13209524965815869 0.0039907213177849564 0 0.16519367006279151 0.039809967285738559 0 0.1441432468955185 0.060132676179004349 0 0.1441432468955185 0.060132676179004349 0 0.1492509819947985 0.035688316180530671 0 0.13830515714513489 0.044422602440924303 0 0.16519367006279151 0.039809967285738559 0 0.1441432468955185 0.060132676179004349 0 0.1492509819947985 0.035688316180530671 0 0.1492509819947985 0.035688316180530671 0 0.13330829392680521 0.031566665075324213 0 0.1485600470848816 0.03050398024915443 0 0.1492509819947985 0.035688316180530671 0 0.13330829392680521 0.031566665075324213 0 0.15908651817787769 0.034389883655675468 0 0.1485600470848816 0.03050398024915443 0 0.1492509819947985 0.035688316180530671 0 0.13830515714513489 0.044422602440924303 0 0.13330829392680521 0.031566665075324213 0 0.12651810576341729 0.050302752328837227 0 0.11793054583118549 0.0326381287551075 0 0.13330829392680521 0.031566665075324213 0 0.12651810576341729 0.050302752328837227 0 0.1492509819947985 0.035688316180530671 0 0.13830515714513489 0.044422602440924303 0 0.13330829392680521 0.031566665075324213 0 0.11793054583118549 0.0326381287551075 0 0.13330829392680521 0.031566665075324213 0 0.1441432468955185 0.060132676179004349 0 0.13830515714513489 0.044422602440924303 0 0.12651810576341729 0.050302752328837227 0 0.1230928237282445 0.080455385072269139 0 0.1441432468955185 0.060132676179004349 0 0.14463269062406869 0.088354917142614967 0 0.1230928237282445 0.080455385072269139 0 0.1441432468955185 0.060132676179004349 0 0.12651810576341729 0.050302752328837227 0 0.1230928237282445 0.080455385072269139 0 0.1441432468955185 0.060132676179004349 0 0.1441432468955185 0.060132676179004349 0 0.14463269062406869 0.088354917142614967 0 0.16608304506342481 0.062871762344574394 0 0.1230928237282445 0.080455385072269139 0 0.14463269062406869 0.088354917142614967 0 0.13495584681596171 0.10939639726307319 0 0.1184267252289975 0.1250059157394951 0 0.14532841743112559 0.13814295249385269 0 0.13495584681596171 0.10939639726307319 0 0.14532841743112559 0.13814295249385269 0 0.13495584681596171 0.10939639726307319 0 0.15668412459027251 0.1128566436248169 0 0.14463269062406869 0.088354917142614967 0 0.13495584681596171 0.10939639726307319 0 0.15668412459027251 0.1128566436248169 0 0.14463269062406869 0.088354917142614967 0 0.15668412459027251 0.1128566436248169 0 0.16583754380638099 0.092823312301646754 0 0.15668412459027251 0.1128566436248169 0 0.17638719027682739 0.1103021451330211 0 0.16583754380638099 0.092823312301646754 0 0.1623789968923644 0.13151720018765889 0 0.15668412459027251 0.1128566436248169 0 0.17638719027682739 0.1103021451330211 0 0.1859932608604222 0.12623047556559919 0 0.1623789968923644 0.13151720018765889 0 0.17638719027682739 0.1103021451330211 0 0.1859932608604222 0.12623047556559919 0 0.19182787616220481 0.1157939104836572 0 0.17638719027682739 0.1103021451330211 0 0.19532352868308961 0.1056992702924693 0 0.17638719027682739 0.1103021451330211 0 0.18418774608662911 0.084980174996953262 0 0.17638719027682739 0.1103021451330211 0 0.18418774608662911 0.084980174996953262 0 0.16583754380638099 0.092823312301646754 0 0.18418774608662911 0.084980174996953262 0 0.16608304506342481 0.062871762344574394 0 0.16583754380638099 0.092823312301646754 0 0.18807813260164949 0.065124196773524004 0 0.18418774608662911 0.084980174996953262 0 0.16608304506342481 0.062871762344574394 0 0.14463269062406869 0.088354917142614967 0 0.16608304506342481 0.062871762344574394 0 0.16583754380638099 0.092823312301646754 0 0.095105762775466077 0.48133626550077629 0 0.10952381131877389 0.49259264941771752 0 0.11115463281811221 0.47603710572144547 0 0.095105762775466077 0.48133626550077629 0 0.11115463281811221 0.47603710572144547 0 0.1046724771091416 0.4605429279053096 0 0.095105762775466077 0.48133626550077629 0 0.1033123985824668 0.5 0 0.1048748456681132 0.49635965039772512 0 0.1033123985824668 0.5 0 0.1048748456681132 0.49635965039772512 0 0.1126157478003344 0.49500656999640841 0 0.1048748456681132 0.49635965039772512 0 0.10952381131877389 0.49259264941771752 0 0.1048748456681132 0.49635965039772512 0 0.1126157478003344 0.49500656999640841 0 0.10952381131877389 0.49259264941771752 0 0.095105762775466077 0.48133626550077629 0 0.1048748456681132 0.49635965039772512 0 0.10952381131877389 0.49259264941771752 0 0.095105762775466077 0.48133626550077629 0 0.10952381131877389 0.49259264941771752 0 0.1126157478003344 0.49500656999640841 0 0.12768858593236521 0.47787395091295198 0 0.1275539708027911 0.5 0 0.10952381131877389 0.49259264941771752 0 0.12768858593236521 0.47787395091295198 0 0.1126157478003344 0.49500656999640841 0 0.10952381131877389 0.49259264941771752 0 0.12768858593236521 0.47787395091295198 0 0.1033123985824668 0.5 0 0.1126157478003344 0.49500656999640841 0 0.1275539708027911 0.5 0 0.1126157478003344 0.49500656999640841 0 0.10952381131877389 0.49259264941771752 0 0.10952381131877389 0.49259264941771752 0 0.11115463281811221 0.47603710572144547 0 0.12768858593236521 0.47787395091295198 0 0.11115463281811221 0.47603710572144547 0 0.12184502098451271 0.46537105473594559 0 0.12768858593236521 0.47787395091295198 0 0.12184502098451271 0.46537105473594559 0 0.1046724771091416 0.4605429279053096 0 0.12865723998612461 0.45100597422678529 0 0.1046724771091416 0.4605429279053096 0 0.12865723998612461 0.45100597422678529 0 0.11115463281811221 0.47603710572144547 0 0.12184502098451271 0.46537105473594559 0 0.1046724771091416 0.4605429279053096 0 0.1106626287464957 0.43892685099679091 0 0.13445826137105141 0.43771426408990449 0 0.12865723998612461 0.45100597422678529 0 0.1106626287464957 0.43892685099679091 0 0.1046724771091416 0.4605429279053096 0 0.12865723998612461 0.45100597422678529 0 0.1106626287464957 0.43892685099679091 0 0.1046724771091416 0.4605429279053096 0 0.085211222055955063 0.44998823746217381 0 0.1046724771091416 0.4605429279053096 0 0.080687714232158841 0.4700798815838344 0 0.1046724771091416 0.4605429279053096 0 0.085211222055955063 0.44998823746217381 0 0.080687714232158841 0.4700798815838344 0 0.085211222055955063 0.44998823746217381 0 0.069313096505487976 0.44432251352819752 0 0.081734693268692732 0.43078943399921971 0 0.1106626287464957 0.43892685099679091 0 0.085211222055955063 0.44998823746217381 0 0.081734693268692732 0.43078943399921971 0 0.085211222055955063 0.44998823746217381 0 0.069313096505487976 0.44432251352819752 0 0.065076092483410522 0.45789165739786769 0 0.069313096505487976 0.44432251352819752 0 0.065076092483410522 0.45789165739786769 0 0.059800665483550133 0.4459808311197474 0 0.085211222055955063 0.44998823746217381 0 0.065076092483410522 0.45789165739786769 0 0.080687714232158841 0.4700798815838344 0 0.065076092483410522 0.45789165739786769 0 0.067427310094396162 0.47535255660125969 0 0.080687714232158841 0.4700798815838344 0 0.065076092483410522 0.45789165739786769 0 0.080687714232158841 0.4700798815838344 0 0.067427310094396162 0.47535255660125969 0 0.06384900883433256 0.4843731670252196 0 0.077981168864022066 0.48362031776267711 0 0.067427310094396162 0.47535255660125969 0 0.077981168864022066 0.48362031776267711 0 0.080687714232158841 0.4700798815838344 0 0.067427310094396162 0.47535255660125969 0 0.080687714232158841 0.4700798815838344 0 0.095105762775466077 0.48133626550077629 0 0.1046724771091416 0.4605429279053096 0 0.080687714232158841 0.4700798815838344 0 0.095105762775466077 0.48133626550077629 0 0.077981168864022066 0.48362031776267711 0 0.080687714232158841 0.4700798815838344 0 0.095105762775466077 0.48133626550077629 0 0.080687714232158841 0.4700798815838344 0 0.095105762775466077 0.48133626550077629 0 0.077981168864022066 0.48362031776267711 0 0.079070826362142577 0.49999999999999872 0 0.095105762775466077 0.48133626550077629 0 0.1033123985824668 0.5 0 0.079070826362142577 0.49999999999999872 0 0.06384900883433256 0.4843731670252196 0 0.079070826362142577 0.49999999999999872 0 0.049359761386413903 0.5 0 0.06384900883433256 0.4843731670252196 0 0.079070826362142577 0.49999999999999872 0 0.06384900883433256 0.4843731670252196 0 0.077981168864022066 0.48362031776267711 0 0.079070826362142577 0.49999999999999872 0 0.06384900883433256 0.4843731670252196 0 0.049359761386413903 0.5 0 0.040059083546813257 0.48272610823923923 0 0.067427310094396162 0.47535255660125969 0 0.06384900883433256 0.4843731670252196 0 0.048627191306521919 0.46874633405044119 0 0.06384900883433256 0.4843731670252196 0 0.040059083546813257 0.48272610823923923 0 0.048627191306521919 0.46874633405044119 0 0.06384900883433256 0.4843731670252196 0 0.048627191306521919 0.46874633405044119 0 0.040059083546813257 0.48272610823923923 0 0.023748706244409511 0.47656187542664719 0 0.033409869764644343 0.4674702419266622 0 0.040059083546813257 0.48272610823923923 0 0.033409869764644343 0.4674702419266622 0 0.048627191306521919 0.46874633405044119 0 0.049359761386413903 0.5 0 0.040059083546813257 0.48272610823923923 0 0.019648696410685229 0.5 0 0.040059083546813257 0.48272610823923923 0 0.019648696410685229 0.5 0 0.023748706244409511 0.47656187542664719 0 0.019648696410685229 0.5 0 0.023748706244409511 0.47656187542664719 0 0.0011837768080978819 0.47425892433904521 0 0.023748706244409511 0.47656187542664719 0 0.0011837768080978819 0.47425892433904521 0 0.01778645927902139 0.45778732882839029 0 -0.010062368565043389 0.5 0 0.019648696410685229 0.5 0 0.0011837768080978819 0.47425892433904521 0 0.00075904117010897748 0.44930835498749733 0 0.027750925202970091 0.44313538132473812 0 0.01148345340995514 0.43410310426530557 0 0.00075904117010897748 0.44930835498749733 0 0.027750925202970091 0.44313538132473812 0 -0.011491293584143599 0.43253524290370438 0 0.00075904117010897748 0.44930835498749733 0 0.01148345340995514 0.43410310426530557 0 0.00075904117010897748 0.44930835498749733 0 0.01778645927902139 0.45778732882839029 0 0.027750925202970091 0.44313538132473812 0 0.0011837768080978819 0.47425892433904521 0 0.00075904117010897748 0.44930835498749733 0 0.01778645927902139 0.45778732882839029 0 0.023748706244409511 0.47656187542664719 0 0.01778645927902139 0.45778732882839029 0 0.033409869764644343 0.4674702419266622 0 0.01778645927902139 0.45778732882839029 0 0.033405373778711313 0.45311950107566279 0 0.033409869764644343 0.4674702419266622 0 0.01778645927902139 0.45778732882839029 0 0.027750925202970091 0.44313538132473812 0 0.033405373778711313 0.45311950107566279 0 0.027750925202970091 0.44313538132473812 0 0.05474280923583142 0.43696240766197891 0 0.027750925202970091 0.44313538132473812 0 0.033405373778711313 0.45311950107566279 0 0.049464470734662369 0.4457034332119007 0 0.033405373778711313 0.45311950107566279 0 0.046105031194098457 0.45623375869139421 0 0.049464470734662369 0.4457034332119007 0 0.027750925202970091 0.44313538132473812 0 0.049464470734662369 0.4457034332119007 0 0.05474280923583142 0.43696240766197891 0 0.033405373778711313 0.45311950107566279 0 0.046105031194098457 0.45623375869139421 0 0.048627191306521919 0.46874633405044119 0 0.033405373778711313 0.45311950107566279 0 0.033409869764644343 0.4674702419266622 0 0.048627191306521919 0.46874633405044119 0 0.033405373778711313 0.45311950107566279 0 0.048627191306521919 0.46874633405044119 0 0.065076092483410522 0.45789165739786769 0 0.067427310094396162 0.47535255660125969 0 0.048627191306521919 0.46874633405044119 0 0.065076092483410522 0.45789165739786769 0 0.048627191306521919 0.46874633405044119 0 0.052923088956498263 0.45736576642757182 0 0.046105031194098457 0.45623375869139421 0 0.048627191306521919 0.46874633405044119 0 0.052923088956498263 0.45736576642757182 0 0.065076092483410522 0.45789165739786769 0 0.052923088956498263 0.45736576642757182 0 0.049464470734662369 0.4457034332119007 0 0.049464470734662369 0.4457034332119007 0 0.059800665483550133 0.4459808311197474 0 0.05474280923583142 0.43696240766197891 0 0.046105031194098457 0.45623375869139421 0 0.052923088956498263 0.45736576642757182 0 0.049464470734662369 0.4457034332119007 0 0.065076092483410522 0.45789165739786769 0 0.049464470734662369 0.4457034332119007 0 0.065076092483410522 0.45789165739786769 0 0.049464470734662369 0.4457034332119007 0 0.059800665483550133 0.4459808311197474 0 0.069313096505487976 0.44432251352819752 0 0.059800665483550133 0.4459808311197474 0 0.05474280923583142 0.43696240766197891 0 0.05474280923583142 0.43696240766197891 0 0.052370560284822662 0.42360982213474629 0 0.0671990434964643 0.42121156886799982 0 0.05474280923583142 0.43696240766197891 0 0.052370560284822662 0.42360982213474629 0 0.039713637546372887 0.43001938086251179 0 0.052370560284822662 0.42360982213474629 0 0.061914946692752791 0.40697244617713763 0 0.040664371681625733 0.40591917280796391 0 0.052370560284822662 0.42360982213474629 0 0.061914946692752791 0.40697244617713763 0 0.0671990434964643 0.42121156886799982 0 0.052370560284822662 0.42360982213474629 0 0.039293527308001001 0.4200167296128734 0 0.040664371681625733 0.40591917280796391 0 0.039293527308001001 0.4200167296128734 0 0.024148124461239151 0.39725661433033932 0 0.040664371681625733 0.40591917280796391 0 0.039293527308001001 0.4200167296128734 0 0.024148124461239151 0.39725661433033932 0 0.027750925202970091 0.44313538132473812 0 0.05474280923583142 0.43696240766197891 0 0.039713637546372887 0.43001938086251179 0 0.052370560284822662 0.42360982213474629 0 0.039293527308001001 0.4200167296128734 0 0.039713637546372887 0.43001938086251179 0 0.039293527308001001 0.4200167296128734 0 0.039713637546372887 0.43001938086251179 0 0.024410365700239248 0.42637256357822229 0 0.027750925202970091 0.44313538132473812 0 0.039713637546372887 0.43001938086251179 0 0.024410365700239248 0.42637256357822229 0 0.027750925202970091 0.44313538132473812 0 0.024410365700239248 0.42637256357822229 0 0.01148345340995514 0.43410310426530557 0 0.024410365700239248 0.42637256357822229 0 0.0113812039956253 0.42039123848622661 0 0.01148345340995514 0.43410310426530557 0 0.039293527308001001 0.4200167296128734 0 0.018429279327447642 0.41206116189694242 0 0.024148124461239151 0.39725661433033932 0 0.039293527308001001 0.4200167296128734 0 0.024410365700239248 0.42637256357822229 0 0.018429279327447642 0.41206116189694242 0 0.024410365700239248 0.42637256357822229 0 0.018429279327447642 0.41206116189694242 0 0.0113812039956253 0.42039123848622661 0 0.018429279327447642 0.41206116189694242 0 0.0013591684760722901 0.40889267102744248 0 0.01064614661713373 0.39951871515404092 0 0.018429279327447642 0.41206116189694242 0 0.0113812039956253 0.42039123848622661 0 0.0013591684760722901 0.40889267102744248 0 0.0113812039956253 0.42039123848622661 0 0.0013591684760722901 0.40889267102744248 0 0.00033908460589540191 0.42224738645748211 0 -0.011491293584143599 0.43253524290370438 0 0.00033908460589540191 0.42224738645748211 0 0.01148345340995514 0.43410310426530557 0 0.0113812039956253 0.42039123848622661 0 0.00033908460589540191 0.42224738645748211 0 0.01148345340995514 0.43410310426530557 0 0.0089016259540396908 0.38938065976345138 0 0.024148124461239151 0.39725661433033932 0 0.0090027216144773076 0.37449649904780519 0 -0.0024791775137270639 0.38250864506054583 0 0.0089016259540396908 0.38938065976345138 0 0.0090027216144773076 0.37449649904780519 0 -0.0024791775137270639 0.38250864506054583 0 0.0089016259540396908 0.38938065976345138 0 0.0010789675472111021 0.39544154876169679 0 0.0089016259540396908 0.38938065976345138 0 0.0010789675472111021 0.39544154876169679 0 0.01064614661713373 0.39951871515404092 0 0.0013591684760722901 0.40889267102744248 0 0.0010789675472111021 0.39544154876169679 0 0.01064614661713373 0.39951871515404092 0 0.0089016259540396908 0.38938065976345138 0 0.01064614661713373 0.39951871515404092 0 0.024148124461239151 0.39725661433033932 0 0.018429279327447642 0.41206116189694242 0 0.01064614661713373 0.39951871515404092 0 0.024148124461239151 0.39725661433033932 0 0.024148124461239151 0.39725661433033932 0 0.024763196798824459 0.38669355628013652 0 0.032607234516121353 0.3937805086560211 0 0.024763196798824459 0.38669355628013652 0 0.033294706603460018 0.38124060308638053 0 0.0090027216144773076 0.37449649904780519 0 0.024763196798824459 0.38669355628013652 0 0.033294706603460018 0.38124060308638053 0 0.032607234516121353 0.3937805086560211 0 0.024148124461239151 0.39725661433033932 0 0.024763196798824459 0.38669355628013652 0 0.0090027216144773076 0.37449649904780519 0 0.024148124461239151 0.39725661433033932 0 0.0090027216144773076 0.37449649904780519 0 0.033294706603460018 0.38124060308638053 0 0.032607234516121353 0.3937805086560211 0 0.047604826648105968 0.39410652463175949 0 0.033294706603460018 0.38124060308638053 0 0.032607234516121353 0.3937805086560211 0 0.033294706603460018 0.38124060308638053 0 0.047604826648105968 0.39410652463175949 0 0.033294706603460018 0.38124060308638053 0 0.046500680362996018 0.38177963246569341 0 0.047604826648105968 0.39410652463175949 0 0.033294706603460018 0.38124060308638053 0 0.046500680362996018 0.38177963246569341 0 0.043609160772984573 0.37046307232361131 0 0.024148124461239151 0.39725661433033932 0 0.032607234516121353 0.3937805086560211 0 0.040664371681625733 0.40591917280796391 0 0.032607234516121353 0.3937805086560211 0 0.040664371681625733 0.40591917280796391 0 0.047604826648105968 0.39410652463175949 0 0.061914946692752791 0.40697244617713763 0 0.040664371681625733 0.40591917280796391 0 0.047604826648105968 0.39410652463175949 0 0.061914946692752791 0.40697244617713763 0 0.047604826648105968 0.39410652463175949 0 0.064843585897405867 0.3881562609451501 0 0.061914946692752791 0.40697244617713763 0 0.047604826648105968 0.39410652463175949 0 0.046500680362996018 0.38177963246569341 0 0.047604826648105968 0.39410652463175949 0 0.064843585897405867 0.3881562609451501 0 0.046500680362996018 0.38177963246569341 0 0.064843585897405867 0.3881562609451501 0 0.055264489137081693 0.37333929458213189 0 0.046500680362996018 0.38177963246569341 0 0.055264489137081693 0.37333929458213189 0 0.043609160772984573 0.37046307232361131 0 0.064843585897405867 0.3881562609451501 0 0.084163909542098736 0.3844188454543026 0 0.070041644640805006 0.3670798532420102 0 0.064843585897405867 0.3881562609451501 0 0.070041644640805006 0.3670798532420102 0 0.055264489137081693 0.37333929458213189 0 0.084163909542098736 0.3844188454543026 0 0.085232208000221882 0.40772373436691639 0 0.1108070828565771 0.38821811579882098 0 0.064843585897405867 0.3881562609451501 0 0.084163909542098736 0.3844188454543026 0 0.085232208000221882 0.40772373436691639 0 0.061914946692752791 0.40697244617713763 0 0.064843585897405867 0.3881562609451501 0 0.085232208000221882 0.40772373436691639 0 0.061914946692752791 0.40697244617713763 0 0.0671990434964643 0.42121156886799982 0 0.085232208000221882 0.40772373436691639 0 0.0671990434964643 0.42121156886799982 0 0.081734693268692732 0.43078943399921971 0 0.085232208000221882 0.40772373436691639 0 0.069313096505487976 0.44432251352819752 0 0.05474280923583142 0.43696240766197891 0 0.081734693268692732 0.43078943399921971 0 0.05474280923583142 0.43696240766197891 0 0.0671990434964643 0.42121156886799982 0 0.081734693268692732 0.43078943399921971 0 0.05474280923583142 0.43696240766197891 0 0.081734693268692732 0.43078943399921971 0 0.081734693268692732 0.43078943399921971 0 0.085232208000221882 0.40772373436691639 0 0.1093006002972559 0.41612995424870891 0 0.1106626287464957 0.43892685099679091 0 0.081734693268692732 0.43078943399921971 0 0.1093006002972559 0.41612995424870891 0 0.1106626287464957 0.43892685099679091 0 0.1289984842291739 0.42562078226614458 0 0.13445826137105141 0.43771426408990449 0 0.1106626287464957 0.43892685099679091 0 0.1093006002972559 0.41612995424870891 0 0.1289984842291739 0.42562078226614458 0 0.1093006002972559 0.41612995424870891 0 0.127073759266744 0.40819955746143488 0 0.1289984842291739 0.42562078226614458 0 0.1093006002972559 0.41612995424870891 0 0.1108070828565771 0.38821811579882098 0 0.127073759266744 0.40819955746143488 0 0.084163909542098736 0.3844188454543026 0 0.1108070828565771 0.38821811579882098 0 0.091631172256171775 0.3685312849522121 0 0.085232208000221882 0.40772373436691639 0 0.1093006002972559 0.41612995424870891 0 0.1108070828565771 0.38821811579882098 0 0.1080420290589124 0.3614478409232787 0 0.1075980235938305 0.33598952227917872 0 0.083965420681140754 0.35273853839125913 0 0.1080420290589124 0.3614478409232787 0 0.083965420681140754 0.35273853839125913 0 0.1080420290589124 0.3614478409232787 0 0.083965420681140754 0.35273853839125913 0 0.091631172256171775 0.3685312849522121 0 0.1108070828565771 0.38821811579882098 0 0.1080420290589124 0.3614478409232787 0 0.091631172256171775 0.3685312849522121 0 0.1080420290589124 0.3614478409232787 0 0.12539794690097469 0.34857968029905628 0 0.13211863743668439 0.37015714345529699 0 0.1080420290589124 0.3614478409232787 0 0.13211863743668439 0.37015714345529699 0 0.1108070828565771 0.38821811579882098 0 0.1080420290589124 0.3614478409232787 0 0.13211863743668439 0.37015714345529699 0 0.1080420290589124 0.3614478409232787 0 0.1075980235938305 0.33598952227917872 0 0.12539794690097469 0.34857968029905628 0 0.1241397888139332 0.34454023530101169 0 0.12539794690097469 0.34857968029905628 0 0.1075980235938305 0.33598952227917872 0 0.12539794690097469 0.34857968029905628 0 0.1241397888139332 0.34454023530101169 0 0.1075980235938305 0.33598952227917872 0 0.12539794690097469 0.34857968029905628 0 0.1241397888139332 0.34454023530101169 0 0.1191314590363932 0.33788375167607959 0 0.12573830723432791 0.33665547115015482 0 0.1241397888139332 0.34454023530101169 0 0.1191314590363932 0.33788375167607959 0 0.1075980235938305 0.33598952227917872 0 0.1191314590363932 0.33788375167607959 0 0.1204094478488294 0.33196157753013572 0 0.12573830723432791 0.33665547115015482 0 0.1204094478488294 0.33196157753013572 0 0.12725778129632401 0.32815459954034493 0 0.12573830723432791 0.33665547115015482 0 0.1191314590363932 0.33788375167607959 0 0.1204094478488294 0.33196157753013572 0 0.11484682077938931 0.33362373710683768 0 0.1204094478488294 0.33196157753013572 0 0.11484682077938931 0.33362373710683768 0 0.1122483526385042 0.32866009694195691 0 0.1191314590363932 0.33788375167607959 0 0.11484682077938931 0.33362373710683768 0 0.1075980235938305 0.33598952227917872 0 0.11484682077938931 0.33362373710683768 0 0.1122483526385042 0.32866009694195691 0 0.1075980235938305 0.33598952227917872 0 0.1198107226977248 0.32324347305192141 0 0.11957817909080611 0.31137601559009598 0 0.12732952779803089 0.31953946494490248 0 0.1204094478488294 0.33196157753013572 0 0.1122483526385042 0.32866009694195691 0 0.1198107226977248 0.32324347305192141 0 0.1204094478488294 0.33196157753013572 0 0.1198107226977248 0.32324347305192141 0 0.12725778129632401 0.32815459954034493 0 0.1198107226977248 0.32324347305192141 0 0.12732952779803089 0.31953946494490248 0 0.12725778129632401 0.32815459954034493 0 0.1122483526385042 0.32866009694195691 0 0.1198107226977248 0.32324347305192141 0 0.11204104751385401 0.31976908376409269 0 0.1122483526385042 0.32866009694195691 0 0.11204104751385401 0.31976908376409269 0 0.1073833471149329 0.32395066211369761 0 0.11204104751385401 0.31976908376409269 0 0.10811493739780011 0.30816169372554958 0 0.11957817909080611 0.31137601559009598 0 0.1198107226977248 0.32324347305192141 0 0.11204104751385401 0.31976908376409269 0 0.11957817909080611 0.31137601559009598 0 0.11204104751385401 0.31976908376409269 0 0.1013093562806469 0.3181598402912687 0 0.10811493739780011 0.30816169372554958 0 0.1073833471149329 0.32395066211369761 0 0.1013093562806469 0.3181598402912687 0 0.1036322963023109 0.32945509914055521 0 0.1122483526385042 0.32866009694195691 0 0.1073833471149329 0.32395066211369761 0 0.1036322963023109 0.32945509914055521 0 0.11204104751385401 0.31976908376409269 0 0.1073833471149329 0.32395066211369761 0 0.1013093562806469 0.3181598402912687 0 0.1036322963023109 0.32945509914055521 0 0.089798100286686861 0.32339936425930021 0 0.1013093562806469 0.3181598402912687 0 0.1036322963023109 0.32945509914055521 0 0.089798100286686861 0.32339936425930021 0 0.1013093562806469 0.3181598402912687 0 0.0913667412547986 0.31274724326836839 0 0.097511332399416922 0.30868264112902921 0 0.1013093562806469 0.3181598402912687 0 0.0913667412547986 0.31274724326836839 0 0.089798100286686861 0.32339936425930021 0 0.1075980235938305 0.33598952227917872 0 0.1036322963023109 0.32945509914055521 0 0.089798100286686861 0.32339936425930021 0 0.1075980235938305 0.33598952227917872 0 0.089798100286686861 0.32339936425930021 0 0.1122483526385042 0.32866009694195691 0 0.1075980235938305 0.33598952227917872 0 0.1036322963023109 0.32945509914055521 0 0.1075980235938305 0.33598952227917872 0 0.08257631130770661 0.33596735642112813 0 0.089798100286686861 0.32339936425930021 0 0.1075980235938305 0.33598952227917872 0 0.08257631130770661 0.33596735642112813 0 0.083965420681140754 0.35273853839125913 0 0.089798100286686861 0.32339936425930021 0 0.069134023386594731 0.30878334659350182 0 0.080306121791050178 0.30933932387957891 0 0.089798100286686861 0.32339936425930021 0 0.069134023386594731 0.30878334659350182 0 0.089798100286686861 0.32339936425930021 0 0.079693344902604907 0.32274104998034803 0 0.073243463325803962 0.31615279262063611 0 0.089798100286686861 0.32339936425930021 0 0.073243463325803962 0.31615279262063611 0 0.0913667412547986 0.31274724326836839 0 0.089798100286686861 0.32339936425930021 0 0.080306121791050178 0.30933932387957891 0 0.08257631130770661 0.33596735642112813 0 0.089798100286686861 0.32339936425930021 0 0.079693344902604907 0.32274104998034803 0 0.073243463325803962 0.31615279262063611 0 0.06203267398856873 0.31971229923596223 0 0.055479528897413068 0.30837686713679541 0 0.089798100286686861 0.32339936425930021 0 0.073243463325803962 0.31615279262063611 0 0.069134023386594731 0.30878334659350182 0 0.079693344902604907 0.32274104998034803 0 0.073243463325803962 0.31615279262063611 0 0.079693344902604907 0.32274104998034803 0 0.073243463325803962 0.31615279262063611 0 0.067417475241538252 0.32832056840536439 0 0.073243463325803962 0.31615279262063611 0 0.067417475241538252 0.32832056840536439 0 0.06203267398856873 0.31971229923596223 0 0.08257631130770661 0.33596735642112813 0 0.067417475241538252 0.32832056840536439 0 0.059888812303369079 0.34402923585923939 0 0.08257631130770661 0.33596735642112813 0 0.079693344902604907 0.32274104998034803 0 0.067417475241538252 0.32832056840536439 0 0.08257631130770661 0.33596735642112813 0 0.083965420681140754 0.35273853839125913 0 0.059888812303369079 0.34402923585923939 0 0.083965420681140754 0.35273853839125913 0 0.070041644640805006 0.3670798532420102 0 0.059888812303369079 0.34402923585923939 0 0.083965420681140754 0.35273853839125913 0 0.059888812303369079 0.34402923585923939 0 0.083965420681140754 0.35273853839125913 0 0.091631172256171775 0.3685312849522121 0 0.070041644640805006 0.3670798532420102 0 0.084163909542098736 0.3844188454543026 0 0.091631172256171775 0.3685312849522121 0 0.070041644640805006 0.3670798532420102 0 0.070041644640805006 0.3670798532420102 0 0.055264489137081693 0.37333929458213189 0 0.050534122668367133 0.35834551250977659 0 0.055264489137081693 0.37333929458213189 0 0.050534122668367133 0.35834551250977659 0 0.043609160772984573 0.37046307232361131 0 0.059888812303369079 0.34402923585923939 0 0.050534122668367133 0.35834551250977659 0 0.035812203925597919 0.33531993332721832 0 0.070041644640805006 0.3670798532420102 0 0.059888812303369079 0.34402923585923939 0 0.050534122668367133 0.35834551250977659 0 0.050534122668367133 0.35834551250977659 0 0.034553455264530193 0.35828026820679948 0 0.035812203925597919 0.33531993332721832 0 0.034553455264530193 0.35828026820679948 0 0.02342520485822604 0.34455865111302741 0 0.035812203925597919 0.33531993332721832 0 0.034553455264530193 0.35828026820679948 0 0.035812203925597919 0.33531993332721832 0 0.033294706603460018 0.38124060308638053 0 0.034553455264530193 0.35828026820679948 0 0.043609160772984573 0.37046307232361131 0 0.033294706603460018 0.38124060308638053 0 0.034553455264530193 0.35828026820679948 0 0.050534122668367133 0.35834551250977659 0 0.034553455264530193 0.35828026820679948 0 0.043609160772984573 0.37046307232361131 0 0.033294706603460018 0.38124060308638053 0 0.02350807645522442 0.3568568180997555 0 0.011561651081145249 0.36170087970048043 0 0.033294706603460018 0.38124060308638053 0 0.034553455264530193 0.35828026820679948 0 0.02350807645522442 0.3568568180997555 0 0.033294706603460018 0.38124060308638053 0 0.011561651081145249 0.36170087970048043 0 0.033294706603460018 0.38124060308638053 0 0.011561651081145249 0.36170087970048043 0 0.0090027216144773076 0.37449649904780519 0 0.034553455264530193 0.35828026820679948 0 0.02350807645522442 0.3568568180997555 0 0.02342520485822604 0.34455865111302741 0 0.02350807645522442 0.3568568180997555 0 0.02342520485822604 0.34455865111302741 0 0.0071625896765701164 0.34415058246862018 0 -0.010171404441168619 0.34216115631457938 0 0.011561651081145249 0.36170087970048043 0 -0.010171404441168619 0.34216115631457938 0 0.0071625896765701164 0.34415058246862018 0 0.011561651081145249 0.36170087970048043 0 0.02350807645522442 0.3568568180997555 0 0.0071625896765701164 0.34415058246862018 0 0.02350807645522442 0.3568568180997555 0 0.0071625896765701164 0.34415058246862018 0 0.011561651081145249 0.36170087970048043 0 -0.0061426812322846122 0.35173638376527089 0 0.011561651081145249 0.36170087970048043 0 0.0090027216144773076 0.37449649904780519 0 -0.0061426812322846122 0.35173638376527089 0 0.0090027216144773076 0.37449649904780519 0 -0.0036328059871815698 0.32105137359826458 0 0.003688673359198378 0.33163964097880089 0 0.01608969896920805 0.32818565346274198 0 0.01608969896920805 0.32818565346274198 0 0.021666548379354309 0.30839614938553372 0 0.0047102477580184057 0.30542836264005091 0 -0.0036328059871815698 0.32105137359826458 0 0.01608969896920805 0.32818565346274198 0 0.0047102477580184057 0.30542836264005091 0 -0.0036328059871815698 0.32105137359826458 0 0.01608969896920805 0.32818565346274198 0 -0.0036328059871815698 0.32105137359826458 0 0.0047102477580184057 0.30542836264005091 0 0.02342520485822604 0.34455865111302741 0 0.0071625896765701164 0.34415058246862018 0 0.01608969896920805 0.32818565346274198 0 0.0071625896765701164 0.34415058246862018 0 0.003688673359198378 0.33163964097880089 0 0.01608969896920805 0.32818565346274198 0 -0.0091828971020781504 0.33144434683747709 0 0.0071625896765701164 0.34415058246862018 0 0.003688673359198378 0.33163964097880089 0 0.02342520485822604 0.34455865111302741 0 0.01608969896920805 0.32818565346274198 0 0.035812203925597919 0.33531993332721832 0 0.01608969896920805 0.32818565346274198 0 0.035812203925597919 0.33531993332721832 0 0.01608969896920805 0.32818565346274198 0 0.036763899197309782 0.31796043749008662 0 0.021666548379354309 0.30839614938553372 0 0.01608969896920805 0.32818565346274198 0 0.036763899197309782 0.31796043749008662 0 0.035812203925597919 0.33531993332721832 0 0.036763899197309782 0.31796043749008662 0 0.035812203925597919 0.33531993332721832 0 0.036763899197309782 0.31796043749008662 0 0.035812203925597919 0.33531993332721832 0 0.051990228489519619 0.32599896878105289 0 0.067417475241538252 0.32832056840536439 0 0.059888812303369079 0.34402923585923939 0 0.051990228489519619 0.32599896878105289 0 0.059888812303369079 0.34402923585923939 0 0.035812203925597919 0.33531993332721832 0 0.051990228489519619 0.32599896878105289 0 0.059888812303369079 0.34402923585923939 0 0.035812203925597919 0.33531993332721832 0 0.051990228489519619 0.32599896878105289 0 0.06203267398856873 0.31971229923596223 0 0.055479528897413068 0.30837686713679541 0 0.036763899197309782 0.31796043749008662 0 0.051990228489519619 0.32599896878105289 0 0.055479528897413068 0.30837686713679541 0 0.067417475241538252 0.32832056840536439 0 0.051990228489519619 0.32599896878105289 0 0.06203267398856873 0.31971229923596223 0 0.073243463325803962 0.31615279262063611 0 0.055479528897413068 0.30837686713679541 0 0.057226800752835039 0.29979250851031591 0 0.055479528897413068 0.30837686713679541 0 0.057226800752835039 0.29979250851031591 0 0.045964344849296228 0.29683124131633221 0 0.057226800752835039 0.29979250851031591 0 0.04121013817986606 0.2834322243999956 0 0.045964344849296228 0.29683124131633221 0 0.057226800752835039 0.29979250851031591 0 0.04121013817986606 0.2834322243999956 0 0.057226800752835039 0.29979250851031591 0 0.060948894683394393 0.28586725047473299 0 0.04121013817986606 0.2834322243999956 0 0.057226800752835039 0.29979250851031591 0 0.060948894683394393 0.28586725047473299 0 0.068018322689935531 0.29623373202311121 0 0.04121013817986606 0.2834322243999956 0 0.045964344849296228 0.29683124131633221 0 0.038189661947344862 0.29195366488159918 0 0.045964344849296228 0.29683124131633221 0 0.038189661947344862 0.29195366488159918 0 0.037715594469022042 0.30060094165295492 0 0.038189661947344862 0.29195366488159918 0 0.037715594469022042 0.30060094165295492 0 0.055479528897413068 0.30837686713679541 0 0.045964344849296228 0.29683124131633221 0 0.037715594469022042 0.30060094165295492 0 0.055479528897413068 0.30837686713679541 0 0.037715594469022042 0.30060094165295492 0 0.036763899197309782 0.31796043749008662 0 0.037715594469022042 0.30060094165295492 0 0.036763899197309782 0.31796043749008662 0 0.055479528897413068 0.30837686713679541 0 0.037715594469022042 0.30060094165295492 0 0.036763899197309782 0.31796043749008662 0 0.037715594469022042 0.30060094165295492 0 0.021666548379354309 0.30839614938553372 0 0.037715594469022042 0.30060094165295492 0 0.021666548379354309 0.30839614938553372 0 0.013053301503213099 0.28980535168183419 0 0.038189661947344862 0.29195366488159918 0 0.037715594469022042 0.30060094165295492 0 0.013053301503213099 0.28980535168183419 0 0.037715594469022042 0.30060094165295492 0 0.013053301503213099 0.28980535168183419 0 0.04121013817986606 0.2834322243999956 0 0.038189661947344862 0.29195366488159918 0 0.013053301503213099 0.28980535168183419 0 0.013053301503213099 0.28980535168183419 0 0.0052202909797062977 0.28637655574755139 0 0.0084296234690545684 0.27678604392348 0 0.013053301503213099 0.28980535168183419 0 0.0052202909797062977 0.28637655574755139 0 0.013053301503213099 0.28980535168183419 0 0.0052202909797062977 0.28637655574755139 0 0.0002506162298585416 0.2938102725008484 0 0.013053301503213099 0.28980535168183419 0 0.0002506162298585416 0.2938102725008484 0 0.0047102477580184057 0.30542836264005091 0 0.021666548379354309 0.30839614938553372 0 0.013053301503213099 0.28980535168183419 0 0.0047102477580184057 0.30542836264005091 0 0.013053301503213099 0.28980535168183419 0 0.0047102477580184057 0.30542836264005091 0 -0.0067724870967775571 0.26171292494688392 0 0.0073431443550527123 0.2488386479659444 0 0.0062042270835937427 0.26632014723944758 0 0.0073431443550527123 0.2488386479659444 0 0.0062042270835937427 0.26632014723944758 0 0.02519347560689731 0.26707194028967512 0 0.0062042270835937427 0.26632014723944758 0 0.0084296234690545684 0.27678604392348 0 0.02519347560689731 0.26707194028967512 0 0.013053301503213099 0.28980535168183419 0 0.0084296234690545684 0.27678604392348 0 0.02519347560689731 0.26707194028967512 0 -0.001922751658390245 0.27573026243385101 0 0.0062042270835937427 0.26632014723944758 0 0.0084296234690545684 0.27678604392348 0 -0.001922751658390245 0.27573026243385101 0 0.0052202909797062977 0.28637655574755139 0 0.0084296234690545684 0.27678604392348 0 0.013053301503213099 0.28980535168183419 0 0.02519347560689731 0.26707194028967512 0 0.04121013817986606 0.2834322243999956 0 0.013053301503213099 0.28980535168183419 0 0.02519347560689731 0.26707194028967512 0 0.036910724912108769 0.2451304881684036 0 0.02519347560689731 0.26707194028967512 0 0.0073431443550527123 0.2488386479659444 0 0.02519347560689731 0.26707194028967512 0 0.0073431443550527123 0.2488386479659444 0 0.036910724912108769 0.2451304881684036 0 0.02519347560689731 0.26707194028967512 0 0.036910724912108769 0.2451304881684036 0 0.02519347560689731 0.26707194028967512 0 0.03984877482195575 0.26079884446496843 0 0.046433617409517902 0.2499875422502417 0 0.036910724912108769 0.2451304881684036 0 0.03984877482195575 0.26079884446496843 0 0.046433617409517902 0.2499875422502417 0 0.03984877482195575 0.26079884446496843 0 0.054019422472073343 0.25775006793076238 0 0.04121013817986606 0.2834322243999956 0 0.02519347560689731 0.26707194028967512 0 0.03984877482195575 0.26079884446496843 0 0.04121013817986606 0.2834322243999956 0 0.03984877482195575 0.26079884446496843 0 0.05234314634945042 0.27166461533397113 0 0.04121013817986606 0.2834322243999956 0 0.02519347560689731 0.26707194028967512 0 0.060948894683394393 0.28586725047473299 0 0.04121013817986606 0.2834322243999956 0 0.05234314634945042 0.27166461533397113 0 0.05234314634945042 0.27166461533397113 0 0.054019422472073343 0.25775006793076238 0 0.065688501589962603 0.27047468939939567 0 0.060948894683394393 0.28586725047473299 0 0.05234314634945042 0.27166461533397113 0 0.065688501589962603 0.27047468939939567 0 0.054019422472073343 0.25775006793076238 0 0.065901355208508441 0.25290893604919618 0 0.065688501589962603 0.27047468939939567 0 0.055910075532543277 0.2471648422222211 0 0.046433617409517902 0.2499875422502417 0 0.054019422472073343 0.25775006793076238 0 0.03984877482195575 0.26079884446496843 0 0.05234314634945042 0.27166461533397113 0 0.054019422472073343 0.25775006793076238 0 0.055910075532543277 0.2471648422222211 0 0.054019422472073343 0.25775006793076238 0 0.065901355208508441 0.25290893604919618 0 0.065901355208508441 0.25290893604919618 0 0.076112142639576524 0.25949545417108127 0 0.065688501589962603 0.27047468939939567 0 0.07501887658680044 0.2461307846639145 0 0.065901355208508441 0.25290893604919618 0 0.076112142639576524 0.25949545417108127 0 0.07501887658680044 0.2461307846639145 0 0.076112142639576524 0.25949545417108127 0 0.085315581801550397 0.25546548743293762 0 0.076112142639576524 0.25949545417108127 0 0.085315581801550397 0.25546548743293762 0 0.081399490438183786 0.26974700847525668 0 0.085315581801550397 0.25546548743293762 0 0.097019205202770714 0.25194050859221961 0 0.095817541263449046 0.26664129003149639 0 0.085315581801550397 0.25546548743293762 0 0.081399490438183786 0.26974700847525668 0 0.095817541263449046 0.26664129003149639 0 0.085456693173644974 0.24357472966300889 0 0.085315581801550397 0.25546548743293762 0 0.097019205202770714 0.25194050859221961 0 0.091602171281176259 0.28018265038217488 0 0.081399490438183786 0.26974700847525668 0 0.075322970142818815 0.28664586022838989 0 0.091602171281176259 0.28018265038217488 0 0.081399490438183786 0.26974700847525668 0 0.095817541263449046 0.26664129003149639 0 0.076112142639576524 0.25949545417108127 0 0.081399490438183786 0.26974700847525668 0 0.065688501589962603 0.27047468939939567 0 0.081399490438183786 0.26974700847525668 0 0.065688501589962603 0.27047468939939567 0 0.075322970142818815 0.28664586022838989 0 0.060948894683394393 0.28586725047473299 0 0.065688501589962603 0.27047468939939567 0 0.075322970142818815 0.28664586022838989 0 0.060948894683394393 0.28586725047473299 0 0.068018322689935531 0.29623373202311121 0 0.075322970142818815 0.28664586022838989 0 0.068018322689935531 0.29623373202311121 0 0.075322970142818815 0.28664586022838989 0 0.077458924484034658 0.30007969430861547 0 0.073243463325803962 0.31615279262063611 0 0.055479528897413068 0.30837686713679541 0 0.073243463325803962 0.31615279262063611 0 0.057226800752835039 0.29979250851031591 0 0.069134023386594731 0.30878334659350182 0 0.073243463325803962 0.31615279262063611 0 0.057226800752835039 0.29979250851031591 0 0.057226800752835039 0.29979250851031591 0 0.068018322689935531 0.29623373202311121 0 0.069134023386594731 0.30878334659350182 0 0.068018322689935531 0.29623373202311121 0 0.069134023386594731 0.30878334659350182 0 0.077458924484034658 0.30007969430861547 0 0.069134023386594731 0.30878334659350182 0 0.077458924484034658 0.30007969430861547 0 0.080306121791050178 0.30933932387957891 0 0.077458924484034658 0.30007969430861547 0 0.080306121791050178 0.30933932387957891 0 0.08790879551619199 0.30415504678266603 0 0.077458924484034658 0.30007969430861547 0 0.08790879551619199 0.30415504678266603 0 0.088737014997148644 0.29334214508734902 0 0.08790879551619199 0.30415504678266603 0 0.088737014997148644 0.29334214508734902 0 0.1023422263622969 0.29883707673279292 0 0.0913667412547986 0.31274724326836839 0 0.08790879551619199 0.30415504678266603 0 0.097511332399416922 0.30868264112902921 0 0.0913667412547986 0.31274724326836839 0 0.080306121791050178 0.30933932387957891 0 0.08790879551619199 0.30415504678266603 0 0.091602171281176259 0.28018265038217488 0 0.075322970142818815 0.28664586022838989 0 0.088737014997148644 0.29334214508734902 0 0.075322970142818815 0.28664586022838989 0 0.077458924484034658 0.30007969430861547 0 0.088737014997148644 0.29334214508734902 0 0.091602171281176259 0.28018265038217488 0 0.088737014997148644 0.29334214508734902 0 0.099694610579502893 0.28860223496699411 0 0.091602171281176259 0.28018265038217488 0 0.099694610579502893 0.28860223496699411 0 0.1086414002659544 0.27611736350356397 0 0.099694610579502893 0.28860223496699411 0 0.1149646299733413 0.29421853697994549 0 0.1086414002659544 0.27611736350356397 0 0.088737014997148644 0.29334214508734902 0 0.099694610579502893 0.28860223496699411 0 0.1023422263622969 0.29883707673279292 0 0.099694610579502893 0.28860223496699411 0 0.1023422263622969 0.29883707673279292 0 0.1149646299733413 0.29421853697994549 0 0.08790879551619199 0.30415504678266603 0 0.097511332399416922 0.30868264112902921 0 0.1023422263622969 0.29883707673279292 0 0.1023422263622969 0.29883707673279292 0 0.10811493739780011 0.30816169372554958 0 0.1149646299733413 0.29421853697994549 0 0.1013093562806469 0.3181598402912687 0 0.097511332399416922 0.30868264112902921 0 0.10811493739780011 0.30816169372554958 0 0.097511332399416922 0.30868264112902921 0 0.1023422263622969 0.29883707673279292 0 0.10811493739780011 0.30816169372554958 0 0.11957817909080611 0.31137601559009598 0 0.1149646299733413 0.29421853697994549 0 0.12624007682780411 0.30159911489333407 0 0.10811493739780011 0.30816169372554958 0 0.11957817909080611 0.31137601559009598 0 0.1149646299733413 0.29421853697994549 0 0.1149646299733413 0.29421853697994549 0 0.12393342798904169 0.27890109051860162 0 0.13316954319057189 0.28922822187662922 0 0.1149646299733413 0.29421853697994549 0 0.12393342798904169 0.27890109051860162 0 0.1086414002659544 0.27611736350356397 0 0.1149646299733413 0.29421853697994549 0 0.13316954319057189 0.28922822187662922 0 0.12624007682780411 0.30159911489333407 0 0.12393342798904169 0.27890109051860162 0 0.1086414002659544 0.27611736350356397 0 0.12561833346178761 0.26430309863514562 0 0.1298690356980956 0.24858105869450511 0 0.11270144933883711 0.25478878554246431 0 0.12561833346178761 0.26430309863514562 0 0.11270144933883711 0.25478878554246431 0 0.1086414002659544 0.27611736350356397 0 0.12561833346178761 0.26430309863514562 0 0.11270144933883711 0.25478878554246431 0 0.097019205202770714 0.25194050859221961 0 0.095817541263449046 0.26664129003149639 0 0.11270144933883711 0.25478878554246431 0 0.1086414002659544 0.27611736350356397 0 0.095817541263449046 0.26664129003149639 0 0.091602171281176259 0.28018265038217488 0 0.1086414002659544 0.27611736350356397 0 0.095817541263449046 0.26664129003149639 0 0.13973869494354091 0.2747835285844773 0 0.1507171187926597 0.28661205667340162 0 0.16066852175963839 0.26969770017078659 0 0.14572629295871151 0.25842166267974442 0 0.13973869494354091 0.2747835285844773 0 0.16066852175963839 0.26969770017078659 0 0.14519453423741679 0.24213304984218281 0 0.14572629295871151 0.25842166267974442 0 0.16663760286173701 0.25284005411217658 0 0.1298690356980956 0.24858105869450511 0 0.14572629295871151 0.25842166267974442 0 0.12561833346178761 0.26430309863514562 0 0.12393342798904169 0.27890109051860162 0 0.12561833346178761 0.26430309863514562 0 0.13973869494354091 0.2747835285844773 0 0.14572629295871151 0.25842166267974442 0 0.12561833346178761 0.26430309863514562 0 0.13973869494354091 0.2747835285844773 0 0.12393342798904169 0.27890109051860162 0 0.13973869494354091 0.2747835285844773 0 0.13316954319057189 0.28922822187662922 0 0.13316954319057189 0.28922822187662922 0 0.12624007682780411 0.30159911489333407 0 0.14261146414278411 0.29799687354024801 0 0.12624007682780411 0.30159911489333407 0 0.13511760357610919 0.31109514039751668 0 0.14261146414278411 0.29799687354024801 0 0.11957817909080611 0.31137601559009598 0 0.12624007682780411 0.30159911489333407 0 0.13511760357610919 0.31109514039751668 0 0.14261146414278411 0.29799687354024801 0 0.14982588999207319 0.30911860775774003 0 0.15848955712123519 0.29879588889515069 0 0.13511760357610919 0.31109514039751668 0 0.14261146414278411 0.29799687354024801 0 0.14982588999207319 0.30911860775774003 0 0.13973869494354091 0.2747835285844773 0 0.13316954319057189 0.28922822187662922 0 0.1507171187926597 0.28661205667340162 0 0.14261146414278411 0.29799687354024801 0 0.1507171187926597 0.28661205667340162 0 0.15848955712123519 0.29879588889515069 0 0.13316954319057189 0.28922822187662922 0 0.14261146414278411 0.29799687354024801 0 0.1507171187926597 0.28661205667340162 0 0.1507171187926597 0.28661205667340162 0 0.16767650005996321 0.28615061480567661 0 0.15848955712123519 0.29879588889515069 0 0.16767650005996321 0.28615061480567661 0 0.15848955712123519 0.29879588889515069 0 0.17377141120902939 0.30095338616056849 0 0.14982588999207319 0.30911860775774003 0 0.15848955712123519 0.29879588889515069 0 0.16407184766686519 0.31279179940386342 0 0.15848955712123519 0.29879588889515069 0 0.17377141120902939 0.30095338616056849 0 0.16407184766686519 0.31279179940386342 0 0.17377141120902939 0.30095338616056849 0 0.18567527771381251 0.28828729381741641 0 0.188224371936386 0.30458262882042741 0 0.17377141120902939 0.30095338616056849 0 0.1795913444470898 0.31579800186788293 0 0.16407184766686519 0.31279179940386342 0 0.17377141120902939 0.30095338616056849 0 0.188224371936386 0.30458262882042741 0 0.1795913444470898 0.31579800186788293 0 0.16767650005996321 0.28615061480567661 0 0.17377141120902939 0.30095338616056849 0 0.18567527771381251 0.28828729381741641 0 0.16767650005996321 0.28615061480567661 0 0.18567527771381251 0.28828729381741641 0 0.18744359493937229 0.26737830493264592 0 0.16767650005996321 0.28615061480567661 0 0.18744359493937229 0.26737830493264592 0 0.16066852175963839 0.26969770017078659 0 0.1507171187926597 0.28661205667340162 0 0.16767650005996321 0.28615061480567661 0 0.16066852175963839 0.26969770017078659 0 0.18744359493937229 0.26737830493264592 0 0.16066852175963839 0.26969770017078659 0 0.16663760286173701 0.25284005411217658 0 0.14572629295871151 0.25842166267974442 0 0.16066852175963839 0.26969770017078659 0 0.16663760286173701 0.25284005411217658 0 0.18744359493937229 0.26737830493264592 0 0.16663760286173701 0.25284005411217658 0 0.18726374077130289 0.24705293046527729 0 0.18744359493937229 0.26737830493264592 0 0.16663760286173701 0.25284005411217658 0 0.18726374077130289 0.24705293046527729 0 0.20650902242305039 0.2496889122110886 0 0.18744359493937229 0.26737830493264592 0 0.20650902242305039 0.2496889122110886 0 0.18744359493937229 0.26737830493264592 0 0.2132281362929988 0.26582717333328892 0 0.18744359493937229 0.26737830493264592 0 0.2132281362929988 0.26582717333328892 0 0.20824958701700749 0.28191655575311508 0 0.18567527771381251 0.28828729381741641 0 0.18744359493937229 0.26737830493264592 0 0.20824958701700749 0.28191655575311508 0 0.18744359493937229 0.26737830493264592 0 0.20824958701700749 0.28191655575311508 0 0.2132281362929988 0.26582717333328892 0 0.22431759021389119 0.28056747697004392 0 0.20824958701700749 0.28191655575311508 0 0.20650902242305039 0.2496889122110886 0 0.22551853681199499 0.2481204274969705 0 0.2132281362929988 0.26582717333328892 0 0.22551853681199499 0.2481204274969705 0 0.2132281362929988 0.26582717333328892 0 0.22733048635267639 0.2672913626358695 0 0.22551853681199499 0.2481204274969705 0 0.22733048635267639 0.2672913626358695 0 0.23894811708962671 0.25180138304625138 0 0.2132281362929988 0.26582717333328892 0 0.22431759021389119 0.28056747697004392 0 0.22733048635267639 0.2672913626358695 0 0.22431759021389119 0.28056747697004392 0 0.22733048635267639 0.2672913626358695 0 0.2394353649015917 0.27806197861527482 0 0.22733048635267639 0.2672913626358695 0 0.2394353649015917 0.27806197861527482 0 0.2478684860990237 0.26136859478244229 0 0.22733048635267639 0.2672913626358695 0 0.2478684860990237 0.26136859478244229 0 0.23894811708962671 0.25180138304625138 0 0.22733048635267639 0.2672913626358695 0 0.2478684860990237 0.26136859478244229 0 0.2478684860990237 0.26136859478244229 0 0.23894811708962671 0.25180138304625138 0 0.25290276725482519 0.2481868517737941 0 0.2394353649015917 0.27806197861527482 0 0.24385760465851469 0.303820390832095 0 0.26207383957601399 0.2919439290450771 0 0.2394353649015917 0.27806197861527482 0 0.24385760465851469 0.303820390832095 0 0.2290555790946428 0.29645480657358447 0 0.22431759021389119 0.28056747697004392 0 0.2394353649015917 0.27806197861527482 0 0.2290555790946428 0.29645480657358447 0 0.22431759021389119 0.28056747697004392 0 0.2290555790946428 0.29645480657358447 0 0.20824958701700749 0.28191655575311508 0 0.24385760465851469 0.303820390832095 0 0.2290555790946428 0.29645480657358447 0 0.22267996826169831 0.30956505621022667 0 0.24385760465851469 0.303820390832095 0 0.22267996826169831 0.30956505621022667 0 0.23102821448650129 0.32227448561481509 0 0.2290555790946428 0.29645480657358447 0 0.22267996826169831 0.30956505621022667 0 0.20744812128297499 0.3004367745992591 0 0.22267996826169831 0.30956505621022667 0 0.20744812128297499 0.3004367745992591 0 0.21122715836656511 0.31858504537508647 0 0.20744812128297499 0.3004367745992591 0 0.19555558764250189 0.31825390988331059 0 0.21122715836656511 0.31858504537508647 0 0.2290555790946428 0.29645480657358447 0 0.20824958701700749 0.28191655575311508 0 0.2290555790946428 0.29645480657358447 0 0.20744812128297499 0.3004367745992591 0 0.20824958701700749 0.28191655575311508 0 0.18567527771381251 0.28828729381741641 0 0.20744812128297499 0.3004367745992591 0 0.20824958701700749 0.28191655575311508 0 0.20744812128297499 0.3004367745992591 0 0.188224371936386 0.30458262882042741 0 0.19555558764250189 0.31825390988331059 0 0.18567527771381251 0.28828729381741641 0 0.20744812128297499 0.3004367745992591 0 0.188224371936386 0.30458262882042741 0 0.188224371936386 0.30458262882042741 0 0.19555558764250189 0.31825390988331059 0 0.1795913444470898 0.31579800186788293 0 0.20477366405786609 0.33918768248590658 0 0.18587118817098169 0.34872324892048617 0 0.18512687501097619 0.33060873895107901 0 0.19555558764250189 0.31825390988331059 0 0.20477366405786609 0.33918768248590658 0 0.18512687501097619 0.33060873895107901 0 0.20477366405786609 0.33918768248590658 0 0.21122715836656511 0.31858504537508647 0 0.21888464460837129 0.33029787459160298 0 0.20477366405786609 0.33918768248590658 0 0.21888464460837129 0.33029787459160298 0 0.2285095415225529 0.34114428489060389 0 0.19555558764250189 0.31825390988331059 0 0.20477366405786609 0.33918768248590658 0 0.21122715836656511 0.31858504537508647 0 0.21122715836656511 0.31858504537508647 0 0.23102821448650129 0.32227448561481509 0 0.21888464460837129 0.33029787459160298 0 0.22267996826169831 0.30956505621022667 0 0.21122715836656511 0.31858504537508647 0 0.23102821448650129 0.32227448561481509 0 0.23102821448650129 0.32227448561481509 0 0.21888464460837129 0.33029787459160298 0 0.2285095415225529 0.34114428489060389 0 0.23102821448650129 0.32227448561481509 0 0.2285095415225529 0.34114428489060389 0 0.24366400409682079 0.33199732681401112 0 0.2285095415225529 0.34114428489060389 0 0.24366400409682079 0.33199732681401112 0 0.25165697119548591 0.34550301975884162 0 0.23102821448650129 0.32227448561481509 0 0.24366400409682079 0.33199732681401112 0 0.2486658817553645 0.3201567188036451 0 0.24366400409682079 0.33199732681401112 0 0.2486658817553645 0.3201567188036451 0 0.25742233416702681 0.33043320410609128 0 0.24385760465851469 0.303820390832095 0 0.23102821448650129 0.32227448561481509 0 0.2486658817553645 0.3201567188036451 0 0.23557136066007731 0.36096235184213282 0 0.24324654570146659 0.38423872527165748 0 0.25186993051563261 0.36031611818070619 0 0.2285095415225529 0.34114428489060389 0 0.23557136066007731 0.36096235184213282 0 0.25165697119548591 0.34550301975884162 0 0.23557136066007731 0.36096235184213282 0 0.25165697119548591 0.34550301975884162 0 0.25186993051563261 0.36031611818070619 0 0.2285095415225529 0.34114428489060389 0 0.23557136066007731 0.36096235184213282 0 0.21873963447434669 0.35696206183115181 0 0.23557136066007731 0.36096235184213282 0 0.21873963447434669 0.35696206183115181 0 0.21911656363756049 0.37723787117825941 0 0.23557136066007731 0.36096235184213282 0 0.21911656363756049 0.37723787117825941 0 0.24324654570146659 0.38423872527165748 0 0.20162125850782059 0.36099231734893622 0 0.20197885294393211 0.37742832682828042 0 0.21911656363756049 0.37723787117825941 0 0.21873963447434669 0.35696206183115181 0 0.20162125850782059 0.36099231734893622 0 0.21911656363756049 0.37723787117825941 0 0.20477366405786609 0.33918768248590658 0 0.21873963447434669 0.35696206183115181 0 0.20162125850782059 0.36099231734893622 0 0.20477366405786609 0.33918768248590658 0 0.2285095415225529 0.34114428489060389 0 0.21873963447434669 0.35696206183115181 0 0.20477366405786609 0.33918768248590658 0 0.20162125850782059 0.36099231734893622 0 0.18587118817098169 0.34872324892048617 0 0.20162125850782059 0.36099231734893622 0 0.18392315909704579 0.36609631689320482 0 0.18587118817098169 0.34872324892048617 0 0.20162125850782059 0.36099231734893622 0 0.18392315909704579 0.36609631689320482 0 0.20197885294393211 0.37742832682828042 0 0.18392315909704579 0.36609631689320482 0 0.16846627856766591 0.36873591009648798 0 0.17654070686725071 0.38622606959717032 0 0.18392315909704579 0.36609631689320482 0 0.16846627856766591 0.36873591009648798 0 0.17076393186902089 0.35439429506008568 0 0.16846627856766591 0.36873591009648798 0 0.15677392285304459 0.3587712624057447 0 0.1543296721519673 0.37819160652623429 0 0.16846627856766591 0.36873591009648798 0 0.15677392285304459 0.3587712624057447 0 0.17076393186902089 0.35439429506008568 0 0.1610182702111958 0.34461184520374721 0 0.15677392285304459 0.3587712624057447 0 0.17076393186902089 0.35439429506008568 0 0.1610182702111958 0.34461184520374721 0 0.17076393186902089 0.35439429506008568 0 0.17600088705341241 0.34029359957692362 0 0.18392315909704579 0.36609631689320482 0 0.17076393186902089 0.35439429506008568 0 0.18587118817098169 0.34872324892048617 0 0.17076393186902089 0.35439429506008568 0 0.18587118817098169 0.34872324892048617 0 0.17600088705341241 0.34029359957692362 0 0.18512687501097619 0.33060873895107901 0 0.17600088705341241 0.34029359957692362 0 0.1666582691592923 0.33173773363551029 0 0.18587118817098169 0.34872324892048617 0 0.18512687501097619 0.33060873895107901 0 0.17600088705341241 0.34029359957692362 0 0.19555558764250189 0.31825390988331059 0 0.18512687501097619 0.33060873895107901 0 0.1795913444470898 0.31579800186788293 0 0.18512687501097619 0.33060873895107901 0 0.1795913444470898 0.31579800186788293 0 0.1666582691592923 0.33173773363551029 0 0.1795913444470898 0.31579800186788293 0 0.16407184766686519 0.31279179940386342 0 0.1666582691592923 0.33173773363551029 0 0.16407184766686519 0.31279179940386342 0 0.1666582691592923 0.33173773363551029 0 0.15452948833670641 0.32289263871779511 0 0.1666582691592923 0.33173773363551029 0 0.1499268614522595 0.33484234231309129 0 0.15452948833670641 0.32289263871779511 0 0.1610182702111958 0.34461184520374721 0 0.1666582691592923 0.33173773363551029 0 0.1499268614522595 0.33484234231309129 0 0.1610182702111958 0.34461184520374721 0 0.17600088705341241 0.34029359957692362 0 0.1666582691592923 0.33173773363551029 0 0.1610182702111958 0.34461184520374721 0 0.1499268614522595 0.33484234231309129 0 0.14710691462962641 0.34724019504468168 0 0.1499268614522595 0.33484234231309129 0 0.1406589787653228 0.32967874682022819 0 0.15452948833670641 0.32289263871779511 0 0.1499268614522595 0.33484234231309129 0 0.1406589787653228 0.32967874682022819 0 0.1412004907296083 0.33805092137208698 0 0.1499268614522595 0.33484234231309129 0 0.1412004907296083 0.33805092137208698 0 0.14710691462962641 0.34724019504468168 0 0.1412004907296083 0.33805092137208698 0 0.1360997898927199 0.34494720106629378 0 0.14710691462962641 0.34724019504468168 0 0.14982588999207319 0.30911860775774003 0 0.15452948833670641 0.32289263871779511 0 0.14361174331487481 0.31787957860409749 0 0.14982588999207319 0.30911860775774003 0 0.16407184766686519 0.31279179940386342 0 0.15452948833670641 0.32289263871779511 0 0.1406589787653228 0.32967874682022819 0 0.15452948833670641 0.32289263871779511 0 0.14361174331487481 0.31787957860409749 0 0.13511760357610919 0.31109514039751668 0 0.14982588999207319 0.30911860775774003 0 0.14361174331487481 0.31787957860409749 0 0.13511760357610919 0.31109514039751668 0 0.14361174331487481 0.31787957860409749 0 0.13512188775112191 0.32330702654266957 0 0.1406589787653228 0.32967874682022819 0 0.14361174331487481 0.31787957860409749 0 0.13512188775112191 0.32330702654266957 0 0.13512188775112191 0.32330702654266957 0 0.12732952779803089 0.31953946494490248 0 0.12725778129632401 0.32815459954034493 0 0.13511760357610919 0.31109514039751668 0 0.13512188775112191 0.32330702654266957 0 0.12732952779803089 0.31953946494490248 0 0.11957817909080611 0.31137601559009598 0 0.13511760357610919 0.31109514039751668 0 0.12732952779803089 0.31953946494490248 0 0.1412004907296083 0.33805092137208698 0 0.13359715022858859 0.33440038230474589 0 0.1360997898927199 0.34494720106629378 0 0.13359715022858859 0.33440038230474589 0 0.1291500172844384 0.34197683697930459 0 0.1360997898927199 0.34494720106629378 0 0.1406589787653228 0.32967874682022819 0 0.13512188775112191 0.32330702654266957 0 0.13359715022858859 0.33440038230474589 0 0.1406589787653228 0.32967874682022819 0 0.1412004907296083 0.33805092137208698 0 0.13359715022858859 0.33440038230474589 0 0.13512188775112191 0.32330702654266957 0 0.13359715022858859 0.33440038230474589 0 0.12725778129632401 0.32815459954034493 0 0.13359715022858859 0.33440038230474589 0 0.12725778129632401 0.32815459954034493 0 0.12573830723432791 0.33665547115015482 0 0.13359715022858859 0.33440038230474589 0 0.12573830723432791 0.33665547115015482 0 0.1291500172844384 0.34197683697930459 0 0.1241397888139332 0.34454023530101169 0 0.12573830723432791 0.33665547115015482 0 0.1291500172844384 0.34197683697930459 0 0.1241397888139332 0.34454023530101169 0 0.1291500172844384 0.34197683697930459 0 0.12539794690097469 0.34857968029905628 0 0.1291500172844384 0.34197683697930459 0 0.12539794690097469 0.34857968029905628 0 0.1360997898927199 0.34494720106629378 0 0.12539794690097469 0.34857968029905628 0 0.13211863743668439 0.37015714345529699 0 0.12539794690097469 0.34857968029905628 0 0.13211863743668439 0.37015714345529699 0 0.14066173203318791 0.35937598899544942 0 0.12539794690097469 0.34857968029905628 0 0.1360997898927199 0.34494720106629378 0 0.14066173203318791 0.35937598899544942 0 0.12539794690097469 0.34857968029905628 0 0.14066173203318791 0.35937598899544942 0 0.15677392285304459 0.3587712624057447 0 0.14066173203318791 0.35937598899544942 0 0.1543296721519673 0.37819160652623429 0 0.13211863743668439 0.37015714345529699 0 0.1543296721519673 0.37819160652623429 0 0.13211863743668439 0.37015714345529699 0 0.14066173203318791 0.35937598899544942 0 0.1543296721519673 0.37819160652623429 0 0.15677392285304459 0.3587712624057447 0 0.14066173203318791 0.35937598899544942 0 0.14710691462962641 0.34724019504468168 0 0.1610182702111958 0.34461184520374721 0 0.15677392285304459 0.3587712624057447 0 0.14710691462962641 0.34724019504468168 0 0.1360997898927199 0.34494720106629378 0 0.14066173203318791 0.35937598899544942 0 0.14710691462962641 0.34724019504468168 0 0.1543296721519673 0.37819160652623429 0 0.13946042212913329 0.39372869281626538 0 0.1601455005717492 0.40143274841487331 0 0.13946042212913329 0.39372869281626538 0 0.14680220682157991 0.4173002421772346 0 0.1601455005717492 0.40143274841487331 0 0.13946042212913329 0.39372869281626538 0 0.14680220682157991 0.4173002421772346 0 0.13211863743668439 0.37015714345529699 0 0.1543296721519673 0.37819160652623429 0 0.13946042212913329 0.39372869281626538 0 0.13211863743668439 0.37015714345529699 0 0.13946042212913329 0.39372869281626538 0 0.1108070828565771 0.38821811579882098 0 0.13211863743668439 0.37015714345529699 0 0.13946042212913329 0.39372869281626538 0 0.1108070828565771 0.38821811579882098 0 0.13946042212913329 0.39372869281626538 0 0.127073759266744 0.40819955746143488 0 0.127073759266744 0.40819955746143488 0 0.1289984842291739 0.42562078226614458 0 0.14680220682157991 0.4173002421772346 0 0.13946042212913329 0.39372869281626538 0 0.127073759266744 0.40819955746143488 0 0.14680220682157991 0.4173002421772346 0 0.1289984842291739 0.42562078226614458 0 0.14812010521420521 0.43015592685296111 0 0.13445826137105141 0.43771426408990449 0 0.1289984842291739 0.42562078226614458 0 0.14812010521420521 0.43015592685296111 0 0.14680220682157991 0.4173002421772346 0 0.14812010521420521 0.43015592685296111 0 0.15264200286310661 0.44146902054825848 0 0.13445826137105141 0.43771426408990449 0 0.14812010521420521 0.43015592685296111 0 0.14680220682157991 0.4173002421772346 0 0.15414399151402461 0.44087179153820449 0 0.14680220682157991 0.4173002421772346 0 0.15414399151402461 0.44087179153820449 0 0.14680220682157991 0.4173002421772346 0 0.1641383971341058 0.4247008201503667 0 0.15414399151402461 0.44087179153820449 0 0.14812010521420521 0.43015592685296111 0 0.15414399151402461 0.44087179153820449 0 0.15264200286310661 0.44146902054825848 0 0.14812010521420521 0.43015592685296111 0 0.15264200286310661 0.44146902054825848 0 0.14680220682157991 0.4173002421772346 0 0.1641383971341058 0.4247008201503667 0 0.1601455005717492 0.40143274841487331 0 0.1641383971341058 0.4247008201503667 0 0.1797590520204887 0.41036930584003928 0 0.1601455005717492 0.40143274841487331 0 0.1641383971341058 0.4247008201503667 0 0.16387037512001151 0.43877450460261019 0 0.15414399151402461 0.44087179153820449 0 0.1641383971341058 0.4247008201503667 0 0.17899771854558921 0.43629877756013419 0 0.16387037512001151 0.43877450460261019 0 0.1641383971341058 0.4247008201503667 0 0.17899771854558921 0.43629877756013419 0 0.1797590520204887 0.41036930584003928 0 0.17899771854558921 0.43629877756013419 0 0.1797590520204887 0.41036930584003928 0 0.19998024742170339 0.41929688664958481 0 0.1797590520204887 0.41036930584003928 0 0.17654070686725071 0.38622606959717032 0 0.19875174158253411 0.39426053266810618 0 0.1797590520204887 0.41036930584003928 0 0.1601455005717492 0.40143274841487331 0 0.17654070686725071 0.38622606959717032 0 0.1543296721519673 0.37819160652623429 0 0.17654070686725071 0.38622606959717032 0 0.16846627856766591 0.36873591009648798 0 0.1543296721519673 0.37819160652623429 0 0.17654070686725071 0.38622606959717032 0 0.1543296721519673 0.37819160652623429 0 0.1601455005717492 0.40143274841487331 0 0.17654070686725071 0.38622606959717032 0 0.18392315909704579 0.36609631689320482 0 0.17654070686725071 0.38622606959717032 0 0.20197885294393211 0.37742832682828042 0 0.17654070686725071 0.38622606959717032 0 0.20197885294393211 0.37742832682828042 0 0.19875174158253411 0.39426053266810618 0 0.17654070686725071 0.38622606959717032 0 0.19875174158253411 0.39426053266810618 0 0.19875174158253411 0.39426053266810618 0 0.2209627762978191 0.40229499573903738 0 0.19998024742170339 0.41929688664958481 0 0.19875174158253411 0.39426053266810618 0 0.21020248361546101 0.38780543160342201 0 0.2209627762978191 0.40229499573903738 0 0.19875174158253411 0.39426053266810618 0 0.2209627762978191 0.40229499573903738 0 0.20197885294393211 0.37742832682828042 0 0.21020248361546101 0.38780543160342201 0 0.21911656363756049 0.37723787117825941 0 0.21020248361546101 0.38780543160342201 0 0.21911656363756049 0.37723787117825941 0 0.2209627762978191 0.40229499573903738 0 0.20197885294393211 0.37742832682828042 0 0.19875174158253411 0.39426053266810618 0 0.21020248361546101 0.38780543160342201 0 0.21911656363756049 0.37723787117825941 0 0.2209627762978191 0.40229499573903738 0 0.24324654570146659 0.38423872527165748 0 0.2209627762978191 0.40229499573903738 0 0.23804186722729079 0.406067327846932 0 0.23719548976767399 0.4081669030403664 0 0.2209627762978191 0.40229499573903738 0 0.24035997114557639 0.39648297155868162 0 0.23804186722729079 0.406067327846932 0 0.2209627762978191 0.40229499573903738 0 0.23719548976767399 0.4081669030403664 0 0.2209627762978191 0.40229499573903738 0 0.24324654570146659 0.38423872527165748 0 0.2209627762978191 0.40229499573903738 0 0.24035997114557639 0.39648297155868162 0 0.24324654570146659 0.38423872527165748 0 0.24035997114557639 0.39648297155868162 0 0.23804186722729079 0.406067327846932 0 0.2447940757432876 0.40146909299304401 0 0.23804186722729079 0.406067327846932 0 0.2447940757432876 0.40146909299304401 0 0.2432801479776075 0.4063910191337145 0 0.2447940757432876 0.40146909299304401 0 0.24939668947534421 0.40407549838680878 0 0.25321491490464249 0.39441229722592841 0 0.2447940757432876 0.40146909299304401 0 0.24939668947534421 0.40407549838680878 0 0.2432801479776075 0.4063910191337145 0 0.24035997114557639 0.39648297155868162 0 0.24324654570146659 0.38423872527165748 0 0.25321491490464249 0.39441229722592841 0 0.24035997114557639 0.39648297155868162 0 0.2447940757432876 0.40146909299304401 0 0.25321491490464249 0.39441229722592841 0 0.24287205238769599 0.437473300296779 0 0.24488015416100001 0.42501556368502441 0 0.22808646789436471 0.43076329445414119 0 0.24287205238769599 0.437473300296779 0 0.24488015416100001 0.42501556368502441 0 0.2538501172278097 0.43596437575760932 0 0.24488015416100001 0.42501556368502441 0 0.23719548976767399 0.4081669030403664 0 0.22808646789436471 0.43076329445414119 0 0.24488015416100001 0.42501556368502441 0 0.23719548976767399 0.4081669030403664 0 0.25156481396968622 0.41336476104812248 0 0.24939668947534421 0.40407549838680878 0 0.2432801479776075 0.4063910191337145 0 0.25156481396968622 0.41336476104812248 0 0.23719548976767399 0.4081669030403664 0 0.25156481396968622 0.41336476104812248 0 0.2432801479776075 0.4063910191337145 0 0.23719548976767399 0.4081669030403664 0 0.25156481396968622 0.41336476104812248 0 0.23804186722729079 0.406067327846932 0 0.2432801479776075 0.4063910191337145 0 0.23719548976767399 0.4081669030403664 0 0.23804186722729079 0.406067327846932 0 0.23719548976767399 0.4081669030403664 0 0.23719548976767399 0.4081669030403664 0 0.22808646789436471 0.43076329445414119 0 0.2209627762978191 0.40229499573903738 0 0.23719548976767399 0.4081669030403664 0 0.2180257614575247 0.41906767741274809 0 0.23719548976767399 0.4081669030403664 0 0.22808646789436471 0.43076329445414119 0 0.2180257614575247 0.41906767741274809 0 0.22808646789436471 0.43076329445414119 0 0.2180257614575247 0.41906767741274809 0 0.21025318967361889 0.43760656222152089 0 0.2180257614575247 0.41906767741274809 0 0.19998024742170339 0.41929688664958481 0 0.21025318967361889 0.43760656222152089 0 0.2209627762978191 0.40229499573903738 0 0.2180257614575247 0.41906767741274809 0 0.19998024742170339 0.41929688664958481 0 0.2209627762978191 0.40229499573903738 0 0.19998024742170339 0.41929688664958481 0 0.1797590520204887 0.41036930584003928 0 0.19875174158253411 0.39426053266810618 0 0.19998024742170339 0.41929688664958481 0 0.17899771854558921 0.43629877756013419 0 0.19998024742170339 0.41929688664958481 0 0.17899771854558921 0.43629877756013419 0 0.19998024742170339 0.41929688664958481 0 0.19283390241633711 0.44624505655466717 0 0.19998024742170339 0.41929688664958481 0 0.19283390241633711 0.44624505655466717 0 0.21025318967361889 0.43760656222152089 0 0.19283390241633711 0.44624505655466717 0 0.20493809694895659 0.45748807552358622 0 0.21025318967361889 0.43760656222152089 0 0.19283390241633711 0.44624505655466717 0 0.1963136769695468 0.47324559110750058 0 0.1838167488387065 0.45972920259426059 0 0.19283390241633711 0.44624505655466717 0 0.20493809694895659 0.45748807552358622 0 0.1963136769695468 0.47324559110750058 0 0.19283390241633711 0.44624505655466717 0 0.1963136769695468 0.47324559110750058 0 0.21897744602106761 0.45335968586792103 0 0.20986842414776941 0.47595607728170009 0 0.20493809694895659 0.45748807552358622 0 0.21897744602106761 0.45335968586792103 0 0.20986842414776941 0.47595607728170009 0 0.21897744602106761 0.45335968586792103 0 0.2273017989570813 0.46616194912319381 0 0.20986842414776941 0.47595607728170009 0 0.20493809694895659 0.45748807552358622 0 0.21025318967361889 0.43760656222152089 0 0.21897744602106761 0.45335968586792103 0 0.22808646789436471 0.43076329445414119 0 0.21897744602106761 0.45335968586792103 0 0.22808646789436471 0.43076329445414119 0 0.21025318967361889 0.43760656222152089 0 0.21897744602106761 0.45335968586792103 0 0.22808646789436471 0.43076329445414119 0 0.21897744602106761 0.45335968586792103 0 0.23502893371512051 0.4507862195941974 0 0.21897744602106761 0.45335968586792103 0 0.2273017989570813 0.46616194912319381 0 0.23502893371512051 0.4507862195941974 0 0.2412350910442454 0.47044628630382068 0 0.25369270094023988 0.44427740281559719 0 0.25331123825343987 0.46442213933527687 0 0.23502893371512051 0.4507862195941974 0 0.2412350910442454 0.47044628630382068 0 0.25369270094023988 0.44427740281559719 0 0.2273017989570813 0.46616194912319381 0 0.23502893371512051 0.4507862195941974 0 0.2412350910442454 0.47044628630382068 0 0.2412350910442454 0.47044628630382068 0 0.25369270094023988 0.44427740281559719 0 0.24287205238769599 0.437473300296779 0 0.23502893371512051 0.4507862195941974 0 0.25369270094023988 0.44427740281559719 0 0.24287205238769599 0.437473300296779 0 0.22808646789436471 0.43076329445414119 0 0.23502893371512051 0.4507862195941974 0 0.2408432779825434 0.49120708810582181 0 0.22640670407706609 0.5 0 0.25263753242926462 0.50000000000000067 0 0.2408432779825434 0.49120708810582181 0 0.23139909985720369 0.48026147656833001 0 0.25292977556663859 0.48456687585495672 0 0.2408432779825434 0.49120708810582181 0 0.25292977556663859 0.48456687585495672 0 0.25263753242926462 0.50000000000000067 0 0.23139909985720369 0.48026147656833001 0 0.25292977556663859 0.48456687585495672 0 0.2412350910442454 0.47044628630382068 0 0.25292977556663859 0.48456687585495672 0 0.25331123825343987 0.46442213933527687 0 0.2412350910442454 0.47044628630382068 0 0.23139909985720369 0.48026147656833001 0 0.25292977556663859 0.48456687585495672 0 0.23139909985720369 0.48026147656833001 0 0.20986842414776941 0.47595607728170009 0 0.2273017989570813 0.46616194912319381 0 0.23139909985720369 0.48026147656833001 0 0.20986842414776941 0.47595607728170009 0 0.2273017989570813 0.46616194912319381 0 0.2412350910442454 0.47044628630382068 0 0.23139909985720369 0.48026147656833001 0 0.23139909985720369 0.48026147656833001 0 0.22640670407706609 0.5 0 0.20986842414776941 0.47595607728170009 0 0.2408432779825434 0.49120708810582181 0 0.23139909985720369 0.48026147656833001 0 0.22640670407706609 0.5 0 0.22640670407706609 0.5 0 0.20986842414776941 0.47595607728170009 0 0.19976173134299441 0.50000000000000266 0 0.20986842414776941 0.47595607728170009 0 0.19976173134299441 0.50000000000000266 0 0.20493809694895659 0.45748807552358622 0 0.20986842414776941 0.47595607728170009 0 0.1963136769695468 0.47324559110750058 0 0.20986842414776941 0.47595607728170009 0 0.1963136769695468 0.47324559110750058 0 0.19976173134299441 0.50000000000000266 0 0.1963136769695468 0.47324559110750058 0 0.17948325326871711 0.46988008158178418 0 0.20986842414776941 0.47595607728170009 0 0.1963136769695468 0.47324559110750058 0 0.1963136769695468 0.47324559110750058 0 0.19976173134299441 0.50000000000000266 0 0.18418814984607251 0.48527659174346383 0 0.1963136769695468 0.47324559110750058 0 0.19976173134299441 0.50000000000000266 0 0.17603711524343971 0.49999999999999961 0 0.18418814984607251 0.48527659174346383 0 0.16934497240566429 0.48325728602803208 0 0.17603711524343971 0.49999999999999961 0 0.16934497240566429 0.48325728602803208 0 0.19976173134299441 0.50000000000000266 0 0.17603711524343971 0.49999999999999961 0 0.18418814984607251 0.48527659174346383 0 0.16934497240566429 0.48325728602803208 0 0.1517955430231154 0.5 0 0.14924526697586701 0.479967001738971 0 0.17603711524343971 0.49999999999999961 0 0.16934497240566429 0.48325728602803208 0 0.1517955430231154 0.5 0 0.16934497240566429 0.48325728602803208 0 0.17948325326871711 0.46988008158178418 0 0.16265282956788801 0.46651457205606511 0 0.16934497240566429 0.48325728602803208 0 0.16265282956788801 0.46651457205606511 0 0.16934497240566429 0.48325728602803208 0 0.16265282956788801 0.46651457205606511 0 0.14924526697586701 0.479967001738971 0 0.1963136769695468 0.47324559110750058 0 0.18418814984607251 0.48527659174346383 0 0.17948325326871711 0.46988008158178418 0 0.18418814984607251 0.48527659174346383 0 0.16934497240566429 0.48325728602803208 0 0.17948325326871711 0.46988008158178418 0 0.1963136769695468 0.47324559110750058 0 0.17948325326871711 0.46988008158178418 0 0.1838167488387065 0.45972920259426059 0 0.1838167488387065 0.45972920259426059 0 0.1751970717815487 0.45183934736712539 0 0.16969085091397129 0.46027136857785522 0 0.17948325326871711 0.46988008158178418 0 0.1838167488387065 0.45972920259426059 0 0.16969085091397129 0.46027136857785522 0 0.17899771854558921 0.43629877756013419 0 0.19283390241633711 0.44624505655466717 0 0.1751970717815487 0.45183934736712539 0 0.19283390241633711 0.44624505655466717 0 0.1838167488387065 0.45972920259426059 0 0.1751970717815487 0.45183934736712539 0 0.17899771854558921 0.43629877756013419 0 0.1575287237444378 0.45369484596177578 0 0.17899771854558921 0.43629877756013419 0 0.16387037512001151 0.43877450460261019 0 0.1575287237444378 0.45369484596177578 0 0.17899771854558921 0.43629877756013419 0 0.1751970717815487 0.45183934736712539 0 0.1575287237444378 0.45369484596177578 0 0.16387037512001151 0.43877450460261019 0 0.1575287237444378 0.45369484596177578 0 0.15414399151402461 0.44087179153820449 0 0.17948325326871711 0.46988008158178418 0 0.16265282956788801 0.46651457205606511 0 0.16028852689925441 0.46059944975761918 0 0.16265282956788801 0.46651457205606511 0 0.1458533605459584 0.46315525240818861 0 0.1751970717815487 0.45183934736712539 0 0.16969085091397129 0.46027136857785522 0 0.1575287237444378 0.45369484596177578 0 0.17948325326871711 0.46988008158178418 0 0.16969085091397129 0.46027136857785522 0 0.16265282956788801 0.46651457205606511 0 0.16969085091397129 0.46027136857785522 0 0.16028852689925441 0.46059944975761918 0 0.16265282956788801 0.46651457205606511 0 0.16969085091397129 0.46027136857785522 0 0.16028852689925441 0.46059944975761918 0 0.1575287237444378 0.45369484596177578 0 0.16028852689925441 0.46059944975761918 0 0.1575287237444378 0.45369484596177578 0 0.16028852689925441 0.46059944975761918 0 0.16265282956788801 0.46651457205606511 0 0.16265282956788801 0.46651457205606511 0 0.1458533605459584 0.46315525240818861 0 0.16028852689925441 0.46059944975761918 0 0.1575287237444378 0.45369484596177578 0 0.1458533605459584 0.46315525240818861 0 0.1575287237444378 0.45369484596177578 0 0.14434669924328941 0.45414408161164871 0 0.1458533605459584 0.46315525240818861 0 0.1575287237444378 0.45369484596177578 0 0.1458533605459584 0.46315525240818861 0 0.14434669924328941 0.45414408161164871 0 0.1458533605459584 0.46315525240818861 0 0.13705216907682011 0.46139531491323582 0 0.1458533605459584 0.46315525240818861 0 0.13705216907682011 0.46139531491323582 0 0.14434669924328941 0.45414408161164871 0 0.15264200286310661 0.44146902054825848 0 0.12865723998612461 0.45100597422678529 0 0.15264200286310661 0.44146902054825848 0 0.12865723998612461 0.45100597422678529 0 0.15414399151402461 0.44087179153820449 0 0.15264200286310661 0.44146902054825848 0 0.1575287237444378 0.45369484596177578 0 0.15414399151402461 0.44087179153820449 0 0.1575287237444378 0.45369484596177578 0 0.15264200286310661 0.44146902054825848 0 0.1575287237444378 0.45369484596177578 0 0.14434669924328941 0.45414408161164871 0 0.15264200286310661 0.44146902054825848 0 0.1575287237444378 0.45369484596177578 0 0.15414399151402461 0.44087179153820449 0 0.15264200286310661 0.44146902054825848 0 0.15264200286310661 0.44146902054825848 0 0.13445826137105141 0.43771426408990449 0 0.12865723998612461 0.45100597422678529 0 0.12184502098451271 0.46537105473594559 0 0.13705216907682011 0.46139531491323582 0 0.12768858593236521 0.47787395091295198 0 0.14434669924328941 0.45414408161164871 0 0.12865723998612461 0.45100597422678529 0 0.13705216907682011 0.46139531491323582 0 0.1458533605459584 0.46315525240818861 0 0.13705216907682011 0.46139531491323582 0 0.12768858593236521 0.47787395091295198 0 0.12184502098451271 0.46537105473594559 0 0.12865723998612461 0.45100597422678529 0 0.13705216907682011 0.46139531491323582 0 0.12768858593236521 0.47787395091295198 0 0.13907084168353459 0.48946023816298068 0 0.14924526697586701 0.479967001738971 0 0.1458533605459584 0.46315525240818861 0 0.12768858593236521 0.47787395091295198 0 0.12768858593236521 0.47787395091295198 0 0.1275539708027911 0.5 0 0.13907084168353459 0.48946023816298068 0 0.1275539708027911 0.5 0 0.13907084168353459 0.48946023816298068 0 0.1517955430231154 0.5 0 0.13907084168353459 0.48946023816298068 0 0.1517955430231154 0.5 0 0.14924526697586701 0.479967001738971 0 0.1458533605459584 0.46315525240818861 0 0.12768858593236521 0.47787395091295198 0 0.14924526697586701 0.479967001738971 0 0.16265282956788801 0.46651457205606511 0 0.1458533605459584 0.46315525240818861 0 0.14924526697586701 0.479967001738971 0 0.36789303020321462 0.47839313322159632 0 0.33638476754371088 0.5 0 0.40462161622293502 0.5 0 0.34541620668383172 0.47483440209049887 0 0.36789303020321462 0.47839313322159632 0 0.33638476754371088 0.5 0 0.34541620668383172 0.47483440209049887 0 0.36789303020321462 0.47839313322159632 0 0.36267914293683318 0.45355847485669532 0 0.36789303020321462 0.47839313322159632 0 0.36267914293683318 0.45355847485669532 0 0.39036341762876231 0.46357278916078748 0 0.36267914293683318 0.45355847485669532 0 0.36692639980375458 0.43209935763309559 0 0.38617224927197508 0.43670876379398449 0 0.36267914293683318 0.45355847485669532 0 0.35275130209620392 0.43773036118293412 0 0.36692639980375458 0.43209935763309559 0 0.36267914293683318 0.45355847485669532 0 0.3349948682449041 0.44354416055260337 0 0.36267914293683318 0.45355847485669532 0 0.35275130209620392 0.43773036118293412 0 0.3349948682449041 0.44354416055260337 0 0.36267914293683318 0.45355847485669532 0 0.33654780222991088 0.46172817255588311 0 0.33304891948599002 0.44640869407491951 0 0.34541620668383172 0.47483440209049887 0 0.36267914293683318 0.45355847485669532 0 0.33654780222991088 0.46172817255588311 0 0.33654780222991088 0.46172817255588311 0 0.32276198329344469 0.46306094435723821 0 0.3272650733094547 0.47866188844539642 0 0.33654780222991088 0.46172817255588311 0 0.33304891948599002 0.44640869407491951 0 0.32691864741318399 0.45401108875070861 0 0.33654780222991088 0.46172817255588311 0 0.32276198329344469 0.46306094435723821 0 0.32691864741318399 0.45401108875070861 0 0.36267914293683318 0.45355847485669532 0 0.33304891948599002 0.44640869407491951 0 0.3349948682449041 0.44354416055260337 0 0.33304891948599002 0.44640869407491951 0 0.3244882606625028 0.44610718943696348 0 0.32691864741318399 0.45401108875070861 0 0.33304891948599002 0.44640869407491951 0 0.3349948682449041 0.44354416055260337 0 0.3244882606625028 0.44610718943696348 0 0.33304891948599002 0.44640869407491951 0 0.3349948682449041 0.44354416055260337 0 0.3349948682449041 0.44354416055260337 0 0.32002995138728052 0.4381308570575852 0 0.3349948682449041 0.44354416055260337 0 0.32002995138728052 0.4381308570575852 0 0.32733292481071191 0.43245349413888051 0 0.3349948682449041 0.44354416055260337 0 0.3244882606625028 0.44610718943696348 0 0.32002995138728052 0.4381308570575852 0 0.3244882606625028 0.44610718943696348 0 0.31804844415575328 0.45258206783907051 0 0.32691864741318399 0.45401108875070861 0 0.3244882606625028 0.44610718943696348 0 0.31804844415575328 0.45258206783907051 0 0.31335189478088832 0.44366148177661541 0 0.31804844415575328 0.45258206783907051 0 0.31335189478088832 0.44366148177661541 0 0.30878227323439877 0.45058588151901868 0 0.3244882606625028 0.44610718943696348 0 0.31335189478088832 0.44366148177661541 0 0.32002995138728052 0.4381308570575852 0 0.31335189478088832 0.44366148177661541 0 0.32002995138728052 0.4381308570575852 0 0.30506503452965711 0.43271755356256703 0 0.31804844415575328 0.45258206783907051 0 0.32276198329344469 0.46306094435723821 0 0.32691864741318399 0.45401108875070861 0 0.31804844415575328 0.45258206783907051 0 0.3121526625138088 0.46064076926544473 0 0.30878227323439877 0.45058588151901868 0 0.31804844415575328 0.45258206783907051 0 0.32276198329344469 0.46306094435723821 0 0.3121526625138088 0.46064076926544473 0 0.32276198329344469 0.46306094435723821 0 0.31563927013855719 0.47074167928692651 0 0.3121526625138088 0.46064076926544473 0 0.33638476754371088 0.5 0 0.31962845843755899 0.49790433286406788 0 0.28756464737043058 0.5 0 0.31563927013855719 0.47074167928692651 0 0.3272650733094547 0.47866188844539642 0 0.31233326409674239 0.48432894316117259 0 0.32276198329344469 0.46306094435723821 0 0.31563927013855719 0.47074167928692651 0 0.3272650733094547 0.47866188844539642 0 0.34541620668383172 0.47483440209049887 0 0.33654780222991088 0.46172817255588311 0 0.3272650733094547 0.47866188844539642 0 0.34541620668383172 0.47483440209049887 0 0.3272650733094547 0.47866188844539642 0 0.33638476754371088 0.5 0 0.3272650733094547 0.47866188844539642 0 0.33638476754371088 0.5 0 0.31962845843755899 0.49790433286406788 0 0.3272650733094547 0.47866188844539642 0 0.31962845843755899 0.49790433286406788 0 0.31233326409674239 0.48432894316117259 0 0.31962845843755899 0.49790433286406788 0 0.29739556414725199 0.4934585138610319 0 0.31962845843755899 0.49790433286406788 0 0.29739556414725199 0.4934585138610319 0 0.31233326409674239 0.48432894316117259 0 0.31962845843755899 0.49790433286406788 0 0.29739556414725199 0.4934585138610319 0 0.28756464737043058 0.5 0 0.29973439521097511 0.48444395345811198 0 0.29739556414725199 0.4934585138610319 0 0.31233326409674239 0.48432894316117259 0 0.31563927013855719 0.47074167928692651 0 0.31233326409674239 0.48432894316117259 0 0.30556372134603532 0.4686010389269335 0 0.31233326409674239 0.48432894316117259 0 0.2977114671338193 0.47589167500402241 0 0.30556372134603532 0.4686010389269335 0 0.29973439521097511 0.48444395345811198 0 0.31233326409674239 0.48432894316117259 0 0.2977114671338193 0.47589167500402241 0 0.2977114671338193 0.47589167500402241 0 0.29620679741448058 0.46455138954562469 0 0.30556372134603532 0.4686010389269335 0 0.29149728546608661 0.48409668180622079 0 0.28495309824246162 0.47676419209291182 0 0.27516266985694499 0.48901269485799592 0 0.2977114671338193 0.47589167500402241 0 0.28495309824246162 0.47676419209291182 0 0.28718148013137912 0.46473935472971167 0 0.29973439521097511 0.48444395345811198 0 0.2977114671338193 0.47589167500402241 0 0.29149728546608661 0.48409668180622079 0 0.2977114671338193 0.47589167500402241 0 0.29149728546608661 0.48409668180622079 0 0.28495309824246162 0.47676419209291182 0 0.28495309824246162 0.47676419209291182 0 0.27185207274539458 0.46975567657634909 0 0.28718148013137912 0.46473935472971167 0 0.29739556414725199 0.4934585138610319 0 0.28756464737043058 0.5 0 0.27516266985694499 0.48901269485799592 0 0.29739556414725199 0.4934585138610319 0 0.29149728546608661 0.48409668180622079 0 0.27516266985694499 0.48901269485799592 0 0.29739556414725199 0.4934585138610319 0 0.27516266985694499 0.48901269485799592 0 0.29973439521097511 0.48444395345811198 0 0.29739556414725199 0.4934585138610319 0 0.29149728546608661 0.48409668180622079 0 0.28756464737043058 0.5 0 0.27516266985694499 0.48901269485799592 0 0.25263753242926462 0.50000000000000067 0 0.28495309824246162 0.47676419209291182 0 0.27516266985694499 0.48901269485799592 0 0.27185207274539458 0.46975567657634909 0 0.27516266985694499 0.48901269485799592 0 0.27185207274539458 0.46975567657634909 0 0.25292977556663859 0.48456687585495672 0 0.27185207274539458 0.46975567657634909 0 0.25292977556663859 0.48456687585495672 0 0.25331123825343987 0.46442213933527687 0 0.25292977556663859 0.48456687585495672 0 0.25331123825343987 0.46442213933527687 0 0.27516266985694499 0.48901269485799592 0 0.25292977556663859 0.48456687585495672 0 0.25263753242926462 0.50000000000000067 0 0.27516266985694499 0.48901269485799592 0 0.25292977556663859 0.48456687585495672 0 0.25292977556663859 0.48456687585495672 0 0.25263753242926462 0.50000000000000067 0 0.25369270094023988 0.44427740281559719 0 0.26813189115820318 0.45201261833910639 0 0.26995506477165099 0.4360632476799553 0 0.24287205238769599 0.437473300296779 0 0.25369270094023988 0.44427740281559719 0 0.2538501172278097 0.43596437575760932 0 0.25369270094023988 0.44427740281559719 0 0.2538501172278097 0.43596437575760932 0 0.25369270094023988 0.44427740281559719 0 0.25331123825343987 0.46442213933527687 0 0.26813189115820318 0.45201261833910639 0 0.27185207274539458 0.46975567657634909 0 0.25331123825343987 0.46442213933527687 0 0.26813189115820318 0.45201261833910639 0 0.25369270094023988 0.44427740281559719 0 0.25331123825343987 0.46442213933527687 0 0.27185207274539458 0.46975567657634909 0 0.27997254382023218 0.45583999651509882 0 0.26813189115820318 0.45201261833910639 0 0.27185207274539458 0.46975567657634909 0 0.27997254382023218 0.45583999651509882 0 0.28718148013137912 0.46473935472971167 0 0.26813189115820318 0.45201261833910639 0 0.28155962943436502 0.44283114586866468 0 0.26995506477165099 0.4360632476799553 0 0.27997254382023218 0.45583999651509882 0 0.26813189115820318 0.45201261833910639 0 0.28155962943436502 0.44283114586866468 0 0.28155962943436502 0.44283114586866468 0 0.29113764563181938 0.44986118706166212 0 0.29318781076215061 0.43818323036948609 0 0.27997254382023218 0.45583999651509882 0 0.28155962943436502 0.44283114586866468 0 0.29113764563181938 0.44986118706166212 0 0.29113764563181938 0.44986118706166212 0 0.29318781076215061 0.43818323036948609 0 0.30369740471573792 0.44184534124448699 0 0.27997254382023218 0.45583999651509882 0 0.29113764563181938 0.44986118706166212 0 0.28718148013137912 0.46473935472971167 0 0.29113764563181938 0.44986118706166212 0 0.29620679741448058 0.46455138954562469 0 0.30242245567634529 0.45810462817401248 0 0.29113764563181938 0.44986118706166212 0 0.28718148013137912 0.46473935472971167 0 0.29620679741448058 0.46455138954562469 0 0.2977114671338193 0.47589167500402241 0 0.28718148013137912 0.46473935472971167 0 0.29620679741448058 0.46455138954562469 0 0.29620679741448058 0.46455138954562469 0 0.30242245567634529 0.45810462817401248 0 0.30556372134603532 0.4686010389269335 0 0.30242245567634529 0.45810462817401248 0 0.3121526625138088 0.46064076926544473 0 0.30878227323439877 0.45058588151901868 0 0.30242245567634529 0.45810462817401248 0 0.3121526625138088 0.46064076926544473 0 0.30556372134603532 0.4686010389269335 0 0.31563927013855719 0.47074167928692651 0 0.3121526625138088 0.46064076926544473 0 0.30556372134603532 0.4686010389269335 0 0.29318781076215061 0.43818323036948609 0 0.30369740471573792 0.44184534124448699 0 0.30506503452965711 0.43271755356256703 0 0.29113764563181938 0.44986118706166212 0 0.30242245567634529 0.45810462817401248 0 0.30150994481457533 0.45009925949979501 0 0.30242245567634529 0.45810462817401248 0 0.30150994481457533 0.45009925949979501 0 0.30878227323439877 0.45058588151901868 0 0.30369740471573792 0.44184534124448699 0 0.30150994481457533 0.45009925949979501 0 0.30878227323439877 0.45058588151901868 0 0.29113764563181938 0.44986118706166212 0 0.30369740471573792 0.44184534124448699 0 0.30150994481457533 0.45009925949979501 0 0.31335189478088832 0.44366148177661541 0 0.30369740471573792 0.44184534124448699 0 0.30878227323439877 0.45058588151901868 0 0.31335189478088832 0.44366148177661541 0 0.30369740471573792 0.44184534124448699 0 0.30506503452965711 0.43271755356256703 0 0.30369740471573792 0.44184534124448699 0 0.30506503452965711 0.43271755356256703 0 0.30506503452965711 0.43271755356256703 0 0.30950346758846542 0.40309471689376281 0 0.30506503452965711 0.43271755356256703 0 0.30950346758846542 0.40309471689376281 0 0.32091358750997478 0.42355897468499198 0 0.30506503452965711 0.43271755356256703 0 0.29059232588128769 0.40818962873555631 0 0.30950346758846542 0.40309471689376281 0 0.29318781076215061 0.43818323036948609 0 0.30506503452965711 0.43271755356256703 0 0.28549958635067768 0.42564008630922279 0 0.28155962943436502 0.44283114586866468 0 0.29318781076215061 0.43818323036948609 0 0.28549958635067768 0.42564008630922279 0 0.30506503452965711 0.43271755356256703 0 0.29059232588128769 0.40818962873555631 0 0.28549958635067768 0.42564008630922279 0 0.30506503452965711 0.43271755356256703 0 0.28549958635067768 0.42564008630922279 0 0.28155962943436502 0.44283114586866468 0 0.28549958635067768 0.42564008630922279 0 0.26995506477165099 0.4360632476799553 0 0.28549958635067768 0.42564008630922279 0 0.26995506477165099 0.4360632476799553 0 0.26593413817169848 0.41856261905587788 0 0.28549958635067768 0.42564008630922279 0 0.26593413817169848 0.41856261905587788 0 0.29059232588128769 0.40818962873555631 0 0.28549958635067768 0.42564008630922279 0 0.26593413817169848 0.41856261905587788 0 0.29059232588128769 0.40818962873555631 0 0.26593413817169848 0.41856261905587788 0 0.27777248731106852 0.39369457599564911 0 0.26593413817169848 0.41856261905587788 0 0.25156481396968622 0.41336476104812248 0 0.26593413817169848 0.41856261905587788 0 0.25156481396968622 0.41336476104812248 0 0.25719021453216789 0.40520233911052722 0 0.24939668947534421 0.40407549838680878 0 0.25156481396968622 0.41336476104812248 0 0.25719021453216789 0.40520233911052722 0 0.24488015416100001 0.42501556368502441 0 0.25156481396968622 0.41336476104812248 0 0.25405730588254849 0.42322682988665861 0 0.26593413817169848 0.41856261905587788 0 0.25156481396968622 0.41336476104812248 0 0.25405730588254849 0.42322682988665861 0 0.24488015416100001 0.42501556368502441 0 0.25405730588254849 0.42322682988665861 0 0.2538501172278097 0.43596437575760932 0 0.25369270094023988 0.44427740281559719 0 0.26593413817169848 0.41856261905587788 0 0.25369270094023988 0.44427740281559719 0 0.26995506477165099 0.4360632476799553 0 0.26593413817169848 0.41856261905587788 0 0.25369270094023988 0.44427740281559719 0 0.26593413817169848 0.41856261905587788 0 0.2538501172278097 0.43596437575760932 0 0.26593413817169848 0.41856261905587788 0 0.25405730588254849 0.42322682988665861 0 0.2538501172278097 0.43596437575760932 0 0.24324654570146659 0.38423872527165748 0 0.26553031510511582 0.36618245480427969 0 0.24324654570146659 0.38423872527165748 0 0.25321491490464249 0.39441229722592841 0 0.26610828472089748 0.38189273744086799 0 0.24324654570146659 0.38423872527165748 0 0.26610828472089748 0.38189273744086799 0 0.26553031510511582 0.36618245480427969 0 0.25321491490464249 0.39441229722592841 0 0.25719021453216789 0.40520233911052722 0 0.27777248731106852 0.39369457599564911 0 0.24939668947534421 0.40407549838680878 0 0.25321491490464249 0.39441229722592841 0 0.25719021453216789 0.40520233911052722 0 0.25719021453216789 0.40520233911052722 0 0.27777248731106852 0.39369457599564911 0 0.26593413817169848 0.41856261905587788 0 0.27777248731106852 0.39369457599564911 0 0.26593413817169848 0.41856261905587788 0 0.25719021453216789 0.40520233911052722 0 0.27777248731106852 0.39369457599564911 0 0.27777248731106852 0.39369457599564911 0 0.26610828472089748 0.38189273744086799 0 0.28586347906612392 0.37669836064535722 0 0.25321491490464249 0.39441229722592841 0 0.27777248731106852 0.39369457599564911 0 0.26610828472089748 0.38189273744086799 0 0.26610828472089748 0.38189273744086799 0 0.28586347906612392 0.37669836064535722 0 0.27518441887316247 0.36955138974110707 0 0.27777248731106852 0.39369457599564911 0 0.29585719397916987 0.38358322811030388 0 0.27777248731106852 0.39369457599564911 0 0.28586347906612392 0.37669836064535722 0 0.29585719397916987 0.38358322811030388 0 0.27777248731106852 0.39369457599564911 0 0.28586347906612392 0.37669836064535722 0 0.28586347906612392 0.37669836064535722 0 0.29585719397916987 0.38358322811030388 0 0.29723730476077881 0.37282855467305231 0 0.29059232588128769 0.40818962873555631 0 0.27777248731106852 0.39369457599564911 0 0.29585719397916987 0.38358322811030388 0 0.29059232588128769 0.40818962873555631 0 0.29585719397916987 0.38358322811030388 0 0.30950346758846542 0.40309471689376281 0 0.29585719397916987 0.38358322811030388 0 0.31394190064727101 0.37347188022495809 0 0.30950346758846542 0.40309471689376281 0 0.31394190064727101 0.37347188022495809 0 0.29585719397916987 0.38358322811030388 0 0.31394190064727101 0.37347188022495809 0 0.29723730476077881 0.37282855467305231 0 0.29585719397916987 0.38358322811030388 0 0.30950346758846542 0.40309471689376281 0 0.31394190064727101 0.37347188022495809 0 0.33340499837021959 0.37804710165297972 0 0.32852261499022811 0.39107374737148792 0 0.31394190064727101 0.37347188022495809 0 0.30950346758846542 0.40309471689376281 0 0.32852261499022811 0.39107374737148792 0 0.31394190064727101 0.37347188022495809 0 0.33340499837021959 0.37804710165297972 0 0.34733878522852168 0.39110991851101939 0 0.34895151858930878 0.37262341583417791 0 0.33340499837021959 0.37804710165297972 0 0.32852261499022811 0.39107374737148792 0 0.34733878522852168 0.39110991851101939 0 0.32852261499022811 0.39107374737148792 0 0.33067482132104931 0.40864984082112438 0 0.34733878522852168 0.39110991851101939 0 0.30950346758846542 0.40309471689376281 0 0.32852261499022811 0.39107374737148792 0 0.33067482132104931 0.40864984082112438 0 0.30950346758846542 0.40309471689376281 0 0.32091358750997478 0.42355897468499198 0 0.33067482132104931 0.40864984082112438 0 0.32002995138728052 0.4381308570575852 0 0.30506503452965711 0.43271755356256703 0 0.32091358750997478 0.42355897468499198 0 0.32002995138728052 0.4381308570575852 0 0.30506503452965711 0.43271755356256703 0 0.32091358750997478 0.42355897468499198 0 0.32733292481071191 0.43245349413888051 0 0.33339329210068819 0.42457998426034149 0 0.32002995138728052 0.4381308570575852 0 0.32091358750997478 0.42355897468499198 0 0.32733292481071191 0.43245349413888051 0 0.3349948682449041 0.44354416055260337 0 0.33339329210068819 0.42457998426034149 0 0.35161325296391482 0.41908107030100378 0 0.3349948682449041 0.44354416055260337 0 0.32733292481071191 0.43245349413888051 0 0.33339329210068819 0.42457998426034149 0 0.3349948682449041 0.44354416055260337 0 0.35161325296391482 0.41908107030100378 0 0.32091358750997478 0.42355897468499198 0 0.33339329210068819 0.42457998426034149 0 0.33067482132104931 0.40864984082112438 0 0.33339329210068819 0.42457998426034149 0 0.33067482132104931 0.40864984082112438 0 0.35161325296391482 0.41908107030100378 0 0.33067482132104931 0.40864984082112438 0 0.35161325296391482 0.41908107030100378 0 0.34733878522852168 0.39110991851101939 0 0.35275130209620392 0.43773036118293412 0 0.35161325296391482 0.41908107030100378 0 0.36692639980375458 0.43209935763309559 0 0.35275130209620392 0.43773036118293412 0 0.3349948682449041 0.44354416055260337 0 0.35161325296391482 0.41908107030100378 0 0.35161325296391482 0.41908107030100378 0 0.36823163768292438 0.39461798004940318 0 0.38141605174984627 0.4134181180308602 0 0.35161325296391482 0.41908107030100378 0 0.36692639980375458 0.43209935763309559 0 0.38141605174984627 0.4134181180308602 0 0.35161325296391482 0.41908107030100378 0 0.36823163768292438 0.39461798004940318 0 0.36823163768292438 0.39461798004940318 0 0.3642046179201639 0.37497563341634682 0 0.384850022401934 0.37015488979780259 0 0.36823163768292438 0.39461798004940318 0 0.34733878522852168 0.39110991851101939 0 0.3642046179201639 0.37497563341634682 0 0.34733878522852168 0.39110991851101939 0 0.34895151858930878 0.37262341583417791 0 0.3642046179201639 0.37497563341634682 0 0.35161325296391482 0.41908107030100378 0 0.36823163768292438 0.39461798004940318 0 0.34733878522852168 0.39110991851101939 0 0.35262773827370431 0.34747173076428478 0 0.34575070819887832 0.358103001261736 0 0.33467183562806158 0.35121463008053971 0 0.35262773827370431 0.34747173076428478 0 0.34575070819887832 0.358103001261736 0 0.35619921410430588 0.36190591233597769 0 0.34575070819887832 0.358103001261736 0 0.34895151858930878 0.37262341583417791 0 0.35619921410430588 0.36190591233597769 0 0.34575070819887832 0.358103001261736 0 0.34895151858930878 0.37262341583417791 0 0.33745493460617798 0.36491002252539328 0 0.34895151858930878 0.37262341583417791 0 0.35619921410430588 0.36190591233597769 0 0.3642046179201639 0.37497563341634682 0 0.3642046179201639 0.37497563341634682 0 0.36970142508263398 0.3579413439932792 0 0.384850022401934 0.37015488979780259 0 0.35619921410430588 0.36190591233597769 0 0.3642046179201639 0.37497563341634682 0 0.36970142508263398 0.3579413439932792 0 0.35262773827370431 0.34747173076428478 0 0.36970142508263398 0.3579413439932792 0 0.35262773827370431 0.34747173076428478 0 0.35619921410430588 0.36190591233597769 0 0.36970142508263398 0.3579413439932792 0 0.35262773827370431 0.34747173076428478 0 0.36970142508263398 0.3579413439932792 0 0.3675597442042064 0.3443591612716449 0 0.35262773827370431 0.34747173076428478 0 0.3675597442042064 0.3443591612716449 0 0.36970142508263398 0.3579413439932792 0 0.3675597442042064 0.3443591612716449 0 0.37800586299017319 0.34967192953987081 0 0.3675597442042064 0.3443591612716449 0 0.366805298484009 0.32773064715417333 0 0.3585049265139259 0.33693947696883952 0 0.3675597442042064 0.3443591612716449 0 0.366805298484009 0.32773064715417333 0 0.3799260866623464 0.33812367827077972 0 0.35262773827370431 0.34747173076428478 0 0.3675597442042064 0.3443591612716449 0 0.3585049265139259 0.33693947696883952 0 0.366805298484009 0.32773064715417333 0 0.37307310200327393 0.31219336136973969 0 0.38341773221402542 0.32471982359770041 0 0.366805298484009 0.32773064715417333 0 0.35587329328754208 0.31420935844481368 0 0.37307310200327393 0.31219336136973969 0 0.366805298484009 0.32773064715417333 0 0.35587329328754208 0.31420935844481368 0 0.34844093611773219 0.32978082703130218 0 0.35587329328754208 0.31420935844481368 0 0.34844093611773219 0.32978082703130218 0 0.33560627760090112 0.31573622341178492 0 0.35262773827370431 0.34747173076428478 0 0.34844093611773219 0.32978082703130218 0 0.3585049265139259 0.33693947696883952 0 0.366805298484009 0.32773064715417333 0 0.34844093611773219 0.32978082703130218 0 0.3585049265139259 0.33693947696883952 0 0.35262773827370431 0.34747173076428478 0 0.34844093611773219 0.32978082703130218 0 0.32998926359928088 0.33358978033448422 0 0.35262773827370431 0.34747173076428478 0 0.32998926359928088 0.33358978033448422 0 0.34844093611773219 0.32978082703130218 0 0.32998926359928088 0.33358978033448422 0 0.33560627760090112 0.31573622341178492 0 0.32998926359928088 0.33358978033448422 0 0.33560627760090112 0.31573622341178492 0 0.30735078892485862 0.31970782990468177 0 0.32998926359928088 0.33358978033448422 0 0.30735078892485862 0.31970782990468177 0 0.32998926359928088 0.33358978033448422 0 0.30587430171934249 0.33672746523540242 0 0.30735078892485862 0.31970782990468177 0 0.32998926359928088 0.33358978033448422 0 0.31803436735341117 0.34615808024142719 0 0.33467183562806158 0.35121463008053971 0 0.32998926359928088 0.33358978033448422 0 0.31803436735341117 0.34615808024142719 0 0.30587430171934249 0.33672746523540242 0 0.31803436735341117 0.34615808024142719 0 0.31671593298241918 0.35495752939679559 0 0.30652562258956939 0.34972923451503818 0 0.31803436735341117 0.34615808024142719 0 0.31671593298241918 0.35495752939679559 0 0.33467183562806158 0.35121463008053971 0 0.31671593298241918 0.35495752939679559 0 0.33467183562806158 0.35121463008053971 0 0.31671593298241918 0.35495752939679559 0 0.33467183562806158 0.35121463008053971 0 0.32398336295632019 0.36785759404671031 0 0.31803436735341117 0.34615808024142719 0 0.31671593298241918 0.35495752939679559 0 0.35262773827370431 0.34747173076428478 0 0.32998926359928088 0.33358978033448422 0 0.33467183562806158 0.35121463008053971 0 0.35262773827370431 0.34747173076428478 0 0.33467183562806158 0.35121463008053971 0 0.34575070819887832 0.358103001261736 0 0.33467183562806158 0.35121463008053971 0 0.33745493460617798 0.36491002252539328 0 0.33467183562806158 0.35121463008053971 0 0.33745493460617798 0.36491002252539328 0 0.32398336295632019 0.36785759404671031 0 0.33340499837021959 0.37804710165297972 0 0.34895151858930878 0.37262341583417791 0 0.33745493460617798 0.36491002252539328 0 0.33340499837021959 0.37804710165297972 0 0.33745493460617798 0.36491002252539328 0 0.32398336295632019 0.36785759404671031 0 0.31671593298241918 0.35495752939679559 0 0.32398336295632019 0.36785759404671031 0 0.31394190064727101 0.37347188022495809 0 0.31671593298241918 0.35495752939679559 0 0.31394190064727101 0.37347188022495809 0 0.33340499837021959 0.37804710165297972 0 0.32398336295632019 0.36785759404671031 0 0.31394190064727101 0.37347188022495809 0 0.32398336295632019 0.36785759404671031 0 0.31394190064727101 0.37347188022495809 0 0.31394190064727101 0.37347188022495809 0 0.29723730476077881 0.37282855467305231 0 0.29395447082117981 0.35970214529506572 0 0.31671593298241918 0.35495752939679559 0 0.31394190064727101 0.37347188022495809 0 0.29395447082117981 0.35970214529506572 0 0.31671593298241918 0.35495752939679559 0 0.30652562258956939 0.34972923451503818 0 0.29395447082117981 0.35970214529506572 0 0.31671593298241918 0.35495752939679559 0 0.29395447082117981 0.35970214529506572 0 0.31803436735341117 0.34615808024142719 0 0.30652562258956939 0.34972923451503818 0 0.30587430171934249 0.33672746523540242 0 0.30652562258956939 0.34972923451503818 0 0.29804904007149469 0.35110095240649952 0 0.29395447082117981 0.35970214529506572 0 0.30652562258956939 0.34972923451503818 0 0.29804904007149469 0.35110095240649952 0 0.30587430171934249 0.33672746523540242 0 0.29804904007149469 0.35110095240649952 0 0.28466976541843431 0.3491635840780517 0 0.28966680722529459 0.33189735559614453 0 0.29804904007149469 0.35110095240649952 0 0.28466976541843431 0.3491635840780517 0 0.29395447082117981 0.35970214529506572 0 0.29804904007149469 0.35110095240649952 0 0.29395447082117981 0.35970214529506572 0 0.28466976541843431 0.3491635840780517 0 0.29395447082117981 0.35970214529506572 0 0.28300101899546598 0.36198538708792871 0 0.28586347906612392 0.37669836064535722 0 0.29723730476077881 0.37282855467305231 0 0.29395447082117981 0.35970214529506572 0 0.28586347906612392 0.37669836064535722 0 0.29395447082117981 0.35970214529506572 0 0.28586347906612392 0.37669836064535722 0 0.29395447082117981 0.35970214529506572 0 0.28300101899546598 0.36198538708792871 0 0.29395447082117981 0.35970214529506572 0 0.28300101899546598 0.36198538708792871 0 0.28586347906612392 0.37669836064535722 0 0.28300101899546598 0.36198538708792871 0 0.27518441887316247 0.36955138974110707 0 0.26610828472089748 0.38189273744086799 0 0.27518441887316247 0.36955138974110707 0 0.26553031510511582 0.36618245480427969 0 0.27518441887316247 0.36955138974110707 0 0.27185767167616648 0.35406040524566312 0 0.26553031510511582 0.36618245480427969 0 0.28300101899546598 0.36198538708792871 0 0.27518441887316247 0.36955138974110707 0 0.27185767167616648 0.35406040524566312 0 0.28466976541843431 0.3491635840780517 0 0.27185767167616648 0.35406040524566312 0 0.27148958372100451 0.336235258837009 0 0.28466976541843431 0.3491635840780517 0 0.28300101899546598 0.36198538708792871 0 0.27185767167616648 0.35406040524566312 0 0.27185767167616648 0.35406040524566312 0 0.25165697119548591 0.34550301975884162 0 0.25186993051563261 0.36031611818070619 0 0.27185767167616648 0.35406040524566312 0 0.25165697119548591 0.34550301975884162 0 0.27148958372100451 0.336235258837009 0 0.27185767167616648 0.35406040524566312 0 0.25186993051563261 0.36031611818070619 0 0.26553031510511582 0.36618245480427969 0 0.24324654570146659 0.38423872527165748 0 0.25186993051563261 0.36031611818070619 0 0.26553031510511582 0.36618245480427969 0 0.24385760465851469 0.303820390832095 0 0.2486658817553645 0.3201567188036451 0 0.26665725875203039 0.31599407601587032 0 0.2486658817553645 0.3201567188036451 0 0.25742233416702681 0.33043320410609128 0 0.26665725875203039 0.31599407601587032 0 0.25742233416702681 0.33043320410609128 0 0.27148958372100451 0.336235258837009 0 0.26665725875203039 0.31599407601587032 0 0.25165697119548591 0.34550301975884162 0 0.25742233416702681 0.33043320410609128 0 0.27148958372100451 0.336235258837009 0 0.24366400409682079 0.33199732681401112 0 0.25165697119548591 0.34550301975884162 0 0.25742233416702681 0.33043320410609128 0 0.27148958372100451 0.336235258837009 0 0.26665725875203039 0.31599407601587032 0 0.28966680722529459 0.33189735559614453 0 0.26665725875203039 0.31599407601587032 0 0.28966680722529459 0.33189735559614453 0 0.2847123142504363 0.30582587947487938 0 0.28966680722529459 0.33189735559614453 0 0.30735078892485862 0.31970782990468177 0 0.2847123142504363 0.30582587947487938 0 0.30735078892485862 0.31970782990468177 0 0.2847123142504363 0.30582587947487938 0 0.28466976541843431 0.3491635840780517 0 0.27148958372100451 0.336235258837009 0 0.28966680722529459 0.33189735559614453 0 0.28966680722529459 0.33189735559614453 0 0.30587430171934249 0.33672746523540242 0 0.30735078892485862 0.31970782990468177 0 0.29804904007149469 0.35110095240649952 0 0.28966680722529459 0.33189735559614453 0 0.30587430171934249 0.33672746523540242 0 0.30735078892485862 0.31970782990468177 0 0.30348485427574112 0.29092471414052168 0 0.2847123142504363 0.30582587947487938 0 0.30348485427574112 0.29092471414052168 0 0.2847123142504363 0.30582587947487938 0 0.28340939477255811 0.28036146732623413 0 0.26665725875203039 0.31599407601587032 0 0.2847123142504363 0.30582587947487938 0 0.26207383957601399 0.2919439290450771 0 0.2847123142504363 0.30582587947487938 0 0.26207383957601399 0.2919439290450771 0 0.2847123142504363 0.30582587947487938 0 0.26207383957601399 0.2919439290450771 0 0.28340939477255811 0.28036146732623413 0 0.26207383957601399 0.2919439290450771 0 0.26380479056773209 0.27165489224887368 0 0.28340939477255811 0.28036146732623413 0 0.2394353649015917 0.27806197861527482 0 0.26207383957601399 0.2919439290450771 0 0.24385760465851469 0.303820390832095 0 0.26665725875203039 0.31599407601587032 0 0.26207383957601399 0.2919439290450771 0 0.2478684860990237 0.26136859478244229 0 0.26380479056773209 0.27165489224887368 0 0.26840648584537108 0.25544582692901507 0 0.2478684860990237 0.26136859478244229 0 0.26840648584537108 0.25544582692901507 0 0.25290276725482519 0.2481868517737941 0 0.2478684860990237 0.26136859478244229 0 0.26840648584537108 0.25544582692901507 0 0.2394353649015917 0.27806197861527482 0 0.2478684860990237 0.26136859478244229 0 0.26380479056773209 0.27165489224887368 0 0.2394353649015917 0.27806197861527482 0 0.26207383957601399 0.2919439290450771 0 0.26380479056773209 0.27165489224887368 0 0.26380479056773209 0.27165489224887368 0 0.28163517221183382 0.26274755679519901 0 0.28340939477255811 0.28036146732623413 0 0.26380479056773209 0.27165489224887368 0 0.26840648584537108 0.25544582692901507 0 0.28163517221183382 0.26274755679519901 0 0.26840648584537108 0.25544582692901507 0 0.28894448559172092 0.2495230590755963 0 0.26840648584537108 0.25544582692901507 0 0.28163517221183382 0.26274755679519901 0 0.28894448559172092 0.2495230590755963 0 0.28163517221183382 0.26274755679519901 0 0.29884491094534033 0.26801205911900572 0 0.28894448559172092 0.2495230590755963 0 0.30348485427574112 0.29092471414052168 0 0.28340939477255811 0.28036146732623413 0 0.29884491094534033 0.26801205911900572 0 0.28163517221183382 0.26274755679519901 0 0.28340939477255811 0.28036146732623413 0 0.29884491094534033 0.26801205911900572 0 0.29884491094534033 0.26801205911900572 0 0.31487566650040433 0.25791844337101871 0 0.32100928107397131 0.27728039131716831 0 0.30348485427574112 0.29092471414052168 0 0.29884491094534033 0.26801205911900572 0 0.32100928107397131 0.27728039131716831 0 0.31487566650040433 0.25791844337101871 0 0.28894448559172092 0.2495230590755963 0 0.29884491094534033 0.26801205911900572 0 0.31487566650040433 0.25791844337101871 0 0.28894448559172092 0.2495230590755963 0 0.31487566650040433 0.25791844337101871 0 0.31165141592587953 0.24297481296135279 0 0.28894448559172092 0.2495230590755963 0 0.31487566650040433 0.25791844337101871 0 0.34080684740908979 0.26631382766643402 0 0.31487566650040433 0.25791844337101871 0 0.33036836789855578 0.25291462850150459 0 0.32385517018839199 0.24771702687395691 0 0.31487566650040433 0.25791844337101871 0 0.33036836789855578 0.25291462850150459 0 0.34080684740908979 0.26631382766643402 0 0.33036836789855578 0.25291462850150459 0 0.34008680539521702 0.25321348318243908 0 0.3348624778944132 0.24598610241693131 0 0.33036836789855578 0.25291462850150459 0 0.34008680539521702 0.25321348318243908 0 0.34080684740908979 0.26631382766643402 0 0.34080684740908979 0.26631382766643402 0 0.32100928107397131 0.27728039131716831 0 0.34387845403826939 0.28578552656271622 0 0.31487566650040433 0.25791844337101871 0 0.34080684740908979 0.26631382766643402 0 0.32100928107397131 0.27728039131716831 0 0.30348485427574112 0.29092471414052168 0 0.32100928107397131 0.27728039131716831 0 0.32684701753401552 0.29817452519123833 0 0.33560627760090112 0.31573622341178492 0 0.30735078892485862 0.31970782990468177 0 0.32684701753401552 0.29817452519123833 0 0.30735078892485862 0.31970782990468177 0 0.30348485427574112 0.29092471414052168 0 0.32684701753401552 0.29817452519123833 0 0.33560627760090112 0.31573622341178492 0 0.32684701753401552 0.29817452519123833 0 0.34568376086186331 0.30157891090725347 0 0.32100928107397131 0.27728039131716831 0 0.32684701753401552 0.29817452519123833 0 0.34387845403826939 0.28578552656271622 0 0.32684701753401552 0.29817452519123833 0 0.34387845403826939 0.28578552656271622 0 0.34568376086186331 0.30157891090725347 0 0.34387845403826939 0.28578552656271622 0 0.34568376086186331 0.30157891090725347 0 0.36218578903290161 0.2966562923323538 0 0.34387845403826939 0.28578552656271622 0 0.36218578903290161 0.2966562923323538 0 0.3667380283177753 0.27470921196184939 0 0.35587329328754208 0.31420935844481368 0 0.34568376086186331 0.30157891090725347 0 0.36218578903290161 0.2966562923323538 0 0.35587329328754208 0.31420935844481368 0 0.33560627760090112 0.31573622341178492 0 0.34568376086186331 0.30157891090725347 0 0.37307310200327393 0.31219336136973969 0 0.36218578903290161 0.2966562923323538 0 0.38457935021492978 0.2993249356744816 0 0.35587329328754208 0.31420935844481368 0 0.37307310200327393 0.31219336136973969 0 0.36218578903290161 0.2966562923323538 0 0.36218578903290161 0.2966562923323538 0 0.3667380283177753 0.27470921196184939 0 0.38457935021492978 0.2993249356744816 0 0.3667380283177753 0.27470921196184939 0 0.37447845645810401 0.26698867906291529 0 0.38370485741641641 0.2719368279732825 0 0.3667380283177753 0.27470921196184939 0 0.37447845645810401 0.26698867906291529 0 0.3650194697715366 0.26132273472279133 0 0.3650194697715366 0.26132273472279133 0 0.38245147032668753 0.25998594159373811 0 0.36696998983098789 0.2474212008079161 0 0.37447845645810401 0.26698867906291529 0 0.3650194697715366 0.26132273472279133 0 0.38245147032668753 0.25998594159373811 0 0.38245147032668753 0.25998594159373811 0 0.36696998983098789 0.2474212008079161 0 0.3650194697715366 0.26132273472279133 0 0.35698020936860841 0.25166492869643131 0 0.36696998983098789 0.2474212008079161 0 0.34080684740908979 0.26631382766643402 0 0.3650194697715366 0.26132273472279133 0 0.35698020936860841 0.25166492869643131 0 0.34008680539521702 0.25321348318243908 0 0.34080684740908979 0.26631382766643402 0 0.35698020936860841 0.25166492869643131 0 0.34080684740908979 0.26631382766643402 0 0.3667380283177753 0.27470921196184939 0 0.3650194697715366 0.26132273472279133 0 0.34080684740908979 0.26631382766643402 0 0.34387845403826939 0.28578552656271622 0 0.3667380283177753 0.27470921196184939 0 0.34080684740908979 0.26631382766643402 0 0.3667380283177753 0.27470921196184939 0 0.39793295082238728 0.27255068237955993 0 0.40548820354440163 0.25740223994573869 0 0.41470584610792222 0.26874812811732962 0 0.39793295082238728 0.27255068237955993 0 0.38370485741641641 0.2719368279732825 0 0.39266920922646081 0.28310459625726481 0 0.39793295082238728 0.27255068237955993 0 0.39266920922646081 0.28310459625726481 0 0.40155595401132888 0.28158296719953652 0 0.39793295082238728 0.27255068237955993 0 0.39266920922646081 0.28310459625726481 0 0.39793295082238728 0.27255068237955993 0 0.40155595401132888 0.28158296719953652 0 0.41049653563469551 0.28274726445394188 0 0.39793295082238728 0.27255068237955993 0 0.41049653563469551 0.28274726445394188 0 0.40548820354440163 0.25740223994573869 0 0.3898718703171708 0.25696666417538411 0 0.41304345626641498 0.24225379751191711 0 0.39793295082238728 0.27255068237955993 0 0.40548820354440163 0.25740223994573869 0 0.39793295082238728 0.27255068237955993 0 0.40548820354440163 0.25740223994573869 0 0.3898718703171708 0.25696666417538411 0 0.39793295082238728 0.27255068237955993 0 0.3898718703171708 0.25696666417538411 0 0.38245147032668753 0.25998594159373811 0 0.38321793153226102 0.25220974216865699 0 0.38245147032668753 0.25998594159373811 0 0.36696998983098789 0.2474212008079161 0 0.3898718703171708 0.25696666417538411 0 0.38321793153226102 0.25220974216865699 0 0.3919413447389391 0.24612977173593051 0 0.3898718703171708 0.25696666417538411 0 0.38321793153226102 0.25220974216865699 0 0.38245147032668753 0.25998594159373811 0 0.3667380283177753 0.27470921196184939 0 0.39266920922646081 0.28310459625726481 0 0.3667380283177753 0.27470921196184939 0 0.38370485741641641 0.2719368279732825 0 0.39266920922646081 0.28310459625726481 0 0.37447845645810401 0.26698867906291529 0 0.38245147032668753 0.25998594159373811 0 0.38370485741641641 0.2719368279732825 0 0.39793295082238728 0.27255068237955993 0 0.38245147032668753 0.25998594159373811 0 0.39793295082238728 0.27255068237955993 0 0.38245147032668753 0.25998594159373811 0 0.38370485741641641 0.2719368279732825 0 0.38457935021492978 0.2993249356744816 0 0.39266920922646081 0.28310459625726481 0 0.3667380283177753 0.27470921196184939 0 0.38457935021492978 0.2993249356744816 0 0.39266920922646081 0.28310459625726481 0 0.37307310200327393 0.31219336136973969 0 0.38457935021492978 0.2993249356744816 0 0.3857290608930084 0.31251581824809638 0 0.38457935021492978 0.2993249356744816 0 0.39692954298027638 0.31005955406576219 0 0.3857290608930084 0.31251581824809638 0 0.39692954298027638 0.31005955406576219 0 0.41062122079165958 0.30389682696719922 0 0.40726140734754201 0.32069573088371961 0 0.38457935021492978 0.2993249356744816 0 0.39692954298027638 0.31005955406576219 0 0.39853279761001242 0.29688202687149923 0 0.39692954298027638 0.31005955406576219 0 0.39853279761001242 0.29688202687149923 0 0.41062122079165958 0.30389682696719922 0 0.39853279761001242 0.29688202687149923 0 0.40786466483673561 0.28802422139278849 0 0.41062122079165958 0.30389682696719922 0 0.38457935021492978 0.2993249356744816 0 0.39853279761001242 0.29688202687149923 0 0.39266920922646081 0.28310459625726481 0 0.39853279761001242 0.29688202687149923 0 0.39266920922646081 0.28310459625726481 0 0.40786466483673561 0.28802422139278849 0 0.39266920922646081 0.28310459625726481 0 0.40155595401132888 0.28158296719953652 0 0.40786466483673561 0.28802422139278849 0 0.39266920922646081 0.28310459625726481 0 0.40786466483673561 0.28802422139278849 0 0.41049653563469551 0.28274726445394188 0 0.42306012044700819 0.2929438465283184 0 0.42898914904664159 0.27280015260854412 0 0.40786466483673561 0.28802422139278849 0 0.41049653563469551 0.28274726445394188 0 0.42306012044700819 0.2929438465283184 0 0.40155595401132888 0.28158296719953652 0 0.40786466483673561 0.28802422139278849 0 0.41049653563469551 0.28274726445394188 0 0.40786466483673561 0.28802422139278849 0 0.41062122079165958 0.30389682696719922 0 0.42306012044700819 0.2929438465283184 0 0.40786466483673561 0.28802422139278849 0 0.42306012044700819 0.2929438465283184 0 0.41049653563469551 0.28274726445394188 0 0.42306012044700819 0.2929438465283184 0 0.41062122079165958 0.30389682696719922 0 0.42386035140433198 0.30590953192114367 0 0.42306012044700819 0.2929438465283184 0 0.41062122079165958 0.30389682696719922 0 0.42386035140433198 0.30590953192114367 0 0.41799202465572521 0.31453101734974831 0 0.43626507629344752 0.30366096414151827 0 0.42306012044700819 0.2929438465283184 0 0.44798979146038592 0.30101498564274648 0 0.42306012044700819 0.2929438465283184 0 0.44798979146038592 0.30101498564274648 0 0.42386035140433198 0.30590953192114367 0 0.43020804820243808 0.31685437947884221 0 0.41799202465572521 0.31453101734974831 0 0.42386035140433198 0.30590953192114367 0 0.43626507629344752 0.30366096414151827 0 0.42306012044700819 0.2929438465283184 0 0.43626507629344752 0.30366096414151827 0 0.42306012044700819 0.2929438465283184 0 0.42386035140433198 0.30590953192114367 0 0.43626507629344752 0.30366096414151827 0 0.43020804820243808 0.31685437947884221 0 0.43626507629344752 0.30366096414151827 0 0.44459177253766768 0.31696145998863889 0 0.43020804820243808 0.31685437947884221 0 0.42306012044700819 0.2929438465283184 0 0.42898914904664159 0.27280015260854412 0 0.43886839613729889 0.2866523900427001 0 0.42306012044700819 0.2929438465283184 0 0.43886839613729889 0.2866523900427001 0 0.44798979146038592 0.30101498564274648 0 0.41049653563469551 0.28274726445394188 0 0.42898914904664159 0.27280015260854412 0 0.41470584610792222 0.26874812811732962 0 0.42898914904664159 0.27280015260854412 0 0.41470584610792222 0.26874812811732962 0 0.42109956718992658 0.25712962444866472 0 0.39793295082238728 0.27255068237955993 0 0.41049653563469551 0.28274726445394188 0 0.41470584610792222 0.26874812811732962 0 0.40548820354440163 0.25740223994573869 0 0.42109956718992658 0.25712962444866472 0 0.41304345626641498 0.24225379751191711 0 0.40548820354440163 0.25740223994573869 0 0.41470584610792222 0.26874812811732962 0 0.42109956718992658 0.25712962444866472 0 0.42898914904664159 0.27280015260854412 0 0.42109956718992658 0.25712962444866472 0 0.44120650966623592 0.25572215845351148 0 0.42109956718992658 0.25712962444866472 0 0.44120650966623592 0.25572215845351148 0 0.42489070409215801 0.24756676585661469 0 0.44120650966623592 0.25572215845351148 0 0.45233624405580852 0.257549898903432 0 0.45082023249427078 0.24110466507455591 0 0.44120650966623592 0.25572215845351148 0 0.45233624405580852 0.257549898903432 0 0.45819973608641618 0.27628283389465852 0 0.42898914904664159 0.27280015260854412 0 0.44120650966623592 0.25572215845351148 0 0.45819973608641618 0.27628283389465852 0 0.44120650966623592 0.25572215845351148 0 0.45819973608641618 0.27628283389465852 0 0.42898914904664159 0.27280015260854412 0 0.45819973608641618 0.27628283389465852 0 0.43886839613729889 0.2866523900427001 0 0.45819973608641618 0.27628283389465852 0 0.46651263924562081 0.26277446274495297 0 0.48042606368055779 0.26866367902601851 0 0.45233624405580852 0.257549898903432 0 0.45819973608641618 0.27628283389465852 0 0.46651263924562081 0.26277446274495297 0 0.45233624405580852 0.257549898903432 0 0.46651263924562081 0.26277446274495297 0 0.45795727863963459 0.24873922717354591 0 0.46651263924562081 0.26277446274495297 0 0.46859864464755879 0.24799951236329479 0 0.45795727863963459 0.24873922717354591 0 0.47325671780689249 0.25710091634916471 0 0.48042606368055779 0.26866367902601851 0 0.4774895236538329 0.24896601126239271 0 0.48042606368055779 0.26866367902601851 0 0.48565916485452543 0.24048384871622941 0 0.4774895236538329 0.24896601126239271 0 0.48042606368055779 0.26866367902601851 0 0.48565916485452543 0.24048384871622941 0 0.47325671780689249 0.25710091634916471 0 0.46859864464755879 0.24799951236329479 0 0.4774895236538329 0.24896601126239271 0 0.46651263924562081 0.26277446274495297 0 0.47325671780689249 0.25710091634916471 0 0.46859864464755879 0.24799951236329479 0 0.46651263924562081 0.26277446274495297 0 0.47325671780689249 0.25710091634916471 0 0.48042606368055779 0.26866367902601851 0 0.45819973608641618 0.27628283389465852 0 0.48042606368055779 0.26866367902601851 0 0.47519296250659299 0.29684350933580828 0 0.48042606368055779 0.26866367902601851 0 0.5 0.25862202311719429 0 0.5 0.28823782183242541 0 0.48042606368055779 0.26866367902601851 0 0.5 0.25862202311719429 0 0.48565916485452543 0.24048384871622941 0 0.48933519365411088 0.29755273506727481 0 0.48736886897978321 0.31157554756132178 0 0.4999999999999864 0.31785362054765648 0 0.48933519365411088 0.29755273506727481 0 0.5 0.28823782183242541 0 0.4999999999999864 0.31785362054765648 0 0.48042606368055779 0.26866367902601851 0 0.48933519365411088 0.29755273506727481 0 0.5 0.28823782183242541 0 0.48042606368055779 0.26866367902601851 0 0.48933519365411088 0.29755273506727481 0 0.47519296250659299 0.29684350933580828 0 0.48042606368055779 0.26866367902601851 0 0.47519296250659299 0.29684350933580828 0 0.47519296250659299 0.29684350933580828 0 0.47291946247376199 0.30908612475717923 0 0.48933519365411088 0.29755273506727481 0 0.48736886897978321 0.31157554756132178 0 0.47519296250659299 0.29684350933580828 0 0.48736886897978321 0.31157554756132178 0 0.47519296250659299 0.29684350933580828 0 0.48736886897978321 0.31157554756132178 0 0.47519296250659299 0.29684350933580828 0 0.47291946247376199 0.30908612475717923 0 0.47291946247376199 0.30908612475717923 0 0.44798979146038592 0.30101498564274648 0 0.47291946247376199 0.30908612475717923 0 0.44798979146038592 0.30101498564274648 0 0.45777679469351917 0.31693623712431251 0 0.47519296250659299 0.29684350933580828 0 0.47291946247376199 0.30908612475717923 0 0.44798979146038592 0.30101498564274648 0 0.45819973608641618 0.27628283389465852 0 0.47519296250659299 0.29684350933580828 0 0.45819973608641618 0.27628283389465852 0 0.47519296250659299 0.29684350933580828 0 0.44798979146038592 0.30101498564274648 0 0.45819973608641618 0.27628283389465852 0 0.43886839613729889 0.2866523900427001 0 0.44798979146038592 0.30101498564274648 0 0.44798979146038592 0.30101498564274648 0 0.44459177253766768 0.31696145998863889 0 0.45777679469351917 0.31693623712431251 0 0.43626507629344752 0.30366096414151827 0 0.44798979146038592 0.30101498564274648 0 0.44459177253766768 0.31696145998863889 0 0.44459177253766768 0.31696145998863889 0 0.45387067790279439 0.33018502725823129 0 0.43683806203130199 0.3332571268365514 0 0.44459177253766768 0.31696145998863889 0 0.45387067790279439 0.33018502725823129 0 0.45777679469351917 0.31693623712431251 0 0.45387067790279439 0.33018502725823129 0 0.44826566710069032 0.34638419146267502 0 0.43683806203130199 0.3332571268365514 0 0.44826566710069032 0.34638419146267502 0 0.43539121360247812 0.34728777106038522 0 0.43683806203130199 0.3332571268365514 0 0.45387067790279439 0.33018502725823129 0 0.46951226909298671 0.32743358797476457 0 0.46610507571219811 0.34578105119234748 0 0.45387067790279439 0.33018502725823129 0 0.46610507571219811 0.34578105119234748 0 0.44826566710069032 0.34638419146267502 0 0.46951226909298671 0.32743358797476457 0 0.46610507571219811 0.34578105119234748 0 0.47291946247376199 0.30908612475717923 0 0.45777679469351917 0.31693623712431251 0 0.46951226909298671 0.32743358797476457 0 0.45387067790279439 0.33018502725823129 0 0.45777679469351917 0.31693623712431251 0 0.46951226909298671 0.32743358797476457 0 0.47291946247376199 0.30908612475717923 0 0.46951226909298671 0.32743358797476457 0 0.4999999999999864 0.31785362054765648 0 0.47291946247376199 0.30908612475717923 0 0.46951226909298671 0.32743358797476457 0 0.46951226909298671 0.32743358797476457 0 0.48417268943081238 0.33814529290438727 0 0.46610507571219811 0.34578105119234748 0 0.48417268943081238 0.33814529290438727 0 0.4999999999999864 0.31785362054765648 0 0.5 0.34601793352880822 0 0.46951226909298671 0.32743358797476457 0 0.48417268943081238 0.33814529290438727 0 0.4999999999999864 0.31785362054765648 0 0.48736886897978321 0.31157554756132178 0 0.47291946247376199 0.30908612475717923 0 0.4999999999999864 0.31785362054765648 0 0.47291946247376199 0.30908612475717923 0 0.4999999999999864 0.31785362054765648 0 0.48740106830314012 0.36682627537576967 0 0.50000000000000022 0.37418224650995979 0 0.5 0.34601793352880822 0 0.48740106830314012 0.36682627537576967 0 0.50000000000000022 0.37418224650995979 0 0.48616240067964939 0.38036845044491141 0 0.48740106830314012 0.36682627537576967 0 0.5 0.34601793352880822 0 0.4826016685664023 0.35215811435359012 0 0.48417268943081238 0.33814529290438727 0 0.5 0.34601793352880822 0 0.4826016685664023 0.35215811435359012 0 0.48417268943081238 0.33814529290438727 0 0.4826016685664023 0.35215811435359012 0 0.46610507571219811 0.34578105119234748 0 0.4826016685664023 0.35215811435359012 0 0.47532950938586072 0.3640200187666377 0 0.46610507571219811 0.34578105119234748 0 0.48740106830314012 0.36682627537576967 0 0.47532950938586072 0.3640200187666377 0 0.47562828481796959 0.38068544372220758 0 0.47532950938586072 0.3640200187666377 0 0.46537051776622618 0.37833835832747559 0 0.47562828481796959 0.38068544372220758 0 0.48740106830314012 0.36682627537576967 0 0.4826016685664023 0.35215811435359012 0 0.47532950938586072 0.3640200187666377 0 0.47532950938586072 0.3640200187666377 0 0.46537051776622618 0.37833835832747559 0 0.47532950938586072 0.3640200187666377 0 0.45710174159167671 0.36190320953478428 0 0.46537051776622618 0.37833835832747559 0 0.45710174159167671 0.36190320953478428 0 0.44629397137643501 0.37602773656640909 0 0.46537051776622618 0.37833835832747559 0 0.45710174159167671 0.36190320953478428 0 0.46610507571219811 0.34578105119234748 0 0.44826566710069032 0.34638419146267502 0 0.47532950938586072 0.3640200187666377 0 0.45710174159167671 0.36190320953478428 0 0.46610507571219811 0.34578105119234748 0 0.45710174159167671 0.36190320953478428 0 0.44826566710069032 0.34638419146267502 0 0.44180526075716248 0.36075332269503191 0 0.44826566710069032 0.34638419146267502 0 0.44180526075716248 0.36075332269503191 0 0.43539121360247812 0.34728777106038522 0 0.44180526075716248 0.36075332269503191 0 0.42870671375057823 0.37104831136444971 0 0.44629397137643501 0.37602773656640909 0 0.45710174159167671 0.36190320953478428 0 0.44180526075716248 0.36075332269503191 0 0.44629397137643501 0.37602773656640909 0 0.44180526075716248 0.36075332269503191 0 0.42870671375057823 0.37104831136444971 0 0.42858989259247438 0.35719929658021488 0 0.42870671375057823 0.37104831136444971 0 0.41478968913041397 0.3610964223497099 0 0.42858989259247438 0.35719929658021488 0 0.42870671375057823 0.37104831136444971 0 0.41478968913041397 0.3610964223497099 0 0.41386260302500189 0.37417807170063938 0 0.41478968913041397 0.3610964223497099 0 0.41386260302500189 0.37417807170063938 0 0.39919791899142237 0.36357005672773612 0 0.41478968913041397 0.3610964223497099 0 0.42229767934055151 0.34430418561604559 0 0.40493706320898343 0.34820641394960028 0 0.41478968913041397 0.3610964223497099 0 0.39919791899142237 0.36357005672773612 0 0.40493706320898343 0.34820641394960028 0 0.42229767934055151 0.34430418561604559 0 0.42858989259247438 0.35719929658021488 0 0.43539121360247812 0.34728777106038522 0 0.41478968913041397 0.3610964223497099 0 0.42229767934055151 0.34430418561604559 0 0.42858989259247438 0.35719929658021488 0 0.44180526075716248 0.36075332269503191 0 0.42858989259247438 0.35719929658021488 0 0.43539121360247812 0.34728777106038522 0 0.42229767934055151 0.34430418561604559 0 0.43683806203130199 0.3332571268365514 0 0.42082731366698323 0.32772570309559068 0 0.42229767934055151 0.34430418561604559 0 0.43539121360247812 0.34728777106038522 0 0.43683806203130199 0.3332571268365514 0 0.44459177253766768 0.31696145998863889 0 0.43683806203130199 0.3332571268365514 0 0.43020804820243808 0.31685437947884221 0 0.43683806203130199 0.3332571268365514 0 0.43020804820243808 0.31685437947884221 0 0.42082731366698323 0.32772570309559068 0 0.43020804820243808 0.31685437947884221 0 0.41799202465572521 0.31453101734974831 0 0.42082731366698323 0.32772570309559068 0 0.41062122079165958 0.30389682696719922 0 0.41799202465572521 0.31453101734974831 0 0.40726140734754201 0.32069573088371961 0 0.41799202465572521 0.31453101734974831 0 0.42082731366698323 0.32772570309559068 0 0.40726140734754201 0.32069573088371961 0 0.42082731366698323 0.32772570309559068 0 0.40726140734754201 0.32069573088371961 0 0.40763852459678612 0.33344378472293679 0 0.42229767934055151 0.34430418561604559 0 0.40763852459678612 0.33344378472293679 0 0.40493706320898343 0.34820641394960028 0 0.42229767934055151 0.34430418561604559 0 0.42082731366698323 0.32772570309559068 0 0.40763852459678612 0.33344378472293679 0 0.40763852459678612 0.33344378472293679 0 0.39372747347084308 0.33522562845063719 0 0.40493706320898343 0.34820641394960028 0 0.40763852459678612 0.33344378472293679 0 0.39372747347084308 0.33522562845063719 0 0.39584356108449609 0.32325993614539622 0 0.39372747347084308 0.33522562845063719 0 0.38992686052638248 0.34779218951587482 0 0.40493706320898343 0.34820641394960028 0 0.39692954298027638 0.31005955406576219 0 0.40726140734754201 0.32069573088371961 0 0.39584356108449609 0.32325993614539622 0 0.40726140734754201 0.32069573088371961 0 0.40763852459678612 0.33344378472293679 0 0.39584356108449609 0.32325993614539622 0 0.39372747347084308 0.33522562845063719 0 0.39584356108449609 0.32325993614539622 0 0.38341773221402542 0.32471982359770041 0 0.39692954298027638 0.31005955406576219 0 0.39584356108449609 0.32325993614539622 0 0.3857290608930084 0.31251581824809638 0 0.39584356108449609 0.32325993614539622 0 0.3857290608930084 0.31251581824809638 0 0.38341773221402542 0.32471982359770041 0 0.37307310200327393 0.31219336136973969 0 0.3857290608930084 0.31251581824809638 0 0.38341773221402542 0.32471982359770041 0 0.366805298484009 0.32773064715417333 0 0.38341773221402542 0.32471982359770041 0 0.3799260866623464 0.33812367827077972 0 0.39372747347084308 0.33522562845063719 0 0.3799260866623464 0.33812367827077972 0 0.38992686052638248 0.34779218951587482 0 0.39372747347084308 0.33522562845063719 0 0.38341773221402542 0.32471982359770041 0 0.3799260866623464 0.33812367827077972 0 0.3799260866623464 0.33812367827077972 0 0.37800586299017319 0.34967192953987081 0 0.38992686052638248 0.34779218951587482 0 0.3675597442042064 0.3443591612716449 0 0.3799260866623464 0.33812367827077972 0 0.37800586299017319 0.34967192953987081 0 0.37800586299017319 0.34967192953987081 0 0.38992686052638248 0.34779218951587482 0 0.38467292028055411 0.35803235538340888 0 0.36970142508263398 0.3579413439932792 0 0.37800586299017319 0.34967192953987081 0 0.38467292028055411 0.35803235538340888 0 0.36970142508263398 0.3579413439932792 0 0.38467292028055411 0.35803235538340888 0 0.384850022401934 0.37015488979780259 0 0.38467292028055411 0.35803235538340888 0 0.384850022401934 0.37015488979780259 0 0.39919791899142237 0.36357005672773612 0 0.384850022401934 0.37015488979780259 0 0.39919791899142237 0.36357005672773612 0 0.39927528678619939 0.38589814607809703 0 0.41386260302500189 0.37417807170063938 0 0.39919791899142237 0.36357005672773612 0 0.39927528678619939 0.38589814607809703 0 0.38992686052638248 0.34779218951587482 0 0.38467292028055411 0.35803235538340888 0 0.39919791899142237 0.36357005672773612 0 0.38992686052638248 0.34779218951587482 0 0.39919791899142237 0.36357005672773612 0 0.40493706320898343 0.34820641394960028 0 0.39185136882858268 0.40263798185684768 0 0.39927528678619939 0.38589814607809703 0 0.40876101323739572 0.40149484728114571 0 0.36823163768292438 0.39461798004940318 0 0.384850022401934 0.37015488979780259 0 0.36823163768292438 0.39461798004940318 0 0.384850022401934 0.37015488979780259 0 0.39927528678619939 0.38589814607809703 0 0.36823163768292438 0.39461798004940318 0 0.39185136882858268 0.40263798185684768 0 0.38141605174984627 0.4134181180308602 0 0.36823163768292438 0.39461798004940318 0 0.39185136882858268 0.40263798185684768 0 0.39927528678619939 0.38589814607809703 0 0.38141605174984627 0.4134181180308602 0 0.38617224927197508 0.43670876379398449 0 0.40157285468654769 0.4177608178447324 0 0.36692639980375458 0.43209935763309559 0 0.38141605174984627 0.4134181180308602 0 0.38617224927197508 0.43670876379398449 0 0.38617224927197508 0.43670876379398449 0 0.40304785416489791 0.43462576082828419 0 0.40157285468654769 0.4177608178447324 0 0.39185136882858268 0.40263798185684768 0 0.38141605174984627 0.4134181180308602 0 0.40157285468654769 0.4177608178447324 0 0.39185136882858268 0.40263798185684768 0 0.40157285468654769 0.4177608178447324 0 0.40876101323739572 0.40149484728114571 0 0.40157285468654769 0.4177608178447324 0 0.41463769263155309 0.42909378477311438 0 0.42201137253201942 0.41276641039492812 0 0.40157285468654769 0.4177608178447324 0 0.42201137253201942 0.41276641039492812 0 0.40876101323739572 0.40149484728114571 0 0.40304785416489791 0.43462576082828419 0 0.40157285468654769 0.4177608178447324 0 0.41463769263155309 0.42909378477311438 0 0.41463769263155309 0.42909378477311438 0 0.42872443496021218 0.43102552558611701 0 0.42201137253201942 0.41276641039492812 0 0.40304785416489791 0.43462576082828419 0 0.41463769263155309 0.42909378477311438 0 0.41315663280950199 0.44271744969695581 0 0.41463769263155309 0.42909378477311438 0 0.42352586255135499 0.44031385391017352 0 0.41315663280950199 0.44271744969695581 0 0.42872443496021218 0.43102552558611701 0 0.44516759318701382 0.42831683837445528 0 0.43823670246176649 0.44222865630197422 0 0.41463769263155309 0.42909378477311438 0 0.42872443496021218 0.43102552558611701 0 0.42352586255135499 0.44031385391017352 0 0.42872443496021218 0.43102552558611701 0 0.44206798055340191 0.41184111173721533 0 0.42872443496021218 0.43102552558611701 0 0.42201137253201942 0.41276641039492812 0 0.44206798055340191 0.41184111173721533 0 0.42201137253201942 0.41276641039492812 0 0.42734340646639529 0.38927742198320442 0 0.44206798055340191 0.41184111173721533 0 0.42201137253201942 0.41276641039492812 0 0.40876101323739572 0.40149484728114571 0 0.42734340646639529 0.38927742198320442 0 0.39927528678619939 0.38589814607809703 0 0.40876101323739572 0.40149484728114571 0 0.42734340646639529 0.38927742198320442 0 0.39927528678619939 0.38589814607809703 0 0.42734340646639529 0.38927742198320442 0 0.41386260302500189 0.37417807170063938 0 0.39927528678619939 0.38589814607809703 0 0.42734340646639529 0.38927742198320442 0 0.42870671375057823 0.37104831136444971 0 0.41386260302500189 0.37417807170063938 0 0.42734340646639529 0.38927742198320442 0 0.42870671375057823 0.37104831136444971 0 0.42734340646639529 0.38927742198320442 0 0.44629397137643501 0.37602773656640909 0 0.42734340646639529 0.38927742198320442 0 0.44629397137643501 0.37602773656640909 0 0.45541152614659108 0.39265669788831309 0 0.42734340646639529 0.38927742198320442 0 0.45541152614659108 0.39265669788831309 0 0.44206798055340191 0.41184111173721533 0 0.42734340646639529 0.38927742198320442 0 0.45541152614659108 0.39265669788831309 0 0.45541152614659108 0.39265669788831309 0 0.46106137736579239 0.40508242321805121 0 0.44206798055340191 0.41184111173721533 0 0.45541152614659108 0.39265669788831309 0 0.44206798055340191 0.41184111173721533 0 0.45541152614659108 0.39265669788831309 0 0.46106137736579239 0.40508242321805121 0 0.47076735610154091 0.3945054710430842 0 0.45541152614659108 0.39265669788831309 0 0.47076735610154091 0.3945054710430842 0 0.46106137736579239 0.40508242321805121 0 0.47076735610154091 0.3945054710430842 0 0.47360529892757658 0.40597311772249262 0 0.45541152614659108 0.39265669788831309 0 0.46537051776622618 0.37833835832747559 0 0.47076735610154091 0.3945054710430842 0 0.44629397137643501 0.37602773656640909 0 0.45541152614659108 0.39265669788831309 0 0.46537051776622618 0.37833835832747559 0 0.45541152614659108 0.39265669788831309 0 0.46537051776622618 0.37833835832747559 0 0.46537051776622618 0.37833835832747559 0 0.47562828481796959 0.38068544372220758 0 0.47076735610154091 0.3945054710430842 0 0.48740106830314012 0.36682627537576967 0 0.47562828481796959 0.38068544372220758 0 0.48616240067964939 0.38036845044491141 0 0.47562828481796959 0.38068544372220758 0 0.48150334687935548 0.38783720611044742 0 0.48616240067964939 0.38036845044491141 0 0.47562828481796959 0.38068544372220758 0 0.48150334687935548 0.38783720611044742 0 0.47076735610154091 0.3945054710430842 0 0.47360529892757658 0.40597311772249262 0 0.48612318605649057 0.3963542441978567 0 0.48574151560915041 0.4154394688681412 0 0.47076735610154091 0.3945054710430842 0 0.47360529892757658 0.40597311772249262 0 0.48612318605649057 0.3963542441978567 0 0.47076735610154091 0.3945054710430842 0 0.48612318605649057 0.3963542441978567 0 0.48150334687935548 0.38783720611044742 0 0.47076735610154091 0.3945054710430842 0 0.48612318605649057 0.3963542441978567 0 0.4928707578045754 0.39481085768905061 0 0.48574151560915041 0.4154394688681412 0 0.48612318605649057 0.3963542441978567 0 0.4928707578045754 0.39481085768905061 0 0.48883550674112702 0.38727242114417681 0 0.5 0.39974583827014831 0 0.4928707578045754 0.39481085768905061 0 0.48574151560915041 0.4154394688681412 0 0.48612318605649057 0.3963542441978567 0 0.4928707578045754 0.39481085768905061 0 0.48574151560915041 0.4154394688681412 0 0.50000000000000022 0.37418224650995979 0 0.5 0.39974583827014831 0 0.4928707578045754 0.39481085768905061 0 0.50000000000000022 0.37418224650995979 0 0.4928707578045754 0.39481085768905061 0 0.48883550674112702 0.38727242114417681 0 0.50000000000000022 0.37418224650995979 0 0.4928707578045754 0.39481085768905061 0 0.50000000000000022 0.37418224650995979 0 0.48616240067964939 0.38036845044491141 0 0.48883550674112702 0.38727242114417681 0 0.48150334687935548 0.38783720611044742 0 0.48612318605649057 0.3963542441978567 0 0.48883550674112702 0.38727242114417681 0 0.48150334687935548 0.38783720611044742 0 0.48616240067964939 0.38036845044491141 0 0.48883550674112702 0.38727242114417681 0 0.5 0.42530943003033672 0 0.47861227341372542 0.43606808004723191 0 0.50000000000000355 0.45087302179052519 0 0.5 0.42530943003033672 0 0.48574151560915041 0.4154394688681412 0 0.47861227341372542 0.43606808004723191 0 0.5 0.39974583827014831 0 0.5 0.42530943003033672 0 0.48574151560915041 0.4154394688681412 0 0.47360529892757658 0.40597311772249262 0 0.48574151560915041 0.4154394688681412 0 0.46345472509985158 0.420435717699151 0 0.48574151560915041 0.4154394688681412 0 0.47861227341372542 0.43606808004723191 0 0.48574151560915041 0.4154394688681412 0 0.47861227341372542 0.43606808004723191 0 0.46345472509985158 0.420435717699151 0 0.47861227341372542 0.43606808004723191 0 0.46345472509985158 0.420435717699151 0 0.46545229139528288 0.44073407104426282 0 0.45335412285983678 0.43605318054781939 0 0.46345472509985158 0.420435717699151 0 0.44516759318701382 0.42831683837445528 0 0.45335412285983678 0.43605318054781939 0 0.46345472509985158 0.420435717699151 0 0.46545229139528288 0.44073407104426282 0 0.46106137736579239 0.40508242321805121 0 0.46345472509985158 0.420435717699151 0 0.44206798055340191 0.41184111173721533 0 0.46106137736579239 0.40508242321805121 0 0.47360529892757658 0.40597311772249262 0 0.46345472509985158 0.420435717699151 0 0.46345472509985158 0.420435717699151 0 0.44206798055340191 0.41184111173721533 0 0.44516759318701382 0.42831683837445528 0 0.42872443496021218 0.43102552558611701 0 0.44206798055340191 0.41184111173721533 0 0.44516759318701382 0.42831683837445528 0 0.45335412285983678 0.43605318054781939 0 0.44516759318701382 0.42831683837445528 0 0.43823670246176649 0.44222865630197422 0 0.5 0.5 0 0.44845529671191081 0.47763226347916182 0 0.40462161622293502 0.5 0 0.43823670246176649 0.44222865630197422 0 0.44103533897123298 0.45796542379109989 0 0.45382476974716612 0.44642467007399889 0 0.45335412285983678 0.43605318054781939 0 0.43823670246176649 0.44222865630197422 0 0.45382476974716612 0.44642467007399889 0 0.44103533897123298 0.45796542379109989 0 0.44845529671191081 0.47763226347916182 0 0.42705153725055722 0.45964742690226967 0 0.44103533897123298 0.45796542379109989 0 0.46315541039639768 0.47006377132899407 0 0.44845529671191081 0.47763226347916182 0 0.44103533897123298 0.45796542379109989 0 0.46315541039639768 0.47006377132899407 0 0.44103533897123298 0.45796542379109989 0 0.47051766948561841 0.45441922279081348 0 0.46315541039639768 0.47006377132899407 0 0.44103533897123298 0.45796542379109989 0 0.47051766948561841 0.45441922279081348 0 0.45382476974716612 0.44642467007399889 0 0.46545229139528288 0.44073407104426282 0 0.47051766948561841 0.45441922279081348 0 0.44103533897123298 0.45796542379109989 0 0.45382476974716612 0.44642467007399889 0 0.47051766948561841 0.45441922279081348 0 0.45335412285983678 0.43605318054781939 0 0.45382476974716612 0.44642467007399889 0 0.46545229139528288 0.44073407104426282 0 0.47861227341372542 0.43606808004723191 0 0.46545229139528288 0.44073407104426282 0 0.47051766948561841 0.45441922279081348 0 0.47861227341372542 0.43606808004723191 0 0.47051766948561841 0.45441922279081348 0 0.50000000000000355 0.45087302179052519 0 0.47924815705955659 0.46607575419936381 0 0.50000000000000355 0.45087302179052519 0 0.48527548182156183 0.48216211886688948 0 0.47924815705955659 0.46607575419936381 0 0.47051766948561841 0.45441922279081348 0 0.46315541039639768 0.47006377132899407 0 0.47924815705955659 0.46607575419936381 0 0.47051766948561841 0.45441922279081348 0 0.50000000000000355 0.45087302179052519 0 0.47051766948561841 0.45441922279081348 0 0.50000000000000355 0.45087302179052519 0 0.5 0.5 0 0.48527548182156183 0.48216211886688948 0 0.44845529671191081 0.47763226347916182 0 0.50000000000000355 0.45087302179052519 0 0.5 0.5 0 0.48527548182156183 0.48216211886688948 0 0.48527548182156183 0.48216211886688948 0 0.46315541039639768 0.47006377132899407 0 0.47924815705955659 0.46607575419936381 0 0.48527548182156183 0.48216211886688948 0 0.46315541039639768 0.47006377132899407 0 0.48527548182156183 0.48216211886688948 0 0.46315541039639768 0.47006377132899407 0 0.44845529671191081 0.47763226347916182 0 0.44845529671191081 0.47763226347916182 0 0.41804769232069122 0.47358710346487959 0 0.40462161622293502 0.5 0 0.44845529671191081 0.47763226347916182 0 0.41804769232069122 0.47358710346487959 0 0.42705153725055722 0.45964742690226967 0 0.44103533897123298 0.45796542379109989 0 0.42709598589036779 0.45034143674402732 0 0.44103533897123298 0.45796542379109989 0 0.42705153725055722 0.45964742690226967 0 0.42709598589036779 0.45034143674402732 0 0.44103533897123298 0.45796542379109989 0 0.42705153725055722 0.45964742690226967 0 0.42705153725055722 0.45964742690226967 0 0.42709598589036779 0.45034143674402732 0 0.4185997700139617 0.45659704171476151 0 0.43823670246176649 0.44222865630197422 0 0.44103533897123298 0.45796542379109989 0 0.42709598589036779 0.45034143674402732 0 0.42872443496021218 0.43102552558611701 0 0.43823670246176649 0.44222865630197422 0 0.42352586255135499 0.44031385391017352 0 0.43823670246176649 0.44222865630197422 0 0.42709598589036779 0.45034143674402732 0 0.42352586255135499 0.44031385391017352 0 0.42709598589036779 0.45034143674402732 0 0.42352586255135499 0.44031385391017352 0 0.41315663280950199 0.44271744969695581 0 0.42709598589036779 0.45034143674402732 0 0.41315663280950199 0.44271744969695581 0 0.42709598589036779 0.45034143674402732 0 0.41315663280950199 0.44271744969695581 0 0.4185997700139617 0.45659704171476151 0 0.41315663280950199 0.44271744969695581 0 0.40764700179869018 0.45669179176567481 0 0.39969984142491111 0.44684798803263392 0 0.41315663280950199 0.44271744969695581 0 0.4185997700139617 0.45659704171476151 0 0.40764700179869018 0.45669179176567481 0 0.41804769232069122 0.47358710346487959 0 0.4185997700139617 0.45659704171476151 0 0.40764700179869018 0.45669179176567481 0 0.41804769232069122 0.47358710346487959 0 0.42705153725055722 0.45964742690226967 0 0.4185997700139617 0.45659704171476151 0 0.40764700179869018 0.45669179176567481 0 0.39969984142491111 0.44684798803263392 0 0.39036341762876231 0.46357278916078748 0 0.41804769232069122 0.47358710346487959 0 0.39036341762876231 0.46357278916078748 0 0.41804769232069122 0.47358710346487959 0 0.40764700179869018 0.45669179176567481 0 0.39036341762876231 0.46357278916078748 0 0.38617224927197508 0.43670876379398449 0 0.39969984142491111 0.44684798803263392 0 0.39036341762876231 0.46357278916078748 0 0.38617224927197508 0.43670876379398449 0 0.40304785416489791 0.43462576082828419 0 0.39969984142491111 0.44684798803263392 0 0.40304785416489791 0.43462576082828419 0 0.41315663280950199 0.44271744969695581 0 0.39969984142491111 0.44684798803263392 0 0.36267914293683318 0.45355847485669532 0 0.38617224927197508 0.43670876379398449 0 0.39036341762876231 0.46357278916078748 0 0.36267914293683318 0.45355847485669532 0 0.39036341762876231 0.46357278916078748 0 0.41804769232069122 0.47358710346487959 0 0.39036341762876231 0.46357278916078748 0 0.40462161622293502 0.5 0 0.36789303020321462 0.47839313322159632 0 0.39036341762876231 0.46357278916078748 0 0.40462161622293502 0.5 0 0.33134736395133069 0.082765556276080565 0 0.33863915408004819 0.09690406441842106 0 0.35178471757497942 0.088049209872711795 0 0.33134736395133069 0.082765556276080565 0 0.35178471757497942 0.088049209872711795 0 0.33134736395133069 0.082765556276080565 0 0.35178471757497942 0.088049209872711795 0 0.34468229556017632 0.075454242470947036 0 0.33134736395133069 0.082765556276080565 0 0.32572969974477889 0.094365236854289311 0 0.33863915408004819 0.09690406441842106 0 0.33110709716473091 0.069148654883160021 0 0.35130418400177982 0.060815407086870207 0 0.33110709716473091 0.069148654883160021 0 0.34468229556017632 0.075454242470947036 0 0.35130418400177982 0.060815407086870207 0 0.33134736395133069 0.082765556276080565 0 0.33110709716473091 0.069148654883160021 0 0.34468229556017632 0.075454242470947036 0 0.33110709716473091 0.069148654883160021 0 0.31091001032768212 0.077481902679449599 0 0.33110709716473091 0.069148654883160021 0 0.31481685976393242 0.075169464914253012 0 0.31091001032768212 0.077481902679449599 0 0.33134736395133069 0.082765556276080565 0 0.33110709716473091 0.069148654883160021 0 0.31091001032768212 0.077481902679449599 0 0.33110709716473091 0.069148654883160021 0 0.31481685976393242 0.075169464914253012 0 0.31889078564279311 0.061365926646811592 0 0.31481685976393242 0.075169464914253012 0 0.31889078564279311 0.061365926646811592 0 0.31481685976393242 0.075169464914253012 0 0.31889078564279311 0.061365926646811592 0 0.30507661945921882 0.075973800544005321 0 0.33134736395133069 0.082765556276080565 0 0.31091001032768212 0.077481902679449599 0 0.33134736395133069 0.082765556276080565 0 0.3157794750188303 0.089208638633754084 0 0.31091001032768212 0.077481902679449599 0 0.33134736395133069 0.082765556276080565 0 0.3157794750188303 0.089208638633754084 0 0.32572969974477889 0.094365236854289311 0 0.3157794750188303 0.089208638633754084 0 0.31592089704367871 0.1017884634861959 0 0.32572969974477889 0.094365236854289311 0 0.31592089704367871 0.1017884634861959 0 0.32760901278832177 0.10405372985036671 0 0.32278724116074298 0.1194404418530544 0 0.31592089704367871 0.1017884634861959 0 0.32760901278832177 0.10405372985036671 0 0.32572969974477889 0.094365236854289311 0 0.31592089704367871 0.1017884634861959 0 0.32278724116074298 0.1194404418530544 0 0.30434648501894312 0.11652775361175011 0 0.32278724116074298 0.1194404418530544 0 0.34115838414990812 0.1240978299826179 0 0.33837560795197458 0.1102252784649474 0 0.32278724116074298 0.1194404418530544 0 0.34115838414990812 0.1240978299826179 0 0.33003415884325932 0.12977548123808419 0 0.32760901278832177 0.10405372985036671 0 0.32278724116074298 0.1194404418530544 0 0.33837560795197458 0.1102252784649474 0 0.32760901278832177 0.10405372985036671 0 0.32572969974477889 0.094365236854289311 0 0.33863915408004819 0.09690406441842106 0 0.32760901278832177 0.10405372985036671 0 0.33837560795197458 0.1102252784649474 0 0.33863915408004819 0.09690406441842106 0 0.33837560795197458 0.1102252784649474 0 0.33863915408004819 0.09690406441842106 0 0.35433357936469001 0.1075034218552875 0 0.33863915408004819 0.09690406441842106 0 0.35433357936469001 0.1075034218552875 0 0.35178471757497942 0.088049209872711795 0 0.34115838414990812 0.1240978299826179 0 0.35433357936469001 0.1075034218552875 0 0.36300567237894721 0.1285309682319114 0 0.34115838414990812 0.1240978299826179 0 0.33837560795197458 0.1102252784649474 0 0.35433357936469001 0.1075034218552875 0 0.35433357936469001 0.1075034218552875 0 0.37495322760371941 0.109274496328456 0 0.36300567237894721 0.1285309682319114 0 0.37495322760371941 0.109274496328456 0 0.36300567237894721 0.1285309682319114 0 0.38541655887394882 0.1223440697396076 0 0.35433357936469001 0.1075034218552875 0 0.37222207119862799 0.093332863469343011 0 0.35178471757497942 0.088049209872711795 0 0.35433357936469001 0.1075034218552875 0 0.37495322760371941 0.109274496328456 0 0.37222207119862799 0.093332863469343011 0 0.37222207119862799 0.093332863469343011 0 0.35178471757497942 0.088049209872711795 0 0.37222207119862799 0.093332863469343011 0 0.36322661733552009 0.074083094385922865 0 0.38740624794095191 0.069417520056371695 0 0.37222207119862799 0.093332863469343011 0 0.35178471757497942 0.088049209872711795 0 0.36322661733552009 0.074083094385922865 0 0.35178471757497942 0.088049209872711795 0 0.34468229556017632 0.075454242470947036 0 0.36322661733552009 0.074083094385922865 0 0.34468229556017632 0.075454242470947036 0 0.36322661733552009 0.074083094385922865 0 0.35130418400177982 0.060815407086870207 0 0.36322661733552009 0.074083094385922865 0 0.37257469487278189 0.057153028651725959 0 0.35130418400177982 0.060815407086870207 0 0.36322661733552009 0.074083094385922865 0 0.37257469487278189 0.057153028651725959 0 0.38740624794095191 0.069417520056371695 0 0.37257469487278189 0.057153028651725959 0 0.35791473149723391 0.045813496644948097 0 0.35130418400177982 0.060815407086870207 0 0.37257469487278189 0.057153028651725959 0 0.35791473149723391 0.045813496644948097 0 0.37893757327845262 0.040156775749227477 0 0.35791473149723391 0.045813496644948097 0 0.35154120834117247 0.026839538942340702 0 0.37893757327845262 0.040156775749227477 0 0.35791473149723391 0.045813496644948097 0 0.35154120834117247 0.026839538942340702 0 0.33521599699198268 0.044102732794576147 0 0.35791473149723391 0.045813496644948097 0 0.35130418400177982 0.060815407086870207 0 0.33521599699198268 0.044102732794576147 0 0.36786641969036238 0.0095763450901051733 0 0.35507948802578521 0.010185704675887201 0 0.35628971255614089 -0.0030640896366769411 0 0.35154120834117247 0.026839538942340702 0 0.3813137462246125 0.022518898453150089 0 0.37893757327845262 0.040156775749227477 0 0.36786641969036238 0.0095763450901051733 0 0.35154120834117247 0.026839538942340702 0 0.3813137462246125 0.022518898453150089 0 0.36786641969036238 0.0095763450901051733 0 0.35154120834117247 0.026839538942340702 0 0.3446206115154653 0.0073910243077802227 0 0.33696130763673099 0.00013821920365907181 0 0.35283632421252942 -0.0024919360591844739 0 0.36786641969036238 0.0095763450901051733 0 0.35154120834117247 0.026839538942340702 0 0.35507948802578521 0.010185704675887201 0 0.35154120834117247 0.026839538942340702 0 0.35507948802578521 0.010185704675887201 0 0.3446206115154653 0.0073910243077802227 0 0.3446206115154653 0.0073910243077802227 0 0.35283632421252942 -0.0024919360591844739 0 0.35628971255614089 -0.0030640896366769411 0 0.3446206115154653 0.0073910243077802227 0 0.35628971255614089 -0.0030640896366769411 0 0.3446206115154653 0.0073910243077802227 0 0.35283632421252942 -0.0024919360591844739 0 0.35507948802578521 0.010185704675887201 0 0.3446206115154653 0.0073910243077802227 0 0.35628971255614089 -0.0030640896366769411 0 0.33696130763673099 0.00013821920365907181 0 0.33129774975715942 0.019327851083365429 0 0.33696130763673099 0.00013821920365907181 0 0.33129774975715942 0.019327851083365429 0 0.32553066054746599 0.0099790169309520935 0 0.3446206115154653 0.0073910243077802227 0 0.33696130763673099 0.00013821920365907181 0 0.33129774975715942 0.019327851083365429 0 0.3446206115154653 0.0073910243077802227 0 0.33129774975715942 0.019327851083365429 0 0.3446206115154653 0.0073910243077802227 0 0.33129774975715942 0.019327851083365429 0 0.32942631790269888 0.025668757124880669 0 0.3446206115154653 0.0073910243077802227 0 0.32942631790269888 0.025668757124880669 0 0.35154120834117247 0.026839538942340702 0 0.3446206115154653 0.0073910243077802227 0 0.32942631790269888 0.025668757124880669 0 0.33129774975715942 0.019327851083365429 0 0.32942631790269888 0.025668757124880669 0 0.33129774975715942 0.019327851083365429 0 0.32942631790269888 0.025668757124880669 0 0.32798832338791339 0.022292983501077279 0 0.33129774975715942 0.019327851083365429 0 0.32798832338791339 0.022292983501077279 0 0.32942631790269888 0.025668757124880669 0 0.31572205603903419 0.02858850146016088 0 0.32287776337547069 0.021743480124379769 0 0.31572205603903419 0.02858850146016088 0 0.3169570668164467 0.016205688447498381 0 0.32287776337547069 0.021743480124379769 0 0.3169570668164467 0.016205688447498381 0 0.32287776337547069 0.021743480124379769 0 0.32461916499943932 0.016955518011329041 0 0.32287776337547069 0.021743480124379769 0 0.32798832338791339 0.022292983501077279 0 0.32461916499943932 0.016955518011329041 0 0.32942631790269888 0.025668757124880669 0 0.32287776337547069 0.021743480124379769 0 0.32798832338791339 0.022292983501077279 0 0.33129774975715942 0.019327851083365429 0 0.32798832338791339 0.022292983501077279 0 0.32461916499943932 0.016955518011329041 0 0.33696130763673099 0.00013821920365907181 0 0.32553066054746599 0.0099790169309520935 0 0.31555882620551168 0.0036841587562509142 0 0.33696130763673099 0.00013821920365907181 0 0.31555882620551168 0.0036841587562509142 0 0.3169570668164467 0.016205688447498381 0 0.32461916499943932 0.016955518011329041 0 0.32553066054746599 0.0099790169309520935 0 0.33129774975715942 0.019327851083365429 0 0.32461916499943932 0.016955518011329041 0 0.32553066054746599 0.0099790169309520935 0 0.3169570668164467 0.016205688447498381 0 0.32553066054746599 0.0099790169309520935 0 0.31555882620551168 0.0036841587562509142 0 0.33110709716473091 0.069148654883160021 0 0.33521599699198268 0.044102732794576147 0 0.31889078564279311 0.061365926646811592 0 0.33110709716473091 0.069148654883160021 0 0.35130418400177982 0.060815407086870207 0 0.33521599699198268 0.044102732794576147 0 0.35154120834117247 0.026839538942340702 0 0.32942631790269888 0.025668757124880669 0 0.33521599699198268 0.044102732794576147 0 0.32942631790269888 0.025668757124880669 0 0.33521599699198268 0.044102732794576147 0 0.324158551772746 0.043517341885846127 0 0.35154120834117247 0.026839538942340702 0 0.33521599699198268 0.044102732794576147 0 0.32942631790269888 0.025668757124880669 0 0.324158551772746 0.043517341885846127 0 0.32942631790269888 0.025668757124880669 0 0.324158551772746 0.043517341885846127 0 0.31652177140282473 0.041192075224537043 0 0.32942631790269888 0.025668757124880669 0 0.31652177140282473 0.041192075224537043 0 0.32942631790269888 0.025668757124880669 0 0.31572205603903419 0.02858850146016088 0 0.31652177140282473 0.041192075224537043 0 0.31652177140282473 0.041192075224537043 0 0.31889078564279311 0.061365926646811592 0 0.3036172249029509 0.056715393324193772 0 0.324158551772746 0.043517341885846127 0 0.31889078564279311 0.061365926646811592 0 0.33521599699198268 0.044102732794576147 0 0.31889078564279311 0.061365926646811592 0 0.324158551772746 0.043517341885846127 0 0.31652177140282473 0.041192075224537043 0 0.31889078564279311 0.061365926646811592 0 0.33521599699198268 0.044102732794576147 0 0.324158551772746 0.043517341885846127 0 0.31889078564279311 0.061365926646811592 0 0.3036172249029509 0.056715393324193772 0 0.29718946762654391 0.052479754709737148 0 0.3034915593079871 0.046408569082858217 0 0.3036172249029509 0.056715393324193772 0 0.3034915593079871 0.046408569082858217 0 0.29718946762654391 0.052479754709737148 0 0.3034915593079871 0.046408569082858217 0 0.29136468248936132 0.050861969542240142 0 0.3036172249029509 0.056715393324193772 0 0.30685022275786078 0.046787339832632842 0 0.3034915593079871 0.046408569082858217 0 0.31652177140282473 0.041192075224537043 0 0.3036172249029509 0.056715393324193772 0 0.31652177140282473 0.041192075224537043 0 0.3036172249029509 0.056715393324193772 0 0.30685022275786078 0.046787339832632842 0 0.31572205603903419 0.02858850146016088 0 0.3034915593079871 0.046408569082858217 0 0.3031595663086939 0.019179210927557842 0 0.3034915593079871 0.046408569082858217 0 0.3031595663086939 0.019179210927557842 0 0.3034915593079871 0.046408569082858217 0 0.29222163580998228 0.032929274247726403 0 0.3031595663086939 0.019179210927557842 0 0.31572205603903419 0.02858850146016088 0 0.31652177140282473 0.041192075224537043 0 0.3034915593079871 0.046408569082858217 0 0.31652177140282473 0.041192075224537043 0 0.30685022275786078 0.046787339832632842 0 0.3034915593079871 0.046408569082858217 0 0.30685022275786078 0.046787339832632842 0 0.3034915593079871 0.046408569082858217 0 0.3034915593079871 0.046408569082858217 0 0.27823272030137702 0.043560022471458883 0 0.3034915593079871 0.046408569082858217 0 0.29222163580998228 0.032929274247726403 0 0.27823272030137702 0.043560022471458883 0 0.29222163580998228 0.032929274247726403 0 0.28416443750906201 0.020543770460885829 0 0.27823272030137702 0.043560022471458883 0 0.3034915593079871 0.046408569082858217 0 0.29136468248936132 0.050861969542240142 0 0.27823272030137702 0.043560022471458883 0 0.3036172249029509 0.056715393324193772 0 0.29718946762654391 0.052479754709737148 0 0.28623112990145771 0.060098607680643679 0 0.28623112990145771 0.060098607680643679 0 0.29136468248936132 0.050861969542240142 0 0.27823272030137702 0.043560022471458883 0 0.29718946762654391 0.052479754709737148 0 0.28623112990145771 0.060098607680643679 0 0.29136468248936132 0.050861969542240142 0 0.3031595663086939 0.019179210927557842 0 0.30282757330940008 -0.008050147227742499 0 0.31555882620551168 0.0036841587562509142 0 0.3031595663086939 0.019179210927557842 0 0.30282757330940008 -0.008050147227742499 0 0.3169570668164467 0.016205688447498381 0 0.31555882620551168 0.0036841587562509142 0 0.3031595663086939 0.019179210927557842 0 0.31572205603903419 0.02858850146016088 0 0.3169570668164467 0.016205688447498381 0 0.3031595663086939 0.019179210927557842 0 0.29222163580998228 0.032929274247726403 0 0.3031595663086939 0.019179210927557842 0 0.28416443750906201 0.020543770460885829 0 0.3031595663086939 0.019179210927557842 0 0.28382268566453078 0.0060955254127576918 0 0.30282757330940008 -0.008050147227742499 0 0.3031595663086939 0.019179210927557842 0 0.28416443750906201 0.020543770460885829 0 0.28382268566453078 0.0060955254127576918 0 0.28382268566453078 0.0060955254127576918 0 0.26397303329264848 0.001267946065784466 0 0.27613332817914399 -0.0069161450639397574 0 0.28382268566453078 0.0060955254127576918 0 0.26952653453852499 0.022556466448694461 0 0.26397303329264848 0.001267946065784466 0 0.28416443750906201 0.020543770460885829 0 0.26952653453852499 0.022556466448694461 0 0.27823272030137702 0.043560022471458883 0 0.28416443750906201 0.020543770460885829 0 0.28382268566453078 0.0060955254127576918 0 0.26952653453852499 0.022556466448694461 0 0.26952653453852499 0.022556466448694461 0 0.25367937028198811 0.015704181352227981 0 0.25297388129476678 0.040711475860059479 0 0.26952653453852499 0.022556466448694461 0 0.25367937028198811 0.015704181352227981 0 0.26397303329264848 0.001267946065784466 0 0.24791750821287001 0.0002931308882695147 0 0.25367937028198811 0.015704181352227981 0 0.26397303329264848 0.001267946065784466 0 0.28623112990145771 0.060098607680643679 0 0.26799311416307781 0.055632795815829347 0 0.27823272030137702 0.043560022471458883 0 0.28623112990145771 0.060098607680643679 0 0.26799311416307781 0.055632795815829347 0 0.27749301879446903 0.068842633097170883 0 0.26799311416307781 0.055632795815829347 0 0.27823272030137702 0.043560022471458883 0 0.25297388129476678 0.040711475860059479 0 0.26952653453852499 0.022556466448694461 0 0.27823272030137702 0.043560022471458883 0 0.25297388129476678 0.040711475860059479 0 0.27823272030137702 0.043560022471458883 0 0.25297388129476678 0.040711475860059479 0 0.26799311416307781 0.055632795815829347 0 0.25297388129476678 0.040711475860059479 0 0.25113787746534871 0.062029058314563082 0 0.26799311416307781 0.055632795815829347 0 0.25113787746534871 0.062029058314563082 0 0.27749301879446903 0.068842633097170883 0 0.24919775010682871 0.080170429792483927 0 0.25113787746534871 0.062029058314563082 0 0.26535075369837269 0.079280792669037717 0 0.25113787746534871 0.062029058314563082 0 0.26535075369837269 0.079280792669037717 0 0.27749301879446903 0.068842633097170883 0 0.25113787746534871 0.062029058314563082 0 0.27749301879446903 0.068842633097170883 0 0.24919775010682871 0.080170429792483927 0 0.26535075369837269 0.079280792669037717 0 0.25687798978616699 0.089180689084045334 0 0.24919775010682871 0.080170429792483927 0 0.24431063302592579 0.09175982498262579 0 0.25687798978616699 0.089180689084045334 0 0.26535075369837269 0.079280792669037717 0 0.2748454789414484 0.092362002919810518 0 0.28442436474161747 0.079763334555323348 0 0.26535075369837269 0.079280792669037717 0 0.25687798978616699 0.089180689084045334 0 0.2748454789414484 0.092362002919810518 0 0.26535075369837269 0.079280792669037717 0 0.27749301879446903 0.068842633097170883 0 0.28442436474161747 0.079763334555323348 0 0.3036172249029509 0.056715393324193772 0 0.28623112990145771 0.060098607680643679 0 0.29153519736406441 0.071249275377062299 0 0.27749301879446903 0.068842633097170883 0 0.30507661945921882 0.075973800544005321 0 0.27749301879446903 0.068842633097170883 0 0.29153519736406441 0.071249275377062299 0 0.30507661945921882 0.075973800544005321 0 0.27749301879446903 0.068842633097170883 0 0.28442436474161747 0.079763334555323348 0 0.30507661945921882 0.075973800544005321 0 0.28623112990145771 0.060098607680643679 0 0.27749301879446903 0.068842633097170883 0 0.29153519736406441 0.071249275377062299 0 0.2748454789414484 0.092362002919810518 0 0.29900562472463732 0.082393610783351917 0 0.28442436474161747 0.079763334555323348 0 0.29900562472463732 0.082393610783351917 0 0.30507661945921882 0.075973800544005321 0 0.2748454789414484 0.092362002919810518 0 0.29362527712078712 0.088083092021355933 0 0.29900562472463732 0.082393610783351917 0 0.2748454789414484 0.092362002919810518 0 0.28442436474161747 0.079763334555323348 0 0.29900562472463732 0.082393610783351917 0 0.2748454789414484 0.092362002919810518 0 0.29362527712078712 0.088083092021355933 0 0.29367590906857532 0.099355060541482687 0 0.29362527712078712 0.088083092021355933 0 0.29900562472463732 0.082393610783351917 0 0.29900562472463732 0.082393610783351917 0 0.30390565573078382 0.08037187502942067 0 0.30412607037486322 0.098449814320585402 0 0.30390565573078382 0.08037187502942067 0 0.30412607037486322 0.098449814320585402 0 0.29362527712078712 0.088083092021355933 0 0.29900562472463732 0.082393610783351917 0 0.30412607037486322 0.098449814320585402 0 0.30390565573078382 0.08037187502942067 0 0.30868030286303982 0.086378057665802532 0 0.30412607037486322 0.098449814320585402 0 0.29900562472463732 0.082393610783351917 0 0.30390565573078382 0.08037187502942067 0 0.29900562472463732 0.082393610783351917 0 0.30390565573078382 0.08037187502942067 0 0.30507661945921882 0.075973800544005321 0 0.29900562472463732 0.082393610783351917 0 0.30507661945921882 0.075973800544005321 0 0.30390565573078382 0.08037187502942067 0 0.30507661945921882 0.075973800544005321 0 0.3157794750188303 0.089208638633754084 0 0.30868030286303982 0.086378057665802532 0 0.30412607037486322 0.098449814320585402 0 0.30390565573078382 0.08037187502942067 0 0.30868030286303982 0.086378057665802532 0 0.31091001032768212 0.077481902679449599 0 0.3157794750188303 0.089208638633754084 0 0.30868030286303982 0.086378057665802532 0 0.31091001032768212 0.077481902679449599 0 0.30390565573078382 0.08037187502942067 0 0.31091001032768212 0.077481902679449599 0 0.3036172249029509 0.056715393324193772 0 0.29153519736406441 0.071249275377062299 0 0.30507661945921882 0.075973800544005321 0 0.31481685976393242 0.075169464914253012 0 0.31091001032768212 0.077481902679449599 0 0.30507661945921882 0.075973800544005321 0 0.3036172249029509 0.056715393324193772 0 0.30507661945921882 0.075973800544005321 0 0.31889078564279311 0.061365926646811592 0 0.3036172249029509 0.056715393324193772 0 0.30507661945921882 0.075973800544005321 0 0.31091001032768212 0.077481902679449599 0 0.30507661945921882 0.075973800544005321 0 0.30390565573078382 0.08037187502942067 0 0.31091001032768212 0.077481902679449599 0 0.30507661945921882 0.075973800544005321 0 0.31889078564279311 0.061365926646811592 0 0.30507661945921882 0.075973800544005321 0 0.3036172249029509 0.056715393324193772 0 0.29153519736406441 0.071249275377062299 0 0.30434648501894312 0.11652775361175011 0 0.29032908889330722 0.1235022710593124 0 0.30389986160898952 0.13364766952234419 0 0.32278724116074298 0.1194404418530544 0 0.30434648501894312 0.11652775361175011 0 0.30389986160898952 0.13364766952234419 0 0.30434648501894312 0.11652775361175011 0 0.30412607037486322 0.098449814320585402 0 0.30434648501894312 0.11652775361175011 0 0.30412607037486322 0.098449814320585402 0 0.29367590906857532 0.099355060541482687 0 0.31592089704367871 0.1017884634861959 0 0.30434648501894312 0.11652775361175011 0 0.30412607037486322 0.098449814320585402 0 0.3157794750188303 0.089208638633754084 0 0.31592089704367871 0.1017884634861959 0 0.30412607037486322 0.098449814320585402 0 0.29362527712078712 0.088083092021355933 0 0.30412607037486322 0.098449814320585402 0 0.29367590906857532 0.099355060541482687 0 0.2748454789414484 0.092362002919810518 0 0.28798255755816921 0.1087946382730431 0 0.29367590906857532 0.099355060541482687 0 0.30434648501894312 0.11652775361175011 0 0.28798255755816921 0.1087946382730431 0 0.29367590906857532 0.099355060541482687 0 0.28798255755816921 0.1087946382730431 0 0.29032908889330722 0.1235022710593124 0 0.2739424000511998 0.11304494385076939 0 0.30434648501894312 0.11652775361175011 0 0.28798255755816921 0.1087946382730431 0 0.29032908889330722 0.1235022710593124 0 0.29032908889330722 0.1235022710593124 0 0.2739424000511998 0.11304494385076939 0 0.27581596570643352 0.1278681944258567 0 0.2739424000511998 0.11304494385076939 0 0.26361346280759729 0.12157048471774271 0 0.27581596570643352 0.1278681944258567 0 0.2748454789414484 0.092362002919810518 0 0.2739424000511998 0.11304494385076939 0 0.25683605276459559 0.1103703016994198 0 0.2748454789414484 0.092362002919810518 0 0.28798255755816921 0.1087946382730431 0 0.2739424000511998 0.11304494385076939 0 0.25687798978616699 0.089180689084045334 0 0.2748454789414484 0.092362002919810518 0 0.25068533315825942 0.1023303950562687 0 0.2748454789414484 0.092362002919810518 0 0.25068533315825942 0.1023303950562687 0 0.2748454789414484 0.092362002919810518 0 0.25068533315825942 0.1023303950562687 0 0.25683605276459559 0.1103703016994198 0 0.24431063302592579 0.09175982498262579 0 0.25687798978616699 0.089180689084045334 0 0.25068533315825942 0.1023303950562687 0 0.2739424000511998 0.11304494385076939 0 0.26361346280759729 0.12157048471774271 0 0.25683605276459559 0.1103703016994198 0 0.24852431447848419 0.12481584819857031 0 0.26361346280759729 0.12157048471774271 0 0.25683605276459559 0.1103703016994198 0 0.2438901709619947 0.1449559351775673 0 0.24852431447848419 0.12481584819857031 0 0.26247834749475563 0.13482761228803961 0 0.24852431447848419 0.12481584819857031 0 0.26361346280759729 0.12157048471774271 0 0.26247834749475563 0.13482761228803961 0 0.26361346280759729 0.12157048471774271 0 0.26247834749475563 0.13482761228803961 0 0.27581596570643352 0.1278681944258567 0 0.26247834749475563 0.13482761228803961 0 0.27581596570643352 0.1278681944258567 0 0.2759796629601689 0.14067836692338759 0 0.27581596570643352 0.1278681944258567 0 0.2759796629601689 0.14067836692338759 0 0.28901462525243071 0.13800712998780751 0 0.26779977151860579 0.15367274619578811 0 0.2759796629601689 0.14067836692338759 0 0.28478960482861893 0.14901615171944599 0 0.26247834749475563 0.13482761228803961 0 0.26779977151860579 0.15367274619578811 0 0.2759796629601689 0.14067836692338759 0 0.2438901709619947 0.1449559351775673 0 0.26779977151860579 0.15367274619578811 0 0.2438901709619947 0.1449559351775673 0 0.26247834749475563 0.13482761228803961 0 0.26779977151860579 0.15367274619578811 0 0.2438901709619947 0.1449559351775673 0 0.26779977151860579 0.15367274619578811 0 0.25488593115919073 0.1664807978325423 0 0.26779977151860579 0.15367274619578811 0 0.25488593115919073 0.1664807978325423 0 0.26675686732514581 0.1724505153790484 0 0.2479068313357711 0.17885428646209689 0 0.2595460673992992 0.18042390213189921 0 0.25280643830685939 0.18913636245934229 0 0.2479068313357711 0.17885428646209689 0 0.25488593115919073 0.1664807978325423 0 0.2595460673992992 0.18042390213189921 0 0.25488593115919073 0.1664807978325423 0 0.2595460673992992 0.18042390213189921 0 0.26675686732514581 0.1724505153790484 0 0.2595460673992992 0.18042390213189921 0 0.25280643830685939 0.18913636245934229 0 0.26382081058989021 0.19222270346366621 0 0.2595460673992992 0.18042390213189921 0 0.27109952567893791 0.18339874719469951 0 0.26382081058989021 0.19222270346366621 0 0.27109952567893791 0.18339874719469951 0 0.27864382660606363 0.18514551944722929 0 0.26382081058989021 0.19222270346366621 0 0.27109952567893791 0.18339874719469951 0 0.26675686732514581 0.1724505153790484 0 0.27677701940801253 0.17397829782557031 0 0.2595460673992992 0.18042390213189921 0 0.27109952567893791 0.18339874719469951 0 0.26675686732514581 0.1724505153790484 0 0.27109952567893791 0.18339874719469951 0 0.27677701940801253 0.17397829782557031 0 0.27864382660606363 0.18514551944722929 0 0.27109952567893791 0.18339874719469951 0 0.27864382660606363 0.18514551944722929 0 0.26779977151860579 0.15367274619578811 0 0.26675686732514581 0.1724505153790484 0 0.27567550535469842 0.1665071498928655 0 0.26779977151860579 0.15367274619578811 0 0.27567550535469842 0.1665071498928655 0 0.29170937207521669 0.16238955721400891 0 0.26779977151860579 0.15367274619578811 0 0.29170937207521669 0.16238955721400891 0 0.26675686732514581 0.1724505153790484 0 0.27677701940801253 0.17397829782557031 0 0.27567550535469842 0.1665071498928655 0 0.27677701940801253 0.17397829782557031 0 0.27567550535469842 0.1665071498928655 0 0.29170937207521669 0.16238955721400891 0 0.27864382660606363 0.18514551944722929 0 0.29170937207521669 0.16238955721400891 0 0.27864382660606363 0.18514551944722929 0 0.29170937207521669 0.16238955721400891 0 0.29093261270472359 0.17845771649767481 0 0.27677701940801253 0.17397829782557031 0 0.27864382660606363 0.18514551944722929 0 0.29170937207521669 0.16238955721400891 0 0.29170937207521669 0.16238955721400891 0 0.29093261270472359 0.17845771649767481 0 0.29948577128841503 0.17761989912882181 0 0.27864382660606363 0.18514551944722929 0 0.29389148084919953 0.1886758902006393 0 0.27864382660606363 0.18514551944722929 0 0.29093261270472359 0.17845771649767481 0 0.29389148084919953 0.1886758902006393 0 0.29093261270472359 0.17845771649767481 0 0.29948577128841503 0.17761989912882181 0 0.29389148084919953 0.1886758902006393 0 0.29948577128841503 0.17761989912882181 0 0.29389148084919953 0.1886758902006393 0 0.30566547500319979 0.1878890669065964 0 0.29948577128841503 0.17761989912882181 0 0.30830692096384771 0.17913378987464121 0 0.30566547500319979 0.1878890669065964 0 0.29948577128841503 0.17761989912882181 0 0.30830692096384771 0.17913378987464121 0 0.30939793723984238 0.16883834247742019 0 0.30830692096384771 0.17913378987464121 0 0.30939793723984238 0.16883834247742019 0 0.31694188234742932 0.17941460767993581 0 0.30830692096384771 0.17913378987464121 0 0.30566547500319979 0.1878890669065964 0 0.31364219127659088 0.18526797640795059 0 0.29170937207521669 0.16238955721400891 0 0.29948577128841503 0.17761989912882181 0 0.30939793723984238 0.16883834247742019 0 0.29170937207521669 0.16238955721400891 0 0.30939793723984238 0.16883834247742019 0 0.30939793723984238 0.16883834247742019 0 0.29882120364756631 0.15000304254062191 0 0.31492252162856038 0.15334881128534739 0 0.29170937207521669 0.16238955721400891 0 0.30939793723984238 0.16883834247742019 0 0.29882120364756631 0.15000304254062191 0 0.29882120364756631 0.15000304254062191 0 0.30953471451382869 0.1437190167012288 0 0.30389986160898952 0.13364766952234419 0 0.29882120364756631 0.15000304254062191 0 0.30953471451382869 0.1437190167012288 0 0.31492252162856038 0.15334881128534739 0 0.30953471451382869 0.1437190167012288 0 0.30389986160898952 0.13364766952234419 0 0.32049527117019888 0.1378765434566018 0 0.29882120364756631 0.15000304254062191 0 0.30389986160898952 0.13364766952234419 0 0.28901462525243071 0.13800712998780751 0 0.29032908889330722 0.1235022710593124 0 0.30389986160898952 0.13364766952234419 0 0.28901462525243071 0.13800712998780751 0 0.29032908889330722 0.1235022710593124 0 0.27581596570643352 0.1278681944258567 0 0.28901462525243071 0.13800712998780751 0 0.26779977151860579 0.15367274619578811 0 0.29170937207521669 0.16238955721400891 0 0.28478960482861893 0.14901615171944599 0 0.2759796629601689 0.14067836692338759 0 0.28901462525243071 0.13800712998780751 0 0.28478960482861893 0.14901615171944599 0 0.29170937207521669 0.16238955721400891 0 0.29882120364756631 0.15000304254062191 0 0.29170937207521669 0.16238955721400891 0 0.29882120364756631 0.15000304254062191 0 0.28478960482861893 0.14901615171944599 0 0.29882120364756631 0.15000304254062191 0 0.28901462525243071 0.13800712998780751 0 0.28478960482861893 0.14901615171944599 0 0.2650323972606658 0.24178136880889181 0 0.28894448559172092 0.2495230590755963 0 0.2650323972606658 0.24178136880889181 0 0.28190669393735079 0.23115609359690059 0 0.28894448559172092 0.2495230590755963 0 0.26840648584537108 0.25544582692901507 0 0.2650323972606658 0.24178136880889181 0 0.28894448559172092 0.2495230590755963 0 0.241120308929613 0.2340396785421803 0 0.2650323972606658 0.24178136880889181 0 0.241120308929613 0.2340396785421803 0 0.25290276725482519 0.2481868517737941 0 0.2650323972606658 0.24178136880889181 0 0.26840648584537108 0.25544582692901507 0 0.25290276725482519 0.2481868517737941 0 0.2650323972606658 0.24178136880889181 0 0.241120308929613 0.2340396785421803 0 0.2650323972606658 0.24178136880889181 0 0.25110082587648008 0.23311653496067139 0 0.25110082587648008 0.23311653496067139 0 0.26846448705658671 0.2261469814507901 0 0.26487232624127383 0.20913102720395141 0 0.24465268719549929 0.2193478248335016 0 0.25110082587648008 0.23311653496067139 0 0.26487232624127383 0.20913102720395141 0 0.2650323972606658 0.24178136880889181 0 0.25110082587648008 0.23311653496067139 0 0.26846448705658671 0.2261469814507901 0 0.25110082587648008 0.23311653496067139 0 0.26487232624127383 0.20913102720395141 0 0.2650323972606658 0.24178136880889181 0 0.26846448705658671 0.2261469814507901 0 0.28190669393735079 0.23115609359690059 0 0.26846448705658671 0.2261469814507901 0 0.27941019196716288 0.21554988268353539 0 0.28190669393735079 0.23115609359690059 0 0.26846448705658671 0.2261469814507901 0 0.27941019196716288 0.21554988268353539 0 0.26487232624127383 0.20913102720395141 0 0.27941019196716288 0.21554988268353539 0 0.26487232624127383 0.20913102720395141 0 0.28206484264844062 0.20093322998654589 0 0.24465268719549929 0.2193478248335016 0 0.26487232624127383 0.20913102720395141 0 0.25103833454343838 0.20199324938570321 0 0.26487232624127383 0.20913102720395141 0 0.25103833454343838 0.20199324938570321 0 0.26382081058989021 0.19222270346366621 0 0.25103833454343838 0.20199324938570321 0 0.25280643830685939 0.18913636245934229 0 0.26382081058989021 0.19222270346366621 0 0.27864382660606363 0.18514551944722929 0 0.26487232624127383 0.20913102720395141 0 0.28206484264844062 0.20093322998654589 0 0.27864382660606363 0.18514551944722929 0 0.26487232624127383 0.20913102720395141 0 0.26382081058989021 0.19222270346366621 0 0.27864382660606363 0.18514551944722929 0 0.26487232624127383 0.20913102720395141 0 0.27864382660606363 0.18514551944722929 0 0.28668993721306502 0.19301197326826641 0 0.28206484264844062 0.20093322998654589 0 0.27864382660606363 0.18514551944722929 0 0.28668993721306502 0.19301197326826641 0 0.29389148084919953 0.1886758902006393 0 0.28668993721306502 0.19301197326826641 0 0.28206484264844062 0.20093322998654589 0 0.29219561306229203 0.19922332138098131 0 0.28206484264844062 0.20093322998654589 0 0.29219561306229203 0.19922332138098131 0 0.28930792156793728 0.20911966698036411 0 0.29219561306229203 0.19922332138098131 0 0.29389148084919953 0.1886758902006393 0 0.30052036894056561 0.1969660074254313 0 0.28668993721306502 0.19301197326826641 0 0.29219561306229203 0.19922332138098131 0 0.29389148084919953 0.1886758902006393 0 0.29389148084919953 0.1886758902006393 0 0.30913913509233448 0.1922062609540536 0 0.30052036894056561 0.1969660074254313 0 0.29389148084919953 0.1886758902006393 0 0.30566547500319979 0.1878890669065964 0 0.30913913509233448 0.1922062609540536 0 0.29389148084919953 0.1886758902006393 0 0.30913913509233448 0.1922062609540536 0 0.30566547500319979 0.1878890669065964 0 0.30913913509233448 0.1922062609540536 0 0.30566547500319979 0.1878890669065964 0 0.30913913509233448 0.1922062609540536 0 0.31364219127659088 0.18526797640795059 0 0.30913913509233448 0.1922062609540536 0 0.30547772096402248 0.20044281379684739 0 0.30052036894056561 0.1969660074254313 0 0.30913913509233448 0.1922062609540536 0 0.30547772096402248 0.20044281379684739 0 0.31155225266864561 0.20596582638326361 0 0.30547772096402248 0.20044281379684739 0 0.30052036894056561 0.1969660074254313 0 0.30069912715454439 0.20663316042464111 0 0.29219561306229203 0.19922332138098131 0 0.30052036894056561 0.1969660074254313 0 0.30069912715454439 0.20663316042464111 0 0.30547772096402248 0.20044281379684739 0 0.30069912715454439 0.20663316042464111 0 0.31155225266864561 0.20596582638326361 0 0.30069912715454439 0.20663316042464111 0 0.31155225266864561 0.20596582638326361 0 0.30999770644195029 0.21809885622710351 0 0.30069912715454439 0.20663316042464111 0 0.30999770644195029 0.21809885622710351 0 0.29491106568334757 0.220099205134002 0 0.30069912715454439 0.20663316042464111 0 0.28930792156793728 0.20911966698036411 0 0.29491106568334757 0.220099205134002 0 0.29219561306229203 0.19922332138098131 0 0.30069912715454439 0.20663316042464111 0 0.28930792156793728 0.20911966698036411 0 0.27941019196716288 0.21554988268353539 0 0.28206484264844062 0.20093322998654589 0 0.28930792156793728 0.20911966698036411 0 0.27941019196716288 0.21554988268353539 0 0.28930792156793728 0.20911966698036411 0 0.29491106568334757 0.220099205134002 0 0.27941019196716288 0.21554988268353539 0 0.28190669393735079 0.23115609359690059 0 0.29491106568334757 0.220099205134002 0 0.28190669393735079 0.23115609359690059 0 0.29491106568334757 0.220099205134002 0 0.29724105478927981 0.23511868756620111 0 0.30999770644195029 0.21809885622710351 0 0.29491106568334757 0.220099205134002 0 0.30757394301364721 0.22986370317919999 0 0.29491106568334757 0.220099205134002 0 0.30757394301364721 0.22986370317919999 0 0.29724105478927981 0.23511868756620111 0 0.29724105478927981 0.23511868756620111 0 0.31165141592587953 0.24297481296135279 0 0.28894448559172092 0.2495230590755963 0 0.31165141592587953 0.24297481296135279 0 0.28894448559172092 0.2495230590755963 0 0.30757394301364721 0.22986370317919999 0 0.29724105478927981 0.23511868756620111 0 0.31165141592587953 0.24297481296135279 0 0.28190669393735079 0.23115609359690059 0 0.29724105478927981 0.23511868756620111 0 0.28894448559172092 0.2495230590755963 0 0.33883765628324802 0.23955503295674691 0 0.3348624778944132 0.24598610241693131 0 0.34508873310969229 0.24490758600389301 0 0.34008680539521702 0.25321348318243908 0 0.3348624778944132 0.24598610241693131 0 0.34508873310969229 0.24490758600389301 0 0.33883765628324802 0.23955503295674691 0 0.34103318460984938 0.23184537278230621 0 0.34508873310969229 0.24490758600389301 0 0.33883765628324802 0.23955503295674691 0 0.33435834626004057 0.23642656684711769 0 0.3348624778944132 0.24598610241693131 0 0.33883765628324802 0.23955503295674691 0 0.33435834626004057 0.23642656684711769 0 0.34103318460984938 0.23184537278230621 0 0.33435834626004057 0.23642656684711769 0 0.3348624778944132 0.24598610241693131 0 0.32385517018839199 0.24771702687395691 0 0.33036836789855578 0.25291462850150459 0 0.3348624778944132 0.24598610241693131 0 0.32385517018839199 0.24771702687395691 0 0.31165141592587953 0.24297481296135279 0 0.33435834626004057 0.23642656684711769 0 0.32385517018839199 0.24771702687395691 0 0.31165141592587953 0.24297481296135279 0 0.33435834626004057 0.23642656684711769 0 0.31165141592587953 0.24297481296135279 0 0.33435834626004057 0.23642656684711769 0 0.32163313263886761 0.22907382623944719 0 0.31487566650040433 0.25791844337101871 0 0.31165141592587953 0.24297481296135279 0 0.32385517018839199 0.24771702687395691 0 0.30999770644195029 0.21809885622710351 0 0.32163313263886761 0.22907382623944719 0 0.32508615985109041 0.2120258168681812 0 0.30757394301364721 0.22986370317919999 0 0.31165141592587953 0.24297481296135279 0 0.32163313263886761 0.22907382623944719 0 0.30999770644195029 0.21809885622710351 0 0.30757394301364721 0.22986370317919999 0 0.32163313263886761 0.22907382623944719 0 0.33435834626004057 0.23642656684711769 0 0.32163313263886761 0.22907382623944719 0 0.34103318460984938 0.23184537278230621 0 0.34103318460984938 0.23184537278230621 0 0.34167850412849782 0.2195706778799851 0 0.32508615985109041 0.2120258168681812 0 0.32163313263886761 0.22907382623944719 0 0.34103318460984938 0.23184537278230621 0 0.32508615985109041 0.2120258168681812 0 0.34103318460984938 0.23184537278230621 0 0.32508615985109041 0.2120258168681812 0 0.34167850412849782 0.2195706778799851 0 0.34263866998220671 0.21011806171629249 0 0.32508615985109041 0.2120258168681812 0 0.34263866998220671 0.21011806171629249 0 0.32508615985109041 0.2120258168681812 0 0.33489738198381591 0.19817020531131249 0 0.30913913509233448 0.1922062609540536 0 0.31155225266864561 0.20596582638326361 0 0.32508615985109041 0.2120258168681812 0 0.31155225266864561 0.20596582638326361 0 0.30999770644195029 0.21809885622710351 0 0.32508615985109041 0.2120258168681812 0 0.30913913509233448 0.1922062609540536 0 0.33489738198381591 0.19817020531131249 0 0.32460030611835378 0.1854287434934071 0 0.30913913509233448 0.1922062609540536 0 0.32508615985109041 0.2120258168681812 0 0.33489738198381591 0.19817020531131249 0 0.30913913509233448 0.1922062609540536 0 0.33489738198381591 0.19817020531131249 0 0.30913913509233448 0.1922062609540536 0 0.32508615985109041 0.2120258168681812 0 0.30913913509233448 0.1922062609540536 0 0.31364219127659088 0.18526797640795059 0 0.32460030611835378 0.1854287434934071 0 0.33489738198381591 0.19817020531131249 0 0.32460030611835378 0.1854287434934071 0 0.34589474360548461 0.1822262828663587 0 0.33489738198381591 0.19817020531131249 0 0.36065562887529612 0.2041341496685766 0 0.33489738198381591 0.19817020531131249 0 0.36065562887529612 0.2041341496685766 0 0.34589474360548461 0.1822262828663587 0 0.36220756923831537 0.18761007926231221 0 0.36065562887529612 0.2041341496685766 0 0.34589474360548461 0.1822262828663587 0 0.36065562887529612 0.2041341496685766 0 0.34589474360548461 0.1822262828663587 0 0.36220756923831537 0.18761007926231221 0 0.37004094320898179 0.19336888266090271 0 0.36065562887529612 0.2041341496685766 0 0.37004094320898179 0.19336888266090271 0 0.36065562887529612 0.2041341496685766 0 0.37711519957617112 0.19813421835430889 0 0.37004094320898179 0.19336888266090271 0 0.37223322442805562 0.18684678965223109 0 0.37799309392707048 0.19011917636708439 0 0.36220756923831537 0.18761007926231221 0 0.37004094320898179 0.19336888266090271 0 0.37223322442805562 0.18684678965223109 0 0.36065562887529612 0.2041341496685766 0 0.37416386119572242 0.22418284925536261 0 0.36065562887529612 0.2041341496685766 0 0.37416386119572242 0.22418284925536261 0 0.38235972478873542 0.20915941481560721 0 0.36065562887529612 0.2041341496685766 0 0.38235972478873542 0.20915941481560721 0 0.37711519957617112 0.19813421835430889 0 0.36065562887529612 0.2041341496685766 0 0.38235972478873542 0.20915941481560721 0 0.36065562887529612 0.2041341496685766 0 0.36028963328731489 0.22194218326376469 0 0.37416386119572242 0.22418284925536261 0 0.36065562887529612 0.2041341496685766 0 0.35087567507233342 0.2166894588534076 0 0.36028963328731489 0.22194218326376469 0 0.34263866998220671 0.21011806171629249 0 0.33489738198381591 0.19817020531131249 0 0.36065562887529612 0.2041341496685766 0 0.34263866998220671 0.21011806171629249 0 0.36065562887529612 0.2041341496685766 0 0.35087567507233342 0.2166894588534076 0 0.34167850412849782 0.2195706778799851 0 0.34263866998220671 0.21011806171629249 0 0.35087567507233342 0.2166894588534076 0 0.34103318460984938 0.23184537278230621 0 0.35144731018931991 0.22756471535354511 0 0.35757956314744138 0.2376873898532206 0 0.34167850412849782 0.2195706778799851 0 0.35087567507233342 0.2166894588534076 0 0.35144731018931991 0.22756471535354511 0 0.34103318460984938 0.23184537278230621 0 0.34167850412849782 0.2195706778799851 0 0.35144731018931991 0.22756471535354511 0 0.35144731018931991 0.22756471535354511 0 0.36028963328731489 0.22194218326376469 0 0.35992355758567263 0.23137826448146129 0 0.35144731018931991 0.22756471535354511 0 0.35992355758567263 0.23137826448146129 0 0.35757956314744138 0.2376873898532206 0 0.35087567507233342 0.2166894588534076 0 0.35144731018931991 0.22756471535354511 0 0.36028963328731489 0.22194218326376469 0 0.36028963328731489 0.22194218326376469 0 0.37416386119572242 0.22418284925536261 0 0.36587504484222999 0.22843828849956299 0 0.37416386119572242 0.22418284925536261 0 0.36912312730021019 0.2362498569976636 0 0.38016995785795382 0.23352911112258951 0 0.37416386119572242 0.22418284925536261 0 0.36587504484222999 0.22843828849956299 0 0.36912312730021019 0.2362498569976636 0 0.36587504484222999 0.22843828849956299 0 0.35992355758567263 0.23137826448146129 0 0.36912312730021019 0.2362498569976636 0 0.36028963328731489 0.22194218326376469 0 0.36587504484222999 0.22843828849956299 0 0.35992355758567263 0.23137826448146129 0 0.35992355758567263 0.23137826448146129 0 0.36912312730021019 0.2362498569976636 0 0.35757956314744138 0.2376873898532206 0 0.36912312730021019 0.2362498569976636 0 0.36696998983098789 0.2474212008079161 0 0.35757956314744138 0.2376873898532206 0 0.37432304820012641 0.24074747116270551 0 0.36912312730021019 0.2362498569976636 0 0.36696998983098789 0.2474212008079161 0 0.37432304820012641 0.24074747116270551 0 0.36912312730021019 0.2362498569976636 0 0.38016995785795382 0.23352911112258951 0 0.37432304820012641 0.24074747116270551 0 0.36696998983098789 0.2474212008079161 0 0.38102911781135362 0.24578971572265279 0 0.35698020936860841 0.25166492869643131 0 0.36696998983098789 0.2474212008079161 0 0.35757956314744138 0.2376873898532206 0 0.34008680539521702 0.25321348318243908 0 0.35698020936860841 0.25166492869643131 0 0.34508873310969229 0.24490758600389301 0 0.35698020936860841 0.25166492869643131 0 0.34103318460984938 0.23184537278230621 0 0.34508873310969229 0.24490758600389301 0 0.35698020936860841 0.25166492869643131 0 0.34103318460984938 0.23184537278230621 0 0.35698020936860841 0.25166492869643131 0 0.34103318460984938 0.23184537278230621 0 0.35757956314744138 0.2376873898532206 0 0.33831765937733349 0.14135776266697889 0 0.32049527117019888 0.1378765434566018 0 0.32745813999908779 0.14831834163651719 0 0.34216087997352651 0.15480400801081459 0 0.32745813999908779 0.14831834163651719 0 0.33113385833567538 0.16031841606413899 0 0.34216087997352651 0.15480400801081459 0 0.33831765937733349 0.14135776266697889 0 0.32745813999908779 0.14831834163651719 0 0.34115838414990812 0.1240978299826179 0 0.33831765937733349 0.14135776266697889 0 0.33003415884325932 0.12977548123808419 0 0.34115838414990812 0.1240978299826179 0 0.33831765937733349 0.14135776266697889 0 0.34922893382517661 0.1358959600998535 0 0.33831765937733349 0.14135776266697889 0 0.33003415884325932 0.12977548123808419 0 0.32049527117019888 0.1378765434566018 0 0.32278724116074298 0.1194404418530544 0 0.33003415884325932 0.12977548123808419 0 0.32049527117019888 0.1378765434566018 0 0.32278724116074298 0.1194404418530544 0 0.30389986160898952 0.13364766952234419 0 0.32049527117019888 0.1378765434566018 0 0.30953471451382869 0.1437190167012288 0 0.32049527117019888 0.1378765434566018 0 0.31492252162856038 0.15334881128534739 0 0.32745813999908779 0.14831834163651719 0 0.31492252162856038 0.15334881128534739 0 0.33113385833567538 0.16031841606413899 0 0.32049527117019888 0.1378765434566018 0 0.32745813999908779 0.14831834163651719 0 0.31492252162856038 0.15334881128534739 0 0.30939793723984238 0.16883834247742019 0 0.31492252162856038 0.15334881128534739 0 0.33113385833567538 0.16031841606413899 0 0.30939793723984238 0.16883834247742019 0 0.32708650240446813 0.17528712774083161 0 0.33113385833567538 0.16031841606413899 0 0.30939793723984238 0.16883834247742019 0 0.31694188234742932 0.17941460767993581 0 0.32708650240446813 0.17528712774083161 0 0.30939793723984238 0.16883834247742019 0 0.32708650240446813 0.17528712774083161 0 0.31364219127659088 0.18526797640795059 0 0.31694188234742932 0.17941460767993581 0 0.32460030611835378 0.1854287434934071 0 0.30830692096384771 0.17913378987464121 0 0.31364219127659088 0.18526797640795059 0 0.31694188234742932 0.17941460767993581 0 0.31694188234742932 0.17941460767993581 0 0.32708650240446813 0.17528712774083161 0 0.32460030611835378 0.1854287434934071 0 0.32708650240446813 0.17528712774083161 0 0.32460030611835378 0.1854287434934071 0 0.34589474360548461 0.1822262828663587 0 0.32708650240446813 0.17528712774083161 0 0.33113385833567538 0.16031841606413899 0 0.34589474360548461 0.1822262828663587 0 0.33113385833567538 0.16031841606413899 0 0.34870974310330821 0.16509200724943651 0 0.34589474360548461 0.1822262828663587 0 0.33113385833567538 0.16031841606413899 0 0.34589474360548461 0.1822262828663587 0 0.34216087997352651 0.15480400801081459 0 0.33113385833567538 0.16031841606413899 0 0.34870974310330821 0.16509200724943651 0 0.34216087997352651 0.15480400801081459 0 0.34870974310330821 0.16509200724943651 0 0.35443401939451741 0.1495972795179058 0 0.34870974310330821 0.16509200724943651 0 0.36137517496512311 0.16576470006749289 0 0.35443401939451741 0.1495972795179058 0 0.34870974310330821 0.16509200724943651 0 0.35725978234552241 0.1778413569699078 0 0.36137517496512311 0.16576470006749289 0 0.34870974310330821 0.16509200724943651 0 0.34589474360548461 0.1822262828663587 0 0.35725978234552241 0.1778413569699078 0 0.36220756923831537 0.18761007926231221 0 0.34589474360548461 0.1822262828663587 0 0.35725978234552241 0.1778413569699078 0 0.36220756923831537 0.18761007926231221 0 0.35725978234552241 0.1778413569699078 0 0.36745534554652393 0.17855005384319469 0 0.35725978234552241 0.1778413569699078 0 0.36745534554652393 0.17855005384319469 0 0.36137517496512311 0.16576470006749289 0 0.36745534554652393 0.17855005384319469 0 0.37261087994485098 0.17272600195508461 0 0.36137517496512311 0.16576470006749289 0 0.36745534554652393 0.17855005384319469 0 0.37261087994485098 0.17272600195508461 0 0.37904544235727639 0.18051139515213949 0 0.36220756923831537 0.18761007926231221 0 0.36745534554652393 0.17855005384319469 0 0.37223322442805562 0.18684678965223109 0 0.36745534554652393 0.17855005384319469 0 0.37223322442805562 0.18684678965223109 0 0.37904544235727639 0.18051139515213949 0 0.37261087994485098 0.17272600195508461 0 0.36137517496512311 0.16576470006749289 0 0.38223100061561249 0.15142773244587349 0 0.36137517496512311 0.16576470006749289 0 0.35443401939451741 0.1495972795179058 0 0.38223100061561249 0.15142773244587349 0 0.35443401939451741 0.1495972795179058 0 0.36300567237894721 0.1285309682319114 0 0.38223100061561249 0.15142773244587349 0 0.34216087997352651 0.15480400801081459 0 0.33831765937733349 0.14135776266697889 0 0.35443401939451741 0.1495972795179058 0 0.33831765937733349 0.14135776266697889 0 0.35443401939451741 0.1495972795179058 0 0.34922893382517661 0.1358959600998535 0 0.34115838414990812 0.1240978299826179 0 0.34922893382517661 0.1358959600998535 0 0.36300567237894721 0.1285309682319114 0 0.35443401939451741 0.1495972795179058 0 0.34922893382517661 0.1358959600998535 0 0.36300567237894721 0.1285309682319114 0 0.36300567237894721 0.1285309682319114 0 0.38223100061561249 0.15142773244587349 0 0.38541655887394882 0.1223440697396076 0 0.40219257414885151 0.14575878882553461 0 0.38223100061561249 0.15142773244587349 0 0.38541655887394882 0.1223440697396076 0 0.38223100061561249 0.15142773244587349 0 0.38541655887394882 0.1223440697396076 0 0.40219257414885151 0.14575878882553461 0 0.41217026446381361 0.1199047966358894 0 0.38541655887394882 0.1223440697396076 0 0.40219257414885151 0.14575878882553461 0 0.38223100061561249 0.15142773244587349 0 0.39253388508233372 0.16672123184797119 0 0.37261087994485098 0.17272600195508461 0 0.38223100061561249 0.15142773244587349 0 0.37904544235727639 0.18051139515213949 0 0.38223100061561249 0.15142773244587349 0 0.37904544235727639 0.18051139515213949 0 0.39253388508233372 0.16672123184797119 0 0.38223100061561249 0.15142773244587349 0 0.37904544235727639 0.18051139515213949 0 0.37904544235727639 0.18051139515213949 0 0.39439207518913583 0.1840188082588349 0 0.39253388508233372 0.16672123184797119 0 0.37223322442805562 0.18684678965223109 0 0.37904544235727639 0.18051139515213949 0 0.37799309392707048 0.19011917636708439 0 0.37904544235727639 0.18051139515213949 0 0.37799309392707048 0.19011917636708439 0 0.37261087994485098 0.17272600195508461 0 0.37904544235727639 0.18051139515213949 0 0.39439207518913583 0.1840188082588349 0 0.40529123671849843 0.17396908358385951 0 0.39253388508233372 0.16672123184797119 0 0.39439207518913583 0.1840188082588349 0 0.40529123671849843 0.17396908358385951 0 0.40338570577200411 0.18642768607164059 0 0.40219257414885151 0.14575878882553461 0 0.39253388508233372 0.16672123184797119 0 0.40612271903992031 0.16087919298951309 0 0.40529123671849843 0.17396908358385951 0 0.39253388508233372 0.16672123184797119 0 0.40612271903992031 0.16087919298951309 0 0.40612271903992031 0.16087919298951309 0 0.41563412223462631 0.16493040526535491 0 0.41526379332573082 0.15499424616842081 0 0.40529123671849843 0.17396908358385951 0 0.40612271903992031 0.16087919298951309 0 0.41563412223462631 0.16493040526535491 0 0.40529123671849843 0.17396908358385951 0 0.41563412223462631 0.16493040526535491 0 0.4154954124863216 0.1739769856935231 0 0.41563412223462631 0.16493040526535491 0 0.4154954124863216 0.1739769856935231 0 0.42434549997907473 0.17004313982223809 0 0.41563412223462631 0.16493040526535491 0 0.42781727848001172 0.15825440883605341 0 0.41526379332573082 0.15499424616842081 0 0.41158413926173731 0.18161876935851551 0 0.41887584182384191 0.18650260267076421 0 0.41071396938553872 0.1927804142442589 0 0.40529123671849843 0.17396908358385951 0 0.40338570577200411 0.18642768607164059 0 0.41158413926173731 0.18161876935851551 0 0.40338570577200411 0.18642768607164059 0 0.41158413926173731 0.18161876935851551 0 0.41071396938553872 0.1927804142442589 0 0.40529123671849843 0.17396908358385951 0 0.41158413926173731 0.18161876935851551 0 0.4154954124863216 0.1739769856935231 0 0.4154954124863216 0.1739769856935231 0 0.42062206423767129 0.17932353043764729 0 0.42434549997907473 0.17004313982223809 0 0.41158413926173731 0.18161876935851551 0 0.4154954124863216 0.1739769856935231 0 0.42062206423767129 0.17932353043764729 0 0.41158413926173731 0.18161876935851551 0 0.42062206423767129 0.17932353043764729 0 0.41887584182384191 0.18650260267076421 0 0.42062206423767129 0.17932353043764729 0 0.41887584182384191 0.18650260267076421 0 0.42583738241545332 0.18535000676970889 0 0.43413353188706338 0.1718750845422469 0 0.42802211032041981 0.19478808899485189 0 0.42582635643910999 0.19354405261936819 0 0.43413353188706338 0.1718750845422469 0 0.42582635643910999 0.19354405261936819 0 0.42583738241545332 0.18535000676970889 0 0.43413353188706338 0.1718750845422469 0 0.42582635643910999 0.19354405261936819 0 0.43413353188706338 0.1718750845422469 0 0.42802211032041981 0.19478808899485189 0 0.44526372075220572 0.18082931019635401 0 0.42062206423767129 0.17932353043764729 0 0.42583738241545332 0.18535000676970889 0 0.42654031981025409 0.17645179263691479 0 0.42654031981025409 0.17645179263691479 0 0.43413353188706338 0.1718750845422469 0 0.42434549997907473 0.17004313982223809 0 0.42062206423767129 0.17932353043764729 0 0.42654031981025409 0.17645179263691479 0 0.42434549997907473 0.17004313982223809 0 0.42583738241545332 0.18535000676970889 0 0.42654031981025409 0.17645179263691479 0 0.43413353188706338 0.1718750845422469 0 0.43413353188706338 0.1718750845422469 0 0.43484422293052399 0.15729670613052341 0 0.44244070733501628 0.15020611646512541 0 0.41563412223462631 0.16493040526535491 0 0.42781727848001172 0.15825440883605341 0 0.42434549997907473 0.17004313982223809 0 0.43413353188706338 0.1718750845422469 0 0.42781727848001172 0.15825440883605341 0 0.42434549997907473 0.17004313982223809 0 0.43413353188706338 0.1718750845422469 0 0.42781727848001172 0.15825440883605341 0 0.43484422293052399 0.15729670613052341 0 0.43484422293052399 0.15729670613052341 0 0.43498537402000492 0.1488512146786681 0 0.44244070733501628 0.15020611646512541 0 0.42781727848001172 0.15825440883605341 0 0.43484422293052399 0.15729670613052341 0 0.43498537402000492 0.1488512146786681 0 0.42781727848001172 0.15825440883605341 0 0.43498537402000492 0.1488512146786681 0 0.42455227272524448 0.1451484349256483 0 0.42781727848001172 0.15825440883605341 0 0.42455227272524448 0.1451484349256483 0 0.41526379332573082 0.15499424616842081 0 0.43498537402000492 0.1488512146786681 0 0.42455227272524448 0.1451484349256483 0 0.43571405930090662 0.13571915795530551 0 0.42455227272524448 0.1451484349256483 0 0.43571405930090662 0.13571915795530551 0 0.41217026446381361 0.1199047966358894 0 0.40219257414885151 0.14575878882553461 0 0.42455227272524448 0.1451484349256483 0 0.41217026446381361 0.1199047966358894 0 0.42455227272524448 0.1451484349256483 0 0.41217026446381361 0.1199047966358894 0 0.40219257414885151 0.14575878882553461 0 0.42455227272524448 0.1451484349256483 0 0.41526379332573082 0.15499424616842081 0 0.40219257414885151 0.14575878882553461 0 0.40612271903992031 0.16087919298951309 0 0.41526379332573082 0.15499424616842081 0 0.3898718703171708 0.25696666417538411 0 0.3919413447389391 0.24612977173593051 0 0.41304345626641498 0.24225379751191711 0 0.3967896576681017 0.2389588859392642 0 0.3919413447389391 0.24612977173593051 0 0.41304345626641498 0.24225379751191711 0 0.3898718703171708 0.25696666417538411 0 0.41304345626641498 0.24225379751191711 0 0.3967896576681017 0.2389588859392642 0 0.40814392388014481 0.2340143263291066 0 0.41304345626641498 0.24225379751191711 0 0.3967896576681017 0.2389588859392642 0 0.3919413447389391 0.24612977173593051 0 0.38766959897390252 0.2386110329351418 0 0.38321793153226102 0.25220974216865699 0 0.36696998983098789 0.2474212008079161 0 0.38102911781135362 0.24578971572265279 0 0.38321793153226102 0.25220974216865699 0 0.3919413447389391 0.24612977173593051 0 0.38102911781135362 0.24578971572265279 0 0.3919413447389391 0.24612977173593051 0 0.38102911781135362 0.24578971572265279 0 0.38766959897390252 0.2386110329351418 0 0.37432304820012641 0.24074747116270551 0 0.38102911781135362 0.24578971572265279 0 0.38016995785795382 0.23352911112258951 0 0.38102911781135362 0.24578971572265279 0 0.38766959897390252 0.2386110329351418 0 0.38016995785795382 0.23352911112258951 0 0.38766959897390252 0.2386110329351418 0 0.38016995785795382 0.23352911112258951 0 0.39211688928006538 0.22385689554261889 0 0.37416386119572242 0.22418284925536261 0 0.39211688928006538 0.22385689554261889 0 0.38235972478873542 0.20915941481560721 0 0.38016995785795382 0.23352911112258951 0 0.39211688928006538 0.22385689554261889 0 0.37416386119572242 0.22418284925536261 0 0.38016995785795382 0.23352911112258951 0 0.39211688928006538 0.22385689554261889 0 0.39211688928006538 0.22385689554261889 0 0.40406382070217339 0.21418467996264359 0 0.3967896576681017 0.2389588859392642 0 0.39211688928006538 0.22385689554261889 0 0.4032893733231015 0.22544251346385499 0 0.3967896576681017 0.2389588859392642 0 0.38766959897390252 0.2386110329351418 0 0.39211688928006538 0.22385689554261889 0 0.3967896576681017 0.2389588859392642 0 0.4032893733231015 0.22544251346385499 0 0.40814392388014481 0.2340143263291066 0 0.39211688928006538 0.22385689554261889 0 0.4032893733231015 0.22544251346385499 0 0.40406382070217339 0.21418467996264359 0 0.40574872029798192 0.21282058808454071 0 0.39494710830510898 0.19975135491273541 0 0.41078049988863319 0.20874686779334919 0 0.39494710830510898 0.19975135491273541 0 0.41078049988863319 0.20874686779334919 0 0.40406382070217339 0.21418467996264359 0 0.38235972478873542 0.20915941481560721 0 0.40406382070217339 0.21418467996264359 0 0.38235972478873542 0.20915941481560721 0 0.39494710830510898 0.19975135491273541 0 0.39211688928006538 0.22385689554261889 0 0.40406382070217339 0.21418467996264359 0 0.38235972478873542 0.20915941481560721 0 0.4032893733231015 0.22544251346385499 0 0.40406382070217339 0.21418467996264359 0 0.40754165652498681 0.2149899218495718 0 0.40406382070217339 0.21418467996264359 0 0.40754165652498681 0.2149899218495718 0 0.40406382070217339 0.21418467996264359 0 0.40574872029798192 0.21282058808454071 0 0.40754165652498681 0.2149899218495718 0 0.40406382070217339 0.21418467996264359 0 0.40574872029798192 0.21282058808454071 0 0.40406382070217339 0.21418467996264359 0 0.40574872029798192 0.21282058808454071 0 0.39494710830510898 0.19975135491273541 0 0.40574872029798192 0.21282058808454071 0 0.39494710830510898 0.19975135491273541 0 0.37711519957617112 0.19813421835430889 0 0.37799309392707048 0.19011917636708439 0 0.39494710830510898 0.19975135491273541 0 0.38235972478873542 0.20915941481560721 0 0.37711519957617112 0.19813421835430889 0 0.39494710830510898 0.19975135491273541 0 0.37799309392707048 0.19011917636708439 0 0.39494710830510898 0.19975135491273541 0 0.37904544235727639 0.18051139515213949 0 0.39439207518913583 0.1840188082588349 0 0.39494710830510898 0.19975135491273541 0 0.37904544235727639 0.18051139515213949 0 0.39494710830510898 0.19975135491273541 0 0.37904544235727639 0.18051139515213949 0 0.37799309392707048 0.19011917636708439 0 0.39494710830510898 0.19975135491273541 0 0.37004094320898179 0.19336888266090271 0 0.37711519957617112 0.19813421835430889 0 0.37799309392707048 0.19011917636708439 0 0.37711519957617112 0.19813421835430889 0 0.37799309392707048 0.19011917636708439 0 0.37223322442805562 0.18684678965223109 0 0.37799309392707048 0.19011917636708439 0 0.40338570577200411 0.18642768607164059 0 0.39494710830510898 0.19975135491273541 0 0.41071396938553872 0.1927804142442589 0 0.39494710830510898 0.19975135491273541 0 0.41071396938553872 0.1927804142442589 0 0.41078049988863319 0.20874686779334919 0 0.39439207518913583 0.1840188082588349 0 0.40338570577200411 0.18642768607164059 0 0.39494710830510898 0.19975135491273541 0 0.42802211032041981 0.19478808899485189 0 0.41078049988863319 0.20874686779334919 0 0.41071396938553872 0.1927804142442589 0 0.42582635643910999 0.19354405261936819 0 0.41078049988863319 0.20874686779334919 0 0.42802211032041981 0.19478808899485189 0 0.42582635643910999 0.19354405261936819 0 0.41078049988863319 0.20874686779334919 0 0.41887584182384191 0.18650260267076421 0 0.41071396938553872 0.1927804142442589 0 0.42582635643910999 0.19354405261936819 0 0.42802211032041981 0.19478808899485189 0 0.43720039008014938 0.19990150689403169 0 0.44526372075220572 0.18082931019635401 0 0.42802211032041981 0.19478808899485189 0 0.44526372075220572 0.18082931019635401 0 0.41887584182384191 0.18650260267076421 0 0.42583738241545332 0.18535000676970889 0 0.42582635643910999 0.19354405261936819 0 0.42802211032041981 0.19478808899485189 0 0.43720039008014938 0.19990150689403169 0 0.43012291588321672 0.20800911764143959 0 0.42802211032041981 0.19478808899485189 0 0.43012291588321672 0.20800911764143959 0 0.41078049988863319 0.20874686779334919 0 0.43012291588321672 0.20800911764143959 0 0.42556553157487181 0.21714677013089889 0 0.41078049988863319 0.20874686779334919 0 0.43720039008014938 0.19990150689403169 0 0.43012291588321672 0.20800911764143959 0 0.43927983252739777 0.21331521529416139 0 0.43012291588321672 0.20800911764143959 0 0.43117837049541058 0.21424084233544519 0 0.43927983252739777 0.21331521529416139 0 0.43117837049541058 0.21424084233544519 0 0.43155577018951141 0.22055003773352719 0 0.43927983252739777 0.21331521529416139 0 0.43012291588321672 0.20800911764143959 0 0.43117837049541058 0.21424084233544519 0 0.42556553157487181 0.21714677013089889 0 0.43012291588321672 0.20800911764143959 0 0.42556553157487181 0.21714677013089889 0 0.43117837049541058 0.21424084233544519 0 0.42556553157487181 0.21714677013089889 0 0.43155577018951141 0.22055003773352719 0 0.42556553157487181 0.21714677013089889 0 0.4246640047896767 0.21895435051377779 0 0.40754165652498681 0.2149899218495718 0 0.4246640047896767 0.21895435051377779 0 0.42556553157487181 0.21714677013089889 0 0.41078049988863319 0.20874686779334919 0 0.41078049988863319 0.20874686779334919 0 0.40754165652498681 0.2149899218495718 0 0.4246640047896767 0.21895435051377779 0 0.42556553157487181 0.21714677013089889 0 0.41078049988863319 0.20874686779334919 0 0.4246640047896767 0.21895435051377779 0 0.40574872029798192 0.21282058808454071 0 0.41078049988863319 0.20874686779334919 0 0.40574872029798192 0.21282058808454071 0 0.41078049988863319 0.20874686779334919 0 0.40754165652498681 0.2149899218495718 0 0.40574872029798192 0.21282058808454071 0 0.40754165652498681 0.2149899218495718 0 0.40754165652498681 0.2149899218495718 0 0.41945320826296151 0.22940210840138961 0 0.4246640047896767 0.21895435051377779 0 0.4032893733231015 0.22544251346385499 0 0.40814392388014481 0.2340143263291066 0 0.41945320826296151 0.22940210840138961 0 0.4032893733231015 0.22544251346385499 0 0.40754165652498681 0.2149899218495718 0 0.41945320826296151 0.22940210840138961 0 0.40754165652498681 0.2149899218495718 0 0.41945320826296151 0.22940210840138961 0 0.41945320826296151 0.22940210840138961 0 0.42421328324605462 0.23516148301236539 0 0.41945320826296151 0.22940210840138961 0 0.4246640047896767 0.21895435051377779 0 0.4279423690407102 0.22586327794754829 0 0.41945320826296151 0.22940210840138961 0 0.4246640047896767 0.21895435051377779 0 0.42421328324605462 0.23516148301236539 0 0.44043947901634589 0.23721358203065601 0 0.43982557871534689 0.22524841007668031 0 0.42556553157487181 0.21714677013089889 0 0.43155577018951141 0.22055003773352719 0 0.4246640047896767 0.21895435051377779 0 0.4279423690407102 0.22586327794754829 0 0.43155577018951141 0.22055003773352719 0 0.42556553157487181 0.21714677013089889 0 0.4246640047896767 0.21895435051377779 0 0.43155577018951141 0.22055003773352719 0 0.4246640047896767 0.21895435051377779 0 0.43155577018951141 0.22055003773352719 0 0.4279423690407102 0.22586327794754829 0 0.43155577018951141 0.22055003773352719 0 0.43982557871534689 0.22524841007668031 0 0.43155577018951141 0.22055003773352719 0 0.44303810855005987 0.2232086048076771 0 0.43155577018951141 0.22055003773352719 0 0.43982557871534689 0.22524841007668031 0 0.4279423690407102 0.22586327794754829 0 0.42421328324605462 0.23516148301236539 0 0.43982557871534689 0.22524841007668031 0 0.42421328324605462 0.23516148301236539 0 0.43982557871534689 0.22524841007668031 0 0.41945320826296151 0.22940210840138961 0 0.4279423690407102 0.22586327794754829 0 0.42421328324605462 0.23516148301236539 0 0.44120650966623592 0.25572215845351148 0 0.42421328324605462 0.23516148301236539 0 0.44120650966623592 0.25572215845351148 0 0.42421328324605462 0.23516148301236539 0 0.42489070409215801 0.24756676585661469 0 0.44120650966623592 0.25572215845351148 0 0.42421328324605462 0.23516148301236539 0 0.44043947901634589 0.23721358203065601 0 0.42109956718992658 0.25712962444866472 0 0.42489070409215801 0.24756676585661469 0 0.41304345626641498 0.24225379751191711 0 0.42421328324605462 0.23516148301236539 0 0.41304345626641498 0.24225379751191711 0 0.41945320826296151 0.22940210840138961 0 0.42421328324605462 0.23516148301236539 0 0.41304345626641498 0.24225379751191711 0 0.41945320826296151 0.22940210840138961 0 0.41304345626641498 0.24225379751191711 0 0.42421328324605462 0.23516148301236539 0 0.42489070409215801 0.24756676585661469 0 0.41304345626641498 0.24225379751191711 0 0.40814392388014481 0.2340143263291066 0 0.41945320826296151 0.22940210840138961 0 0.41304345626641498 0.24225379751191711 0 0.40548820354440163 0.25740223994573869 0 0.41304345626641498 0.24225379751191711 0 0.45233624405580852 0.257549898903432 0 0.45795727863963459 0.24873922717354591 0 0.45082023249427078 0.24110466507455591 0 0.46859864464755879 0.24799951236329479 0 0.46264020308618348 0.23964183492434671 0 0.4747012400954651 0.23900861260018541 0 0.46859864464755879 0.24799951236329479 0 0.46264020308618348 0.23964183492434671 0 0.45795727863963459 0.24873922717354591 0 0.46264020308618348 0.23964183492434671 0 0.46693236307825431 0.22874096906619371 0 0.4747012400954651 0.23900861260018541 0 0.46264020308618348 0.23964183492434671 0 0.45082023249427078 0.24110466507455591 0 0.45683145956191751 0.23225802326830439 0 0.46264020308618348 0.23964183492434671 0 0.45795727863963459 0.24873922717354591 0 0.45082023249427078 0.24110466507455591 0 0.45233624405580852 0.257549898903432 0 0.45082023249427078 0.24110466507455591 0 0.44120650966623592 0.25572215845351148 0 0.44043947901634589 0.23721358203065601 0 0.45082023249427078 0.24110466507455591 0 0.44043947901634589 0.23721358203065601 0 0.45082023249427078 0.24110466507455591 0 0.4461317909598212 0.22883119353616649 0 0.45082023249427078 0.24110466507455591 0 0.44930422093273781 0.2246594312456793 0 0.45683145956191751 0.23225802326830439 0 0.45082023249427078 0.24110466507455591 0 0.4461317909598212 0.22883119353616649 0 0.44930422093273781 0.2246594312456793 0 0.45082023249427078 0.24110466507455591 0 0.44930422093273781 0.2246594312456793 0 0.44043947901634589 0.23721358203065601 0 0.4461317909598212 0.22883119353616649 0 0.43982557871534689 0.22524841007668031 0 0.4461317909598212 0.22883119353616649 0 0.43982557871534689 0.22524841007668031 0 0.43155577018951141 0.22055003773352719 0 0.43982557871534689 0.22524841007668031 0 0.44303810855005987 0.2232086048076771 0 0.43155577018951141 0.22055003773352719 0 0.44303810855005987 0.2232086048076771 0 0.43927983252739777 0.21331521529416139 0 0.43982557871534689 0.22524841007668031 0 0.44303810855005987 0.2232086048076771 0 0.4461317909598212 0.22883119353616649 0 0.43982557871534689 0.22524841007668031 0 0.44303810855005987 0.2232086048076771 0 0.44883137598571698 0.21953015260706021 0 0.44930422093273781 0.2246594312456793 0 0.44303810855005987 0.2232086048076771 0 0.44883137598571698 0.21953015260706021 0 0.44930422093273781 0.2246594312456793 0 0.44303810855005987 0.2232086048076771 0 0.44883137598571698 0.21953015260706021 0 0.44883137598571698 0.21953015260706021 0 0.44930422093273781 0.2246594312456793 0 0.45414806463642288 0.21615430550793219 0 0.44303810855005987 0.2232086048076771 0 0.44930422093273781 0.2246594312456793 0 0.4461317909598212 0.22883119353616649 0 0.44303810855005987 0.2232086048076771 0 0.44930422093273781 0.2246594312456793 0 0.44930422093273781 0.2246594312456793 0 0.46693236307825431 0.22874096906619371 0 0.45414806463642288 0.21615430550793219 0 0.44930422093273781 0.2246594312456793 0 0.45683145956191751 0.23225802326830439 0 0.46693236307825431 0.22874096906619371 0 0.44930422093273781 0.2246594312456793 0 0.46693236307825431 0.22874096906619371 0 0.46264020308618348 0.23964183492434671 0 0.45683145956191751 0.23225802326830439 0 0.46693236307825431 0.22874096906619371 0 0.46693236307825431 0.22874096906619371 0 0.45414806463642288 0.21615430550793219 0 0.46936289163294559 0.21086441223024491 0 0.45919941993868513 0.20434369924001261 0 0.45414806463642288 0.21615430550793219 0 0.44704754836896121 0.200179731401707 0 0.45919941993868513 0.20434369924001261 0 0.46980512381345368 0.19669349679550571 0 0.46936289163294559 0.21086441223024491 0 0.45919941993868513 0.20434369924001261 0 0.45414806463642288 0.21615430550793219 0 0.46936289163294559 0.21086441223024491 0 0.44883137598571698 0.21953015260706021 0 0.44704754836896121 0.200179731401707 0 0.44883137598571698 0.21953015260706021 0 0.45414806463642288 0.21615430550793219 0 0.44704754836896121 0.200179731401707 0 0.44883137598571698 0.21953015260706021 0 0.45414806463642288 0.21615430550793219 0 0.44883137598571698 0.21953015260706021 0 0.43927983252739777 0.21331521529416139 0 0.44704754836896121 0.200179731401707 0 0.44303810855005987 0.2232086048076771 0 0.44883137598571698 0.21953015260706021 0 0.43927983252739777 0.21331521529416139 0 0.43720039008014938 0.19990150689403169 0 0.43927983252739777 0.21331521529416139 0 0.44704754836896121 0.200179731401707 0 0.44704754836896121 0.200179731401707 0 0.44526372075220572 0.18082931019635401 0 0.43720039008014938 0.19990150689403169 0 0.44704754836896121 0.200179731401707 0 0.44526372075220572 0.18082931019635401 0 0.44704754836896121 0.200179731401707 0 0.45692165764047699 0.19294778763749079 0 0.44526372075220572 0.18082931019635401 0 0.45919941993868513 0.20434369924001261 0 0.44704754836896121 0.200179731401707 0 0.45692165764047699 0.19294778763749079 0 0.45919941993868513 0.20434369924001261 0 0.45692165764047699 0.19294778763749079 0 0.46980512381345368 0.19669349679550571 0 0.45692165764047699 0.19294778763749079 0 0.46980512381345368 0.19669349679550571 0 0.46329247532907858 0.18269270055387499 0 0.46980512381345368 0.19669349679550571 0 0.48350186078690333 0.20246082506793889 0 0.48560221018971178 0.18458252632911651 0 0.46980512381345368 0.19669349679550571 0 0.46329247532907858 0.18269270055387499 0 0.48560221018971178 0.18458252632911651 0 0.48350186078690333 0.20246082506793889 0 0.5 0.19939042568673199 0 0.48560221018971178 0.18458252632911651 0 0.48350186078690333 0.20246082506793889 0 0.4908922660284929 0.21230401840644031 0 0.48019120707974322 0.219383060025299 0 0.48350186078690333 0.20246082506793889 0 0.5 0.19939042568673199 0 0.4908922660284929 0.21230401840644031 0 0.5 0.19939042568673199 0 0.4908922660284929 0.21230401840644031 0 0.5 0.22900622440196319 0 0.48350186078690333 0.20246082506793889 0 0.46936289163294559 0.21086441223024491 0 0.48019120707974322 0.219383060025299 0 0.46980512381345368 0.19669349679550571 0 0.48350186078690333 0.20246082506793889 0 0.46936289163294559 0.21086441223024491 0 0.46693236307825431 0.22874096906619371 0 0.48019120707974322 0.219383060025299 0 0.48456050522377048 0.2328225068867095 0 0.46693236307825431 0.22874096906619371 0 0.48456050522377048 0.2328225068867095 0 0.4747012400954651 0.23900861260018541 0 0.46693236307825431 0.22874096906619371 0 0.48456050522377048 0.2328225068867095 0 0.46693236307825431 0.22874096906619371 0 0.46936289163294559 0.21086441223024491 0 0.48019120707974322 0.219383060025299 0 0.4908922660284929 0.21230401840644031 0 0.48565916485452543 0.24048384871622941 0 0.4908922660284929 0.21230401840644031 0 0.48456050522377048 0.2328225068867095 0 0.48565916485452543 0.24048384871622941 0 0.4908922660284929 0.21230401840644031 0 0.48019120707974322 0.219383060025299 0 0.48456050522377048 0.2328225068867095 0 0.4908922660284929 0.21230401840644031 0 0.5 0.22900622440196319 0 0.48565916485452543 0.24048384871622941 0 0.5 0.25862202311719429 0 0.5 0.22900622440196319 0 0.48565916485452543 0.24048384871622941 0 0.48565916485452543 0.24048384871622941 0 0.4774895236538329 0.24896601126239271 0 0.4747012400954651 0.23900861260018541 0 0.48456050522377048 0.2328225068867095 0 0.48565916485452543 0.24048384871622941 0 0.4747012400954651 0.23900861260018541 0 0.46859864464755879 0.24799951236329479 0 0.4774895236538329 0.24896601126239271 0 0.4747012400954651 0.23900861260018541 0 0.4623962710029188 0.14586047238908709 0 0.45301535942669369 0.1546507697864854 0 0.46522223657311229 0.16467092936570871 0 0.4623962710029188 0.14586047238908709 0 0.44966265899512903 0.1313679155678468 0 0.45187874918993942 0.14552131855213621 0 0.4623962710029188 0.14586047238908709 0 0.45187874918993942 0.14552131855213621 0 0.45301535942669369 0.1546507697864854 0 0.4623962710029188 0.14586047238908709 0 0.44966265899512903 0.1313679155678468 0 0.47719322195222952 0.12683722136570241 0 0.43571405930090662 0.13571915795530551 0 0.44966265899512903 0.1313679155678468 0 0.44230726499776107 0.14875857444466711 0 0.43571405930090662 0.13571915795530551 0 0.44966265899512903 0.1313679155678468 0 0.43625622382449603 0.11630207414886259 0 0.44966265899512903 0.1313679155678468 0 0.44244070733501628 0.15020611646512541 0 0.44230726499776107 0.14875857444466711 0 0.44966265899512903 0.1313679155678468 0 0.45187874918993942 0.14552131855213621 0 0.44244070733501628 0.15020611646512541 0 0.43498537402000492 0.1488512146786681 0 0.43571405930090662 0.13571915795530551 0 0.44230726499776107 0.14875857444466711 0 0.44966265899512903 0.1313679155678468 0 0.44244070733501628 0.15020611646512541 0 0.45187874918993942 0.14552131855213621 0 0.45301535942669369 0.1546507697864854 0 0.44244070733501628 0.15020611646512541 0 0.44244070733501628 0.15020611646512541 0 0.44230726499776107 0.14875857444466711 0 0.43498537402000492 0.1488512146786681 0 0.44244070733501628 0.15020611646512541 0 0.44230726499776107 0.14875857444466711 0 0.43413353188706338 0.1718750845422469 0 0.44244070733501628 0.15020611646512541 0 0.43413353188706338 0.1718750845422469 0 0.44244070733501628 0.15020611646512541 0 0.44385221404361108 0.16551771333073961 0 0.44385221404361108 0.16551771333073961 0 0.44526372075220572 0.18082931019635401 0 0.46522223657311229 0.16467092936570871 0 0.44244070733501628 0.15020611646512541 0 0.44385221404361108 0.16551771333073961 0 0.45301535942669369 0.1546507697864854 0 0.44244070733501628 0.15020611646512541 0 0.44385221404361108 0.16551771333073961 0 0.43413353188706338 0.1718750845422469 0 0.44385221404361108 0.16551771333073961 0 0.44526372075220572 0.18082931019635401 0 0.44385221404361108 0.16551771333073961 0 0.44526372075220572 0.18082931019635401 0 0.45692165764047699 0.19294778763749079 0 0.44526372075220572 0.18082931019635401 0 0.46329247532907858 0.18269270055387499 0 0.44526372075220572 0.18082931019635401 0 0.46522223657311229 0.16467092936570871 0 0.44526372075220572 0.18082931019635401 0 0.46329247532907858 0.18269270055387499 0 0.46522223657311229 0.16467092936570871 0 0.45301535942669369 0.1546507697864854 0 0.44385221404361108 0.16551771333073961 0 0.46522223657311229 0.16467092936570871 0 0.46522223657311229 0.16467092936570871 0 0.4808758659425878 0.16894567425549359 0 0.48164844873672158 0.1510490434746817 0 0.46329247532907858 0.18269270055387499 0 0.46522223657311229 0.16467092936570871 0 0.4808758659425878 0.16894567425549359 0 0.46329247532907858 0.18269270055387499 0 0.4808758659425878 0.16894567425549359 0 0.48560221018971178 0.18458252632911651 0 0.5 0.19939042568673199 0 0.48560221018971178 0.18458252632911651 0 0.5 0.169774626971501 0 0.4808758659425878 0.16894567425549359 0 0.48560221018971178 0.18458252632911651 0 0.5 0.169774626971501 0 0.4808758659425878 0.16894567425549359 0 0.5 0.169774626971501 0 0.48164844873672158 0.1510490434746817 0 0.5 0.169774626971501 0 0.48164844873672158 0.1510490434746817 0 0.5 0.14015882825626991 0 0.4623962710029188 0.14586047238908709 0 0.48164844873672158 0.1510490434746817 0 0.47719322195222952 0.12683722136570241 0 0.4623962710029188 0.14586047238908709 0 0.46522223657311229 0.16467092936570871 0 0.48164844873672158 0.1510490434746817 0 0.47719322195222952 0.12683722136570241 0 0.5 0.14015882825626991 0 0.5 0.1105430295410388 0 0.48164844873672158 0.1510490434746817 0 0.47719322195222952 0.12683722136570241 0 0.5 0.14015882825626991 0 0.47719322195222952 0.12683722136570241 0 0.5 0.1105430295410388 0 0.48427612513875351 0.1055645372829523 0 0.5 0.1105430295410388 0 0.48427612513875351 0.1055645372829523 0 0.48855103932373728 0.092176436086374783 0 0.5 0.1105430295410388 0 0.5 0.080927230825807661 0 0.48855103932373728 0.092176436086374783 0 0.48427612513875351 0.1055645372829523 0 0.47502151674683818 0.095721315557521031 0 0.47170268418982342 0.1094204030826829 0 0.48427612513875351 0.1055645372829523 0 0.47502151674683818 0.095721315557521031 0 0.48855103932373728 0.092176436086374783 0 0.47719322195222952 0.12683722136570241 0 0.48427612513875351 0.1055645372829523 0 0.47170268418982342 0.1094204030826829 0 0.49143831166328877 0.077229195938881195 0 0.5 0.080927230825807661 0 0.5 0.051311432110576538 0 0.49143831166328877 0.077229195938881195 0 0.48303511157278961 0.05598047706289893 0 0.49143831166328877 0.077229195938881195 0 0.48855103932373728 0.092176436086374783 0 0.479332721100729 0.084665590414954472 0 0.49143831166328877 0.077229195938881195 0 0.5 0.080927230825807661 0 0.48855103932373728 0.092176436086374783 0 0.49143831166328877 0.077229195938881195 0 0.479332721100729 0.084665590414954472 0 0.47406184282884273 0.072563708514930894 0 0.47502151674683818 0.095721315557521031 0 0.48855103932373728 0.092176436086374783 0 0.479332721100729 0.084665590414954472 0 0.47502151674683818 0.095721315557521031 0 0.479332721100729 0.084665590414954472 0 0.46798572837548019 0.0855542158221691 0 0.479332721100729 0.084665590414954472 0 0.47406184282884273 0.072563708514930894 0 0.46798572837548019 0.0855542158221691 0 0.49143831166328877 0.077229195938881195 0 0.47406184282884273 0.072563708514930894 0 0.48303511157278961 0.05598047706289893 0 0.47406184282884273 0.072563708514930894 0 0.45700709922675892 0.078607818845498667 0 0.46396840558255342 0.056110196401960521 0 0.45700709922675892 0.078607818845498667 0 0.44305226484050869 0.066598294580497652 0 0.46396840558255342 0.056110196401960521 0 0.47406184282884273 0.072563708514930894 0 0.45700709922675892 0.078607818845498667 0 0.46798572837548019 0.0855542158221691 0 0.45700709922675892 0.078607818845498667 0 0.46798572837548019 0.0855542158221691 0 0.45794840952344218 0.095488186827252797 0 0.47502151674683818 0.095721315557521031 0 0.46798572837548019 0.0855542158221691 0 0.45794840952344218 0.095488186827252797 0 0.45700709922675892 0.078607818845498667 0 0.43813778437611067 0.0926917632854522 0 0.44305226484050869 0.066598294580497652 0 0.45700709922675892 0.078607818845498667 0 0.43813778437611067 0.0926917632854522 0 0.45794840952344218 0.095488186827252797 0 0.44966265899512903 0.1313679155678468 0 0.45688461065524139 0.11252971467056801 0 0.47719322195222952 0.12683722136570241 0 0.47170268418982342 0.1094204030826829 0 0.45688461065524139 0.11252971467056801 0 0.44966265899512903 0.1313679155678468 0 0.47719322195222952 0.12683722136570241 0 0.45688461065524139 0.11252971467056801 0 0.47170268418982342 0.1094204030826829 0 0.45688461065524139 0.11252971467056801 0 0.45794840952344218 0.095488186827252797 0 0.47502151674683818 0.095721315557521031 0 0.47170268418982342 0.1094204030826829 0 0.45794840952344218 0.095488186827252797 0 0.43813778437611067 0.0926917632854522 0 0.45688461065524139 0.11252971467056801 0 0.43625622382449603 0.11630207414886259 0 0.43813778437611067 0.0926917632854522 0 0.45688461065524139 0.11252971467056801 0 0.45794840952344218 0.095488186827252797 0 0.44966265899512903 0.1313679155678468 0 0.45688461065524139 0.11252971467056801 0 0.43625622382449603 0.11630207414886259 0 0.43625622382449603 0.11630207414886259 0 0.41217026446381361 0.1199047966358894 0 0.42076356150674388 0.10221324894225869 0 0.43571405930090662 0.13571915795530551 0 0.43625622382449603 0.11630207414886259 0 0.41217026446381361 0.1199047966358894 0 0.42076356150674388 0.10221324894225869 0 0.41746527866691641 0.087506452294958639 0 0.39978825620238267 0.094661158346130508 0 0.41217026446381361 0.1199047966358894 0 0.42076356150674388 0.10221324894225869 0 0.39978825620238267 0.094661158346130508 0 0.43813778437611067 0.0926917632854522 0 0.42076356150674388 0.10221324894225869 0 0.41746527866691641 0.087506452294958639 0 0.43813778437611067 0.0926917632854522 0 0.43625622382449603 0.11630207414886259 0 0.42076356150674388 0.10221324894225869 0 0.43813778437611067 0.0926917632854522 0 0.4237637435407467 0.069506555569604278 0 0.41746527866691641 0.087506452294958639 0 0.43813778437611067 0.0926917632854522 0 0.44305226484050869 0.066598294580497652 0 0.4237637435407467 0.069506555569604278 0 0.4237637435407467 0.069506555569604278 0 0.40557573367972721 0.07324418422032189 0 0.40199020745614511 0.049340737106750653 0 0.4237637435407467 0.069506555569604278 0 0.41746527866691641 0.087506452294958639 0 0.40557573367972721 0.07324418422032189 0 0.41746527866691641 0.087506452294958639 0 0.40557573367972721 0.07324418422032189 0 0.39978825620238267 0.094661158346130508 0 0.40557573367972721 0.07324418422032189 0 0.38740624794095191 0.069417520056371695 0 0.39978825620238267 0.094661158346130508 0 0.38740624794095191 0.069417520056371695 0 0.39978825620238267 0.094661158346130508 0 0.40557573367972721 0.07324418422032189 0 0.38740624794095191 0.069417520056371695 0 0.40199020745614511 0.049340737106750653 0 0.37222207119862799 0.093332863469343011 0 0.38740624794095191 0.069417520056371695 0 0.39978825620238267 0.094661158346130508 0 0.37495322760371941 0.109274496328456 0 0.37222207119862799 0.093332863469343011 0 0.39978825620238267 0.094661158346130508 0 0.37495322760371941 0.109274496328456 0 0.38541655887394882 0.1223440697396076 0 0.39978825620238267 0.094661158346130508 0 0.41217026446381361 0.1199047966358894 0 0.38541655887394882 0.1223440697396076 0 0.39978825620238267 0.094661158346130508 0 0.41217026446381361 0.1199047966358894 0 0.39978825620238267 0.094661158346130508 0 0.40072219150013172 0.031231706409255461 0 0.39906411474192888 0.016767796372347959 0 0.3813137462246125 0.022518898453150089 0 0.40072219150013172 0.031231706409255461 0 0.39906411474192888 0.016767796372347959 0 0.41338235617680169 0.020644892901558441 0 0.39906411474192888 0.016767796372347959 0 0.39888511218489531 0.001334495925296 0 0.41373523287241248 0.0071634138766184388 0 0.39906411474192888 0.016767796372347959 0 0.39888511218489531 0.001334495925296 0 0.38670695908484998 0.0087842347839635938 0 0.36786641969036238 0.0095763450901051733 0 0.38419163103955167 -0.0076868487621308884 0 0.36786641969036238 0.0095763450901051733 0 0.38670695908484998 0.0087842347839635938 0 0.38419163103955167 -0.0076868487621308884 0 0.39888511218489531 0.001334495925296 0 0.38670695908484998 0.0087842347839635938 0 0.38419163103955167 -0.0076868487621308884 0 0.36786641969036238 0.0095763450901051733 0 0.38670695908484998 0.0087842347839635938 0 0.3813137462246125 0.022518898453150089 0 0.39906411474192888 0.016767796372347959 0 0.38670695908484998 0.0087842347839635938 0 0.3813137462246125 0.022518898453150089 0 0.40072219150013172 0.031231706409255461 0 0.3813137462246125 0.022518898453150089 0 0.37893757327845262 0.040156775749227477 0 0.37257469487278189 0.057153028651725959 0 0.37893757327845262 0.040156775749227477 0 0.40199020745614511 0.049340737106750653 0 0.37257469487278189 0.057153028651725959 0 0.38740624794095191 0.069417520056371695 0 0.40199020745614511 0.049340737106750653 0 0.40072219150013172 0.031231706409255461 0 0.37893757327845262 0.040156775749227477 0 0.40199020745614511 0.049340737106750653 0 0.40072219150013172 0.031231706409255461 0 0.40199020745614511 0.049340737106750653 0 0.42233952541698461 0.033744353780513797 0 0.40199020745614511 0.049340737106750653 0 0.42953999286405942 0.0507269765126592 0 0.42233952541698461 0.033744353780513797 0 0.4237637435407467 0.069506555569604278 0 0.40199020745614511 0.049340737106750653 0 0.42953999286405942 0.0507269765126592 0 0.44305226484050869 0.066598294580497652 0 0.4237637435407467 0.069506555569604278 0 0.42953999286405942 0.0507269765126592 0 0.42953999286405942 0.0507269765126592 0 0.42233952541698461 0.033744353780513797 0 0.43944068928899832 0.037673445305011162 0 0.42233952541698461 0.033744353780513797 0 0.44231453921238661 0.020488481264645111 0 0.43944068928899832 0.037673445305011162 0 0.42233952541698461 0.033744353780513797 0 0.42800670564177401 0.012560200697396389 0 0.44231453921238661 0.020488481264645111 0 0.40072219150013172 0.031231706409255461 0 0.42233952541698461 0.033744353780513797 0 0.41338235617680169 0.020644892901558441 0 0.42233952541698461 0.033744353780513797 0 0.41338235617680169 0.020644892901558441 0 0.42800670564177401 0.012560200697396389 0 0.39888511218489531 0.001334495925296 0 0.41373523287241248 0.0071634138766184388 0 0.41459943315781123 -0.0055239836375453686 0 0.39906411474192888 0.016767796372347959 0 0.41338235617680169 0.020644892901558441 0 0.41373523287241248 0.0071634138766184388 0 0.41338235617680169 0.020644892901558441 0 0.41373523287241248 0.0071634138766184388 0 0.42800670564177401 0.012560200697396389 0 0.41373523287241248 0.0071634138766184388 0 0.42800670564177401 0.012560200697396389 0 0.42922822162546731 -0.003729382326659782 0 0.42800670564177401 0.012560200697396389 0 0.44606608667899011 0.0037161193964367701 0 0.42922822162546731 -0.003729382326659782 0 0.42800670564177401 0.012560200697396389 0 0.44606608667899011 0.0037161193964367701 0 0.44231453921238661 0.020488481264645111 0 0.44606608667899011 0.0037161193964367701 0 0.44231453921238661 0.020488481264645111 0 0.46622871139179112 0.01348303931093439 0 0.44231453921238661 0.020488481264645111 0 0.43944068928899832 0.037673445305011162 0 0.45565091698523608 0.034236327081452668 0 0.44231453921238661 0.020488481264645111 0 0.46622871139179112 0.01348303931093439 0 0.45565091698523608 0.034236327081452668 0 0.46622871139179112 0.01348303931093439 0 0.45565091698523608 0.034236327081452668 0 0.47463191148229028 0.034731758186916657 0 0.46622871139179112 0.01348303931093439 0 0.45782551130129179 -0.0077656795650479019 0 0.44606608667899011 0.0037161193964367701 0 0.46622871139179112 0.01348303931093439 0 0.45782551130129179 -0.0077656795650479019 0 0.46622871139179112 0.01348303931093439 0 0.47606879695322718 -0.0026943652047175478 0 0.45782551130129179 -0.0077656795650479019 0 0.44305226484050869 0.066598294580497652 0 0.4473584719663245 0.049171087885784961 0 0.46396840558255342 0.056110196401960521 0 0.44305226484050869 0.066598294580497652 0 0.42953999286405942 0.0507269765126592 0 0.4473584719663245 0.049171087885784961 0 0.42953999286405942 0.0507269765126592 0 0.4473584719663245 0.049171087885784961 0 0.43944068928899832 0.037673445305011162 0 0.4473584719663245 0.049171087885784961 0 0.43944068928899832 0.037673445305011162 0 0.45565091698523608 0.034236327081452668 0 0.45565091698523608 0.034236327081452668 0 0.46396840558255342 0.056110196401960521 0 0.47463191148229028 0.034731758186916657 0 0.4473584719663245 0.049171087885784961 0 0.45565091698523608 0.034236327081452668 0 0.46396840558255342 0.056110196401960521 0 0.46396840558255342 0.056110196401960521 0 0.48303511157278961 0.05598047706289893 0 0.47463191148229028 0.034731758186916657 0 0.47406184282884273 0.072563708514930894 0 0.46396840558255342 0.056110196401960521 0 0.48303511157278961 0.05598047706289893 0 0.48303511157278961 0.05598047706289893 0 0.47463191148229028 0.034731758186916657 0 0.48821496393745828 0.041646048222599291 0 0.48303511157278961 0.05598047706289893 0 0.47463191148229028 0.034731758186916657 0 0.47463191148229028 0.034731758186916657 0 0.48821496393745828 0.041646048222599291 0 0.5 0.021695633395345418 0 0.48821496393745828 0.041646048222599291 0 0.5 0.051311432110576538 0 0.5 0.021695633395345418 0 0.49143831166328877 0.077229195938881195 0 0.48303511157278961 0.05598047706289893 0 0.5 0.051311432110576538 0 0.48303511157278961 0.05598047706289893 0 0.48821496393745828 0.041646048222599291 0 0.5 0.051311432110576538 0 0.46622871139179112 0.01348303931093439 0 0.48360590602789238 0.01227259001067877 0 0.47606879695322718 -0.0026943652047175478 0 0.46622871139179112 0.01348303931093439 0 0.47463191148229028 0.034731758186916657 0 0.48360590602789238 0.01227259001067877 0 0.46622871139179112 0.01348303931093439 0 0.47463191148229028 0.034731758186916657 0 0.47463191148229028 0.034731758186916657 0 0.48360590602789238 0.01227259001067877 0 0.5 0.021695633395345418 0 0.48360590602789238 0.01227259001067877 0 0.5 0.021695633395345418 0 0.5 -0.007920165319885708 0 0.48360590602789238 0.01227259001067877 0 0.5 -0.007920165319885708 0 0.47606879695322718 -0.0026943652047175478 0 0.5 -0.007920165319885708 0 0.47606879695322718 -0.0026943652047175478 0 0.47962394026293143 -0.019147494917847559 0 0.47606879695322718 -0.0026943652047175478 0 0.47962394026293143 -0.019147494917847559 0 0.46606145772889451 -0.017367141459759601 0 0.47962394026293143 -0.019147494917847559 0 0.4644341462763944 -0.037429998218156041 0 0.46606145772889451 -0.017367141459759601 0 0.47962394026293143 -0.019147494917847559 0 0.48724721225837481 -0.02866036010214788 0 0.4644341462763944 -0.037429998218156041 0 0.5 -0.007920165319885708 0 0.47962394026293143 -0.019147494917847559 0 0.48724721225837481 -0.02866036010214788 0 0.5 -0.007920165319885708 0 0.48724721225837481 -0.02866036010214788 0 0.5 -0.037535964035116831 0 0.48724721225837481 -0.02866036010214788 0 0.5 -0.037535964035116831 0 0.49217797475254821 -0.041268178019733273 0 0.5 -0.037535964035116831 0 0.49217797475254821 -0.041268178019733273 0 0.49106180079471562 -0.051150002242575279 0 0.5 -0.037535964035116831 0 0.49106180079471562 -0.051150002242575279 0 0.5 -0.067151762750347899 0 0.49106180079471562 -0.051150002242575279 0 0.48052804284962258 -0.060921918041199057 0 0.5 -0.067151762750347899 0 0.49217797475254821 -0.041268178019733273 0 0.49106180079471562 -0.051150002242575279 0 0.4824591673368675 -0.048565112086787703 0 0.49106180079471562 -0.051150002242575279 0 0.48052804284962258 -0.060921918041199057 0 0.4824591673368675 -0.048565112086787703 0 0.48052804284962258 -0.060921918041199057 0 0.4824591673368675 -0.048565112086787703 0 0.4644341462763944 -0.037429998218156041 0 0.48052804284962258 -0.060921918041199057 0 0.4644341462763944 -0.037429998218156041 0 0.49217797475254821 -0.041268178019733273 0 0.4824591673368675 -0.048565112086787703 0 0.4644341462763944 -0.037429998218156041 0 0.48724721225837481 -0.02866036010214788 0 0.49217797475254821 -0.041268178019733273 0 0.4644341462763944 -0.037429998218156041 0 0.49217797475254821 -0.041268178019733273 0 0.4644341462763944 -0.037429998218156041 0 0.4644341462763944 -0.037429998218156041 0 0.44954913514647232 -0.048134284294051588 0 0.45802646790999729 -0.066819106727256702 0 0.48052804284962258 -0.060921918041199057 0 0.4644341462763944 -0.037429998218156041 0 0.45802646790999729 -0.066819106727256702 0 0.44954913514647232 -0.048134284294051588 0 0.45802646790999729 -0.066819106727256702 0 0.43586511650277571 -0.054256213237713957 0 0.4644341462763944 -0.037429998218156041 0 0.44954913514647232 -0.048134284294051588 0 0.43987080989672178 -0.034031818993079693 0 0.4644341462763944 -0.037429998218156041 0 0.43987080989672178 -0.034031818993079693 0 0.44954913514647232 -0.048134284294051588 0 0.43987080989672178 -0.034031818993079693 0 0.43586511650277571 -0.054256213237713957 0 0.4644341462763944 -0.037429998218156041 0 0.43987080989672178 -0.034031818993079693 0 0.4523548938506271 -0.01979816939302893 0 0.43987080989672178 -0.034031818993079693 0 0.4523548938506271 -0.01979816939302893 0 0.43494664573473391 -0.01847945235130349 0 0.4523548938506271 -0.01979816939302893 0 0.44408427183822208 -0.009211312847920667 0 0.43494664573473391 -0.01847945235130349 0 0.44606608667899011 0.0037161193964367701 0 0.44408427183822208 -0.009211312847920667 0 0.42922822162546731 -0.003729382326659782 0 0.44606608667899011 0.0037161193964367701 0 0.44408427183822208 -0.009211312847920667 0 0.45782551130129179 -0.0077656795650479019 0 0.4523548938506271 -0.01979816939302893 0 0.44408427183822208 -0.009211312847920667 0 0.45782551130129179 -0.0077656795650479019 0 0.4523548938506271 -0.01979816939302893 0 0.45782551130129179 -0.0077656795650479019 0 0.46606145772889451 -0.017367141459759601 0 0.47606879695322718 -0.0026943652047175478 0 0.45782551130129179 -0.0077656795650479019 0 0.46606145772889451 -0.017367141459759601 0 0.4644341462763944 -0.037429998218156041 0 0.4523548938506271 -0.01979816939302893 0 0.46606145772889451 -0.017367141459759601 0 0.4644341462763944 -0.037429998218156041 0 0.4523548938506271 -0.01979816939302893 0 0.46982172881068102 -0.1168177882865758 0 0.48317417071794871 -0.12028471764390419 0 0.4692220023938245 -0.13093917271456429 0 0.46982172881068102 -0.1168177882865758 0 0.47853006021780808 -0.1067467532188863 0 0.46900699019415498 -0.10817406381642081 0 0.46982172881068102 -0.1168177882865758 0 0.48317417071794871 -0.12028471764390419 0 0.47853006021780808 -0.1067467532188863 0 0.48317417071794871 -0.12028471764390419 0 0.5 -0.096767561465578966 0 0.5 -0.12638336018081009 0 0.48317417071794871 -0.12028471764390419 0 0.5 -0.096767561465578966 0 0.47853006021780808 -0.1067467532188863 0 0.5 -0.096767561465578966 0 0.4863933319328741 -0.096164354131879168 0 0.47853006021780808 -0.1067467532188863 0 0.4863933319328741 -0.096164354131879168 0 0.47853006021780808 -0.1067467532188863 0 0.4747373378517043 -0.096045783676238616 0 0.47853006021780808 -0.1067467532188863 0 0.46900699019415498 -0.10817406381642081 0 0.4747373378517043 -0.096045783676238616 0 0.4747373378517043 -0.096045783676238616 0 0.47637102941582921 -0.078275846809365834 0 0.46418083083876382 -0.085100269277910923 0 0.4747373378517043 -0.096045783676238616 0 0.47637102941582921 -0.078275846809365834 0 0.49300701345283587 -0.084732133629186024 0 0.4747373378517043 -0.096045783676238616 0 0.49300701345283587 -0.084732133629186024 0 0.4863933319328741 -0.096164354131879168 0 0.4747373378517043 -0.096045783676238616 0 0.49300701345283587 -0.084732133629186024 0 0.5 -0.096767561465578966 0 0.49662193942285032 -0.084413837864242489 0 0.5 -0.067151762750347899 0 0.5 -0.096767561465578966 0 0.49662193942285032 -0.084413837864242489 0 0.49300701345283587 -0.084732133629186024 0 0.5 -0.096767561465578966 0 0.4863933319328741 -0.096164354131879168 0 0.49300701345283587 -0.084732133629186024 0 0.48052804284962258 -0.060921918041199057 0 0.49662193942285032 -0.084413837864242489 0 0.5 -0.067151762750347899 0 0.48052804284962258 -0.060921918041199057 0 0.49662193942285032 -0.084413837864242489 0 0.48052804284962258 -0.060921918041199057 0 0.49662193942285032 -0.084413837864242489 0 0.49300701345283587 -0.084732133629186024 0 0.48052804284962258 -0.060921918041199057 0 0.47637102941582921 -0.078275846809365834 0 0.45802646790999729 -0.066819106727256702 0 0.48052804284962258 -0.060921918041199057 0 0.47637102941582921 -0.078275846809365834 0 0.49300701345283587 -0.084732133629186024 0 0.47637102941582921 -0.078275846809365834 0 0.45802646790999729 -0.066819106727256702 0 0.46418083083876382 -0.085100269277910923 0 0.45802646790999729 -0.066819106727256702 0 0.43680656727215272 -0.07833603355105305 0 0.4307582131763153 -0.067387742866378053 0 0.45802646790999729 -0.066819106727256702 0 0.43680656727215272 -0.07833603355105305 0 0.45802646790999729 -0.066819106727256702 0 0.44492585230738552 -0.084581017252500751 0 0.43680656727215272 -0.07833603355105305 0 0.45802646790999729 -0.066819106727256702 0 0.4307582131763153 -0.067387742866378053 0 0.43586511650277571 -0.054256213237713957 0 0.45802646790999729 -0.066819106727256702 0 0.44492585230738552 -0.084581017252500751 0 0.45378063812656522 -0.087943402752266586 0 0.44492585230738552 -0.084581017252500751 0 0.43399002671548742 -0.091041618140176334 0 0.43680656727215272 -0.07833603355105305 0 0.44492585230738552 -0.084581017252500751 0 0.44583890770064089 -0.095170553673707636 0 0.43399002671548742 -0.091041618140176334 0 0.44492585230738552 -0.084581017252500751 0 0.45378063812656522 -0.087943402752266586 0 0.44583890770064089 -0.095170553673707636 0 0.45378063812656522 -0.087943402752266586 0 0.45798868088972322 -0.096417206424426818 0 0.44583890770064089 -0.095170553673707636 0 0.4747373378517043 -0.096045783676238616 0 0.46418083083876382 -0.085100269277910923 0 0.45798868088972322 -0.096417206424426818 0 0.45802646790999729 -0.066819106727256702 0 0.45378063812656522 -0.087943402752266586 0 0.46418083083876382 -0.085100269277910923 0 0.45378063812656522 -0.087943402752266586 0 0.46418083083876382 -0.085100269277910923 0 0.45798868088972322 -0.096417206424426818 0 0.4747373378517043 -0.096045783676238616 0 0.46000248332844229 -0.1076959938702429 0 0.45646766225057289 -0.1073594337232916 0 0.4747373378517043 -0.096045783676238616 0 0.45646766225057289 -0.1073594337232916 0 0.4747373378517043 -0.096045783676238616 0 0.45646766225057289 -0.1073594337232916 0 0.45798868088972322 -0.096417206424426818 0 0.46900699019415498 -0.10817406381642081 0 0.4747373378517043 -0.096045783676238616 0 0.46000248332844229 -0.1076959938702429 0 0.45646766225057289 -0.1073594337232916 0 0.45798868088972322 -0.096417206424426818 0 0.44900165520445823 -0.101082590805896 0 0.46000248332844229 -0.1076959938702429 0 0.45646766225057289 -0.1073594337232916 0 0.45646766225057289 -0.1073594337232916 0 0.44900165520445823 -0.101082590805896 0 0.43571136997689591 -0.10538316940215781 0 0.45646766225057289 -0.1073594337232916 0 0.43571136997689591 -0.10538316940215781 0 0.45798868088972322 -0.096417206424426818 0 0.44900165520445823 -0.101082590805896 0 0.44583890770064089 -0.095170553673707636 0 0.44583890770064089 -0.095170553673707636 0 0.43571136997689591 -0.10538316940215781 0 0.43399002671548742 -0.091041618140176334 0 0.44900165520445823 -0.101082590805896 0 0.44583890770064089 -0.095170553673707636 0 0.43571136997689591 -0.10538316940215781 0 0.45646766225057289 -0.1073594337232916 0 0.43299478799405028 -0.1218952082348165 0 0.43571136997689591 -0.10538316940215781 0 0.45646766225057289 -0.1073594337232916 0 0.44665090151740561 -0.12315454867032349 0 0.43299478799405028 -0.1218952082348165 0 0.45646766225057289 -0.1073594337232916 0 0.43299478799405028 -0.1218952082348165 0 0.45646766225057289 -0.1073594337232916 0 0.44665090151740561 -0.12315454867032349 0 0.4569614850963632 -0.1143890063860955 0 0.44665090151740561 -0.12315454867032349 0 0.4590419538324032 -0.1205362401740858 0 0.4569614850963632 -0.1143890063860955 0 0.46000248332844229 -0.1076959938702429 0 0.45646766225057289 -0.1073594337232916 0 0.4569614850963632 -0.1143890063860955 0 0.46000248332844229 -0.1076959938702429 0 0.4569614850963632 -0.1143890063860955 0 0.46264442455299187 -0.11319881549253361 0 0.4590419538324032 -0.1205362401740858 0 0.4569614850963632 -0.1143890063860955 0 0.46264442455299187 -0.11319881549253361 0 0.46900699019415498 -0.10817406381642081 0 0.46000248332844229 -0.1076959938702429 0 0.46264442455299187 -0.11319881549253361 0 0.46982172881068102 -0.1168177882865758 0 0.46900699019415498 -0.10817406381642081 0 0.46264442455299187 -0.11319881549253361 0 0.46982172881068102 -0.1168177882865758 0 0.4590419538324032 -0.1205362401740858 0 0.46264442455299187 -0.11319881549253361 0 0.46982172881068102 -0.1168177882865758 0 0.4590419538324032 -0.1205362401740858 0 0.4692220023938245 -0.13093917271456429 0 0.41250191687302112 -0.1118129582792559 0 0.41549769263500008 -0.1203437894762671 0 0.40058204422383648 -0.11930553810413259 0 0.41250191687302112 -0.1118129582792559 0 0.41549769263500008 -0.1203437894762671 0 0.42233216903643722 -0.1125684060947042 0 0.41549769263500008 -0.1203437894762671 0 0.43299478799405028 -0.1218952082348165 0 0.42233216903643722 -0.1125684060947042 0 0.43299478799405028 -0.1218952082348165 0 0.42233216903643722 -0.1125684060947042 0 0.43571136997689591 -0.10538316940215781 0 0.43571136997689591 -0.10538316940215781 0 0.41495507770321888 -0.1034069050810237 0 0.42233216903643722 -0.1125684060947042 0 0.43571136997689591 -0.10538316940215781 0 0.41495507770321888 -0.1034069050810237 0 0.43571136997689591 -0.10538316940215781 0 0.42539146694501417 -0.09863882604599078 0 0.41495507770321888 -0.1034069050810237 0 0.42539146694501417 -0.09863882604599078 0 0.41417839635597531 -0.096205752669410574 0 0.43399002671548742 -0.091041618140176334 0 0.43571136997689591 -0.10538316940215781 0 0.42539146694501417 -0.09863882604599078 0 0.43399002671548742 -0.091041618140176334 0 0.42539146694501417 -0.09863882604599078 0 0.41417839635597531 -0.096205752669410574 0 0.41495507770321888 -0.1034069050810237 0 0.41417839635597531 -0.096205752669410574 0 0.41558666663430821 -0.089852960374849355 0 0.39427851875857678 -0.1014018035927251 0 0.41417839635597531 -0.096205752669410574 0 0.41495507770321888 -0.1034069050810237 0 0.39427851875857678 -0.1014018035927251 0 0.41250191687302112 -0.1118129582792559 0 0.42233216903643722 -0.1125684060947042 0 0.41495507770321888 -0.1034069050810237 0 0.41250191687302112 -0.1118129582792559 0 0.41495507770321888 -0.1034069050810237 0 0.40326212801454359 -0.10931422866960459 0 0.41417839635597531 -0.096205752669410574 0 0.41558666663430821 -0.089852960374849355 0 0.43399002671548742 -0.091041618140176334 0 0.41275346308843908 -0.080243979744428054 0 0.41558666663430821 -0.089852960374849355 0 0.404028002840641 -0.088460917264681749 0 0.41275346308843908 -0.080243979744428054 0 0.40268074925660952 -0.077106842242760334 0 0.404028002840641 -0.088460917264681749 0 0.41275346308843908 -0.080243979744428054 0 0.41558666663430821 -0.089852960374849355 0 0.42213927892024999 -0.075780258700234915 0 0.41558666663430821 -0.089852960374849355 0 0.43680656727215272 -0.07833603355105305 0 0.41558666663430821 -0.089852960374849355 0 0.43399002671548742 -0.091041618140176334 0 0.43680656727215272 -0.07833603355105305 0 0.41558666663430821 -0.089852960374849355 0 0.43680656727215272 -0.07833603355105305 0 0.42213927892024999 -0.075780258700234915 0 0.41417839635597531 -0.096205752669410574 0 0.43399002671548742 -0.091041618140176334 0 0.42213927892024999 -0.075780258700234915 0 0.4307582131763153 -0.067387742866378053 0 0.41479148443003477 -0.063080576964466076 0 0.43680656727215272 -0.07833603355105305 0 0.42213927892024999 -0.075780258700234915 0 0.4307582131763153 -0.067387742866378053 0 0.41275346308843908 -0.080243979744428054 0 0.42213927892024999 -0.075780258700234915 0 0.41479148443003477 -0.063080576964466076 0 0.41275346308843908 -0.080243979744428054 0 0.41479148443003477 -0.063080576964466076 0 0.40268074925660952 -0.077106842242760334 0 0.40268074925660952 -0.077106842242760334 0 0.38881287646968787 -0.06960014417810631 0 0.39888754431743623 -0.056443318368478462 0 0.41479148443003477 -0.063080576964466076 0 0.40268074925660952 -0.077106842242760334 0 0.39888754431743623 -0.056443318368478462 0 0.38881287646968787 -0.06960014417810631 0 0.38065845560160388 -0.084510730348806684 0 0.37172535312712179 -0.061532035847484658 0 0.38881287646968787 -0.06960014417810631 0 0.38065845560160388 -0.084510730348806684 0 0.39484061646527141 -0.093699000368645813 0 0.38065845560160388 -0.084510730348806684 0 0.37722478480326233 -0.099814498946972252 0 0.36902503857326813 -0.093522107279885414 0 0.38065845560160388 -0.084510730348806684 0 0.38656292635527301 -0.095449684586452171 0 0.37722478480326233 -0.099814498946972252 0 0.38065845560160388 -0.084510730348806684 0 0.39484061646527141 -0.093699000368645813 0 0.38656292635527301 -0.095449684586452171 0 0.41558666663430821 -0.089852960374849355 0 0.404028002840641 -0.088460917264681749 0 0.39427851875857678 -0.1014018035927251 0 0.38881287646968787 -0.06960014417810631 0 0.39484061646527141 -0.093699000368645813 0 0.40268074925660952 -0.077106842242760334 0 0.39484061646527141 -0.093699000368645813 0 0.404028002840641 -0.088460917264681749 0 0.40268074925660952 -0.077106842242760334 0 0.38881287646968787 -0.06960014417810631 0 0.39484061646527141 -0.093699000368645813 0 0.41417839635597531 -0.096205752669410574 0 0.39427851875857678 -0.1014018035927251 0 0.41495507770321888 -0.1034069050810237 0 0.40326212801454359 -0.10931422866960459 0 0.39427851875857678 -0.1014018035927251 0 0.41495507770321888 -0.1034069050810237 0 0.39427851875857678 -0.1014018035927251 0 0.41558666663430821 -0.089852960374849355 0 0.39427851875857678 -0.1014018035927251 0 0.39427851875857678 -0.1014018035927251 0 0.39036929137280341 -0.11165007882674061 0 0.39712299559244002 -0.1104179122983007 0 0.40326212801454359 -0.10931422866960459 0 0.39427851875857678 -0.1014018035927251 0 0.39712299559244002 -0.1104179122983007 0 0.39484061646527141 -0.093699000368645813 0 0.404028002840641 -0.088460917264681749 0 0.39427851875857678 -0.1014018035927251 0 0.39484061646527141 -0.093699000368645813 0 0.39427851875857678 -0.1014018035927251 0 0.38656292635527301 -0.095449684586452171 0 0.39427851875857678 -0.1014018035927251 0 0.36942649351859702 -0.11490601528874909 0 0.37103122431361613 -0.1074525706717349 0 0.39427851875857678 -0.1014018035927251 0 0.37103122431361613 -0.1074525706717349 0 0.39427851875857678 -0.1014018035927251 0 0.36942649351859702 -0.11490601528874909 0 0.39427851875857678 -0.1014018035927251 0 0.38656292635527301 -0.095449684586452171 0 0.37722478480326233 -0.099814498946972252 0 0.39427851875857678 -0.1014018035927251 0 0.37722478480326233 -0.099814498946972252 0 0.37103122431361613 -0.1074525706717349 0 0.39427851875857678 -0.1014018035927251 0 0.37722478480326233 -0.099814498946972252 0 0.39427851875857678 -0.1014018035927251 0 0.39036929137280341 -0.11165007882674061 0 0.36942649351859702 -0.11490601528874909 0 0.39036929137280341 -0.11165007882674061 0 0.37152692274786597 -0.12463331730599569 0 0.39036929137280341 -0.11165007882674061 0 0.38663530216074871 -0.1249400406912413 0 0.37152692274786597 -0.12463331730599569 0 0.39036929137280341 -0.11165007882674061 0 0.36942649351859702 -0.11490601528874909 0 0.37152692274786597 -0.12463331730599569 0 0.39036929137280341 -0.11165007882674061 0 0.38663530216074871 -0.1249400406912413 0 0.40058204422383648 -0.11930553810413259 0 0.39036929137280341 -0.11165007882674061 0 0.39712299559244002 -0.1104179122983007 0 0.40058204422383648 -0.11930553810413259 0 0.41250191687302112 -0.1118129582792559 0 0.40326212801454359 -0.10931422866960459 0 0.40058204422383648 -0.11930553810413259 0 0.40326212801454359 -0.10931422866960459 0 0.39712299559244002 -0.1104179122983007 0 0.40058204422383648 -0.11930553810413259 0 0.41530747351704922 -0.030633639768002239 0 0.41136560896376517 -0.01875801722751275 0 0.42093077477147328 -0.01528365324529536 0 0.41530747351704922 -0.030633639768002239 0 0.41136560896376517 -0.01875801722751275 0 0.40253744819323761 -0.023315742244014021 0 0.41136560896376517 -0.01875801722751275 0 0.40253744819323761 -0.023315742244014021 0 0.40499553804082389 -0.01113361716239222 0 0.41136560896376517 -0.01875801722751275 0 0.41459943315781123 -0.0055239836375453686 0 0.40499553804082389 -0.01113361716239222 0 0.41373523287241248 0.0071634138766184388 0 0.41459943315781123 -0.0055239836375453686 0 0.42922822162546731 -0.003729382326659782 0 0.41136560896376517 -0.01875801722751275 0 0.41459943315781123 -0.0055239836375453686 0 0.42093077477147328 -0.01528365324529536 0 0.41459943315781123 -0.0055239836375453686 0 0.42093077477147328 -0.01528365324529536 0 0.42922822162546731 -0.003729382326659782 0 0.42093077477147328 -0.01528365324529536 0 0.42922822162546731 -0.003729382326659782 0 0.43494664573473391 -0.01847945235130349 0 0.44408427183822208 -0.009211312847920667 0 0.42922822162546731 -0.003729382326659782 0 0.43494664573473391 -0.01847945235130349 0 0.41530747351704922 -0.030633639768002239 0 0.42093077477147328 -0.01528365324529536 0 0.43494664573473391 -0.01847945235130349 0 0.43987080989672178 -0.034031818993079693 0 0.41530747351704922 -0.030633639768002239 0 0.43494664573473391 -0.01847945235130349 0 0.43987080989672178 -0.034031818993079693 0 0.43586511650277571 -0.054256213237713957 0 0.42118668143503729 -0.046954705543920207 0 0.43987080989672178 -0.034031818993079693 0 0.41530747351704922 -0.030633639768002239 0 0.42118668143503729 -0.046954705543920207 0 0.43987080989672178 -0.034031818993079693 0 0.41530747351704922 -0.030633639768002239 0 0.41479148443003477 -0.063080576964466076 0 0.43586511650277571 -0.054256213237713957 0 0.42118668143503729 -0.046954705543920207 0 0.4307582131763153 -0.067387742866378053 0 0.41479148443003477 -0.063080576964466076 0 0.43586511650277571 -0.054256213237713957 0 0.41479148443003477 -0.063080576964466076 0 0.40854289140849798 -0.046719001092919238 0 0.39888754431743623 -0.056443318368478462 0 0.41479148443003477 -0.063080576964466076 0 0.42118668143503729 -0.046954705543920207 0 0.40854289140849798 -0.046719001092919238 0 0.41530747351704922 -0.030633639768002239 0 0.42118668143503729 -0.046954705543920207 0 0.40854289140849798 -0.046719001092919238 0 0.41530747351704922 -0.030633639768002239 0 0.40854289140849798 -0.046719001092919238 0 0.39466997996727948 -0.039812983147968398 0 0.41530747351704922 -0.030633639768002239 0 0.39466997996727948 -0.039812983147968398 0 0.39074413713737688 -0.027235460542924798 0 0.39466997996727948 -0.039812983147968398 0 0.39888754431743623 -0.056443318368478462 0 0.3827851364741045 -0.045501287987566807 0 0.40854289140849798 -0.046719001092919238 0 0.39466997996727948 -0.039812983147968398 0 0.39888754431743623 -0.056443318368478462 0 0.38881287646968787 -0.06960014417810631 0 0.39888754431743623 -0.056443318368478462 0 0.3827851364741045 -0.045501287987566807 0 0.38881287646968787 -0.06960014417810631 0 0.3827851364741045 -0.045501287987566807 0 0.38881287646968787 -0.06960014417810631 0 0.3827851364741045 -0.045501287987566807 0 0.37172535312712179 -0.061532035847484658 0 0.3827851364741045 -0.045501287987566807 0 0.37675739647851991 -0.0214024317970276 0 0.38611817248741681 -0.029789365755387879 0 0.39466997996727948 -0.039812983147968398 0 0.3827851364741045 -0.045501287987566807 0 0.38611817248741681 -0.029789365755387879 0 0.3827851364741045 -0.045501287987566807 0 0.37675739647851991 -0.0214024317970276 0 0.39466997996727948 -0.039812983147968398 0 0.38611817248741681 -0.029789365755387879 0 0.39074413713737688 -0.027235460542924798 0 0.37675739647851991 -0.0214024317970276 0 0.38611817248741681 -0.029789365755387879 0 0.37675739647851991 -0.0214024317970276 0 0.38546604260708389 -0.020391761488275911 0 0.38588037054392688 -0.024306734184623879 0 0.37675739647851991 -0.0214024317970276 0 0.38279083329475527 -0.016212771536782911 0 0.38546604260708389 -0.020391761488275911 0 0.37675739647851991 -0.0214024317970276 0 0.38279083329475527 -0.016212771536782911 0 0.37523550613372308 -0.01531792639634161 0 0.37675739647851991 -0.0214024317970276 0 0.37523550613372308 -0.01531792639634161 0 0.38279083329475527 -0.016212771536782911 0 0.38546604260708389 -0.020391761488275911 0 0.39230359021489708 -0.016264889240139069 0 0.38546604260708389 -0.020391761488275911 0 0.39031610400923678 -0.022714651339503181 0 0.38588037054392688 -0.024306734184623879 0 0.38546604260708389 -0.020391761488275911 0 0.39031610400923678 -0.022714651339503181 0 0.39230359021489708 -0.016264889240139069 0 0.37675739647851991 -0.0214024317970276 0 0.38611817248741681 -0.029789365755387879 0 0.38588037054392688 -0.024306734184623879 0 0.39031610400923678 -0.022714651339503181 0 0.38588037054392688 -0.024306734184623879 0 0.39074413713737688 -0.027235460542924798 0 0.38611817248741681 -0.029789365755387879 0 0.38588037054392688 -0.024306734184623879 0 0.39074413713737688 -0.027235460542924798 0 0.41530747351704922 -0.030633639768002239 0 0.39074413713737688 -0.027235460542924798 0 0.41530747351704922 -0.030633639768002239 0 0.39074413713737688 -0.027235460542924798 0 0.40253744819323761 -0.023315742244014021 0 0.39074413713737688 -0.027235460542924798 0 0.39397531988868711 -0.02238268584164527 0 0.40253744819323761 -0.023315742244014021 0 0.39031610400923678 -0.022714651339503181 0 0.39074413713737688 -0.027235460542924798 0 0.39397531988868711 -0.02238268584164527 0 0.39031610400923678 -0.022714651339503181 0 0.39397531988868711 -0.02238268584164527 0 0.39230359021489708 -0.016264889240139069 0 0.39397531988868711 -0.02238268584164527 0 0.39230359021489708 -0.016264889240139069 0 0.40253744819323761 -0.023315742244014021 0 0.39230359021489708 -0.016264889240139069 0 0.40253744819323761 -0.023315742244014021 0 0.40499553804082389 -0.01113361716239222 0 0.40499553804082389 -0.01113361716239222 0 0.38419163103955167 -0.0076868487621308884 0 0.39888511218489531 0.001334495925296 0 0.40499553804082389 -0.01113361716239222 0 0.38419163103955167 -0.0076868487621308884 0 0.39230359021489708 -0.016264889240139069 0 0.40499553804082389 -0.01113361716239222 0 0.38419163103955167 -0.0076868487621308884 0 0.39888511218489531 0.001334495925296 0 0.41459943315781123 -0.0055239836375453686 0 0.40499553804082389 -0.01113361716239222 0 0.38279083329475527 -0.016212771536782911 0 0.39230359021489708 -0.016264889240139069 0 0.38419163103955167 -0.0076868487621308884 0 0.39230359021489708 -0.016264889240139069 0 0.38419163103955167 -0.0076868487621308884 0 0.38279083329475527 -0.016212771536782911 0 0.38419163103955167 -0.0076868487621308884 0 0.37523550613372308 -0.01531792639634161 0 0.38419163103955167 -0.0076868487621308884 0 0.37523550613372308 -0.01531792639634161 0 0.35628971255614089 -0.0030640896366769411 0 0.37675739647851991 -0.0214024317970276 0 0.35628971255614089 -0.0030640896366769411 0 0.36786641969036238 0.0095763450901051733 0 0.38419163103955167 -0.0076868487621308884 0 0.35628971255614089 -0.0030640896366769411 0 0.37675739647851991 -0.0214024317970276 0 0.35961386017294411 -0.016069602863706709 0 0.35628971255614089 -0.0030640896366769411 0 0.37675739647851991 -0.0214024317970276 0 0.37523550613372308 -0.01531792639634161 0 0.35628971255614089 -0.0030640896366769411 0 0.38419163103955167 -0.0076868487621308884 0 0.35628971255614089 -0.0030640896366769411 0 0.37675739647851991 -0.0214024317970276 0 0.36300352382893242 -0.025611575634481552 0 0.36526768662042841 -0.038034881955010709 0 0.37675739647851991 -0.0214024317970276 0 0.36300352382893242 -0.025611575634481552 0 0.35961386017294411 -0.016069602863706709 0 0.36300352382893242 -0.025611575634481552 0 0.34474237730142032 -0.026226102600888 0 0.36526768662042841 -0.038034881955010709 0 0.36300352382893242 -0.025611575634481552 0 0.35961386017294411 -0.016069602863706709 0 0.34474237730142032 -0.026226102600888 0 0.35961386017294411 -0.016069602863706709 0 0.34474237730142032 -0.026226102600888 0 0.35283632421252942 -0.0024919360591844739 0 0.33696130763673099 0.00013821920365907181 0 0.35283632421252942 -0.0024919360591844739 0 0.33696130763673099 0.00013821920365907181 0 0.34474237730142032 -0.026226102600888 0 0.35283632421252942 -0.0024919360591844739 0 0.35961386017294411 -0.016069602863706709 0 0.35283632421252942 -0.0024919360591844739 0 0.35628971255614089 -0.0030640896366769411 0 0.35283632421252942 -0.0024919360591844739 0 0.35628971255614089 -0.0030640896366769411 0 0.33696130763673099 0.00013821920365907181 0 0.34474237730142032 -0.026226102600888 0 0.32188630319602801 -0.017659105506235541 0 0.33696130763673099 0.00013821920365907181 0 0.34474237730142032 -0.026226102600888 0 0.34474237730142032 -0.026226102600888 0 0.32188630319602801 -0.017659105506235541 0 0.32585604117991979 -0.041191831421981302 0 0.31555882620551168 0.0036841587562509142 0 0.32188630319602801 -0.017659105506235541 0 0.30282757330940008 -0.008050147227742499 0 0.33696130763673099 0.00013821920365907181 0 0.31555882620551168 0.0036841587562509142 0 0.32188630319602801 -0.017659105506235541 0 0.32585604117991979 -0.041191831421981302 0 0.32883285735891832 -0.065111616523838664 0 0.30216358731081261 -0.062508863538343229 0 0.32188630319602801 -0.017659105506235541 0 0.32585604117991979 -0.041191831421981302 0 0.30249558031010643 -0.035279505383042899 0 0.34474237730142032 -0.026226102600888 0 0.32585604117991979 -0.041191831421981302 0 0.35252344696610888 -0.052590424405435168 0 0.32585604117991979 -0.041191831421981302 0 0.35252344696610888 -0.052590424405435168 0 0.32883285735891832 -0.065111616523838664 0 0.34474237730142032 -0.026226102600888 0 0.35252344696610888 -0.052590424405435168 0 0.36526768662042841 -0.038034881955010709 0 0.34474237730142032 -0.026226102600888 0 0.35252344696610888 -0.052590424405435168 0 0.3827851364741045 -0.045501287987566807 0 0.37675739647851991 -0.0214024317970276 0 0.36526768662042841 -0.038034881955010709 0 0.35252344696610888 -0.052590424405435168 0 0.36526768662042841 -0.038034881955010709 0 0.37172535312712179 -0.061532035847484658 0 0.3827851364741045 -0.045501287987566807 0 0.36526768662042841 -0.038034881955010709 0 0.37172535312712179 -0.061532035847484658 0 0.35252344696610888 -0.052590424405435168 0 0.37172535312712179 -0.061532035847484658 0 0.36030451663079749 -0.078954746209982316 0 0.38065845560160388 -0.084510730348806684 0 0.37172535312712179 -0.061532035847484658 0 0.36030451663079749 -0.078954746209982316 0 0.36030451663079749 -0.078954746209982316 0 0.36902503857326813 -0.093522107279885414 0 0.35590621151706031 -0.096877990221930846 0 0.38065845560160388 -0.084510730348806684 0 0.36030451663079749 -0.078954746209982316 0 0.36902503857326813 -0.093522107279885414 0 0.36030451663079749 -0.078954746209982316 0 0.35590621151706031 -0.096877990221930846 0 0.34193845353417851 -0.078012884884594666 0 0.35252344696610888 -0.052590424405435168 0 0.36030451663079749 -0.078954746209982316 0 0.35252344696610888 -0.052590424405435168 0 0.36030451663079749 -0.078954746209982316 0 0.34193845353417851 -0.078012884884594666 0 0.36942649351859702 -0.11490601528874909 0 0.37103122431361613 -0.1074525706717349 0 0.34786780457890748 -0.11349038853409581 0 0.37103122431361613 -0.1074525706717349 0 0.34786780457890748 -0.11349038853409581 0 0.36942649351859702 -0.11490601528874909 0 0.37152692274786597 -0.12463331730599569 0 0.34464144962869891 -0.1283578943373935 0 0.37722478480326233 -0.099814498946972252 0 0.36902503857326813 -0.093522107279885414 0 0.37103122431361613 -0.1074525706717349 0 0.36902503857326813 -0.093522107279885414 0 0.37103122431361613 -0.1074525706717349 0 0.35590621151706031 -0.096877990221930846 0 0.35590621151706031 -0.096877990221930846 0 0.34786780457890748 -0.11349038853409581 0 0.33378715138841192 -0.1069223780836871 0 0.37103122431361613 -0.1074525706717349 0 0.35590621151706031 -0.096877990221930846 0 0.34786780457890748 -0.11349038853409581 0 0.36942649351859702 -0.11490601528874909 0 0.34464144962869891 -0.1283578943373935 0 0.36942649351859702 -0.11490601528874909 0 0.34786780457890748 -0.11349038853409581 0 0.34464144962869891 -0.1283578943373935 0 0.34786780457890748 -0.11349038853409581 0 0.324704384844199 -0.1195282063964568 0 0.34786780457890748 -0.11349038853409581 0 0.324704384844199 -0.1195282063964568 0 0.34464144962869891 -0.1283578943373935 0 0.34786780457890748 -0.11349038853409581 0 0.33378715138841192 -0.1069223780836871 0 0.324704384844199 -0.1195282063964568 0 0.35590621151706031 -0.096877990221930846 0 0.33378715138841192 -0.1069223780836871 0 0.32950405588482012 -0.090029209313541331 0 0.31564885289994749 -0.10380499938444999 0 0.32950405588482012 -0.090029209313541331 0 0.30183159431151879 -0.089738221693643622 0 0.33378715138841192 -0.1069223780836871 0 0.31564885289994749 -0.10380499938444999 0 0.32950405588482012 -0.090029209313541331 0 0.33378715138841192 -0.1069223780836871 0 0.31564885289994749 -0.10380499938444999 0 0.324704384844199 -0.1195282063964568 0 0.324704384844199 -0.1195282063964568 0 0.30139478680906329 -0.12556424198498981 0 0.31564885289994749 -0.10380499938444999 0 0.324704384844199 -0.1195282063964568 0 0.30149960131222509 -0.116967579848944 0 0.35252344696610888 -0.052590424405435168 0 0.34193845353417851 -0.078012884884594666 0 0.32883285735891832 -0.065111616523838664 0 0.34193845353417851 -0.078012884884594666 0 0.32883285735891832 -0.065111616523838664 0 0.32950405588482012 -0.090029209313541331 0 0.35590621151706031 -0.096877990221930846 0 0.34193845353417851 -0.078012884884594666 0 0.32950405588482012 -0.090029209313541331 0 0.32883285735891832 -0.065111616523838664 0 0.32950405588482012 -0.090029209313541331 0 0.30183159431151879 -0.089738221693643622 0 0.30216358731081261 -0.062508863538343229 0 0.30183159431151879 -0.089738221693643622 0 0.30216358731081261 -0.062508863538343229 0 0.28225351236275381 -0.078543664760612239 0 0.26719727932444137 -0.05866737165486606 0 0.32883285735891832 -0.065111616523838664 0 0.30216358731081261 -0.062508863538343229 0 0.30183159431151879 -0.089738221693643622 0 0.30183159431151879 -0.089738221693643622 0 0.28225351236275381 -0.078543664760612239 0 0.27981295624521602 -0.092443488025485659 0 0.30216358731081261 -0.062508863538343229 0 0.30183159431151879 -0.089738221693643622 0 0.28225351236275381 -0.078543664760612239 0 0.324704384844199 -0.1195282063964568 0 0.30149960131222509 -0.116967579848944 0 0.30139478680906329 -0.12556424198498981 0 0.30149960131222509 -0.116967579848944 0 0.30139478680906329 -0.12556424198498981 0 0.30149960131222509 -0.116967579848944 0 0.29683728008022642 -0.12659330009813699 0 0.30139478680906329 -0.12556424198498981 0 0.30183159431151879 -0.089738221693643622 0 0.30149960131222509 -0.116967579848944 0 0.30183159431151879 -0.089738221693643622 0 0.30149960131222509 -0.116967579848944 0 0.29250581240257439 -0.10959184288291141 0 0.31564885289994749 -0.10380499938444999 0 0.30183159431151879 -0.089738221693643622 0 0.30149960131222509 -0.116967579848944 0 0.30183159431151879 -0.089738221693643622 0 0.28370312433588801 -0.10481522235627989 0 0.29250581240257439 -0.10959184288291141 0 0.30183159431151879 -0.089738221693643622 0 0.28370312433588801 -0.10481522235627989 0 0.27981295624521602 -0.092443488025485659 0 0.30149960131222509 -0.116967579848944 0 0.29250581240257439 -0.10959184288291141 0 0.29045398715044601 -0.1202883088454261 0 0.28370312433588801 -0.10481522235627989 0 0.29250581240257439 -0.10959184288291141 0 0.28327753683562862 -0.11481830968632049 0 0.29250581240257439 -0.10959184288291141 0 0.28327753683562862 -0.11481830968632049 0 0.29045398715044601 -0.1202883088454261 0 0.28327753683562862 -0.11481830968632049 0 0.29045398715044601 -0.1202883088454261 0 0.27853873184035899 -0.12462652467264961 0 0.30149960131222509 -0.116967579848944 0 0.29045398715044601 -0.1202883088454261 0 0.29683728008022642 -0.12659330009813699 0 0.27853873184035899 -0.12462652467264961 0 0.27118602844887563 -0.11476964967433539 0 0.26654818590191282 -0.12886392471334579 0 0.28327753683562862 -0.11481830968632049 0 0.27853873184035899 -0.12462652467264961 0 0.27118602844887563 -0.11476964967433539 0 0.28370312433588801 -0.10481522235627989 0 0.28327753683562862 -0.11481830968632049 0 0.27118602844887563 -0.11476964967433539 0 0.28370312433588801 -0.10481522235627989 0 0.26580493800124128 -0.1029156709277079 0 0.27981295624521602 -0.092443488025485659 0 0.26580493800124128 -0.1029156709277079 0 0.27981295624521602 -0.092443488025485659 0 0.26547161221467808 -0.086204660389184645 0 0.28370312433588801 -0.10481522235627989 0 0.27118602844887563 -0.11476964967433539 0 0.26580493800124128 -0.1029156709277079 0 0.26580493800124128 -0.1029156709277079 0 0.25198738406827031 -0.1021412675522356 0 0.25845581020859509 -0.1196863045801335 0 0.26580493800124128 -0.1029156709277079 0 0.25198738406827031 -0.1021412675522356 0 0.26547161221467808 -0.086204660389184645 0 0.25845581020859509 -0.1196863045801335 0 0.25397086595578461 -0.1303306494712195 0 0.2416484582047024 -0.1209318708076659 0 0.27118602844887563 -0.11476964967433539 0 0.26580493800124128 -0.1029156709277079 0 0.25845581020859509 -0.1196863045801335 0 0.25198738406827031 -0.1021412675522356 0 0.25845581020859509 -0.1196863045801335 0 0.2416484582047024 -0.1209318708076659 0 0.27118602844887563 -0.11476964967433539 0 0.25845581020859509 -0.1196863045801335 0 0.26654818590191282 -0.12886392471334579 0 0.28225351236275381 -0.078543664760612239 0 0.26547161221467808 -0.086204660389184645 0 0.26719727932444137 -0.05866737165486606 0 0.28225351236275381 -0.078543664760612239 0 0.27981295624521602 -0.092443488025485659 0 0.26547161221467808 -0.086204660389184645 0 0.25198738406827031 -0.1021412675522356 0 0.26547161221467808 -0.086204660389184645 0 0.24886617790526061 -0.080236610860173155 0 0.26719727932444137 -0.05866737165486606 0 0.2390278010107269 -0.060570140749572648 0 0.24886617790526061 -0.080236610860173155 0 0.26547161221467808 -0.086204660389184645 0 0.26719727932444137 -0.05866737165486606 0 0.24886617790526061 -0.080236610860173155 0 0.26719727932444137 -0.05866737165486606 0 0.2390278010107269 -0.060570140749572648 0 0.24748104176034469 -0.039632725495898802 0 0.26719727932444137 -0.05866737165486606 0 0.24748104176034469 -0.039632725495898802 0 0.26719727932444137 -0.05866737165486606 0 0.26532604509171659 -0.032292467083731638 0 0.28280842970402248 -0.0418191113762508 0 0.26532604509171659 -0.032292467083731638 0 0.27927941433174081 -0.022577422505730589 0 0.28280842970402248 -0.0418191113762508 0 0.26719727932444137 -0.05866737165486606 0 0.26532604509171659 -0.032292467083731638 0 0.24748104176034469 -0.039632725495898802 0 0.26532604509171659 -0.032292467083731638 0 0.2501466703893197 -0.016627985344524771 0 0.24748104176034469 -0.039632725495898802 0 0.26532604509171659 -0.032292467083731638 0 0.2501466703893197 -0.016627985344524771 0 0.26682348634886888 -0.01479273679686325 0 0.26397303329264848 0.001267946065784466 0 0.2501466703893197 -0.016627985344524771 0 0.26682348634886888 -0.01479273679686325 0 0.24791750821287001 0.0002931308882695147 0 0.26397303329264848 0.001267946065784466 0 0.2501466703893197 -0.016627985344524771 0 0.26682348634886888 -0.01479273679686325 0 0.27613332817914399 -0.0069161450639397574 0 0.27927941433174081 -0.022577422505730589 0 0.27613332817914399 -0.0069161450639397574 0 0.27927941433174081 -0.022577422505730589 0 0.28825014033838148 -0.010938817391299189 0 0.26397303329264848 0.001267946065784466 0 0.26682348634886888 -0.01479273679686325 0 0.27613332817914399 -0.0069161450639397574 0 0.26532604509171659 -0.032292467083731638 0 0.26682348634886888 -0.01479273679686325 0 0.27927941433174081 -0.022577422505730589 0 0.27927941433174081 -0.022577422505730589 0 0.28825014033838148 -0.010938817391299189 0 0.30249558031010643 -0.035279505383042899 0 0.28382268566453078 0.0060955254127576918 0 0.27613332817914399 -0.0069161450639397574 0 0.28825014033838148 -0.010938817391299189 0 0.28382268566453078 0.0060955254127576918 0 0.28825014033838148 -0.010938817391299189 0 0.30282757330940008 -0.008050147227742499 0 0.28825014033838148 -0.010938817391299189 0 0.30282757330940008 -0.008050147227742499 0 0.30249558031010643 -0.035279505383042899 0 0.32188630319602801 -0.017659105506235541 0 0.30282757330940008 -0.008050147227742499 0 0.30249558031010643 -0.035279505383042899 0 0.30282757330940008 -0.008050147227742499 0 0.30249558031010643 -0.035279505383042899 0 0.32585604117991979 -0.041191831421981302 0 0.30216358731081261 -0.062508863538343229 0 0.30249558031010643 -0.035279505383042899 0 0.30216358731081261 -0.062508863538343229 0 0.26719727932444137 -0.05866737165486606 0 0.28280842970402248 -0.0418191113762508 0 0.30216358731081261 -0.062508863538343229 0 0.30249558031010643 -0.035279505383042899 0 0.30216358731081261 -0.062508863538343229 0 0.30249558031010643 -0.035279505383042899 0 0.28280842970402248 -0.0418191113762508 0 0.27927941433174081 -0.022577422505730589 0 0.30249558031010643 -0.035279505383042899 0 0.28280842970402248 -0.0418191113762508 0 0.2864082996267136 -0.2087969875242221 0 0.28813780267557809 -0.22885545054526929 0 0.26957555900385749 -0.21640282834098451 0 0.2864082996267136 -0.2087969875242221 0 0.30604889176402272 -0.21966164789192549 0 0.2864082996267136 -0.2087969875242221 0 0.3079355978841668 -0.19497306226118449 0 0.28829500574685701 -0.18410840189347799 0 0.3079355978841668 -0.19497306226118449 0 0.30604889176402272 -0.21966164789192549 0 0.2864082996267136 -0.2087969875242221 0 0.3079355978841668 -0.19497306226118449 0 0.30604889176402272 -0.21966164789192549 0 0.3079355978841668 -0.19497306226118449 0 0.30604889176402272 -0.21966164789192549 0 0.31665543286177872 -0.20942660032634089 0 0.30604889176402272 -0.21966164789192549 0 0.31458346028882528 -0.21763485602551691 0 0.31665543286177872 -0.20942660032634089 0 0.30604889176402272 -0.21966164789192549 0 0.31458346028882528 -0.21763485602551691 0 0.31512242765506099 -0.2246808899341815 0 0.30604889176402272 -0.21966164789192549 0 0.30444387795038652 -0.240664135006082 0 0.28813780267557809 -0.22885545054526929 0 0.30604889176402272 -0.21966164789192549 0 0.30444387795038652 -0.240664135006082 0 0.31512242765506099 -0.2246808899341815 0 0.30604889176402272 -0.21966164789192549 0 0.31512242765506099 -0.2246808899341815 0 0.30604889176402272 -0.21966164789192549 0 0.30444387795038652 -0.240664135006082 0 0.30444387795038652 -0.240664135006082 0 0.31512242765506099 -0.2246808899341815 0 0.31623074732347412 -0.25017837936795118 0 0.28813780267557809 -0.22885545054526929 0 0.27287919414203482 -0.23750727702480159 0 0.28356255974687389 -0.25229750689300151 0 0.30444387795038652 -0.240664135006082 0 0.28813780267557809 -0.22885545054526929 0 0.28356255974687389 -0.25229750689300151 0 0.2864082996267136 -0.2087969875242221 0 0.30604889176402272 -0.21966164789192549 0 0.28813780267557809 -0.22885545054526929 0 0.27287919414203482 -0.23750727702480159 0 0.25798105568421759 -0.22824851326803819 0 0.26957555900385749 -0.21640282834098451 0 0.28813780267557809 -0.22885545054526929 0 0.27287919414203482 -0.23750727702480159 0 0.26957555900385749 -0.21640282834098451 0 0.27287919414203482 -0.23750727702480159 0 0.28356255974687389 -0.25229750689300151 0 0.26084247138012789 -0.25028624293207419 0 0.25798105568421759 -0.22824851326803819 0 0.26084247138012789 -0.25028624293207419 0 0.24193546674605559 -0.23128758054257539 0 0.27287919414203482 -0.23750727702480159 0 0.25798105568421759 -0.22824851326803819 0 0.26084247138012789 -0.25028624293207419 0 0.2534310251782988 -0.20649658344732699 0 0.26957555900385749 -0.21640282834098451 0 0.26676770748940681 -0.1979323271565144 0 0.25798105568421759 -0.22824851326803819 0 0.2534310251782988 -0.20649658344732699 0 0.26957555900385749 -0.21640282834098451 0 0.25798105568421759 -0.22824851326803819 0 0.2534310251782988 -0.20649658344732699 0 0.24009434286719139 -0.21506083973814061 0 0.2864082996267136 -0.2087969875242221 0 0.26957555900385749 -0.21640282834098451 0 0.26676770748940681 -0.1979323271565144 0 0.2864082996267136 -0.2087969875242221 0 0.26676770748940681 -0.1979323271565144 0 0.26676770748940681 -0.1979323271565144 0 0.25376357370549929 -0.1907387814654973 0 0.27783602314694039 -0.18043320532127391 0 0.26676770748940681 -0.1979323271565144 0 0.28829500574685701 -0.18410840189347799 0 0.2864082996267136 -0.2087969875242221 0 0.26676770748940681 -0.1979323271565144 0 0.28829500574685701 -0.18410840189347799 0 0.26676770748940681 -0.1979323271565144 0 0.25376357370549929 -0.1907387814654973 0 0.2534310251782988 -0.20649658344732699 0 0.26676770748940681 -0.1979323271565144 0 0.25376357370549929 -0.1907387814654973 0 0.2534310251782988 -0.20649658344732699 0 0.26676770748940681 -0.1979323271565144 0 0.25376357370549929 -0.1907387814654973 0 0.25927541709435248 -0.1746896075115108 0 0.27783602314694039 -0.18043320532127391 0 0.25927541709435248 -0.1746896075115108 0 0.25534567383725199 -0.15937398040090159 0 0.2434065300888619 -0.16347337881777299 0 0.25927541709435248 -0.1746896075115108 0 0.25534567383725199 -0.15937398040090159 0 0.26670478240784973 -0.1597996528890854 0 0.25927541709435248 -0.1746896075115108 0 0.26670478240784973 -0.1597996528890854 0 0.28017391519115342 -0.16334711927766621 0 0.25927541709435248 -0.1746896075115108 0 0.28017391519115342 -0.16334711927766621 0 0.26670478240784973 -0.1597996528890854 0 0.28017391519115342 -0.16334711927766621 0 0.28059596145349452 -0.14682460346617879 0 0.25376357370549929 -0.1907387814654973 0 0.27783602314694039 -0.18043320532127391 0 0.26676770748940681 -0.1979323271565144 0 0.27783602314694039 -0.18043320532127391 0 0.28829500574685701 -0.18410840189347799 0 0.25927541709435248 -0.1746896075115108 0 0.28017391519115342 -0.16334711927766621 0 0.27783602314694039 -0.18043320532127391 0 0.25397086595578461 -0.1303306494712195 0 0.26527854959659108 -0.14127304373219809 0 0.23792332586712131 -0.1408981035227542 0 0.25845581020859509 -0.1196863045801335 0 0.25397086595578461 -0.1303306494712195 0 0.26654818590191282 -0.12886392471334579 0 0.25397086595578461 -0.1303306494712195 0 0.26527854959659108 -0.14127304373219809 0 0.26654818590191282 -0.12886392471334579 0 0.26527854959659108 -0.14127304373219809 0 0.23792332586712131 -0.1408981035227542 0 0.24731732500113879 -0.14945499385802569 0 0.26527854959659108 -0.14127304373219809 0 0.2600243145940575 -0.14945226892811311 0 0.24731732500113879 -0.14945499385802569 0 0.26527854959659108 -0.14127304373219809 0 0.23792332586712131 -0.1408981035227542 0 0.25534567383725199 -0.15937398040090159 0 0.2600243145940575 -0.14945226892811311 0 0.24731732500113879 -0.14945499385802569 0 0.25534567383725199 -0.15937398040090159 0 0.26670478240784973 -0.1597996528890854 0 0.2600243145940575 -0.14945226892811311 0 0.2600243145940575 -0.14945226892811311 0 0.28059596145349452 -0.14682460346617879 0 0.26527854959659108 -0.14127304373219809 0 0.2600243145940575 -0.14945226892811311 0 0.28059596145349452 -0.14682460346617879 0 0.26670478240784973 -0.1597996528890854 0 0.2600243145940575 -0.14945226892811311 0 0.28059596145349452 -0.14682460346617879 0 0.26527854959659108 -0.14127304373219809 0 0.28059596145349452 -0.14682460346617879 0 0.27517225628891279 -0.13516804395479709 0 0.26527854959659108 -0.14127304373219809 0 0.27517225628891279 -0.13516804395479709 0 0.26654818590191282 -0.12886392471334579 0 0.28059596145349452 -0.14682460346617879 0 0.27517225628891279 -0.13516804395479709 0 0.28489904311086078 -0.13241562880708521 0 0.27853873184035899 -0.12462652467264961 0 0.27517225628891279 -0.13516804395479709 0 0.28489904311086078 -0.13241562880708521 0 0.27853873184035899 -0.12462652467264961 0 0.27517225628891279 -0.13516804395479709 0 0.26654818590191282 -0.12886392471334579 0 0.29347464135472368 -0.12995711074744359 0 0.28489904311086078 -0.13241562880708521 0 0.30116760831293138 -0.14419693800424441 0 0.29045398715044601 -0.1202883088454261 0 0.29683728008022642 -0.12659330009813699 0 0.29347464135472368 -0.12995711074744359 0 0.29045398715044601 -0.1202883088454261 0 0.29347464135472368 -0.12995711074744359 0 0.28489904311086078 -0.13241562880708521 0 0.29045398715044601 -0.1202883088454261 0 0.27853873184035899 -0.12462652467264961 0 0.28489904311086078 -0.13241562880708521 0 0.28059596145349452 -0.14682460346617879 0 0.30107241328795381 -0.1520046310438207 0 0.30116760831293138 -0.14419693800424441 0 0.28059596145349452 -0.14682460346617879 0 0.28489904311086078 -0.13241562880708521 0 0.30116760831293138 -0.14419693800424441 0 0.28017391519115342 -0.16334711927766621 0 0.28059596145349452 -0.14682460346617879 0 0.30107241328795381 -0.1520046310438207 0 0.28059596145349452 -0.14682460346617879 0 0.30116760831293138 -0.14419693800424441 0 0.30107241328795381 -0.1520046310438207 0 0.30116760831293138 -0.14419693800424441 0 0.31985640573880131 -0.14180977338603881 0 0.30107241328795381 -0.1520046310438207 0 0.31985640573880131 -0.14180977338603881 0 0.30107241328795381 -0.1520046310438207 0 0.31985640573880131 -0.14180977338603881 0 0.31256565821051813 -0.15245050686810471 0 0.30116760831293138 -0.14419693800424441 0 0.31985640573880131 -0.14180977338603881 0 0.30107241328795381 -0.1520046310438207 0 0.30722304586489108 -0.1560530922449507 0 0.31256565821051813 -0.15245050686810471 0 0.30722304586489108 -0.1560530922449507 0 0.310169771964661 -0.1585703999223492 0 0.31256565821051813 -0.15245050686810471 0 0.30107241328795381 -0.1520046310438207 0 0.30116760831293138 -0.14419693800424441 0 0.29683728008022642 -0.12659330009813699 0 0.29347464135472368 -0.12995711074744359 0 0.30116760831293138 -0.14419693800424441 0 0.30116760831293138 -0.14419693800424441 0 0.31181734100135561 -0.1327752355113897 0 0.31985640573880131 -0.14180977338603881 0 0.30116760831293138 -0.14419693800424441 0 0.30139478680906329 -0.12556424198498981 0 0.29683728008022642 -0.12659330009813699 0 0.30116760831293138 -0.14419693800424441 0 0.30139478680906329 -0.12556424198498981 0 0.30116760831293138 -0.14419693800424441 0 0.31181734100135561 -0.1327752355113897 0 0.30139478680906329 -0.12556424198498981 0 0.28017391519115342 -0.16334711927766621 0 0.27783602314694039 -0.18043320532127391 0 0.28862611120701032 -0.17349586586039359 0 0.28829500574685701 -0.18410840189347799 0 0.28862611120701032 -0.17349586586039359 0 0.30079666058452531 -0.17462128000889221 0 0.27783602314694039 -0.18043320532127391 0 0.28829500574685701 -0.18410840189347799 0 0.28862611120701032 -0.17349586586039359 0 0.28017391519115342 -0.16334711927766621 0 0.30107241328795381 -0.1520046310438207 0 0.28017391519115342 -0.16334711927766621 0 0.28862611120701032 -0.17349586586039359 0 0.29319647743606808 -0.16510030729612721 0 0.28017391519115342 -0.16334711927766621 0 0.30107241328795381 -0.1520046310438207 0 0.29319647743606808 -0.16510030729612721 0 0.28862611120701032 -0.17349586586039359 0 0.29319647743606808 -0.16510030729612721 0 0.30079666058452531 -0.17462128000889221 0 0.30107241328795381 -0.1520046310438207 0 0.29319647743606808 -0.16510030729612721 0 0.30079666058452531 -0.17462128000889221 0 0.3050843399964312 -0.16118683114552729 0 0.30725570712884059 -0.1673777482991203 0 0.30079666058452531 -0.17462128000889221 0 0.30107241328795381 -0.1520046310438207 0 0.3050843399964312 -0.16118683114552729 0 0.30079666058452531 -0.17462128000889221 0 0.30107241328795381 -0.1520046310438207 0 0.30079666058452531 -0.17462128000889221 0 0.30107241328795381 -0.1520046310438207 0 0.30722304586489108 -0.1560530922449507 0 0.3050843399964312 -0.16118683114552729 0 0.30722304586489108 -0.1560530922449507 0 0.3050843399964312 -0.16118683114552729 0 0.310169771964661 -0.1585703999223492 0 0.3050843399964312 -0.16118683114552729 0 0.30863210074484121 -0.16292875601535289 0 0.30725570712884059 -0.1673777482991203 0 0.3050843399964312 -0.16118683114552729 0 0.30863210074484121 -0.16292875601535289 0 0.310169771964661 -0.1585703999223492 0 0.30863210074484121 -0.16292875601535289 0 0.3117014418149936 -0.16251586170445839 0 0.310169771964661 -0.1585703999223492 0 0.30863210074484121 -0.16292875601535289 0 0.3117014418149936 -0.16251586170445839 0 0.30976108262689539 -0.16548769481916381 0 0.30725570712884059 -0.1673777482991203 0 0.30982230400430838 -0.17028447663044341 0 0.30079666058452531 -0.17462128000889221 0 0.30863210074484121 -0.16292875601535289 0 0.30725570712884059 -0.1673777482991203 0 0.30976108262689539 -0.16548769481916381 0 0.30725570712884059 -0.1673777482991203 0 0.30976108262689539 -0.16548769481916381 0 0.30982230400430838 -0.17028447663044341 0 0.30976108262689539 -0.16548769481916381 0 0.31216310920730728 -0.1657753044692086 0 0.30982230400430838 -0.17028447663044341 0 0.31216310920730728 -0.1657753044692086 0 0.30982230400430838 -0.17028447663044341 0 0.31473489535688748 -0.1671298171421165 0 0.3117014418149936 -0.16251586170445839 0 0.30976108262689539 -0.16548769481916381 0 0.31216310920730728 -0.1657753044692086 0 0.30982230400430838 -0.17028447663044341 0 0.31473489535688748 -0.1671298171421165 0 0.3079355978841668 -0.19497306226118449 0 0.30982230400430838 -0.17028447663044341 0 0.3079355978841668 -0.19497306226118449 0 0.28829500574685701 -0.18410840189347799 0 0.30982230400430838 -0.17028447663044341 0 0.28829500574685701 -0.18410840189347799 0 0.30982230400430838 -0.17028447663044341 0 0.28829500574685701 -0.18410840189347799 0 0.30982230400430838 -0.17028447663044341 0 0.30079666058452531 -0.17462128000889221 0 0.3079355978841668 -0.19497306226118449 0 0.30982230400430838 -0.17028447663044341 0 0.31989854150987401 -0.1778545635613531 0 0.3079355978841668 -0.19497306226118449 0 0.32457098848694232 -0.18722281727278689 0 0.31989854150987401 -0.1778545635613531 0 0.32457098848694232 -0.18722281727278689 0 0.31989854150987401 -0.1778545635613531 0 0.33140989361187351 -0.17674843009001959 0 0.31989854150987401 -0.1778545635613531 0 0.32506707481885311 -0.17160947272678409 0 0.33140989361187351 -0.17674843009001959 0 0.31989854150987401 -0.1778545635613531 0 0.31868646066626161 -0.1709869228879278 0 0.32506707481885311 -0.17160947272678409 0 0.30982230400430838 -0.17028447663044341 0 0.31989854150987401 -0.1778545635613531 0 0.31868646066626161 -0.1709869228879278 0 0.314774451517909 -0.16373831959803339 0 0.3178243718594575 -0.156426189683888 0 0.3337295028204188 -0.1506774376916421 0 0.30982230400430838 -0.17028447663044341 0 0.31473489535688748 -0.1671298171421165 0 0.31868646066626161 -0.1709869228879278 0 0.314774451517909 -0.16373831959803339 0 0.32369422744742121 -0.1648424129665888 0 0.3337295028204188 -0.1506774376916421 0 0.3179725087471198 -0.1666743681486666 0 0.314774451517909 -0.16373831959803339 0 0.32369422744742121 -0.1648424129665888 0 0.314774451517909 -0.16373831959803339 0 0.3337295028204188 -0.1506774376916421 0 0.31216310920730728 -0.1657753044692086 0 0.31473489535688748 -0.1671298171421165 0 0.314774451517909 -0.16373831959803339 0 0.31473489535688748 -0.1671298171421165 0 0.3179725087471198 -0.1666743681486666 0 0.314774451517909 -0.16373831959803339 0 0.3179725087471198 -0.1666743681486666 0 0.31868646066626161 -0.1709869228879278 0 0.32369422744742121 -0.1648424129665888 0 0.31473489535688748 -0.1671298171421165 0 0.3179725087471198 -0.1666743681486666 0 0.31868646066626161 -0.1709869228879278 0 0.3117014418149936 -0.16251586170445839 0 0.310169771964661 -0.1585703999223492 0 0.3178243718594575 -0.156426189683888 0 0.3117014418149936 -0.16251586170445839 0 0.314774451517909 -0.16373831959803339 0 0.3178243718594575 -0.156426189683888 0 0.3117014418149936 -0.16251586170445839 0 0.31216310920730728 -0.1657753044692086 0 0.314774451517909 -0.16373831959803339 0 0.31868646066626161 -0.1709869228879278 0 0.32369422744742121 -0.1648424129665888 0 0.32506707481885311 -0.17160947272678409 0 0.32369422744742121 -0.1648424129665888 0 0.32506707481885311 -0.17160947272678409 0 0.33034157501397271 -0.16832606103722311 0 0.32369422744742121 -0.1648424129665888 0 0.33034157501397271 -0.16832606103722311 0 0.3351011600151857 -0.1614207685875492 0 0.33034157501397271 -0.16832606103722311 0 0.3351011600151857 -0.1614207685875492 0 0.33874630373434278 -0.16972595606628041 0 0.33034157501397271 -0.16832606103722311 0 0.33874630373434278 -0.16972595606628041 0 0.33140989361187351 -0.17674843009001959 0 0.32369422744742121 -0.1648424129665888 0 0.3351011600151857 -0.1614207685875492 0 0.3337295028204188 -0.1506774376916421 0 0.3351011600151857 -0.1614207685875492 0 0.34195942883099578 -0.16078795832757861 0 0.33874630373434278 -0.16972595606628041 0 0.3351011600151857 -0.1614207685875492 0 0.34195942883099578 -0.16078795832757861 0 0.34082464711344812 -0.1557953629353894 0 0.34195942883099578 -0.16078795832757861 0 0.33874630373434278 -0.16972595606628041 0 0.34881455077301421 -0.16987272434775541 0 0.33874630373434278 -0.16972595606628041 0 0.33140989361187351 -0.17674843009001959 0 0.34464952813635752 -0.18168974077655101 0 0.33140989361187351 -0.17674843009001959 0 0.34464952813635752 -0.18168974077655101 0 0.33550951058142747 -0.19162475993365791 0 0.32457098848694232 -0.18722281727278689 0 0.33140989361187351 -0.17674843009001959 0 0.33550951058142747 -0.19162475993365791 0 0.32506707481885311 -0.17160947272678409 0 0.33034157501397271 -0.16832606103722311 0 0.33140989361187351 -0.17674843009001959 0 0.324704384844199 -0.1195282063964568 0 0.31181734100135561 -0.1327752355113897 0 0.30139478680906329 -0.12556424198498981 0 0.324704384844199 -0.1195282063964568 0 0.31181734100135561 -0.1327752355113897 0 0.31985640573880131 -0.14180977338603881 0 0.3178243718594575 -0.156426189683888 0 0.3240367468880786 -0.14889804240754281 0 0.3337295028204188 -0.1506774376916421 0 0.31985640573880131 -0.14180977338603881 0 0.33627047993086479 -0.13971316458564481 0 0.31985640573880131 -0.14180977338603881 0 0.3240367468880786 -0.14889804240754281 0 0.33627047993086479 -0.13971316458564481 0 0.31985640573880131 -0.14180977338603881 0 0.31256565821051813 -0.15245050686810471 0 0.3240367468880786 -0.14889804240754281 0 0.3178243718594575 -0.156426189683888 0 0.31256565821051813 -0.15245050686810471 0 0.3240367468880786 -0.14889804240754281 0 0.310169771964661 -0.1585703999223492 0 0.3178243718594575 -0.156426189683888 0 0.31256565821051813 -0.15245050686810471 0 0.3337295028204188 -0.1506774376916421 0 0.33627047993086479 -0.13971316458564481 0 0.35268455412292821 -0.13761655578525031 0 0.3337295028204188 -0.1506774376916421 0 0.35268455412292821 -0.13761655578525031 0 0.3337295028204188 -0.1506774376916421 0 0.34082464711344812 -0.1557953629353894 0 0.34471217782484392 -0.15006110529542149 0 0.3351011600151857 -0.1614207685875492 0 0.3337295028204188 -0.1506774376916421 0 0.34082464711344812 -0.1557953629353894 0 0.3337295028204188 -0.1506774376916421 0 0.34911637272216589 -0.1441298837805553 0 0.34471217782484392 -0.15006110529542149 0 0.3240367468880786 -0.14889804240754281 0 0.3337295028204188 -0.1506774376916421 0 0.33627047993086479 -0.13971316458564481 0 0.324704384844199 -0.1195282063964568 0 0.31985640573880131 -0.14180977338603881 0 0.34464144962869891 -0.1283578943373935 0 0.31985640573880131 -0.14180977338603881 0 0.34464144962869891 -0.1283578943373935 0 0.31985640573880131 -0.14180977338603881 0 0.33627047993086479 -0.13971316458564481 0 0.34464144962869891 -0.1283578943373935 0 0.33627047993086479 -0.13971316458564481 0 0.34464144962869891 -0.1283578943373935 0 0.35268455412292821 -0.13761655578525031 0 0.37152692274786597 -0.12463331730599569 0 0.34464144962869891 -0.1283578943373935 0 0.35268455412292821 -0.13761655578525031 0 0.33627047993086479 -0.13971316458564481 0 0.35268455412292821 -0.13761655578525031 0 0.35309966503453438 -0.13956907182229711 0 0.35268455412292821 -0.13761655578525031 0 0.34911637272216589 -0.1441298837805553 0 0.35505305685096589 -0.13975880332869001 0 0.35268455412292821 -0.13761655578525031 0 0.35828757367728348 -0.13902612010255599 0 0.35268455412292821 -0.13761655578525031 0 0.35828757367728348 -0.13902612010255599 0 0.36607937111020961 -0.13604592779324701 0 0.35309966503453438 -0.13956907182229711 0 0.35505305685096589 -0.13975880332869001 0 0.35380272652636102 -0.14130450475049811 0 0.35309966503453438 -0.13956907182229711 0 0.35505305685096589 -0.13975880332869001 0 0.35268455412292821 -0.13761655578525031 0 0.35505305685096589 -0.13975880332869001 0 0.35828757367728348 -0.13902612010255599 0 0.35745575101986532 -0.14186187456698771 0 0.3337295028204188 -0.1506774376916421 0 0.35268455412292821 -0.13761655578525031 0 0.34911637272216589 -0.1441298837805553 0 0.35745575101986532 -0.14186187456698771 0 0.35415525267438491 -0.14463188493707749 0 0.3607819287558357 -0.1459499906719775 0 0.35415525267438491 -0.14463188493707749 0 0.35621895567965012 -0.15190703610175599 0 0.3607819287558357 -0.1459499906719775 0 0.35415525267438491 -0.14463188493707749 0 0.35380272652636102 -0.14130450475049811 0 0.34911637272216589 -0.1441298837805553 0 0.35309966503453438 -0.13956907182229711 0 0.35380272652636102 -0.14130450475049811 0 0.34911637272216589 -0.1441298837805553 0 0.35745575101986532 -0.14186187456698771 0 0.35415525267438491 -0.14463188493707749 0 0.35380272652636102 -0.14130450475049811 0 0.35505305685096589 -0.13975880332869001 0 0.35745575101986532 -0.14186187456698771 0 0.35380272652636102 -0.14130450475049811 0 0.35415525267438491 -0.14463188493707749 0 0.34911637272216589 -0.1441298837805553 0 0.35063581066578958 -0.14906500665816569 0 0.34911637272216589 -0.1441298837805553 0 0.35063581066578958 -0.14906500665816569 0 0.34471217782484392 -0.15006110529542149 0 0.35063581066578958 -0.14906500665816569 0 0.34471217782484392 -0.15006110529542149 0 0.34862096607579618 -0.15602954477475581 0 0.34082464711344812 -0.1557953629353894 0 0.34471217782484392 -0.15006110529542149 0 0.34862096607579618 -0.15602954477475581 0 0.35063581066578958 -0.14906500665816569 0 0.34862096607579618 -0.15602954477475581 0 0.35621895567965012 -0.15190703610175599 0 0.35415525267438491 -0.14463188493707749 0 0.35063581066578958 -0.14906500665816569 0 0.35621895567965012 -0.15190703610175599 0 0.35621895567965012 -0.15190703610175599 0 0.36683554103728472 -0.15458625536322779 0 0.3607819287558357 -0.1459499906719775 0 0.36683554103728472 -0.15458625536322779 0 0.37086960008599079 -0.14233321152233869 0 0.38206828329081072 -0.1577655694623164 0 0.37086960008599079 -0.14233321152233869 0 0.3607819287558357 -0.1459499906719775 0 0.36265396763436031 -0.14049994361112739 0 0.36683554103728472 -0.15458625536322779 0 0.37086960008599079 -0.14233321152233869 0 0.3607819287558357 -0.1459499906719775 0 0.35745575101986532 -0.14186187456698771 0 0.3607819287558357 -0.1459499906719775 0 0.36265396763436031 -0.14049994361112739 0 0.37152692274786597 -0.12463331730599569 0 0.35268455412292821 -0.13761655578525031 0 0.36607937111020961 -0.13604592779324701 0 0.37152692274786597 -0.12463331730599569 0 0.35268455412292821 -0.13761655578525031 0 0.37086960008599079 -0.14233321152233869 0 0.36265396763436031 -0.14049994361112739 0 0.36607937111020961 -0.13604592779324701 0 0.35828757367728348 -0.13902612010255599 0 0.36265396763436031 -0.14049994361112739 0 0.36607937111020961 -0.13604592779324701 0 0.35828757367728348 -0.13902612010255599 0 0.35745575101986532 -0.14186187456698771 0 0.36265396763436031 -0.14049994361112739 0 0.37086960008599079 -0.14233321152233869 0 0.36607937111020961 -0.13604592779324701 0 0.37815204443276418 -0.1340539432364698 0 0.37152692274786597 -0.12463331730599569 0 0.36607937111020961 -0.13604592779324701 0 0.37815204443276418 -0.1340539432364698 0 0.34464952813635752 -0.18168974077655101 0 0.34881455077301421 -0.16987272434775541 0 0.36053531360702268 -0.18668256192259139 0 0.34881455077301421 -0.16987272434775541 0 0.35837576425357021 -0.16432058421877491 0 0.36053531360702268 -0.18668256192259139 0 0.33874630373434278 -0.16972595606628041 0 0.34464952813635752 -0.18168974077655101 0 0.34881455077301421 -0.16987272434775541 0 0.34195942883099578 -0.16078795832757861 0 0.34862096607579618 -0.15602954477475581 0 0.34881455077301421 -0.16987272434775541 0 0.34195942883099578 -0.16078795832757861 0 0.34082464711344812 -0.1557953629353894 0 0.34862096607579618 -0.15602954477475581 0 0.34862096607579618 -0.15602954477475581 0 0.34881455077301421 -0.16987272434775541 0 0.35837576425357021 -0.16432058421877491 0 0.34862096607579618 -0.15602954477475581 0 0.35621895567965012 -0.15190703610175599 0 0.35837576425357021 -0.16432058421877491 0 0.36683554103728472 -0.15458625536322779 0 0.37123638824398542 -0.17158214330339211 0 0.38206828329081072 -0.1577655694623164 0 0.36683554103728472 -0.15458625536322779 0 0.35837576425357021 -0.16432058421877491 0 0.37123638824398542 -0.17158214330339211 0 0.35621895567965012 -0.15190703610175599 0 0.36683554103728472 -0.15458625536322779 0 0.35837576425357021 -0.16432058421877491 0 0.35837576425357021 -0.16432058421877491 0 0.37123638824398542 -0.17158214330339211 0 0.36053531360702268 -0.18668256192259139 0 0.37123638824398542 -0.17158214330339211 0 0.36053531360702268 -0.18668256192259139 0 0.38556710926551752 -0.19276705904231689 0 0.36053531360702268 -0.18668256192259139 0 0.36384205525020241 -0.21684171643322919 0 0.38556710926551752 -0.19276705904231689 0 0.36053531360702268 -0.18668256192259139 0 0.38556710926551752 -0.19276705904231689 0 0.36384205525020241 -0.21684171643322919 0 0.3442892066264413 -0.21564561962577311 0 0.34753177251850098 -0.1996660002853477 0 0.34464952813635752 -0.18168974077655101 0 0.36053531360702268 -0.18668256192259139 0 0.34753177251850098 -0.1996660002853477 0 0.36053531360702268 -0.18668256192259139 0 0.36384205525020241 -0.21684171643322919 0 0.34753177251850098 -0.1996660002853477 0 0.34464952813635752 -0.18168974077655101 0 0.34753177251850098 -0.1996660002853477 0 0.33550951058142747 -0.19162475993365791 0 0.32457098848694232 -0.18722281727278689 0 0.33550951058142747 -0.19162475993365791 0 0.32502973048195488 -0.19963935448391809 0 0.33550951058142747 -0.19162475993365791 0 0.33636502090955478 -0.20551160302028409 0 0.32502973048195488 -0.19963935448391809 0 0.34753177251850098 -0.1996660002853477 0 0.33550951058142747 -0.19162475993365791 0 0.33636502090955478 -0.20551160302028409 0 0.3442892066264413 -0.21564561962577311 0 0.34753177251850098 -0.1996660002853477 0 0.33636502090955478 -0.20551160302028409 0 0.3442892066264413 -0.21564561962577311 0 0.33636502090955478 -0.20551160302028409 0 0.33035044755231791 -0.21857497527556011 0 0.33636502090955478 -0.20551160302028409 0 0.33035044755231791 -0.21857497527556011 0 0.3257842187548925 -0.2100460948555414 0 0.33636502090955478 -0.20551160302028409 0 0.3257842187548925 -0.2100460948555414 0 0.32502973048195488 -0.19963935448391809 0 0.3257842187548925 -0.2100460948555414 0 0.31665543286177872 -0.20942660032634089 0 0.32502973048195488 -0.19963935448391809 0 0.3257842187548925 -0.2100460948555414 0 0.32052046196885631 -0.21707794117160381 0 0.31665543286177872 -0.20942660032634089 0 0.33035044755231791 -0.21857497527556011 0 0.3257842187548925 -0.2100460948555414 0 0.32052046196885631 -0.21707794117160381 0 0.32052046196885631 -0.21707794117160381 0 0.31458346028882528 -0.21763485602551691 0 0.31665543286177872 -0.20942660032634089 0 0.3079355978841668 -0.19497306226118449 0 0.31665543286177872 -0.20942660032634089 0 0.32502973048195488 -0.19963935448391809 0 0.3079355978841668 -0.19497306226118449 0 0.32457098848694232 -0.18722281727278689 0 0.32502973048195488 -0.19963935448391809 0 0.31512242765506099 -0.2246808899341815 0 0.33985660755824881 -0.23836318944140419 0 0.31623074732347412 -0.25017837936795118 0 0.31512242765506099 -0.2246808899341815 0 0.31623074732347412 -0.25017837936795118 0 0.31512242765506099 -0.2246808899341815 0 0.33985660755824881 -0.23836318944140419 0 0.32052046196885631 -0.21707794117160381 0 0.31458346028882528 -0.21763485602551691 0 0.31512242765506099 -0.2246808899341815 0 0.33035044755231791 -0.21857497527556011 0 0.32052046196885631 -0.21707794117160381 0 0.31512242765506099 -0.2246808899341815 0 0.3442892066264413 -0.21564561962577311 0 0.33035044755231791 -0.21857497527556011 0 0.33985660755824881 -0.23836318944140419 0 0.33035044755231791 -0.21857497527556011 0 0.31512242765506099 -0.2246808899341815 0 0.33985660755824881 -0.23836318944140419 0 0.36384205525020241 -0.21684171643322919 0 0.38471644349217532 -0.23815242849965959 0 0.36459078746143631 -0.25204548894862733 0 0.36384205525020241 -0.21684171643322919 0 0.33985660755824881 -0.23836318944140419 0 0.36459078746143631 -0.25204548894862733 0 0.33985660755824881 -0.23836318944140419 0 0.36459078746143631 -0.25204548894862733 0 0.36384205525020241 -0.21684171643322919 0 0.3442892066264413 -0.21564561962577311 0 0.33985660755824881 -0.23836318944140419 0 0.38471644349217532 -0.23815242849965959 0 0.40270356353720921 -0.24847249770348781 0 0.39840580949143428 -0.23081263702019589 0 0.38471644349217532 -0.23815242849965959 0 0.39840580949143428 -0.23081263702019589 0 0.38943147784814591 -0.215014442436567 0 0.39840580949143428 -0.23081263702019589 0 0.38943147784814591 -0.215014442436567 0 0.41169199505496751 -0.2168813554087988 0 0.36384205525020241 -0.21684171643322919 0 0.38471644349217532 -0.23815242849965959 0 0.38943147784814591 -0.215014442436567 0 0.36384205525020241 -0.21684171643322919 0 0.38943147784814591 -0.215014442436567 0 0.38556710926551752 -0.19276705904231689 0 0.38556710926551752 -0.19276705904231689 0 0.41059890492401219 -0.1988515561620425 0 0.40737153861703951 -0.17480707298997811 0 0.38943147784814591 -0.215014442436567 0 0.38556710926551752 -0.19276705904231689 0 0.41059890492401219 -0.1988515561620425 0 0.38556710926551752 -0.19276705904231689 0 0.41059890492401219 -0.1988515561620425 0 0.38943147784814591 -0.215014442436567 0 0.41169199505496751 -0.2168813554087988 0 0.41059890492401219 -0.1988515561620425 0 0.41169199505496751 -0.2168813554087988 0 0.41059890492401219 -0.1988515561620425 0 0.43563070058250691 -0.20493605328176809 0 0.41059890492401219 -0.1988515561620425 0 0.43563070058250691 -0.20493605328176809 0 0.41059890492401219 -0.1988515561620425 0 0.42656361226429118 -0.1877053034790766 0 0.43563070058250691 -0.20493605328176809 0 0.42656361226429118 -0.1877053034790766 0 0.43563070058250691 -0.20493605328176809 0 0.44802802065364128 -0.18804943677047931 0 0.41169199505496751 -0.2168813554087988 0 0.43563070058250691 -0.20493605328176809 0 0.42442639125053783 -0.2318187313013689 0 0.43563070058250691 -0.20493605328176809 0 0.42442639125053783 -0.2318187313013689 0 0.4507379261322968 -0.22439320183454639 0 0.42442639125053783 -0.2318187313013689 0 0.42701800636461101 -0.24840206665395231 0 0.44671152318479918 -0.24431091578788561 0 0.40270356353720921 -0.24847249770348781 0 0.42442639125053783 -0.2318187313013689 0 0.42701800636461101 -0.24840206665395231 0 0.40270356353720921 -0.24847249770348781 0 0.39840580949143428 -0.23081263702019589 0 0.42442639125053783 -0.2318187313013689 0 0.39840580949143428 -0.23081263702019589 0 0.41169199505496751 -0.2168813554087988 0 0.42442639125053783 -0.2318187313013689 0 0.40058204422383648 -0.11930553810413259 0 0.39254620802647361 -0.13505732598286799 0 0.40952191373752789 -0.13643098274634191 0 0.38663530216074871 -0.1249400406912413 0 0.40058204422383648 -0.11930553810413259 0 0.39254620802647361 -0.13505732598286799 0 0.38663530216074871 -0.1249400406912413 0 0.39254620802647361 -0.13505732598286799 0 0.37815204443276418 -0.1340539432364698 0 0.38663530216074871 -0.1249400406912413 0 0.37152692274786597 -0.12463331730599569 0 0.37815204443276418 -0.1340539432364698 0 0.37086960008599079 -0.14233321152233869 0 0.37815204443276418 -0.1340539432364698 0 0.38384665367937432 -0.1446956616788399 0 0.39254620802647361 -0.13505732598286799 0 0.37815204443276418 -0.1340539432364698 0 0.38384665367937432 -0.1446956616788399 0 0.37086960008599079 -0.14233321152233869 0 0.38384665367937432 -0.1446956616788399 0 0.38206828329081072 -0.1577655694623164 0 0.38384665367937432 -0.1446956616788399 0 0.39754895837307291 -0.15355185624609519 0 0.38206828329081072 -0.1577655694623164 0 0.39254620802647361 -0.13505732598286799 0 0.38384665367937432 -0.1446956616788399 0 0.39754895837307291 -0.15355185624609519 0 0.39254620802647361 -0.13505732598286799 0 0.39754895837307291 -0.15355185624609519 0 0.40952191373752789 -0.13643098274634191 0 0.39754895837307291 -0.15355185624609519 0 0.38875845555808519 -0.17009474020881979 0 0.40737153861703951 -0.17480707298997811 0 0.37123638824398542 -0.17158214330339211 0 0.38875845555808519 -0.17009474020881979 0 0.38206828329081072 -0.1577655694623164 0 0.39754895837307291 -0.15355185624609519 0 0.38875845555808519 -0.17009474020881979 0 0.38206828329081072 -0.1577655694623164 0 0.37123638824398542 -0.17158214330339211 0 0.38556710926551752 -0.19276705904231689 0 0.38875845555808519 -0.17009474020881979 0 0.38556710926551752 -0.19276705904231689 0 0.38875845555808519 -0.17009474020881979 0 0.40737153861703951 -0.17480707298997811 0 0.41059890492401219 -0.1988515561620425 0 0.42656361226429118 -0.1877053034790766 0 0.40737153861703951 -0.17480707298997811 0 0.42656361226429118 -0.1877053034790766 0 0.40737153861703951 -0.17480707298997811 0 0.43116247770517663 -0.16878543915636221 0 0.42656361226429118 -0.1877053034790766 0 0.43116247770517663 -0.16878543915636221 0 0.44802802065364128 -0.18804943677047931 0 0.43116247770517663 -0.16878543915636221 0 0.41685778676076241 -0.15565088941397229 0 0.43868404537099509 -0.144679095931084 0 0.39754895837307291 -0.15355185624609519 0 0.40737153861703951 -0.17480707298997811 0 0.41685778676076241 -0.15565088941397229 0 0.40737153861703951 -0.17480707298997811 0 0.43116247770517663 -0.16878543915636221 0 0.41685778676076241 -0.15565088941397229 0 0.41685778676076241 -0.15565088941397229 0 0.40952191373752789 -0.13643098274634191 0 0.43868404537099509 -0.144679095931084 0 0.39754895837307291 -0.15355185624609519 0 0.41685778676076241 -0.15565088941397229 0 0.40952191373752789 -0.13643098274634191 0 0.43299478799405028 -0.1218952082348165 0 0.40952191373752789 -0.13643098274634191 0 0.43868404537099509 -0.144679095931084 0 0.43299478799405028 -0.1218952082348165 0 0.40952191373752789 -0.13643098274634191 0 0.41549769263500008 -0.1203437894762671 0 0.43299478799405028 -0.1218952082348165 0 0.40952191373752789 -0.13643098274634191 0 0.41549769263500008 -0.1203437894762671 0 0.40058204422383648 -0.11930553810413259 0 0.40952191373752789 -0.13643098274634191 0 0.45479606445633558 -0.13362480969594309 0 0.46299120312211839 -0.15107204999283899 0 0.4692220023938245 -0.13093917271456429 0 0.4590419538324032 -0.1205362401740858 0 0.45479606445633558 -0.13362480969594309 0 0.4692220023938245 -0.13093917271456429 0 0.44665090151740561 -0.12315454867032349 0 0.4590419538324032 -0.1205362401740858 0 0.45479606445633558 -0.13362480969594309 0 0.44665090151740561 -0.12315454867032349 0 0.45479606445633558 -0.13362480969594309 0 0.43868404537099509 -0.144679095931084 0 0.44665090151740561 -0.12315454867032349 0 0.43299478799405028 -0.1218952082348165 0 0.43868404537099509 -0.144679095931084 0 0.43868404537099509 -0.144679095931084 0 0.46299120312211839 -0.15107204999283899 0 0.45239736343945319 -0.16948905315809951 0 0.45479606445633558 -0.13362480969594309 0 0.43868404537099509 -0.144679095931084 0 0.46299120312211839 -0.15107204999283899 0 0.46299120312211839 -0.15107204999283899 0 0.45239736343945319 -0.16948905315809951 0 0.47140796301089238 -0.1799136470517512 0 0.46299120312211839 -0.15107204999283899 0 0.47140796301089238 -0.1799136470517512 0 0.43116247770517663 -0.16878543915636221 0 0.43868404537099509 -0.144679095931084 0 0.45239736343945319 -0.16948905315809951 0 0.43116247770517663 -0.16878543915636221 0 0.45239736343945319 -0.16948905315809951 0 0.44802802065364128 -0.18804943677047931 0 0.45239736343945319 -0.16948905315809951 0 0.47140796301089238 -0.1799136470517512 0 0.44802802065364128 -0.18804943677047931 0 0.46299120312211839 -0.15107204999283899 0 0.47140796301089238 -0.1799136470517512 0 0.48200134191311073 -0.14530396872936671 0 0.47140796301089238 -0.1799136470517512 0 0.48200134191311073 -0.14530396872936671 0 0.5 -0.15599915889604121 0 0.47140796301089238 -0.1799136470517512 0 0.5 -0.18561495761127231 0 0.5 -0.15599915889604121 0 0.46299120312211839 -0.15107204999283899 0 0.48200134191311073 -0.14530396872936671 0 0.4692220023938245 -0.13093917271456429 0 0.48200134191311073 -0.14530396872936671 0 0.5 -0.15599915889604121 0 0.5 -0.12638336018081009 0 0.48317417071794871 -0.12028471764390419 0 0.48200134191311073 -0.14530396872936671 0 0.5 -0.12638336018081009 0 0.48317417071794871 -0.12028471764390419 0 0.48200134191311073 -0.14530396872936671 0 0.4692220023938245 -0.13093917271456429 0 0.46712174144744012 -0.23191550648011491 0 0.4507379261322968 -0.22439320183454639 0 0.47060324752001748 -0.22046683195826189 0 0.46712174144744012 -0.23191550648011491 0 0.44671152318479918 -0.24431091578788561 0 0.4507379261322968 -0.22439320183454639 0 0.46712174144744012 -0.23191550648011491 0 0.44671152318479918 -0.24431091578788561 0 0.46711928218187371 -0.250759962566802 0 0.42442639125053783 -0.2318187313013689 0 0.44671152318479918 -0.24431091578788561 0 0.4507379261322968 -0.22439320183454639 0 0.43563070058250691 -0.20493605328176809 0 0.4606624962410017 -0.2110205504014937 0 0.43563070058250691 -0.20493605328176809 0 0.4507379261322968 -0.22439320183454639 0 0.4606624962410017 -0.2110205504014937 0 0.43563070058250691 -0.20493605328176809 0 0.44802802065364128 -0.18804943677047931 0 0.4606624962410017 -0.2110205504014937 0 0.47140796301089238 -0.1799136470517512 0 0.44802802065364128 -0.18804943677047931 0 0.4606624962410017 -0.2110205504014937 0 0.4507379261322968 -0.22439320183454639 0 0.4606624962410017 -0.2110205504014937 0 0.47060324752001748 -0.22046683195826189 0 0.4606624962410017 -0.2110205504014937 0 0.47982472289966649 -0.2087552441106634 0 0.47060324752001748 -0.22046683195826189 0 0.47140796301089238 -0.1799136470517512 0 0.5 -0.18561495761127231 0 0.47982472289966649 -0.2087552441106634 0 0.47140796301089238 -0.1799136470517512 0 0.47982472289966649 -0.2087552441106634 0 0.47140796301089238 -0.1799136470517512 0 0.4606624962410017 -0.2110205504014937 0 0.47982472289966649 -0.2087552441106634 0 0.5 -0.18561495761127231 0 0.47982472289966649 -0.2087552441106634 0 0.5 -0.21523075632650329 0 0.47982472289966649 -0.2087552441106634 0 0.5 -0.21523075632650329 0 0.48824148278844037 -0.23759684116957561 0 0.5 -0.21523075632650329 0 0.5 -0.24484655504173439 0 0.48824148278844037 -0.23759684116957561 0 0.47982472289966649 -0.2087552441106634 0 0.47060324752001748 -0.22046683195826189 0 0.48824148278844037 -0.23759684116957561 0 0.46712174144744012 -0.23191550648011491 0 0.47060324752001748 -0.22046683195826189 0 0.48824148278844037 -0.23759684116957561 0 0.47982472289966649 -0.2087552441106634 0 0.48824148278844037 -0.23759684116957561 0 0.46712174144744012 -0.23191550648011491 0 0.47696729151629569 -0.24391501600639071 0 0.48824148278844037 -0.23759684116957561 0 0.47696729151629569 -0.24391501600639071 0 0.48824148278844037 -0.23759684116957561 0 0.4853866596474285 -0.25538775380907008 0 0.46712174144744012 -0.23191550648011491 0 0.47696729151629569 -0.24391501600639071 0 0.46711928218187371 -0.250759962566802 0 0.5 -0.24484655504173439 0 0.48824148278844037 -0.23759684116957561 0 0.4853866596474285 -0.25538775380907008 0 0.5 -0.24484655504173439 0 0.4853866596474285 -0.25538775380907008 0 0.5 -0.27446235375696548 0 0.4853866596474285 -0.25538775380907008 0 0.5 -0.27446235375696548 0 0.48627775821020203 -0.27120236070766052 0 0.5 -0.27446235375696548 0 0.48627775821020203 -0.27120236070766052 0 0.48657479106445928 -0.28634582924560109 0 0.4731495821289205 -0.26861350601900519 0 0.48657479106445928 -0.28634582924560109 0 0.48627775821020203 -0.27120236070766052 0 0.4731495821289205 -0.26861350601900519 0 0.48657479106445928 -0.28634582924560109 0 0.4731495821289205 -0.26861350601900519 0 0.47296718995524578 -0.28647121454915297 0 0.48657479106445928 -0.28634582924560109 0 0.4853866596474285 -0.25538775380907008 0 0.4731495821289205 -0.26861350601900519 0 0.46711928218187371 -0.250759962566802 0 0.4853866596474285 -0.25538775380907008 0 0.48627775821020203 -0.27120236070766052 0 0.4731495821289205 -0.26861350601900519 0 0.47696729151629569 -0.24391501600639071 0 0.4853866596474285 -0.25538775380907008 0 0.46711928218187371 -0.250759962566802 0 0.44671152318479918 -0.24431091578788561 0 0.45480771434036449 -0.26279013552360009 0 0.46711928218187371 -0.250759962566802 0 0.4731495821289205 -0.26861350601900519 0 0.45480771434036449 -0.26279013552360009 0 0.46711928218187371 -0.250759962566802 0 0.4731495821289205 -0.26861350601900519 0 0.45892989132102779 -0.27861522266290911 0 0.47296718995524578 -0.28647121454915297 0 0.4731495821289205 -0.26861350601900519 0 0.45480771434036449 -0.26279013552360009 0 0.45892989132102779 -0.27861522266290911 0 0.44479572695730379 -0.27414597648847261 0 0.43986801921149671 -0.28253586982453771 0 0.42830940954402802 -0.27646531245285638 0 0.45480771434036449 -0.26279013552360009 0 0.45892989132102779 -0.27861522266290911 0 0.44479572695730379 -0.27414597648847261 0 0.45892989132102779 -0.27861522266290911 0 0.44479572695730379 -0.27414597648847261 0 0.44839186297868749 -0.28801289548283893 0 0.44671152318479918 -0.24431091578788561 0 0.45480771434036449 -0.26279013552360009 0 0.4374823762684365 -0.25946206004080519 0 0.45480771434036449 -0.26279013552360009 0 0.44479572695730379 -0.27414597648847261 0 0.4374823762684365 -0.25946206004080519 0 0.44889406178228131 -0.30911174951498938 0 0.43879332717099773 -0.29309238747029809 0 0.43423562000234639 -0.31097823630883092 0 0.44889406178228131 -0.30911174951498938 0 0.43879332717099773 -0.29309238747029809 0 0.44335576587252179 -0.2956162088802613 0 0.44889406178228131 -0.30911174951498938 0 0.43879332717099773 -0.29309238747029809 0 0.45287513475199692 -0.29959382556328701 0 0.44889406178228131 -0.30911174951498938 0 0.44335576587252179 -0.2956162088802613 0 0.43879332717099773 -0.29309238747029809 0 0.44335576587252179 -0.2956162088802613 0 0.43879332717099773 -0.29309238747029809 0 0.44335576587252179 -0.2956162088802613 0 0.44839186297868749 -0.28801289548283893 0 0.43879332717099773 -0.29309238747029809 0 0.43986801921149671 -0.28253586982453771 0 0.44839186297868749 -0.28801289548283893 0 0.44479572695730379 -0.27414597648847261 0 0.43986801921149671 -0.28253586982453771 0 0.44839186297868749 -0.28801289548283893 0 0.45287513475199692 -0.29959382556328701 0 0.44335576587252179 -0.2956162088802613 0 0.44839186297868749 -0.28801289548283893 0 0.45287513475199692 -0.29959382556328701 0 0.44839186297868749 -0.28801289548283893 0 0.45946727156564449 -0.29165760791438472 0 0.45892989132102779 -0.27861522266290911 0 0.44839186297868749 -0.28801289548283893 0 0.45946727156564449 -0.29165760791438472 0 0.45892989132102779 -0.27861522266290911 0 0.45946727156564449 -0.29165760791438472 0 0.47296718995524578 -0.28647121454915297 0 0.45946727156564449 -0.29165760791438472 0 0.45906147976165151 -0.30824723182646058 0 0.47507613431476831 -0.31574186457996167 0 0.45946727156564449 -0.29165760791438472 0 0.47507613431476831 -0.31574186457996167 0 0.45287513475199692 -0.29959382556328701 0 0.45946727156564449 -0.29165760791438472 0 0.45906147976165151 -0.30824723182646058 0 0.45287513475199692 -0.29959382556328701 0 0.44889406178228131 -0.30911174951498938 0 0.45906147976165151 -0.30824723182646058 0 0.47559499826551788 -0.29938720424414322 0 0.48846455044921211 -0.30792490641581471 0 0.47507613431476831 -0.31574186457996167 0 0.45946727156564449 -0.29165760791438472 0 0.47559499826551788 -0.29938720424414322 0 0.47507613431476831 -0.31574186457996167 0 0.47559499826551788 -0.29938720424414322 0 0.48846455044921211 -0.30792490641581471 0 0.48526513141177968 -0.29733280615728741 0 0.48846455044921211 -0.30792490641581471 0 0.47507613431476831 -0.31574186457996167 0 0.45946727156564449 -0.29165760791438472 0 0.47559499826551788 -0.29938720424414322 0 0.47296718995524578 -0.28647121454915297 0 0.47559499826551788 -0.29938720424414322 0 0.47296718995524578 -0.28647121454915297 0 0.48526513141177968 -0.29733280615728741 0 0.47296718995524578 -0.28647121454915297 0 0.48657479106445928 -0.28634582924560109 0 0.48526513141177968 -0.29733280615728741 0 0.48657479106445928 -0.28634582924560109 0 0.49999999999999878 -0.30407815247219649 0 0.5 -0.27446235375696548 0 0.48657479106445928 -0.28634582924560109 0 0.49999999999999878 -0.30407815247219649 0 0.48657479106445928 -0.28634582924560109 0 0.48526513141177968 -0.29733280615728741 0 0.49999999999999878 -0.30407815247219649 0 0.48846455044921211 -0.30792490641581471 0 0.48526513141177968 -0.29733280615728741 0 0.49999999999999878 -0.30407815247219649 0 0.48846455044921211 -0.30792490641581471 0 0.49999999999999878 -0.30407815247219649 0 0.49021575038427301 -0.3183707944681447 0 0.49999999999999878 -0.30407815247219649 0 0.49021575038427301 -0.3183707944681447 0 0.5 -0.3291385964094341 0 0.49021575038427301 -0.3183707944681447 0 0.48753806715738451 -0.33497045246331653 0 0.5 -0.3291385964094341 0 0.48846455044921211 -0.30792490641581471 0 0.49021575038427301 -0.3183707944681447 0 0.47507613431476831 -0.31574186457996167 0 0.48753806715738451 -0.33497045246331653 0 0.5 -0.3291385964094341 0 0.50000000000000044 -0.3541990403466716 0 0.48753806715738451 -0.33497045246331653 0 0.47356804886535792 -0.3306630197650296 0 0.4726631975957124 -0.34680865045716053 0 0.47356804886535792 -0.3306630197650296 0 0.47507613431476831 -0.31574186457996167 0 0.45899479639356622 -0.32513111155967989 0 0.48753806715738451 -0.33497045246331653 0 0.47356804886535792 -0.3306630197650296 0 0.47507613431476831 -0.31574186457996167 0 0.49021575038427301 -0.3183707944681447 0 0.48753806715738451 -0.33497045246331653 0 0.47507613431476831 -0.31574186457996167 0 0.48753806715738451 -0.33497045246331653 0 0.47507613431476831 -0.31574186457996167 0 0.5 -0.37218138429939729 0 0.48633159879785848 -0.36848618935464111 0 0.50000000000000044 -0.3541990403466716 0 0.48753806715738451 -0.33497045246331653 0 0.50000000000000044 -0.3541990403466716 0 0.48753806715738451 -0.33497045246331653 0 0.50000000000000044 -0.3541990403466716 0 0.48663321588773889 -0.35111608315544729 0 0.48633159879785848 -0.36848618935464111 0 0.50000000000000044 -0.3541990403466716 0 0.48663321588773889 -0.35111608315544729 0 0.48633159879785848 -0.36848618935464111 0 0.4726631975957124 -0.34680865045716053 0 0.47183140365105281 -0.35535366001330992 0 0.48633159879785848 -0.36848618935464111 0 0.4726631975957124 -0.34680865045716053 0 0.48753806715738451 -0.33497045246331653 0 0.48663321588773889 -0.35111608315544729 0 0.4726631975957124 -0.34680865045716053 0 0.48633159879785848 -0.36848618935464111 0 0.48663321588773889 -0.35111608315544729 0 0.4726631975957124 -0.34680865045716053 0 0.48633159879785848 -0.36848618935464111 0 0.47183140365105281 -0.35535366001330992 0 0.47764150922341497 -0.38050481539107672 0 0.47183140365105281 -0.35535366001330992 0 0.47764150922341497 -0.38050481539107672 0 0.47183140365105281 -0.35535366001330992 0 0.46249654539298879 -0.36096966093488342 0 0.47764150922341497 -0.38050481539107672 0 0.45794010813784591 -0.37023482810527092 0 0.46249654539298879 -0.36096966093488342 0 0.47764150922341497 -0.38050481539107672 0 0.45794010813784591 -0.37023482810527092 0 0.46249654539298879 -0.36096966093488342 0 0.4472448256812655 -0.35423541051115792 0 0.46249654539298879 -0.36096966093488342 0 0.45976228257499901 -0.34986583039055641 0 0.4472448256812655 -0.35423541051115792 0 0.47183140365105281 -0.35535366001330992 0 0.46249654539298879 -0.36096966093488342 0 0.45976228257499901 -0.34986583039055641 0 0.4726631975957124 -0.34680865045716053 0 0.47183140365105281 -0.35535366001330992 0 0.45976228257499901 -0.34986583039055641 0 0.4472448256812655 -0.35423541051115792 0 0.43654954322468509 -0.33823599291704493 0 0.4472448256812655 -0.35423541051115792 0 0.43654954322468509 -0.33823599291704493 0 0.43088191076435722 -0.36274924587600549 0 0.4472448256812655 -0.35423541051115792 0 0.45001750742660751 -0.34134473130692922 0 0.43654954322468509 -0.33823599291704493 0 0.45976228257499901 -0.34986583039055641 0 0.4472448256812655 -0.35423541051115792 0 0.45001750742660751 -0.34134473130692922 0 0.4472448256812655 -0.35423541051115792 0 0.44298618193827799 -0.37091733253850451 0 0.43088191076435722 -0.36274924587600549 0 0.45794010813784591 -0.37023482810527092 0 0.4472448256812655 -0.35423541051115792 0 0.45794010813784591 -0.37023482810527092 0 0.4472448256812655 -0.35423541051115792 0 0.44298618193827799 -0.37091733253850451 0 0.45906147976165151 -0.30824723182646058 0 0.47507613431476831 -0.31574186457996167 0 0.45899479639356622 -0.32513111155967989 0 0.44889406178228131 -0.30911174951498938 0 0.45906147976165151 -0.30824723182646058 0 0.45899479639356622 -0.32513111155967989 0 0.44889406178228131 -0.30911174951498938 0 0.45899479639356622 -0.32513111155967989 0 0.47507613431476831 -0.31574186457996167 0 0.45899479639356622 -0.32513111155967989 0 0.4726631975957124 -0.34680865045716053 0 0.45899479639356622 -0.32513111155967989 0 0.47356804886535792 -0.3306630197650296 0 0.4726631975957124 -0.34680865045716053 0 0.45899479639356622 -0.32513111155967989 0 0.45976228257499901 -0.34986583039055641 0 0.45899479639356622 -0.32513111155967989 0 0.45001750742660751 -0.34134473130692922 0 0.4726631975957124 -0.34680865045716053 0 0.45976228257499901 -0.34986583039055641 0 0.45899479639356622 -0.32513111155967989 0 0.45899479639356622 -0.32513111155967989 0 0.45001750742660751 -0.34134473130692922 0 0.43654954322468509 -0.33823599291704493 0 0.45899479639356622 -0.32513111155967989 0 0.43654954322468509 -0.33823599291704493 0 0.45899479639356622 -0.32513111155967989 0 0.44094564129121072 -0.3211985477604849 0 0.43654954322468509 -0.33823599291704493 0 0.44889406178228131 -0.30911174951498938 0 0.45899479639356622 -0.32513111155967989 0 0.44094564129121072 -0.3211985477604849 0 0.44889406178228131 -0.30911174951498938 0 0.44094564129121072 -0.3211985477604849 0 0.43423562000234639 -0.31097823630883092 0 0.44094564129121072 -0.3211985477604849 0 0.42605418505317438 -0.32253564850187988 0 0.43423562000234639 -0.31097823630883092 0 0.44094564129121072 -0.3211985477604849 0 0.42605418505317438 -0.32253564850187988 0 0.43654954322468509 -0.33823599291704493 0 0.42605418505317438 -0.32253564850187988 0 0.43423562000234639 -0.31097823630883092 0 0.41555882688166379 -0.30683530408671472 0 0.43654954322468509 -0.33823599291704493 0 0.42271287689092057 -0.33586901324543411 0 0.41830445505654767 -0.34888856671512097 0 0.43654954322468509 -0.33823599291704493 0 0.41830445505654767 -0.34888856671512097 0 0.42605418505317438 -0.32253564850187988 0 0.43654954322468509 -0.33823599291704493 0 0.42271287689092057 -0.33586901324543411 0 0.42605418505317438 -0.32253564850187988 0 0.43654954322468509 -0.33823599291704493 0 0.41102798852207922 -0.32862979095104849 0 0.41830445505654767 -0.34888856671512097 0 0.39891808845970728 -0.33941290158115922 0 0.42605418505317438 -0.32253564850187988 0 0.42271287689092057 -0.33586901324543411 0 0.41102798852207922 -0.32862979095104849 0 0.42271287689092057 -0.33586901324543411 0 0.41102798852207922 -0.32862979095104849 0 0.41830445505654767 -0.34888856671512097 0 0.42605418505317438 -0.32253564850187988 0 0.41102798852207922 -0.32862979095104849 0 0.41555882688166379 -0.30683530408671472 0 0.41102798852207922 -0.32862979095104849 0 0.39777681003100279 -0.3192846626491197 0 0.41555882688166379 -0.30683530408671472 0 0.42605418505317438 -0.32253564850187988 0 0.41555882688166379 -0.30683530408671472 0 0.43088191076435722 -0.36274924587600549 0 0.41585631896139241 -0.37210097154645072 0 0.43079406697296302 -0.38212030000209568 0 0.44298618193827799 -0.37091733253850451 0 0.43088191076435722 -0.36274924587600549 0 0.43079406697296302 -0.38212030000209568 0 0.43654954322468509 -0.33823599291704493 0 0.43088191076435722 -0.36274924587600549 0 0.41830445505654767 -0.34888856671512097 0 0.41830445505654767 -0.34888856671512097 0 0.40005936688841109 -0.35954114051319869 0 0.41830445505654767 -0.34888856671512097 0 0.41585631896139241 -0.37210097154645072 0 0.40005936688841109 -0.35954114051319869 0 0.43088191076435722 -0.36274924587600549 0 0.41830445505654767 -0.34888856671512097 0 0.41585631896139241 -0.37210097154645072 0 0.40005936688841109 -0.35954114051319869 0 0.40150828412750272 -0.38509507340780602 0 0.41585631896139241 -0.37210097154645072 0 0.40005936688841109 -0.35954114051319869 0 0.40150828412750272 -0.38509507340780602 0 0.40005936688841109 -0.35954114051319869 0 0.39216710234941499 -0.3641491166249502 0 0.40150828412750272 -0.38509507340780602 0 0.40005936688841109 -0.35954114051319869 0 0.39216710234941499 -0.3641491166249502 0 0.40005936688841109 -0.35954114051319869 0 0.39263983523210949 -0.35432417418530321 0 0.39891808845970728 -0.33941290158115922 0 0.41830445505654767 -0.34888856671512097 0 0.40005936688841109 -0.35954114051319869 0 0.39891808845970728 -0.33941290158115922 0 0.40005936688841109 -0.35954114051319869 0 0.39891808845970728 -0.33941290158115922 0 0.40005936688841109 -0.35954114051319869 0 0.39216710234941499 -0.3641491166249502 0 0.39263983523210949 -0.35432417418530321 0 0.39263983523210949 -0.35432417418530321 0 0.38110112773035759 -0.36044674358218443 0 0.37208536385224938 -0.34749303253019032 0 0.39263983523210949 -0.35432417418530321 0 0.37924591862615892 -0.3350595434566519 0 0.37208536385224938 -0.34749303253019032 0 0.39263983523210949 -0.35432417418530321 0 0.37924591862615892 -0.3350595434566519 0 0.39216710234941499 -0.3641491166249502 0 0.38110112773035759 -0.36044674358218443 0 0.38314407318686611 -0.36848946830249008 0 0.39216710234941499 -0.3641491166249502 0 0.39263983523210949 -0.35432417418530321 0 0.38110112773035759 -0.36044674358218443 0 0.38110112773035759 -0.36044674358218443 0 0.38314407318686611 -0.36848946830249008 0 0.37486925875540911 -0.37078806384811652 0 0.38314407318686611 -0.36848946830249008 0 0.38443880391228258 -0.3785739491547091 0 0.37486925875540911 -0.37078806384811652 0 0.39216710234941499 -0.3641491166249502 0 0.38314407318686611 -0.36848946830249008 0 0.38443880391228258 -0.3785739491547091 0 0.39777681003100279 -0.3192846626491197 0 0.39891808845970728 -0.33941290158115922 0 0.38939605268443678 -0.32821533626680988 0 0.41102798852207922 -0.32862979095104849 0 0.39777681003100279 -0.3192846626491197 0 0.39891808845970728 -0.33941290158115922 0 0.39777681003100279 -0.3192846626491197 0 0.39891808845970728 -0.33941290158115922 0 0.39891808845970728 -0.33941290158115922 0 0.38939605268443678 -0.32821533626680988 0 0.37924591862615892 -0.3350595434566519 0 0.39263983523210949 -0.35432417418530321 0 0.39891808845970728 -0.33941290158115922 0 0.37924591862615892 -0.3350595434566519 0 0.39777681003100279 -0.3192846626491197 0 0.38939605268443678 -0.32821533626680988 0 0.38164339362087812 -0.31910423738030869 0 0.38164339362087812 -0.31910423738030869 0 0.37946672821991329 -0.30370973407470753 0 0.36585200202020829 -0.31579491272800048 0 0.39777681003100279 -0.3192846626491197 0 0.38164339362087812 -0.31910423738030869 0 0.37946672821991329 -0.30370973407470753 0 0.38939605268443678 -0.32821533626680988 0 0.37924591862615892 -0.3350595434566519 0 0.38164339362087812 -0.31910423738030869 0 0.37924591862615892 -0.3350595434566519 0 0.38164339362087812 -0.31910423738030869 0 0.36585200202020829 -0.31579491272800048 0 0.39663553160229842 -0.29915642371708018 0 0.3893249673646238 -0.26572778845585038 0 0.41405914726781112 -0.27941008796307337 0 0.39663553160229842 -0.29915642371708018 0 0.3752316044922005 -0.28632358698828309 0 0.3893249673646238 -0.26572778845585038 0 0.39777681003100279 -0.3192846626491197 0 0.39663553160229842 -0.29915642371708018 0 0.39777681003100279 -0.3192846626491197 0 0.39663553160229842 -0.29915642371708018 0 0.41555882688166379 -0.30683530408671472 0 0.39777681003100279 -0.3192846626491197 0 0.37946672821991329 -0.30370973407470753 0 0.39663553160229842 -0.29915642371708018 0 0.37946672821991329 -0.30370973407470753 0 0.39663553160229842 -0.29915642371708018 0 0.3752316044922005 -0.28632358698828309 0 0.38471644349217532 -0.23815242849965959 0 0.3893249673646238 -0.26572778845585038 0 0.36459078746143631 -0.25204548894862733 0 0.3893249673646238 -0.26572778845585038 0 0.36459078746143631 -0.25204548894862733 0 0.38471644349217532 -0.23815242849965959 0 0.40270356353720921 -0.24847249770348781 0 0.3893249673646238 -0.26572778845585038 0 0.40270356353720921 -0.24847249770348781 0 0.3893249673646238 -0.26572778845585038 0 0.4178254919170597 -0.25983823743541362 0 0.3893249673646238 -0.26572778845585038 0 0.41405914726781112 -0.27941008796307337 0 0.3893249673646238 -0.26572778845585038 0 0.41405914726781112 -0.27941008796307337 0 0.4178254919170597 -0.25983823743541362 0 0.41405914726781112 -0.27941008796307337 0 0.4178254919170597 -0.25983823743541362 0 0.42830940954402802 -0.27646531245285638 0 0.40270356353720921 -0.24847249770348781 0 0.42701800636461101 -0.24840206665395231 0 0.4178254919170597 -0.25983823743541362 0 0.42701800636461101 -0.24840206665395231 0 0.4178254919170597 -0.25983823743541362 0 0.4374823762684365 -0.25946206004080519 0 0.4178254919170597 -0.25983823743541362 0 0.4374823762684365 -0.25946206004080519 0 0.42830940954402802 -0.27646531245285638 0 0.42701800636461101 -0.24840206665395231 0 0.44671152318479918 -0.24431091578788561 0 0.4374823762684365 -0.25946206004080519 0 0.44479572695730379 -0.27414597648847261 0 0.4374823762684365 -0.25946206004080519 0 0.42830940954402802 -0.27646531245285638 0 0.4178254919170597 -0.25983823743541362 0 0.42830940954402802 -0.27646531245285638 0 0.43879332717099773 -0.29309238747029809 0 0.41405914726781112 -0.27941008796307337 0 0.42830940954402802 -0.27646531245285638 0 0.43879332717099773 -0.29309238747029809 0 0.43986801921149671 -0.28253586982453771 0 0.42830940954402802 -0.27646531245285638 0 0.43879332717099773 -0.29309238747029809 0 0.41405914726781112 -0.27941008796307337 0 0.41555882688166379 -0.30683530408671472 0 0.43879332717099773 -0.29309238747029809 0 0.41405914726781112 -0.27941008796307337 0 0.43879332717099773 -0.29309238747029809 0 0.42830940954402802 -0.27646531245285638 0 0.43879332717099773 -0.29309238747029809 0 0.43423562000234639 -0.31097823630883092 0 0.41555882688166379 -0.30683530408671472 0 0.39663553160229842 -0.29915642371708018 0 0.41405914726781112 -0.27941008796307337 0 0.41555882688166379 -0.30683530408671472 0 0.44792076097126088 -0.49999999999999961 0 0.43794642948629048 -0.49376838443649468 0 0.44965508663088732 -0.48158277584017278 0 0.44965508663088732 -0.48158277584017278 0 0.42709863593089331 -0.48922463091293489 0 0.44792076097126088 -0.49999999999999961 0 0.43794642948629048 -0.49376838443649468 0 0.42797209800132052 -0.5 0 0.43794642948629048 -0.49376838443649468 0 0.44965508663088732 -0.48158277584017278 0 0.42709863593089331 -0.48922463091293489 0 0.44965508663088732 -0.48158277584017278 0 0.44598802727778442 -0.45403672890496288 0 0.42775506123783302 -0.47166982396589918 0 0.44965508663088732 -0.48158277584017278 0 0.42775506123783302 -0.47166982396589918 0 0.44965508663088732 -0.48158277584017278 0 0.47363125479040258 -0.47345993751280768 0 0.46394005076013078 -0.46070129267400528 0 0.44965508663088732 -0.48158277584017278 0 0.46673023142958409 -0.48931176635949147 0 0.47363125479040258 -0.47345993751280768 0 0.44965508663088732 -0.48158277584017278 0 0.47363125479040258 -0.47345993751280768 0 0.44792076097126088 -0.49999999999999961 0 0.46673023142958409 -0.48931176635949147 0 0.46913189812300882 -0.5 0 0.44965508663088732 -0.48158277584017278 0 0.46673023142958409 -0.48931176635949147 0 0.44792076097126088 -0.49999999999999961 0 0.46673023142958409 -0.48931176635949147 0 0.44792076097126088 -0.49999999999999961 0 0.44965508663088732 -0.48158277584017278 0 0.46673023142958409 -0.48931176635949147 0 0.46673023142958409 -0.48931176635949147 0 0.49034303527475681 -0.49999999999999761 0 0.48463505652602151 -0.47913758552078722 0 0.5 -0.5 0 0.49791652088127369 -0.47345294276683109 0 0.49999999999999961 -0.46452652276496342 0 0.46673023142958409 -0.48931176635949147 0 0.46913189812300882 -0.5 0 0.49034303527475681 -0.49999999999999761 0 0.46673023142958409 -0.48931176635949147 0 0.49034303527475681 -0.49999999999999761 0 0.49034303527475681 -0.49999999999999761 0 0.5 -0.5 0 0.48463505652602151 -0.47913758552078722 0 0.5 -0.5 0 0.49791652088127369 -0.47345294276683109 0 0.48463505652602151 -0.47913758552078722 0 0.47363125479040258 -0.47345993751280768 0 0.49760742294991872 -0.46533709918544491 0 0.48463505652602151 -0.47913758552078722 0 0.47363125479040258 -0.47345993751280768 0 0.49760742294991872 -0.46533709918544491 0 0.49791652088127369 -0.47345294276683109 0 0.48463505652602151 -0.47913758552078722 0 0.49760742294991872 -0.46533709918544491 0 0.49791652088127369 -0.47345294276683109 0 0.49760742294991872 -0.46533709918544491 0 0.46673023142958409 -0.48931176635949147 0 0.48463505652602151 -0.47913758552078722 0 0.47363125479040258 -0.47345993751280768 0 0.46673023142958409 -0.48931176635949147 0 0.48463505652602151 -0.47913758552078722 0 0.47363125479040258 -0.47345993751280768 0 0.4795230190019415 -0.46051859512204901 0 0.49760742294991872 -0.46533709918544491 0 0.47363125479040258 -0.47345993751280768 0 0.4795230190019415 -0.46051859512204901 0 0.46394005076013078 -0.46070129267400528 0 0.4795230190019415 -0.46051859512204901 0 0.47597975831270772 -0.45013020494721578 0 0.46394005076013078 -0.46070129267400528 0 0.4795230190019415 -0.46051859512204901 0 0.48645660819654812 -0.45296444129077279 0 0.47597975831270772 -0.45013020494721578 0 0.49999999999999961 -0.46452652276496342 0 0.49760742294991872 -0.46533709918544491 0 0.49660336870135102 -0.4389741041537587 0 0.49760742294991872 -0.46533709918544491 0 0.49116720738608488 -0.44723024709091441 0 0.48645660819654812 -0.45296444129077279 0 0.4795230190019415 -0.46051859512204901 0 0.49760742294991872 -0.46533709918544491 0 0.48645660819654812 -0.45296444129077279 0 0.49791652088127369 -0.47345294276683109 0 0.49999999999999961 -0.46452652276496342 0 0.49760742294991872 -0.46533709918544491 0 0.49999999999999961 -0.46452652276496342 0 0.49760742294991872 -0.46533709918544491 0 0.49760742294991872 -0.46533709918544491 0 0.49660336870135102 -0.4389741041537587 0 0.49116720738608488 -0.44723024709091441 0 0.49760742294991872 -0.46533709918544491 0 0.49660336870135102 -0.4389741041537587 0 0.49999999999999961 -0.46452652276496342 0 0.5 -0.43973892459401659 0 0.49660336870135102 -0.4389741041537587 0 0.49660336870135102 -0.4389741041537587 0 0.49116720738608488 -0.44723024709091441 0 0.4909701437800616 -0.43811635220769818 0 0.49116720738608488 -0.44723024709091441 0 0.48645660819654812 -0.45296444129077279 0 0.48505670301511639 -0.44144940742414518 0 0.49116720738608488 -0.44723024709091441 0 0.48505670301511639 -0.44144940742414518 0 0.4909701437800616 -0.43811635220769818 0 0.47597975831270772 -0.45013020494721578 0 0.46183982194057971 -0.44088003111345142 0 0.4764924803727954 -0.43237106357740801 0 0.48505670301511639 -0.44144940742414518 0 0.47597975831270772 -0.45013020494721578 0 0.4764924803727954 -0.43237106357740801 0 0.48645660819654812 -0.45296444129077279 0 0.48505670301511639 -0.44144940742414518 0 0.47597975831270772 -0.45013020494721578 0 0.46183982194057971 -0.44088003111345142 0 0.46394005076013078 -0.46070129267400528 0 0.44598802727778442 -0.45403672890496288 0 0.47597975831270772 -0.45013020494721578 0 0.46183982194057971 -0.44088003111345142 0 0.46394005076013078 -0.46070129267400528 0 0.44965508663088732 -0.48158277584017278 0 0.46394005076013078 -0.46070129267400528 0 0.44598802727778442 -0.45403672890496288 0 0.46183982194057971 -0.44088003111345142 0 0.44598802727778442 -0.45403672890496288 0 0.44606878834299168 -0.42789654607108751 0 0.44598802727778442 -0.45403672890496288 0 0.44606878834299168 -0.42789654607108751 0 0.42586988205749071 -0.44507749257549711 0 0.44606878834299168 -0.42789654607108751 0 0.45497586069857832 -0.41271079356683349 0 0.43909748938574922 -0.40381741258600529 0 0.44606878834299168 -0.42789654607108751 0 0.45497586069857832 -0.41271079356683349 0 0.4651649356594425 -0.42373511235361022 0 0.45497586069857832 -0.41271079356683349 0 0.46899977556131722 -0.40924972104580393 0 0.4555483145433909 -0.39885517577766039 0 0.45497586069857832 -0.41271079356683349 0 0.4651649356594425 -0.42373511235361022 0 0.46899977556131722 -0.40924972104580393 0 0.46183982194057971 -0.44088003111345142 0 0.44606878834299168 -0.42789654607108751 0 0.4651649356594425 -0.42373511235361022 0 0.46183982194057971 -0.44088003111345142 0 0.4651649356594425 -0.42373511235361022 0 0.4764924803727954 -0.43237106357740801 0 0.4651649356594425 -0.42373511235361022 0 0.4764924803727954 -0.43237106357740801 0 0.4769098728705416 -0.42028383395999241 0 0.4764924803727954 -0.43237106357740801 0 0.4892617203681392 -0.43080712614661038 0 0.4769098728705416 -0.42028383395999241 0 0.48505670301511639 -0.44144940742414518 0 0.4764924803727954 -0.43237106357740801 0 0.4892617203681392 -0.43080712614661038 0 0.49660336870135102 -0.4389741041537587 0 0.49310863682558359 -0.43012717290753488 0 0.49559931445278282 -0.41261110912207261 0 0.4892617203681392 -0.43080712614661038 0 0.49310863682558359 -0.43012717290753488 0 0.49559931445278282 -0.41261110912207261 0 0.4909701437800616 -0.43811635220769818 0 0.4892617203681392 -0.43080712614661038 0 0.49310863682558359 -0.43012717290753488 0 0.49660336870135102 -0.4389741041537587 0 0.5 -0.41495132642306981 0 0.49559931445278282 -0.41261110912207261 0 0.5 -0.43973892459401659 0 0.49660336870135102 -0.4389741041537587 0 0.5 -0.41495132642306981 0 0.48505670301511639 -0.44144940742414518 0 0.4909701437800616 -0.43811635220769818 0 0.4892617203681392 -0.43080712614661038 0 0.49660336870135102 -0.4389741041537587 0 0.49559931445278282 -0.41261110912207261 0 0.49660336870135102 -0.4389741041537587 0 0.4909701437800616 -0.43811635220769818 0 0.49310863682558359 -0.43012717290753488 0 0.4892617203681392 -0.43080712614661038 0 0.48345161479577708 -0.40565597076884358 0 0.4892617203681392 -0.43080712614661038 0 0.49559931445278282 -0.41261110912207261 0 0.48345161479577708 -0.40565597076884358 0 0.4892617203681392 -0.43080712614661038 0 0.4769098728705416 -0.42028383395999241 0 0.48345161479577708 -0.40565597076884358 0 0.4651649356594425 -0.42373511235361022 0 0.4769098728705416 -0.42028383395999241 0 0.46899977556131722 -0.40924972104580393 0 0.4769098728705416 -0.42028383395999241 0 0.46899977556131722 -0.40924972104580393 0 0.48345161479577708 -0.40565597076884358 0 0.47010644008851232 -0.39541199328827781 0 0.48345161479577708 -0.40565597076884358 0 0.47764150922341497 -0.38050481539107672 0 0.46899977556131722 -0.40924972104580393 0 0.47010644008851232 -0.39541199328827781 0 0.48345161479577708 -0.40565597076884358 0 0.48345161479577708 -0.40565597076884358 0 0.47764150922341497 -0.38050481539107672 0 0.48345161479577708 -0.40565597076884358 0 0.49459526020421468 -0.38624811409038651 0 0.47764150922341497 -0.38050481539107672 0 0.49559931445278282 -0.41261110912207261 0 0.48345161479577708 -0.40565597076884358 0 0.49459526020421468 -0.38624811409038651 0 0.49559931445278282 -0.41261110912207261 0 0.49459526020421468 -0.38624811409038651 0 0.50000000000000266 -0.39016372825212298 0 0.49559931445278282 -0.41261110912207261 0 0.49459526020421468 -0.38624811409038651 0 0.5 -0.41495132642306981 0 0.49559931445278282 -0.41261110912207261 0 0.50000000000000266 -0.39016372825212298 0 0.48633159879785848 -0.36848618935464111 0 0.50000000000000266 -0.39016372825212298 0 0.48633159879785848 -0.36848618935464111 0 0.49459526020421468 -0.38624811409038651 0 0.50000000000000266 -0.39016372825212298 0 0.48633159879785848 -0.36848618935464111 0 0.49459526020421468 -0.38624811409038651 0 0.47764150922341497 -0.38050481539107672 0 0.5 -0.37218138429939729 0 0.48633159879785848 -0.36848618935464111 0 0.50000000000000266 -0.39016372825212298 0 0.47010644008851232 -0.39541199328827781 0 0.47764150922341497 -0.38050481539107672 0 0.46170651591944212 -0.3859203897114809 0 0.45794010813784591 -0.37023482810527092 0 0.46170651591944212 -0.3859203897114809 0 0.44806999813495862 -0.38524687819799258 0 0.45794010813784591 -0.37023482810527092 0 0.47764150922341497 -0.38050481539107672 0 0.46170651591944212 -0.3859203897114809 0 0.46170651591944212 -0.3859203897114809 0 0.4555483145433909 -0.39885517577766039 0 0.44806999813495862 -0.38524687819799258 0 0.47010644008851232 -0.39541199328827781 0 0.46170651591944212 -0.3859203897114809 0 0.4555483145433909 -0.39885517577766039 0 0.46899977556131722 -0.40924972104580393 0 0.47010644008851232 -0.39541199328827781 0 0.4555483145433909 -0.39885517577766039 0 0.4555483145433909 -0.39885517577766039 0 0.43909748938574922 -0.40381741258600529 0 0.44806999813495862 -0.38524687819799258 0 0.45497586069857832 -0.41271079356683349 0 0.4555483145433909 -0.39885517577766039 0 0.43909748938574922 -0.40381741258600529 0 0.44298618193827799 -0.37091733253850451 0 0.44806999813495862 -0.38524687819799258 0 0.43079406697296302 -0.38212030000209568 0 0.43909748938574922 -0.40381741258600529 0 0.44806999813495862 -0.38524687819799258 0 0.43079406697296302 -0.38212030000209568 0 0.45794010813784591 -0.37023482810527092 0 0.44298618193827799 -0.37091733253850451 0 0.44806999813495862 -0.38524687819799258 0 0.43909748938574922 -0.40381741258600529 0 0.43079406697296302 -0.38212030000209568 0 0.41792204847207892 -0.39549581740872969 0 0.41792204847207892 -0.39549581740872969 0 0.40150828412750272 -0.38509507340780602 0 0.4029572013665938 -0.41064900630241341 0 0.41585631896139241 -0.37210097154645072 0 0.41792204847207892 -0.39549581740872969 0 0.40150828412750272 -0.38509507340780602 0 0.41585631896139241 -0.37210097154645072 0 0.43079406697296302 -0.38212030000209568 0 0.41792204847207892 -0.39549581740872969 0 0.39216710234941499 -0.3641491166249502 0 0.40150828412750272 -0.38509507340780602 0 0.38443880391228258 -0.3785739491547091 0 0.40150828412750272 -0.38509507340780602 0 0.38443880391228258 -0.3785739491547091 0 0.38586164077166202 -0.40154473010200042 0 0.38443880391228258 -0.3785739491547091 0 0.38586164077166202 -0.40154473010200042 0 0.37047550110380589 -0.38653042991799491 0 0.38443880391228258 -0.3785739491547091 0 0.37047550110380589 -0.38653042991799491 0 0.37486925875540911 -0.37078806384811652 0 0.38586164077166202 -0.40154473010200042 0 0.36875704649114321 -0.40503861058129831 0 0.37047550110380589 -0.38653042991799491 0 0.40150828412750272 -0.38509507340780602 0 0.38586164077166202 -0.40154473010200042 0 0.4029572013665938 -0.41064900630241341 0 0.40150828412750272 -0.38509507340780602 0 0.4029572013665938 -0.41064900630241341 0 0.38586164077166202 -0.40154473010200042 0 0.4029572013665938 -0.41064900630241341 0 0.39336284211367639 -0.42359262602042641 0 0.38586164077166202 -0.40154473010200042 0 0.37853558303286611 -0.42077184543525148 0 0.36875704649114321 -0.40503861058129831 0 0.38586164077166202 -0.40154473010200042 0 0.37853558303286611 -0.42077184543525148 0 0.39336284211367639 -0.42359262602042641 0 0.37853558303286611 -0.42077184543525148 0 0.385732422167953 -0.43646429662250807 0 0.39336284211367639 -0.42359262602042641 0 0.37853558303286611 -0.42077184543525148 0 0.385732422167953 -0.43646429662250807 0 0.36947367062881142 -0.43579997568294487 0 0.4029572013665938 -0.41064900630241341 0 0.40440611860568493 -0.4362029391970208 0 0.4029572013665938 -0.41064900630241341 0 0.40440611860568493 -0.4362029391970208 0 0.39336284211367639 -0.42359262602042641 0 0.385732422167953 -0.43646429662250807 0 0.40440611860568493 -0.4362029391970208 0 0.39336284211367639 -0.42359262602042641 0 0.4029572013665938 -0.41064900630241341 0 0.40440611860568493 -0.4362029391970208 0 0.42261912327541512 -0.41985290059505398 0 0.40440611860568493 -0.4362029391970208 0 0.42261912327541512 -0.41985290059505398 0 0.42586988205749071 -0.44507749257549711 0 0.41792204847207892 -0.39549581740872969 0 0.4029572013665938 -0.41064900630241341 0 0.42261912327541512 -0.41985290059505398 0 0.44606878834299168 -0.42789654607108751 0 0.43909748938574922 -0.40381741258600529 0 0.42261912327541512 -0.41985290059505398 0 0.43909748938574922 -0.40381741258600529 0 0.41792204847207892 -0.39549581740872969 0 0.42261912327541512 -0.41985290059505398 0 0.44606878834299168 -0.42789654607108751 0 0.42261912327541512 -0.41985290059505398 0 0.42586988205749071 -0.44507749257549711 0 0.44598802727778442 -0.45403672890496288 0 0.42586988205749071 -0.44507749257549711 0 0.42775506123783302 -0.47166982396589918 0 0.40585503584477772 -0.46175687209162808 0 0.42775506123783302 -0.47166982396589918 0 0.42586988205749071 -0.44507749257549711 0 0.40585503584477772 -0.46175687209162808 0 0.42775506123783302 -0.47166982396589918 0 0.40440611860568493 -0.4362029391970208 0 0.42586988205749071 -0.44507749257549711 0 0.40585503584477772 -0.46175687209162808 0 0.385732422167953 -0.43646429662250807 0 0.40440611860568493 -0.4362029391970208 0 0.3908476645023834 -0.45496385029340658 0 0.40440611860568493 -0.4362029391970208 0 0.40585503584477772 -0.46175687209162808 0 0.40440611860568493 -0.4362029391970208 0 0.3908476645023834 -0.45496385029340658 0 0.40585503584477772 -0.46175687209162808 0 0.385732422167953 -0.43646429662250807 0 0.37584029315998729 -0.44817082849518852 0 0.36947367062881142 -0.43579997568294487 0 0.385732422167953 -0.43646429662250807 0 0.37584029315998729 -0.44817082849518852 0 0.3908476645023834 -0.45496385029340658 0 0.37584029315998729 -0.44817082849518852 0 0.3908476645023834 -0.45496385029340658 0 0.37608010926270352 -0.46398443287014057 0 0.3908476645023834 -0.45496385029340658 0 0.39313807164010289 -0.47016274523279361 0 0.37584029315998729 -0.44817082849518852 0 0.37608010926270352 -0.46398443287014057 0 0.3908476645023834 -0.45496385029340658 0 0.3908476645023834 -0.45496385029340658 0 0.40585503584477772 -0.46175687209162808 0 0.39313807164010289 -0.47016274523279361 0 0.3908476645023834 -0.45496385029340658 0 0.40585503584477772 -0.46175687209162808 0 0.40585503584477772 -0.46175687209162808 0 0.39313807164010289 -0.47016274523279361 0 0.40693923543807797 -0.48087843604581471 0 0.39313807164010289 -0.47016274523279361 0 0.39367241412873871 -0.4876426443959847 0 0.40693923543807797 -0.48087843604581471 0 0.39313807164010289 -0.47016274523279361 0 0.38256056322398102 -0.47963257165412421 0 0.39367241412873871 -0.4876426443959847 0 0.37608010926270352 -0.46398443287014057 0 0.38256056322398102 -0.47963257165412421 0 0.37012270411827741 -0.47697424491320378 0 0.37608010926270352 -0.46398443287014057 0 0.39313807164010289 -0.47016274523279361 0 0.38256056322398102 -0.47963257165412421 0 0.38256056322398102 -0.47963257165412421 0 0.38087992902498841 -0.5 0 0.37012270411827741 -0.47697424491320378 0 0.38256056322398102 -0.47963257165412421 0 0.38087992902498841 -0.5 0 0.39367241412873871 -0.4876426443959847 0 0.38087992902498841 -0.5 0 0.39367241412873871 -0.4876426443959847 0 0.40802343503138022 -0.50000000000000111 0 0.39367241412873871 -0.4876426443959847 0 0.40802343503138022 -0.50000000000000111 0 0.40693923543807797 -0.48087843604581471 0 0.40802343503138022 -0.50000000000000111 0 0.41707604240088397 -0.49032785891017311 0 0.40693923543807797 -0.48087843604581471 0 0.40802343503138022 -0.50000000000000111 0 0.41707604240088397 -0.49032785891017311 0 0.42797209800132052 -0.5 0 0.40802343503138022 -0.50000000000000111 0 0.40693923543807797 -0.48087843604581471 0 0.41707604240088397 -0.49032785891017311 0 0.41818249205492841 -0.4797043395524746 0 0.42709863593089331 -0.48922463091293489 0 0.40585503584477772 -0.46175687209162808 0 0.41818249205492841 -0.4797043395524746 0 0.42775506123783302 -0.47166982396589918 0 0.40585503584477772 -0.46175687209162808 0 0.40693923543807797 -0.48087843604581471 0 0.41818249205492841 -0.4797043395524746 0 0.40585503584477772 -0.46175687209162808 0 0.40693923543807797 -0.48087843604581471 0 0.41707604240088397 -0.49032785891017311 0 0.40693923543807797 -0.48087843604581471 0 0.41818249205492841 -0.4797043395524746 0 0.41818249205492841 -0.4797043395524746 0 0.42775506123783302 -0.47166982396589918 0 0.42709863593089331 -0.48922463091293489 0 0.44965508663088732 -0.48158277584017278 0 0.42775506123783302 -0.47166982396589918 0 0.42709863593089331 -0.48922463091293489 0 0.43794642948629048 -0.49376838443649468 0 0.42797209800132052 -0.5 0 0.42709863593089331 -0.48922463091293489 0 0.41707604240088397 -0.49032785891017311 0 0.42797209800132052 -0.5 0 0.42709863593089331 -0.48922463091293489 0 0.32407546074096127 -0.48836048184940928 0 0.31665812812766347 -0.47786342715527819 0 0.30340650610981751 -0.48791796689483519 0 0.32659291701220461 -0.5 0 0.32407546074096127 -0.48836048184940928 0 0.30340650610981751 -0.48791796689483519 0 0.32407546074096127 -0.48836048184940928 0 0.30340650610981751 -0.48791796689483519 0 0.31665812812766347 -0.47786342715527819 0 0.32226289327858332 -0.46617767125884529 0 0.30499790993840692 -0.47003143469692532 0 0.31665812812766347 -0.47786342715527819 0 0.32945427323643622 -0.47647715507767491 0 0.32226289327858332 -0.46617767125884529 0 0.32407546074096127 -0.48836048184940928 0 0.31665812812766347 -0.47786342715527819 0 0.32945427323643622 -0.47647715507767491 0 0.32945427323643622 -0.47647715507767491 0 0.34122905954925292 -0.47359628182725771 0 0.33406247262691707 -0.46336160368498081 0 0.32945427323643622 -0.47647715507767491 0 0.34122905954925292 -0.47359628182725771 0 0.34474441537210521 -0.48880299680398331 0 0.32407546074096127 -0.48836048184940928 0 0.34474441537210521 -0.48880299680398331 0 0.32407546074096127 -0.48836048184940928 0 0.32945427323643622 -0.47647715507767491 0 0.34474441537210521 -0.48880299680398331 0 0.32659291701220461 -0.5 0 0.32407546074096127 -0.48836048184940928 0 0.34474441537210521 -0.48880299680398331 0 0.32659291701220461 -0.5 0 0.34474441537210521 -0.48880299680398331 0 0.35373642301859648 -0.5 0 0.34474441537210521 -0.48880299680398331 0 0.35373642301859648 -0.5 0 0.36014390091617721 -0.48542101071846971 0 0.38087992902498841 -0.5 0 0.35373642301859648 -0.5 0 0.36014390091617721 -0.48542101071846971 0 0.38087992902498841 -0.5 0 0.36014390091617721 -0.48542101071846971 0 0.37012270411827741 -0.47697424491320378 0 0.36014390091617721 -0.48542101071846971 0 0.37012270411827741 -0.47697424491320378 0 0.36076831098704509 -0.46911622212564819 0 0.37608010926270352 -0.46398443287014057 0 0.37012270411827741 -0.47697424491320378 0 0.36076831098704509 -0.46911622212564819 0 0.36076831098704509 -0.46911622212564819 0 0.35061162297605081 -0.47763260046798323 0 0.34801767280863782 -0.46381045451448982 0 0.36014390091617721 -0.48542101071846971 0 0.36076831098704509 -0.46911622212564819 0 0.35061162297605081 -0.47763260046798323 0 0.34474441537210521 -0.48880299680398331 0 0.36014390091617721 -0.48542101071846971 0 0.35061162297605081 -0.47763260046798323 0 0.34122905954925292 -0.47359628182725771 0 0.34474441537210521 -0.48880299680398331 0 0.35061162297605081 -0.47763260046798323 0 0.34122905954925292 -0.47359628182725771 0 0.35061162297605081 -0.47763260046798323 0 0.34801767280863782 -0.46381045451448982 0 0.34801767280863782 -0.46381045451448982 0 0.35866931463529328 -0.45051172339615092 0 0.34085799664656341 -0.45267697315986088 0 0.36076831098704509 -0.46911622212564819 0 0.34801767280863782 -0.46381045451448982 0 0.35866931463529328 -0.45051172339615092 0 0.37608010926270352 -0.46398443287014057 0 0.36076831098704509 -0.46911622212564819 0 0.35866931463529328 -0.45051172339615092 0 0.37584029315998729 -0.44817082849518852 0 0.37608010926270352 -0.46398443287014057 0 0.35866931463529328 -0.45051172339615092 0 0.37584029315998729 -0.44817082849518852 0 0.35866931463529328 -0.45051172339615092 0 0.36947367062881142 -0.43579997568294487 0 0.35866931463529328 -0.45051172339615092 0 0.35597385396178949 -0.43579001230150649 0 0.36947367062881142 -0.43579997568294487 0 0.35866931463529328 -0.45051172339615092 0 0.34086507927064558 -0.43798611373063218 0 0.35597385396178949 -0.43579001230150649 0 0.35866931463529328 -0.45051172339615092 0 0.34086507927064558 -0.43798611373063218 0 0.34085799664656341 -0.45267697315986088 0 0.34086507927064558 -0.43798611373063218 0 0.34085799664656341 -0.45267697315986088 0 0.32255294024202952 -0.44743108627175648 0 0.34086507927064558 -0.43798611373063218 0 0.32255294024202952 -0.44743108627175648 0 0.32799413587133458 -0.42737648233552339 0 0.34085799664656341 -0.45267697315986088 0 0.33406247262691707 -0.46336160368498081 0 0.32255294024202952 -0.44743108627175648 0 0.34801767280863782 -0.46381045451448982 0 0.34085799664656341 -0.45267697315986088 0 0.33406247262691707 -0.46336160368498081 0 0.34122905954925292 -0.47359628182725771 0 0.34801767280863782 -0.46381045451448982 0 0.33406247262691707 -0.46336160368498081 0 0.32945427323643622 -0.47647715507767491 0 0.33406247262691707 -0.46336160368498081 0 0.32226289327858332 -0.46617767125884529 0 0.32226289327858332 -0.46617767125884529 0 0.31199293646893028 -0.46129520408938368 0 0.30499790993840692 -0.47003143469692532 0 0.32226289327858332 -0.46617767125884529 0 0.32255294024202952 -0.44743108627175648 0 0.31199293646893028 -0.46129520408938368 0 0.32255294024202952 -0.44743108627175648 0 0.30455724710799792 -0.45269165701502379 0 0.31199293646893028 -0.46129520408938368 0 0.33406247262691707 -0.46336160368498081 0 0.32226289327858332 -0.46617767125884529 0 0.32255294024202952 -0.44743108627175648 0 0.32255294024202952 -0.44743108627175648 0 0.31147459144476669 -0.43363350367230241 0 0.30455724710799792 -0.45269165701502379 0 0.32799413587133458 -0.42737648233552339 0 0.31810294695272362 -0.41372370982082801 0 0.31147459144476669 -0.43363350367230241 0 0.32255294024202952 -0.44743108627175648 0 0.32799413587133458 -0.42737648233552339 0 0.31147459144476669 -0.43363350367230241 0 0.32799413587133458 -0.42737648233552339 0 0.31810294695272362 -0.41372370982082801 0 0.33189620665971098 -0.40734969008340249 0 0.31810294695272362 -0.41372370982082801 0 0.33189620665971098 -0.40734969008340249 0 0.31246356055792429 -0.39898301748472947 0 0.33189620665971098 -0.40734969008340249 0 0.3446240262844309 -0.42346629273714259 0 0.35187263559432702 -0.40855407592884979 0 0.32799413587133458 -0.42737648233552339 0 0.33189620665971098 -0.40734969008340249 0 0.3446240262844309 -0.42346629273714259 0 0.34086507927064558 -0.43798611373063218 0 0.32799413587133458 -0.42737648233552339 0 0.3446240262844309 -0.42346629273714259 0 0.34086507927064558 -0.43798611373063218 0 0.3446240262844309 -0.42346629273714259 0 0.35597385396178949 -0.43579001230150649 0 0.3446240262844309 -0.42346629273714259 0 0.35597385396178949 -0.43579001230150649 0 0.36169692289872829 -0.42200471041666038 0 0.35597385396178949 -0.43579001230150649 0 0.36169692289872829 -0.42200471041666038 0 0.36947367062881142 -0.43579997568294487 0 0.37853558303286611 -0.42077184543525148 0 0.36169692289872829 -0.42200471041666038 0 0.36947367062881142 -0.43579997568294487 0 0.37853558303286611 -0.42077184543525148 0 0.36169692289872829 -0.42200471041666038 0 0.36875704649114321 -0.40503861058129831 0 0.36169692289872829 -0.42200471041666038 0 0.35187263559432702 -0.40855407592884979 0 0.36875704649114321 -0.40503861058129831 0 0.3446240262844309 -0.42346629273714259 0 0.36169692289872829 -0.42200471041666038 0 0.35187263559432702 -0.40855407592884979 0 0.35187263559432702 -0.40855407592884979 0 0.35814277788972632 -0.39334070868259879 0 0.34204654868268208 -0.38834962780135129 0 0.35187263559432702 -0.40855407592884979 0 0.35814277788972632 -0.39334070868259879 0 0.36875704649114321 -0.40503861058129831 0 0.35814277788972632 -0.39334070868259879 0 0.36875704649114321 -0.40503861058129831 0 0.37047550110380589 -0.38653042991799491 0 0.35814277788972632 -0.39334070868259879 0 0.37047550110380589 -0.38653042991799491 0 0.35803441897571597 -0.37498968230541713 0 0.37047550110380589 -0.38653042991799491 0 0.37486925875540911 -0.37078806384811652 0 0.35803441897571597 -0.37498968230541713 0 0.34204654868268208 -0.38834962780135129 0 0.34664534095493499 -0.36274443432661241 0 0.35803441897571597 -0.37498968230541713 0 0.35814277788972632 -0.39334070868259879 0 0.34204654868268208 -0.38834962780135129 0 0.35803441897571597 -0.37498968230541713 0 0.34204654868268208 -0.38834962780135129 0 0.32120531805762059 -0.3779958361230345 0 0.34664534095493499 -0.36274443432661241 0 0.34204654868268208 -0.38834962780135129 0 0.3269029084894845 -0.3931695428731295 0 0.32120531805762059 -0.3779958361230345 0 0.33189620665971098 -0.40734969008340249 0 0.34204654868268208 -0.38834962780135129 0 0.3269029084894845 -0.3931695428731295 0 0.33189620665971098 -0.40734969008340249 0 0.35187263559432702 -0.40855407592884979 0 0.34204654868268208 -0.38834962780135129 0 0.33189620665971098 -0.40734969008340249 0 0.3269029084894845 -0.3931695428731295 0 0.31246356055792429 -0.39898301748472947 0 0.3269029084894845 -0.3931695428731295 0 0.32120531805762059 -0.3779958361230345 0 0.31246356055792429 -0.39898301748472947 0 0.32120531805762059 -0.3779958361230345 0 0.29576529516030631 -0.39324723791945659 0 0.32120531805762059 -0.3779958361230345 0 0.31246356055792429 -0.39898301748472947 0 0.29576529516030631 -0.39324723791945659 0 0.32120531805762059 -0.3779958361230345 0 0.29576529516030631 -0.39324723791945659 0 0.30145380974506419 -0.37356643281730778 0 0.31246356055792429 -0.39898301748472947 0 0.29576529516030631 -0.39324723791945659 0 0.30324052648425082 -0.41903399675052061 0 0.29576529516030631 -0.39324723791945659 0 0.27032527226299052 -0.40849863971587658 0 0.28787561906108272 -0.41114292056298679 0 0.29576529516030631 -0.39324723791945659 0 0.27032527226299052 -0.40849863971587658 0 0.29576529516030631 -0.39324723791945659 0 0.27388757390217883 -0.38823436558041879 0 0.28132813973185272 -0.37214774763179392 0 0.29576529516030631 -0.39324723791945659 0 0.30145380974506419 -0.37356643281730778 0 0.28132813973185272 -0.37214774763179392 0 0.27388757390217883 -0.38823436558041879 0 0.26513032069354719 -0.37612581339596812 0 0.28132813973185272 -0.37214774763179392 0 0.26513032069354719 -0.37612581339596812 0 0.25688884166219722 -0.39115238923899892 0 0.2456369920424433 -0.37514815856696537 0 0.27388757390217883 -0.38823436558041879 0 0.26513032069354719 -0.37612581339596812 0 0.25688884166219722 -0.39115238923899892 0 0.25688884166219722 -0.39115238923899892 0 0.2434524110614027 -0.37380613876212199 0 0.25688884166219722 -0.39115238923899892 0 0.27032527226299052 -0.40849863971587658 0 0.29576529516030631 -0.39324723791945659 0 0.27388757390217883 -0.38823436558041879 0 0.27032527226299052 -0.40849863971587658 0 0.27388757390217883 -0.38823436558041879 0 0.25688884166219722 -0.39115238923899892 0 0.27032527226299052 -0.40849863971587658 0 0.27032527226299052 -0.40849863971587658 0 0.28217138233678318 -0.42379180786609411 0 0.28787561906108272 -0.41114292056298679 0 0.27032527226299052 -0.40849863971587658 0 0.26589995276806599 -0.42934477587484587 0 0.28217138233678318 -0.42379180786609411 0 0.27032527226299052 -0.40849863971587658 0 0.28217138233678318 -0.42379180786609411 0 0.25688884166219722 -0.39115238923899892 0 0.27032527226299052 -0.40849863971587658 0 0.24961192551231959 -0.42091637908341928 0 0.27032527226299052 -0.40849863971587658 0 0.26589995276806599 -0.42934477587484587 0 0.24961192551231959 -0.42091637908341928 0 0.27032527226299052 -0.40849863971587658 0 0.24961192551231959 -0.42091637908341928 0 0.26589995276806599 -0.42934477587484587 0 0.2482141019255075 -0.43936867982436162 0 0.24961192551231959 -0.42091637908341928 0 0.26589995276806599 -0.42934477587484587 0 0.28217138233678318 -0.42379180786609411 0 0.27912659009707669 -0.43854479996605722 0 0.28217138233678318 -0.42379180786609411 0 0.30324052648425082 -0.41903399675052061 0 0.29401749241057612 -0.43908497601631119 0 0.28217138233678318 -0.42379180786609411 0 0.29401749241057612 -0.43908497601631119 0 0.27912659009707669 -0.43854479996605722 0 0.28217138233678318 -0.42379180786609411 0 0.29401749241057612 -0.43908497601631119 0 0.28217138233678318 -0.42379180786609411 0 0.28787561906108272 -0.41114292056298679 0 0.30324052648425082 -0.41903399675052061 0 0.29576529516030631 -0.39324723791945659 0 0.28787561906108272 -0.41114292056298679 0 0.30324052648425082 -0.41903399675052061 0 0.31810294695272362 -0.41372370982082801 0 0.31246356055792429 -0.39898301748472947 0 0.30324052648425082 -0.41903399675052061 0 0.31246356055792429 -0.39898301748472947 0 0.30324052648425082 -0.41903399675052061 0 0.30324052648425082 -0.41903399675052061 0 0.31147459144476669 -0.43363350367230241 0 0.29401749241057612 -0.43908497601631119 0 0.30324052648425082 -0.41903399675052061 0 0.29401749241057612 -0.43908497601631119 0 0.31810294695272362 -0.41372370982082801 0 0.30324052648425082 -0.41903399675052061 0 0.31147459144476669 -0.43363350367230241 0 0.31147459144476669 -0.43363350367230241 0 0.30455724710799792 -0.45269165701502379 0 0.29401749241057612 -0.43908497601631119 0 0.30455724710799792 -0.45269165701502379 0 0.29401749241057612 -0.43908497601631119 0 0.30455724710799792 -0.45269165701502379 0 0.31199293646893028 -0.46129520408938368 0 0.30499790993840692 -0.47003143469692532 0 0.30455724710799792 -0.45269165701502379 0 0.28429540277986592 -0.46022090764666268 0 0.30499790993840692 -0.47003143469692532 0 0.30455724710799792 -0.45269165701502379 0 0.28429540277986592 -0.46022090764666268 0 0.29401749241057612 -0.43908497601631119 0 0.28429540277986592 -0.46022090764666268 0 0.29401749241057612 -0.43908497601631119 0 0.28429540277986592 -0.46022090764666268 0 0.29401749241057612 -0.43908497601631119 0 0.27912659009707669 -0.43854479996605722 0 0.26589995276806599 -0.42934477587484587 0 0.26570072644552528 -0.44530168134678749 0 0.27912659009707669 -0.43854479996605722 0 0.28429540277986592 -0.46022090764666268 0 0.26570072644552528 -0.44530168134678749 0 0.27912659009707669 -0.43854479996605722 0 0.28429540277986592 -0.46022090764666268 0 0.26570072644552528 -0.44530168134678749 0 0.25295261690053339 -0.46515340908355768 0 0.26589995276806599 -0.42934477587484587 0 0.26570072644552528 -0.44530168134678749 0 0.2482141019255075 -0.43936867982436162 0 0.26570072644552528 -0.44530168134678749 0 0.25295261690053339 -0.46515340908355768 0 0.2482141019255075 -0.43936867982436162 0 0.28429540277986592 -0.46022090764666268 0 0.27457331314915728 -0.48135683927701489 0 0.28429540277986592 -0.46022090764666268 0 0.27457331314915728 -0.48135683927701489 0 0.28372109758356051 -0.47678091983077209 0 0.28429540277986592 -0.46022090764666268 0 0.25295261690053339 -0.46515340908355768 0 0.27457331314915728 -0.48135683927701489 0 0.27457331314915728 -0.48135683927701489 0 0.28273755147867358 -0.48747545194026132 0 0.28372109758356051 -0.47678091983077209 0 0.27457331314915728 -0.48135683927701489 0 0.27186594190493962 -0.48724269465269832 0 0.25847393425040038 -0.48695597654021139 0 0.24319207251187089 -0.46192529683937977 0 0.25295261690053339 -0.46515340908355768 0 0.25847393425040038 -0.48695597654021139 0 0.24319207251187089 -0.46192529683937977 0 0.25295261690053339 -0.46515340908355768 0 0.27457331314915728 -0.48135683927701489 0 0.25295261690053339 -0.46515340908355768 0 0.27457331314915728 -0.48135683927701489 0 0.25847393425040038 -0.48695597654021139 0 0.25847393425040038 -0.48695597654021139 0 0.26618681881520978 -0.49958917178921869 0 0.23607722347195489 -0.5 0 0.25847393425040038 -0.48695597654021139 0 0.26618681881520978 -0.49958917178921869 0 0.27186594190493962 -0.48724269465269832 0 0.25847393425040038 -0.48695597654021139 0 0.27186594190493962 -0.48724269465269832 0 0.25847393425040038 -0.48695597654021139 0 0.26618681881520978 -0.49958917178921869 0 0.26618681881520978 -0.49958917178921869 0 0.27343700644158159 -0.49544472962520392 0 0.27186594190493962 -0.48724269465269832 0 0.27457331314915728 -0.48135683927701489 0 0.25847393425040038 -0.48695597654021139 0 0.27186594190493962 -0.48724269465269832 0 0.26618681881520978 -0.49958917178921869 0 0.27343700644158159 -0.49544472962520392 0 0.28294352540656031 -0.5 0 0.26618681881520978 -0.49958917178921869 0 0.27186594190493962 -0.48724269465269832 0 0.27457331314915728 -0.48135683927701489 0 0.27186594190493962 -0.48724269465269832 0 0.28273755147867358 -0.48747545194026132 0 0.27186594190493962 -0.48724269465269832 0 0.28273755147867358 -0.48747545194026132 0 0.27343700644158159 -0.49544472962520392 0 0.27186594190493962 -0.48724269465269832 0 0.28273755147867358 -0.48747545194026132 0 0.27457331314915728 -0.48135683927701489 0 0.28273755147867358 -0.48747545194026132 0 0.27343700644158159 -0.49544472962520392 0 0.28294352540656031 -0.5 0 0.28273755147867358 -0.48747545194026132 0 0.28273755147867358 -0.48747545194026132 0 0.29944941100581279 -0.49999999999999878 0 0.30340650610981751 -0.48791796689483519 0 0.28273755147867358 -0.48747545194026132 0 0.29944941100581279 -0.49999999999999878 0 0.28294352540656031 -0.5 0 0.28273755147867358 -0.48747545194026132 0 0.29944941100581279 -0.49999999999999878 0 0.28273755147867358 -0.48747545194026132 0 0.29327812292654459 -0.47807048045915018 0 0.30340650610981751 -0.48791796689483519 0 0.28273755147867358 -0.48747545194026132 0 0.30340650610981751 -0.48791796689483519 0 0.28273755147867358 -0.48747545194026132 0 0.28372109758356051 -0.47678091983077209 0 0.29327812292654459 -0.47807048045915018 0 0.28429540277986592 -0.46022090764666268 0 0.29327812292654459 -0.47807048045915018 0 0.30499790993840692 -0.47003143469692532 0 0.28429540277986592 -0.46022090764666268 0 0.28372109758356051 -0.47678091983077209 0 0.29327812292654459 -0.47807048045915018 0 0.31665812812766347 -0.47786342715527819 0 0.30499790993840692 -0.47003143469692532 0 0.30340650610981751 -0.48791796689483519 0 0.29327812292654459 -0.47807048045915018 0 0.30499790993840692 -0.47003143469692532 0 0.30340650610981751 -0.48791796689483519 0 0.32659291701220461 -0.5 0 0.29944941100581279 -0.49999999999999878 0 0.30340650610981751 -0.48791796689483519 0 0.33485589426065532 -0.29447993285213558 0 0.33906416880830698 -0.27726565127069791 0 0.35245808541425772 -0.29653028199934922 0 0.33485589426065532 -0.29447993285213558 0 0.3173390669918873 -0.27567586880172068 0 0.33906416880830698 -0.27726565127069791 0 0.33485589426065532 -0.29447993285213558 0 0.35245808541425772 -0.29653028199934922 0 0.33532751661829852 -0.31480347186437219 0 0.33485589426065532 -0.29447993285213558 0 0.31844738666030059 -0.30117335823549041 0 0.33532751661829852 -0.31480347186437219 0 0.33485589426065532 -0.29447993285213558 0 0.31844738666030059 -0.30117335823549041 0 0.3173390669918873 -0.27567586880172068 0 0.31844738666030059 -0.30117335823549041 0 0.3173390669918873 -0.27567586880172068 0 0.3173390669918873 -0.27567586880172068 0 0.31623074732347412 -0.25017837936795118 0 0.32923229678186089 -0.26238606349231303 0 0.3173390669918873 -0.27567586880172068 0 0.31623074732347412 -0.25017837936795118 0 0.33985660755824881 -0.23836318944140419 0 0.31623074732347412 -0.25017837936795118 0 0.32923229678186089 -0.26238606349231303 0 0.33985660755824881 -0.23836318944140419 0 0.32923229678186089 -0.26238606349231303 0 0.34653386912616752 -0.26054114548658802 0 0.32923229678186089 -0.26238606349231303 0 0.33906416880830698 -0.27726565127069791 0 0.34653386912616752 -0.26054114548658802 0 0.3173390669918873 -0.27567586880172068 0 0.32923229678186089 -0.26238606349231303 0 0.33906416880830698 -0.27726565127069791 0 0.33906416880830698 -0.27726565127069791 0 0.34653386912616752 -0.26054114548658802 0 0.35992548502098431 -0.27264533427989768 0 0.33985660755824881 -0.23836318944140419 0 0.34653386912616752 -0.26054114548658802 0 0.36459078746143631 -0.25204548894862733 0 0.34653386912616752 -0.26054114548658802 0 0.36459078746143631 -0.25204548894862733 0 0.35992548502098431 -0.27264533427989768 0 0.3893249673646238 -0.26572778845585038 0 0.36459078746143631 -0.25204548894862733 0 0.35992548502098431 -0.27264533427989768 0 0.3752316044922005 -0.28632358698828309 0 0.3893249673646238 -0.26572778845585038 0 0.35992548502098431 -0.27264533427989768 0 0.37946672821991329 -0.30370973407470753 0 0.3752316044922005 -0.28632358698828309 0 0.35245808541425772 -0.29653028199934922 0 0.3752316044922005 -0.28632358698828309 0 0.35992548502098431 -0.27264533427989768 0 0.35245808541425772 -0.29653028199934922 0 0.33906416880830698 -0.27726565127069791 0 0.35992548502098431 -0.27264533427989768 0 0.35245808541425772 -0.29653028199934922 0 0.33906416880830698 -0.27726565127069791 0 0.35245808541425772 -0.29653028199934922 0 0.35245808541425772 -0.29653028199934922 0 0.36585200202020829 -0.31579491272800048 0 0.33532751661829852 -0.31480347186437219 0 0.35245808541425772 -0.29653028199934922 0 0.36585200202020829 -0.31579491272800048 0 0.37946672821991329 -0.30370973407470753 0 0.35245808541425772 -0.29653028199934922 0 0.36585200202020829 -0.31579491272800048 0 0.37924591862615892 -0.3350595434566519 0 0.36585200202020829 -0.31579491272800048 0 0.37924591862615892 -0.3350595434566519 0 0.36585200202020829 -0.31579491272800048 0 0.36552804875718042 -0.33390036588780198 0 0.36552804875718042 -0.33390036588780198 0 0.34819043505513397 -0.33667216453257109 0 0.37208536385224938 -0.34749303253019032 0 0.36585200202020829 -0.31579491272800048 0 0.36552804875718042 -0.33390036588780198 0 0.34819043505513397 -0.33667216453257109 0 0.37924591862615892 -0.3350595434566519 0 0.36552804875718042 -0.33390036588780198 0 0.37208536385224938 -0.34749303253019032 0 0.36585200202020829 -0.31579491272800048 0 0.34819043505513397 -0.33667216453257109 0 0.33532751661829852 -0.31480347186437219 0 0.37486925875540911 -0.37078806384811652 0 0.36654710205373342 -0.36329239131850422 0 0.35803441897571597 -0.37498968230541713 0 0.38110112773035759 -0.36044674358218443 0 0.37486925875540911 -0.37078806384811652 0 0.36654710205373342 -0.36329239131850422 0 0.38110112773035759 -0.36044674358218443 0 0.36654710205373342 -0.36329239131850422 0 0.37208536385224938 -0.34749303253019032 0 0.36654710205373342 -0.36329239131850422 0 0.37208536385224938 -0.34749303253019032 0 0.34664534095493499 -0.36274443432661241 0 0.34819043505513397 -0.33667216453257109 0 0.37208536385224938 -0.34749303253019032 0 0.34664534095493499 -0.36274443432661241 0 0.37208536385224938 -0.34749303253019032 0 0.34664534095493499 -0.36274443432661241 0 0.36654710205373342 -0.36329239131850422 0 0.34664534095493499 -0.36274443432661241 0 0.35803441897571597 -0.37498968230541713 0 0.32120531805762059 -0.3779958361230345 0 0.34664534095493499 -0.36274443432661241 0 0.33002561310988821 -0.35436347986610328 0 0.32120531805762059 -0.3779958361230345 0 0.34664534095493499 -0.36274443432661241 0 0.34819043505513397 -0.33667216453257109 0 0.34664534095493499 -0.36274443432661241 0 0.33002561310988821 -0.35436347986610328 0 0.33002561310988821 -0.35436347986610328 0 0.32203770010123672 -0.33694792057594791 0 0.31204927138051469 -0.35745704377235088 0 0.32120531805762059 -0.3779958361230345 0 0.33002561310988821 -0.35436347986610328 0 0.31204927138051469 -0.35745704377235088 0 0.34819043505513397 -0.33667216453257109 0 0.33532751661829852 -0.31480347186437219 0 0.32203770010123672 -0.33694792057594791 0 0.34819043505513397 -0.33667216453257109 0 0.33002561310988821 -0.35436347986610328 0 0.32203770010123672 -0.33694792057594791 0 0.31844738666030059 -0.30117335823549041 0 0.33532751661829852 -0.31480347186437219 0 0.3066145908761474 -0.32176567466755962 0 0.33532751661829852 -0.31480347186437219 0 0.32203770010123672 -0.33694792057594791 0 0.3066145908761474 -0.32176567466755962 0 0.3066145908761474 -0.32176567466755962 0 0.3006417338829897 -0.34240206393086903 0 0.2852584677992932 -0.32772213381198978 0 0.32203770010123672 -0.33694792057594791 0 0.3066145908761474 -0.32176567466755962 0 0.3006417338829897 -0.34240206393086903 0 0.2852584677992932 -0.32772213381198978 0 0.28580181862492721 -0.34618672925915872 0 0.27444330951736667 -0.33840205451088912 0 0.3006417338829897 -0.34240206393086903 0 0.2852584677992932 -0.32772213381198978 0 0.28580181862492721 -0.34618672925915872 0 0.3066145908761474 -0.32176567466755962 0 0.2852584677992932 -0.32772213381198978 0 0.29781157572398131 -0.30311122392430828 0 0.30145380974506419 -0.37356643281730778 0 0.31204927138051469 -0.35745704377235088 0 0.29370454072815222 -0.36096655596003641 0 0.32120531805762059 -0.3779958361230345 0 0.30145380974506419 -0.37356643281730778 0 0.31204927138051469 -0.35745704377235088 0 0.32203770010123672 -0.33694792057594791 0 0.3006417338829897 -0.34240206393086903 0 0.31204927138051469 -0.35745704377235088 0 0.3006417338829897 -0.34240206393086903 0 0.31204927138051469 -0.35745704377235088 0 0.29370454072815222 -0.36096655596003641 0 0.3006417338829897 -0.34240206393086903 0 0.28580181862492721 -0.34618672925915872 0 0.29370454072815222 -0.36096655596003641 0 0.28580181862492721 -0.34618672925915872 0 0.29370454072815222 -0.36096655596003641 0 0.27586605750180049 -0.35522830192477223 0 0.28132813973185272 -0.37214774763179392 0 0.29370454072815222 -0.36096655596003641 0 0.27586605750180049 -0.35522830192477223 0 0.30145380974506419 -0.37356643281730778 0 0.28132813973185272 -0.37214774763179392 0 0.29370454072815222 -0.36096655596003641 0 0.28132813973185272 -0.37214774763179392 0 0.26818186782407821 -0.36465298323303108 0 0.27586605750180049 -0.35522830192477223 0 0.26513032069354719 -0.37612581339596812 0 0.28132813973185272 -0.37214774763179392 0 0.26818186782407821 -0.36465298323303108 0 0.28580181862492721 -0.34618672925915872 0 0.27586605750180049 -0.35522830192477223 0 0.27444330951736667 -0.33840205451088912 0 0.27586605750180049 -0.35522830192477223 0 0.26669563712790562 -0.34570176497737981 0 0.27444330951736667 -0.33840205451088912 0 0.26818186782407821 -0.36465298323303108 0 0.27586605750180049 -0.35522830192477223 0 0.26330018850777481 -0.35443407234620439 0 0.27586605750180049 -0.35522830192477223 0 0.26669563712790562 -0.34570176497737981 0 0.26330018850777481 -0.35443407234620439 0 0.26669563712790562 -0.34570176497737981 0 0.25756542021820711 -0.34452522190019641 0 0.26330018850777481 -0.35443407234620439 0 0.25756542021820711 -0.34452522190019641 0 0.25439057687851518 -0.35485244896535167 0 0.26330018850777481 -0.35443407234620439 0 0.25756542021820711 -0.34452522190019641 0 0.25439057687851518 -0.35485244896535167 0 0.25054888241512457 -0.34188230084920102 0 0.25439057687851518 -0.35485244896535167 0 0.26330018850777481 -0.35443407234620439 0 0.25847116916297308 -0.36354298121198497 0 0.26513032069354719 -0.37612581339596812 0 0.25847116916297308 -0.36354298121198497 0 0.2420672240884964 -0.36987766851917159 0 0.26513032069354719 -0.37612581339596812 0 0.2420672240884964 -0.36987766851917159 0 0.2456369920424433 -0.37514815856696537 0 0.25439057687851518 -0.35485244896535167 0 0.25847116916297308 -0.36354298121198497 0 0.2420672240884964 -0.36987766851917159 0 0.26513032069354719 -0.37612581339596812 0 0.2420672240884964 -0.36987766851917159 0 0.26818186782407821 -0.36465298323303108 0 0.26330018850777481 -0.35443407234620439 0 0.25847116916297308 -0.36354298121198497 0 0.26513032069354719 -0.37612581339596812 0 0.26818186782407821 -0.36465298323303108 0 0.25847116916297308 -0.36354298121198497 0 0.2852584677992932 -0.32772213381198978 0 0.27711980232623812 -0.30191017018535132 0 0.2852584677992932 -0.32772213381198978 0 0.26938747833201632 -0.31980584027593062 0 0.27711980232623812 -0.30191017018535132 0 0.2852584677992932 -0.32772213381198978 0 0.26938747833201632 -0.31980584027593062 0 0.27444330951736667 -0.33840205451088912 0 0.26938747833201632 -0.31980584027593062 0 0.27444330951736667 -0.33840205451088912 0 0.26230320989437861 -0.33591917420483669 0 0.26669563712790562 -0.34570176497737981 0 0.27444330951736667 -0.33840205451088912 0 0.26230320989437861 -0.33591917420483669 0 0.26669563712790562 -0.34570176497737981 0 0.25756542021820711 -0.34452522190019641 0 0.26230320989437861 -0.33591917420483669 0 0.25756542021820711 -0.34452522190019641 0 0.26230320989437861 -0.33591917420483669 0 0.25054888241512457 -0.34188230084920102 0 0.25756542021820711 -0.34452522190019641 0 0.25054888241512457 -0.34188230084920102 0 0.25054888241512457 -0.34188230084920102 0 0.25496733638149882 -0.32729833170569528 0 0.26230320989437861 -0.33591917420483669 0 0.25054888241512457 -0.34188230084920102 0 0.25496733638149882 -0.32729833170569528 0 0.26938747833201632 -0.31980584027593062 0 0.26230320989437861 -0.33591917420483669 0 0.25496733638149882 -0.32729833170569528 0 0.26938747833201632 -0.31980584027593062 0 0.25496733638149882 -0.32729833170569528 0 0.25689448390847958 -0.30111326680321199 0 0.25689448390847958 -0.30111326680321199 0 0.26898113685318298 -0.27609820655871281 0 0.2493360100124197 -0.27640483464445759 0 0.25689448390847958 -0.30111326680321199 0 0.27711980232623812 -0.30191017018535132 0 0.26898113685318298 -0.27609820655871281 0 0.27711980232623812 -0.30191017018535132 0 0.26898113685318298 -0.27609820655871281 0 0.27711980232623812 -0.30191017018535132 0 0.28670899019472329 -0.28716807440050118 0 0.26898113685318298 -0.27609820655871281 0 0.26938747833201632 -0.31980584027593062 0 0.25689448390847958 -0.30111326680321199 0 0.27711980232623812 -0.30191017018535132 0 0.27711980232623812 -0.30191017018535132 0 0.28670899019472329 -0.28716807440050118 0 0.29781157572398131 -0.30311122392430828 0 0.2852584677992932 -0.32772213381198978 0 0.27711980232623812 -0.30191017018535132 0 0.29781157572398131 -0.30311122392430828 0 0.28670899019472329 -0.28716807440050118 0 0.30123385032311201 -0.28266910923439492 0 0.29781157572398131 -0.30311122392430828 0 0.31844738666030059 -0.30117335823549041 0 0.3173390669918873 -0.27567586880172068 0 0.30123385032311201 -0.28266910923439492 0 0.31844738666030059 -0.30117335823549041 0 0.30123385032311201 -0.28266910923439492 0 0.29781157572398131 -0.30311122392430828 0 0.31844738666030059 -0.30117335823549041 0 0.3066145908761474 -0.32176567466755962 0 0.29781157572398131 -0.30311122392430828 0 0.30444387795038652 -0.240664135006082 0 0.30283886413674932 -0.26166662212023839 0 0.30444387795038652 -0.240664135006082 0 0.30283886413674932 -0.26166662212023839 0 0.28356255974687389 -0.25229750689300151 0 0.30444387795038652 -0.240664135006082 0 0.31623074732347412 -0.25017837936795118 0 0.30283886413674932 -0.26166662212023839 0 0.3173390669918873 -0.27567586880172068 0 0.31623074732347412 -0.25017837936795118 0 0.30283886413674932 -0.26166662212023839 0 0.30123385032311201 -0.28266910923439492 0 0.30283886413674932 -0.26166662212023839 0 0.28839858574710242 -0.2720516620997388 0 0.30123385032311201 -0.28266910923439492 0 0.30283886413674932 -0.26166662212023839 0 0.3173390669918873 -0.27567586880172068 0 0.30123385032311201 -0.28266910923439492 0 0.30283886413674932 -0.26166662212023839 0 0.28670899019472329 -0.28716807440050118 0 0.28839858574710242 -0.2720516620997388 0 0.26898113685318298 -0.27609820655871281 0 0.28670899019472329 -0.28716807440050118 0 0.30123385032311201 -0.28266910923439492 0 0.28839858574710242 -0.2720516620997388 0 0.30283886413674932 -0.26166662212023839 0 0.28839858574710242 -0.2720516620997388 0 0.28356255974687389 -0.25229750689300151 0 0.28356255974687389 -0.25229750689300151 0 0.26898113685318298 -0.27609820655871281 0 0.26084247138012789 -0.25028624293207419 0 0.28839858574710242 -0.2720516620997388 0 0.28356255974687389 -0.25229750689300151 0 0.26898113685318298 -0.27609820655871281 0 0.26898113685318298 -0.27609820655871281 0 0.26084247138012789 -0.25028624293207419 0 0.2493360100124197 -0.27640483464445759 0 0.26898113685318298 -0.27609820655871281 0 0.26084247138012789 -0.25028624293207419 0 0.26084247138012789 -0.25028624293207419 0 0.23792959034842151 -0.26203431880678912 0 0.2493360100124197 -0.27640483464445759 0 0.26084247138012789 -0.25028624293207419 0 0.23792959034842151 -0.26203431880678912 0 0.23796864831380779 -0.24658202382257269 0 0.23792959034842151 -0.26203431880678912 0 0.2493360100124197 -0.27640483464445759 0 0.2218116675841165 -0.28285699482747328 0 0.23792959034842151 -0.26203431880678912 0 0.2189440269244467 -0.25448423513046758 0 0.2218116675841165 -0.28285699482747328 0 0.23792959034842151 -0.26203431880678912 0 0.2189440269244467 -0.25448423513046758 0 0.23796864831380779 -0.24658202382257269 0 0.2189440269244467 -0.25448423513046758 0 0.203774921932519 -0.27210419826032201 0 0.20033081304862471 -0.25000178680590562 0 0.2189440269244467 -0.25448423513046758 0 0.203774921932519 -0.27210419826032201 0 0.2218116675841165 -0.28285699482747328 0 0.203774921932519 -0.27210419826032201 0 0.2218116675841165 -0.28285699482747328 0 0.203774921932519 -0.27210419826032201 0 0.1929933577317694 -0.28721431278026688 0 0.1848574408653311 -0.27539629290400369 0 0.203774921932519 -0.27210419826032201 0 0.18522543139593611 -0.26104572341030419 0 0.203774921932519 -0.27210419826032201 0 0.18522543139593611 -0.26104572341030419 0 0.1848574408653311 -0.27539629290400369 0 0.20033081304862471 -0.25000178680590562 0 0.18522543139593611 -0.26104572341030419 0 0.18062225926454509 -0.24057702378108159 0 0.203774921932519 -0.27210419826032201 0 0.20033081304862471 -0.25000178680590562 0 0.18522543139593611 -0.26104572341030419 0 0.203774921932519 -0.27210419826032201 0 0.20033081304862471 -0.25000178680590562 0 0.1991058330450296 -0.31147733134741018 0 0.19055807248381959 -0.30125380618059239 0 0.20809222102270081 -0.29981026798115412 0 0.1991058330450296 -0.31147733134741018 0 0.19055807248381959 -0.30125380618059239 0 0.18536351856070901 -0.31732891352590897 0 0.19055807248381959 -0.30125380618059239 0 0.1929933577317694 -0.28721431278026688 0 0.20809222102270081 -0.29981026798115412 0 0.203774921932519 -0.27210419826032201 0 0.1929933577317694 -0.28721431278026688 0 0.20809222102270081 -0.29981026798115412 0 0.203774921932519 -0.27210419826032201 0 0.20809222102270081 -0.29981026798115412 0 0.20809222102270081 -0.29981026798115412 0 0.22536870655036609 -0.29834113816562058 0 0.2218116675841165 -0.28285699482747328 0 0.203774921932519 -0.27210419826032201 0 0.20809222102270081 -0.29981026798115412 0 0.2218116675841165 -0.28285699482747328 0 0.20809222102270081 -0.29981026798115412 0 0.2207023675406791 -0.3120346980330666 0 0.22536870655036609 -0.29834113816562058 0 0.2207023675406791 -0.3120346980330666 0 0.22536870655036609 -0.29834113816562058 0 0.2381110553860232 -0.31395870600434378 0 0.2218116675841165 -0.28285699482747328 0 0.23984841323571171 -0.29360979139462839 0 0.22536870655036609 -0.29834113816562058 0 0.2218116675841165 -0.28285699482747328 0 0.23984841323571171 -0.29360979139462839 0 0.25689448390847958 -0.30111326680321199 0 0.2493360100124197 -0.27640483464445759 0 0.23984841323571171 -0.29360979139462839 0 0.2493360100124197 -0.27640483464445759 0 0.2218116675841165 -0.28285699482747328 0 0.23984841323571171 -0.29360979139462839 0 0.25689448390847958 -0.30111326680321199 0 0.23984841323571171 -0.29360979139462839 0 0.2381110553860232 -0.31395870600434378 0 0.22536870655036609 -0.29834113816562058 0 0.23984841323571171 -0.29360979139462839 0 0.2381110553860232 -0.31395870600434378 0 0.25496733638149882 -0.32729833170569528 0 0.2381110553860232 -0.31395870600434378 0 0.2314792012640047 -0.33469931927559432 0 0.25496733638149882 -0.32729833170569528 0 0.25689448390847958 -0.30111326680321199 0 0.2381110553860232 -0.31395870600434378 0 0.25054888241512457 -0.34188230084920102 0 0.25496733638149882 -0.32729833170569528 0 0.2314792012640047 -0.33469931927559432 0 0.25054888241512457 -0.34188230084920102 0 0.2314792012640047 -0.33469931927559432 0 0.2294186649269887 -0.34735540423164019 0 0.25054888241512457 -0.34188230084920102 0 0.2314792012640047 -0.33469931927559432 0 0.2314792012640047 -0.33469931927559432 0 0.21240952011288561 -0.32751633770198579 0 0.2314792012640047 -0.33469931927559432 0 0.2294186649269887 -0.34735540423164019 0 0.21475477660022571 -0.34256691409106349 0 0.2314792012640047 -0.33469931927559432 0 0.21240952011288561 -0.32751633770198579 0 0.21475477660022571 -0.34256691409106349 0 0.2207023675406791 -0.3120346980330666 0 0.2381110553860232 -0.31395870600434378 0 0.2314792012640047 -0.33469931927559432 0 0.2207023675406791 -0.3120346980330666 0 0.2314792012640047 -0.33469931927559432 0 0.21240952011288561 -0.32751633770198579 0 0.24160111759964739 -0.37141614390054711 0 0.23310526577269919 -0.36744973722721452 0 0.22977196715031481 -0.37826502604680862 0 0.24160111759964739 -0.37141614390054711 0 0.23310526577269919 -0.36744973722721452 0 0.23996912300262049 -0.3693092609121974 0 0.24160111759964739 -0.37141614390054711 0 0.23310526577269919 -0.36744973722721452 0 0.23996912300262049 -0.3693092609121974 0 0.23748376856791961 -0.3661007018961136 0 0.23310526577269919 -0.36744973722721452 0 0.23996912300262049 -0.3693092609121974 0 0.23310526577269919 -0.36744973722721452 0 0.23996912300262049 -0.3693092609121974 0 0.2420672240884964 -0.36987766851917159 0 0.23748376856791961 -0.3661007018961136 0 0.23996912300262049 -0.3693092609121974 0 0.23748376856791961 -0.3661007018961136 0 0.23996912300262049 -0.3693092609121974 0 0.24160111759964739 -0.37141614390054711 0 0.23996912300262049 -0.3693092609121974 0 0.2420672240884964 -0.36987766851917159 0 0.24160111759964739 -0.37141614390054711 0 0.23996912300262049 -0.3693092609121974 0 0.2420672240884964 -0.36987766851917159 0 0.2420672240884964 -0.36987766851917159 0 0.24160111759964739 -0.37141614390054711 0 0.2420672240884964 -0.36987766851917159 0 0.2434524110614027 -0.37380613876212199 0 0.2456369920424433 -0.37514815856696537 0 0.2420672240884964 -0.36987766851917159 0 0.24160111759964739 -0.37141614390054711 0 0.2434524110614027 -0.37380613876212199 0 0.24160111759964739 -0.37141614390054711 0 0.2434524110614027 -0.37380613876212199 0 0.2434524110614027 -0.37380613876212199 0 0.2456369920424433 -0.37514815856696537 0 0.23748376856791961 -0.3661007018961136 0 0.23353132295405921 -0.35608112693686222 0 0.23310526577269919 -0.36744973722721452 0 0.25439057687851518 -0.35485244896535167 0 0.25054888241512457 -0.34188230084920102 0 0.2420672240884964 -0.36987766851917159 0 0.25054888241512457 -0.34188230084920102 0 0.2420672240884964 -0.36987766851917159 0 0.23748376856791961 -0.3661007018961136 0 0.25054888241512457 -0.34188230084920102 0 0.23748376856791961 -0.3661007018961136 0 0.23353132295405921 -0.35608112693686222 0 0.25054888241512457 -0.34188230084920102 0 0.2294186649269887 -0.34735540423164019 0 0.23353132295405921 -0.35608112693686222 0 0.25054888241512457 -0.34188230084920102 0 0.2420672240884964 -0.36987766851917159 0 0.2294186649269887 -0.34735540423164019 0 0.23353132295405921 -0.35608112693686222 0 0.21710003308756359 -0.35761749048014152 0 0.2294186649269887 -0.34735540423164019 0 0.21710003308756359 -0.35761749048014152 0 0.21475477660022571 -0.34256691409106349 0 0.23353132295405921 -0.35608112693686222 0 0.23310526577269919 -0.36744973722721452 0 0.21710003308756359 -0.35761749048014152 0 0.23310526577269919 -0.36744973722721452 0 0.2179942249038892 -0.36335592561967689 0 0.21710003308756359 -0.35761749048014152 0 0.23310526577269919 -0.36744973722721452 0 0.21710003308756359 -0.35761749048014152 0 0.23310526577269919 -0.36744973722721452 0 0.2179942249038892 -0.36335592561967689 0 0.23310526577269919 -0.36744973722721452 0 0.2179942249038892 -0.36335592561967689 0 0.22977196715031481 -0.37826502604680862 0 0.2179942249038892 -0.36335592561967689 0 0.20361995674160871 -0.36648976510233272 0 0.1961859702795522 -0.35744773658780959 0 0.2179942249038892 -0.36335592561967689 0 0.1961859702795522 -0.35744773658780959 0 0.2179942249038892 -0.36335592561967689 0 0.21710003308756359 -0.35761749048014152 0 0.1961859702795522 -0.35744773658780959 0 0.2179942249038892 -0.36335592561967689 0 0.20361995674160871 -0.36648976510233272 0 0.20511101800436021 -0.37712990157521042 0 0.2179942249038892 -0.36335592561967689 0 0.21710003308756359 -0.35761749048014152 0 0.21710003308756359 -0.35761749048014152 0 0.19978850814603841 -0.34698276943973422 0 0.1961859702795522 -0.35744773658780959 0 0.21710003308756359 -0.35761749048014152 0 0.19978850814603841 -0.34698276943973422 0 0.21475477660022571 -0.34256691409106349 0 0.21710003308756359 -0.35761749048014152 0 0.19978850814603841 -0.34698276943973422 0 0.21710003308756359 -0.35761749048014152 0 0.21475477660022571 -0.34256691409106349 0 0.19978850814603841 -0.34698276943973422 0 0.18820729432132971 -0.3480795254957032 0 0.18247698320451269 -0.33634804839932758 0 0.19978850814603841 -0.34698276943973422 0 0.18820729432132971 -0.3480795254957032 0 0.1961859702795522 -0.35744773658780959 0 0.20361995674160871 -0.36648976510233272 0 0.1961859702795522 -0.35744773658780959 0 0.19476431548182729 -0.36905328316063829 0 0.1961859702795522 -0.35744773658780959 0 0.19476431548182729 -0.36905328316063829 0 0.18554368223715459 -0.36223528657422288 0 0.19476431548182729 -0.36905328316063829 0 0.1844209346069576 -0.37103408006651678 0 0.18554368223715459 -0.36223528657422288 0 0.19476431548182729 -0.36905328316063829 0 0.1844209346069576 -0.37103408006651678 0 0.19374597502362459 -0.37935506443326922 0 0.20361995674160871 -0.36648976510233272 0 0.19476431548182729 -0.36905328316063829 0 0.20511101800436021 -0.37712990157521042 0 0.1991058330450296 -0.31147733134741018 0 0.20809222102270081 -0.29981026798115412 0 0.21240952011288561 -0.32751633770198579 0 0.20809222102270081 -0.29981026798115412 0 0.21240952011288561 -0.32751633770198579 0 0.20809222102270081 -0.29981026798115412 0 0.2207023675406791 -0.3120346980330666 0 0.21240952011288561 -0.32751633770198579 0 0.21240952011288561 -0.32751633770198579 0 0.21475477660022571 -0.34256691409106349 0 0.21240952011288561 -0.32751633770198579 0 0.21475477660022571 -0.34256691409106349 0 0.20600668796754809 -0.33758522320616202 0 0.19978850814603841 -0.34698276943973422 0 0.21475477660022571 -0.34256691409106349 0 0.20600668796754809 -0.33758522320616202 0 0.21240952011288561 -0.32751633770198579 0 0.20600668796754809 -0.33758522320616202 0 0.19707394701103911 -0.33327487159186497 0 0.19707394701103911 -0.33327487159186497 0 0.18536351856070901 -0.31732891352590897 0 0.18247698320451269 -0.33634804839932758 0 0.19978850814603841 -0.34698276943973422 0 0.19707394701103911 -0.33327487159186497 0 0.18247698320451269 -0.33634804839932758 0 0.19978850814603841 -0.34698276943973422 0 0.18247698320451269 -0.33634804839932758 0 0.19978850814603841 -0.34698276943973422 0 0.20600668796754809 -0.33758522320616202 0 0.19707394701103911 -0.33327487159186497 0 0.1991058330450296 -0.31147733134741018 0 0.21240952011288561 -0.32751633770198579 0 0.18536351856070901 -0.31732891352590897 0 0.21240952011288561 -0.32751633770198579 0 0.19707394701103911 -0.33327487159186497 0 0.18536351856070901 -0.31732891352590897 0 0.21240952011288561 -0.32751633770198579 0 0.18536351856070901 -0.31732891352590897 0 0.18536351856070901 -0.31732891352590897 0 0.18247698320451269 -0.33634804839932758 0 0.16516545826298709 -0.325713327358921 0 0.18247698320451269 -0.33634804839932758 0 0.16516545826298709 -0.325713327358921 0 0.18247698320451269 -0.33634804839932758 0 0.16746870225792959 -0.33842026924664209 0 0.1743777156552154 -0.35153954755594152 0 0.18247698320451269 -0.33634804839932758 0 0.16746870225792959 -0.33842026924664209 0 0.16516545826298709 -0.325713327358921 0 0.16746870225792959 -0.33842026924664209 0 0.16122432882637239 -0.34221570775810478 0 0.15749558085391141 -0.33477909683501189 0 0.16122432882637239 -0.34221570775810478 0 0.15749558085391141 -0.33477909683501189 0 0.1542732721468712 -0.3400250938386406 0 0.16746870225792959 -0.33842026924664209 0 0.15749558085391141 -0.33477909683501189 0 0.16516545826298709 -0.325713327358921 0 0.15749558085391141 -0.33477909683501189 0 0.16516545826298709 -0.325713327358921 0 0.15316567135192 -0.32489409102748851 0 0.18536351856070901 -0.31732891352590897 0 0.16202399036411641 -0.31777605260435438 0 0.16516545826298709 -0.325713327358921 0 0.18536351856070901 -0.31732891352590897 0 0.16202399036411641 -0.31777605260435438 0 0.15831751700853311 -0.3071414893498306 0 0.16202399036411641 -0.31777605260435438 0 0.16516545826298709 -0.325713327358921 0 0.15316567135192 -0.32489409102748851 0 0.1844209346069576 -0.37103408006651678 0 0.1779694751622205 -0.36210178550020827 0 0.16790612131388441 -0.36691743873426269 0 0.1844209346069576 -0.37103408006651678 0 0.18554368223715459 -0.36223528657422288 0 0.1779694751622205 -0.36210178550020827 0 0.1779694751622205 -0.36210178550020827 0 0.1743777156552154 -0.35153954755594152 0 0.16790612131388441 -0.36691743873426269 0 0.1961859702795522 -0.35744773658780959 0 0.1743777156552154 -0.35153954755594152 0 0.18820729432132971 -0.3480795254957032 0 0.1961859702795522 -0.35744773658780959 0 0.1743777156552154 -0.35153954755594152 0 0.1961859702795522 -0.35744773658780959 0 0.18554368223715459 -0.36223528657422288 0 0.1743777156552154 -0.35153954755594152 0 0.18554368223715459 -0.36223528657422288 0 0.1779694751622205 -0.36210178550020827 0 0.1743777156552154 -0.35153954755594152 0 0.18820729432132971 -0.3480795254957032 0 0.18247698320451269 -0.33634804839932758 0 0.1743777156552154 -0.35153954755594152 0 0.16790612131388441 -0.36691743873426269 0 0.1525694610308789 -0.34563135852407201 0 0.1743777156552154 -0.35153954755594152 0 0.1525694610308789 -0.34563135852407201 0 0.16790612131388441 -0.36691743873426269 0 0.1546406801419957 -0.36102183141460442 0 0.1525694610308789 -0.34563135852407201 0 0.16122432882637239 -0.34221570775810478 0 0.1743777156552154 -0.35153954755594152 0 0.1525694610308789 -0.34563135852407201 0 0.1743777156552154 -0.35153954755594152 0 0.16790612131388441 -0.36691743873426269 0 0.1525694610308789 -0.34563135852407201 0 0.16746870225792959 -0.33842026924664209 0 0.16122432882637239 -0.34221570775810478 0 0.1743777156552154 -0.35153954755594152 0 0.16790612131388441 -0.36691743873426269 0 0.15703687894702259 -0.37332117532895109 0 0.1546406801419957 -0.36102183141460442 0 0.16790612131388441 -0.36691743873426269 0 0.15703687894702259 -0.37332117532895109 0 0.16943630479562849 -0.38125471868618538 0 0.15703687894702259 -0.37332117532895109 0 0.14593551046301689 -0.36886274173519051 0 0.1546406801419957 -0.36102183141460442 0 0.14593551046301689 -0.36886274173519051 0 0.1546406801419957 -0.36102183141460442 0 0.14742924888367351 -0.35584972480352828 0 0.14593551046301689 -0.36886274173519051 0 0.14742924888367351 -0.35584972480352828 0 0.13410198080629029 -0.35639527088251721 0 0.14742924888367351 -0.35584972480352828 0 0.1440302800680818 -0.34701168197178012 0 0.13410198080629029 -0.35639527088251721 0 0.1546406801419957 -0.36102183141460442 0 0.15049384988099901 -0.35044527133781239 0 0.1525694610308789 -0.34563135852407201 0 0.1546406801419957 -0.36102183141460442 0 0.14742924888367351 -0.35584972480352828 0 0.15049384988099901 -0.35044527133781239 0 0.15049384988099901 -0.35044527133781239 0 0.15113206168050239 -0.34524194510137651 0 0.14801189394878719 -0.34804806835644359 0 0.14742924888367351 -0.35584972480352828 0 0.15049384988099901 -0.35044527133781239 0 0.14801189394878719 -0.34804806835644359 0 0.15049384988099901 -0.35044527133781239 0 0.1525694610308789 -0.34563135852407201 0 0.15113206168050239 -0.34524194510137651 0 0.1525694610308789 -0.34563135852407201 0 0.15113206168050239 -0.34524194510137651 0 0.14742924888367351 -0.35584972480352828 0 0.14801189394878719 -0.34804806835644359 0 0.1440302800680818 -0.34701168197178012 0 0.15113206168050239 -0.34524194510137651 0 0.14801189394878719 -0.34804806835644359 0 0.1440302800680818 -0.34701168197178012 0 0.1440302800680818 -0.34701168197178012 0 0.1351749813964106 -0.34691823002528321 0 0.13410198080629029 -0.35639527088251721 0 0.1440302800680818 -0.34701168197178012 0 0.1351749813964106 -0.34691823002528321 0 0.13585592988937861 -0.33781047156489907 0 0.1351749813964106 -0.34691823002528321 0 0.13410198080629029 -0.35639527088251721 0 0.1249106845714444 -0.34345175217148999 0 0.14593551046301689 -0.36886274173519051 0 0.13410198080629029 -0.35639527088251721 0 0.1293399446644187 -0.3732177114672906 0 0.13410198080629029 -0.35639527088251721 0 0.1293399446644187 -0.3732177114672906 0 0.11472349677418869 -0.35795114194138938 0 0.15316567135192 -0.32489409102748851 0 0.13965871594479229 -0.32834313954143568 0 0.13591788031695881 -0.31391674486089799 0 0.1481077866364324 -0.31380244175962291 0 0.15316567135192 -0.32489409102748851 0 0.13591788031695881 -0.31391674486089799 0 0.15316567135192 -0.32489409102748851 0 0.13591788031695881 -0.31391674486089799 0 0.16202399036411641 -0.31777605260435438 0 0.1481077866364324 -0.31380244175962291 0 0.15831751700853311 -0.3071414893498306 0 0.16202399036411641 -0.31777605260435438 0 0.1481077866364324 -0.31380244175962291 0 0.15316567135192 -0.32489409102748851 0 0.15749558085391141 -0.33477909683501189 0 0.15316567135192 -0.32489409102748851 0 0.14590465837703331 -0.33638113577302797 0 0.1525694610308789 -0.34563135852407201 0 0.1542732721468712 -0.3400250938386406 0 0.14590465837703331 -0.33638113577302797 0 0.1525694610308789 -0.34563135852407201 0 0.14590465837703331 -0.33638113577302797 0 0.15749558085391141 -0.33477909683501189 0 0.1542732721468712 -0.3400250938386406 0 0.14590465837703331 -0.33638113577302797 0 0.16122432882637239 -0.34221570775810478 0 0.1525694610308789 -0.34563135852407201 0 0.1542732721468712 -0.3400250938386406 0 0.1525694610308789 -0.34563135852407201 0 0.15113206168050239 -0.34524194510137651 0 0.14590465837703331 -0.33638113577302797 0 0.1440302800680818 -0.34701168197178012 0 0.14590465837703331 -0.33638113577302797 0 0.13585592988937861 -0.33781047156489907 0 0.15113206168050239 -0.34524194510137651 0 0.1440302800680818 -0.34701168197178012 0 0.14590465837703331 -0.33638113577302797 0 0.15316567135192 -0.32489409102748851 0 0.14590465837703331 -0.33638113577302797 0 0.13965871594479229 -0.32834313954143568 0 0.14590465837703331 -0.33638113577302797 0 0.13965871594479229 -0.32834313954143568 0 0.13585592988937861 -0.33781047156489907 0 0.13965871594479229 -0.32834313954143568 0 0.13585592988937861 -0.33781047156489907 0 0.12757362860397881 -0.32895976309008168 0 0.13585592988937861 -0.33781047156489907 0 0.12757362860397881 -0.32895976309008168 0 0.1249106845714444 -0.34345175217148999 0 0.1351749813964106 -0.34691823002528321 0 0.13585592988937861 -0.33781047156489907 0 0.1249106845714444 -0.34345175217148999 0 0.12757362860397881 -0.32895976309008168 0 0.13591788031695881 -0.31391674486089799 0 0.1173543477790244 -0.31253093745788529 0 0.13965871594479229 -0.32834313954143568 0 0.12757362860397881 -0.32895976309008168 0 0.13591788031695881 -0.31391674486089799 0 0.13591788031695881 -0.31391674486089799 0 0.1186700892819975 -0.30293939869430753 0 0.1481077866364324 -0.31380244175962291 0 0.13591788031695881 -0.31391674486089799 0 0.13127151545635721 -0.29695406517375222 0 0.13591788031695881 -0.31391674486089799 0 0.13127151545635721 -0.29695406517375222 0 0.1186700892819975 -0.30293939869430753 0 0.13127151545635721 -0.29695406517375222 0 0.15831751700853311 -0.3071414893498306 0 0.1481077866364324 -0.31380244175962291 0 0.13127151545635721 -0.29695406517375222 0 0.15831751700853311 -0.3071414893498306 0 0.13127151545635721 -0.29695406517375222 0 0.1494049785674309 -0.29130561378630798 0 0.15831751700853311 -0.3071414893498306 0 0.1494049785674309 -0.29130561378630798 0 0.15344237890474349 -0.27836661374284871 0 0.16284730788624149 -0.29150612135999898 0 0.1494049785674309 -0.29130561378630798 0 0.13997362861974719 -0.28253943333641651 0 0.15344237890474349 -0.27836661374284871 0 0.13127151545635721 -0.29695406517375222 0 0.1494049785674309 -0.29130561378630798 0 0.13997362861974719 -0.28253943333641651 0 0.13127151545635721 -0.29695406517375222 0 0.13997362861974719 -0.28253943333641651 0 0.12897492718765721 -0.28567042871328552 0 0.13127151545635721 -0.29695406517375222 0 0.12897492718765721 -0.28567042871328552 0 0.1205231947239639 -0.2925339212025273 0 0.12897492718765721 -0.28567042871328552 0 0.1296901392135488 -0.27175029108153159 0 0.1190909650277345 -0.28233775503612191 0 0.1296901392135488 -0.27175029108153159 0 0.13719241161554699 -0.25897252103841278 0 0.142294017796982 -0.27027635454370419 0 0.13997362861974719 -0.28253943333641651 0 0.12897492718765721 -0.28567042871328552 0 0.1296901392135488 -0.27175029108153159 0 0.13997362861974719 -0.28253943333641651 0 0.1296901392135488 -0.27175029108153159 0 0.142294017796982 -0.27027635454370419 0 0.1296901392135488 -0.27175029108153159 0 0.12651154311148119 -0.25067683321005912 0 0.13719241161554699 -0.25897252103841278 0 0.13719241161554699 -0.25897252103841278 0 0.15117153063132349 -0.25975291351931151 0 0.14373455284401759 -0.2363104976063157 0 0.13719241161554699 -0.25897252103841278 0 0.15117153063132349 -0.25975291351931151 0 0.142294017796982 -0.27027635454370419 0 0.15117153063132349 -0.25975291351931151 0 0.142294017796982 -0.27027635454370419 0 0.15344237890474349 -0.27836661374284871 0 0.15117153063132349 -0.25975291351931151 0 0.15344237890474349 -0.27836661374284871 0 0.16197763178280439 -0.26422600942013058 0 0.13997362861974719 -0.28253943333641651 0 0.142294017796982 -0.27027635454370419 0 0.15344237890474349 -0.27836661374284871 0 0.15344237890474349 -0.27836661374284871 0 0.1641014962879408 -0.2807793115359225 0 0.16197763178280439 -0.26422600942013058 0 0.1641014962879408 -0.2807793115359225 0 0.16197763178280439 -0.26422600942013058 0 0.1726911558135189 -0.27412103337069649 0 0.16197763178280439 -0.26422600942013058 0 0.17472395539408009 -0.26491016730797262 0 0.1726911558135189 -0.27412103337069649 0 0.1641014962879408 -0.2807793115359225 0 0.1726911558135189 -0.27412103337069649 0 0.17768413235447419 -0.28750699857526602 0 0.15117153063132349 -0.25975291351931151 0 0.16197763178280439 -0.26422600942013058 0 0.16667594085935189 -0.24998724856028839 0 0.16197763178280439 -0.26422600942013058 0 0.16864587234688219 -0.25418900321435411 0 0.17472395539408009 -0.26491016730797262 0 0.16197763178280439 -0.26422600942013058 0 0.16864587234688219 -0.25418900321435411 0 0.16667594085935189 -0.24998724856028839 0 0.16864587234688219 -0.25418900321435411 0 0.16667594085935189 -0.24998724856028839 0 0.18522543139593611 -0.26104572341030419 0 0.16667594085935189 -0.24998724856028839 0 0.16864587234688219 -0.25418900321435411 0 0.17472395539408009 -0.26491016730797262 0 0.18522543139593611 -0.26104572341030419 0 0.16864587234688219 -0.25418900321435411 0 0.18522543139593611 -0.26104572341030419 0 0.16667594085935189 -0.24998724856028839 0 0.18522543139593611 -0.26104572341030419 0 0.18062225926454509 -0.24057702378108159 0 0.16667594085935189 -0.24998724856028839 0 0.1726911558135189 -0.27412103337069649 0 0.1848574408653311 -0.27539629290400369 0 0.17768413235447419 -0.28750699857526602 0 0.17472395539408009 -0.26491016730797262 0 0.1726911558135189 -0.27412103337069649 0 0.1848574408653311 -0.27539629290400369 0 0.17472395539408009 -0.26491016730797262 0 0.18522543139593611 -0.26104572341030419 0 0.1848574408653311 -0.27539629290400369 0 0.19055807248381959 -0.30125380618059239 0 0.17768413235447419 -0.28750699857526602 0 0.1749292607197315 -0.3010311967054996 0 0.1929933577317694 -0.28721431278026688 0 0.1848574408653311 -0.27539629290400369 0 0.17768413235447419 -0.28750699857526602 0 0.19055807248381959 -0.30125380618059239 0 0.1929933577317694 -0.28721431278026688 0 0.17768413235447419 -0.28750699857526602 0 0.18536351856070901 -0.31732891352590897 0 0.1749292607197315 -0.3010311967054996 0 0.15831751700853311 -0.3071414893498306 0 0.19055807248381959 -0.30125380618059239 0 0.18536351856070901 -0.31732891352590897 0 0.1749292607197315 -0.3010311967054996 0 0.1749292607197315 -0.3010311967054996 0 0.15831751700853311 -0.3071414893498306 0 0.16284730788624149 -0.29150612135999898 0 0.18536351856070901 -0.31732891352590897 0 0.15831751700853311 -0.3071414893498306 0 0.1494049785674309 -0.29130561378630798 0 0.15831751700853311 -0.3071414893498306 0 0.16284730788624149 -0.29150612135999898 0 0.15344237890474349 -0.27836661374284871 0 0.1641014962879408 -0.2807793115359225 0 0.16284730788624149 -0.29150612135999898 0 0.1641014962879408 -0.2807793115359225 0 0.17768413235447419 -0.28750699857526602 0 0.16284730788624149 -0.29150612135999898 0 0.17768413235447419 -0.28750699857526602 0 0.1749292607197315 -0.3010311967054996 0 0.16284730788624149 -0.29150612135999898 0 0.19941284577545029 -0.48569149967866032 0 0.20615660057419849 -0.5 0 0.17623597767644189 -0.5 0 0.2090481995223519 -0.47886339952066848 0 0.18247163733385899 -0.47751453430743218 0 0.2090481995223519 -0.47886339952066848 0 0.19881594092698729 -0.46498094924387579 0 0.18247163733385899 -0.47751453430743218 0 0.19941284577545029 -0.48569149967866032 0 0.2090481995223519 -0.47886339952066848 0 0.18247163733385899 -0.47751453430743218 0 0.2090481995223519 -0.47886339952066848 0 0.207099198176354 -0.48585606174501661 0 0.2289433900129253 -0.48632373810943719 0 0.2090481995223519 -0.47886339952066848 0 0.22839080775366141 -0.47984511307681882 0 0.19941284577545029 -0.48569149967866032 0 0.2090481995223519 -0.47886339952066848 0 0.207099198176354 -0.48585606174501661 0 0.2090481995223519 -0.47886339952066848 0 0.22342987457334229 -0.46861028360133278 0 0.21480279039032019 -0.459869249917502 0 0.2090481995223519 -0.47886339952066848 0 0.21480279039032019 -0.459869249917502 0 0.2090481995223519 -0.47886339952066848 0 0.207099198176354 -0.48585606174501661 0 0.207099198176354 -0.48585606174501661 0 0.2289433900129253 -0.48632373810943719 0 0.207099198176354 -0.48585606174501661 0 0.20615660057419849 -0.5 0 0.2289433900129253 -0.48632373810943719 0 0.19941284577545029 -0.48569149967866032 0 0.207099198176354 -0.48585606174501661 0 0.20615660057419849 -0.5 0 0.19941284577545029 -0.48569149967866032 0 0.207099198176354 -0.48585606174501661 0 0.20615660057419849 -0.5 0 0.2289433900129253 -0.48632373810943719 0 0.23607722347195489 -0.5 0 0.25847393425040038 -0.48695597654021139 0 0.2289433900129253 -0.48632373810943719 0 0.2477334159849707 -0.48082682663297238 0 0.25847393425040038 -0.48695597654021139 0 0.2289433900129253 -0.48632373810943719 0 0.25847393425040038 -0.48695597654021139 0 0.2289433900129253 -0.48632373810943719 0 0.23607722347195489 -0.5 0 0.2477334159849707 -0.48082682663297238 0 0.22839080775366141 -0.47984511307681882 0 0.25847393425040038 -0.48695597654021139 0 0.2477334159849707 -0.48082682663297238 0 0.24319207251187089 -0.46192529683937977 0 0.2477334159849707 -0.48082682663297238 0 0.2350258633961704 -0.47265568773240052 0 0.22839080775366141 -0.47984511307681882 0 0.2289433900129253 -0.48632373810943719 0 0.2477334159849707 -0.48082682663297238 0 0.22839080775366141 -0.47984511307681882 0 0.2477334159849707 -0.48082682663297238 0 0.2350258633961704 -0.47265568773240052 0 0.24319207251187089 -0.46192529683937977 0 0.2090481995223519 -0.47886339952066848 0 0.2289433900129253 -0.48632373810943719 0 0.22839080775366141 -0.47984511307681882 0 0.2090481995223519 -0.47886339952066848 0 0.22839080775366141 -0.47984511307681882 0 0.22342987457334229 -0.46861028360133278 0 0.2350258633961704 -0.47265568773240052 0 0.22839080775366141 -0.47984511307681882 0 0.22342987457334229 -0.46861028360133278 0 0.2350258633961704 -0.47265568773240052 0 0.22342987457334229 -0.46861028360133278 0 0.23133192065191041 -0.44894997889009952 0 0.22342987457334229 -0.46861028360133278 0 0.23133192065191041 -0.44894997889009952 0 0.21480279039032019 -0.459869249917502 0 0.2350258633961704 -0.47265568773240052 0 0.23133192065191041 -0.44894997889009952 0 0.25295261690053339 -0.46515340908355768 0 0.24319207251187089 -0.46192529683937977 0 0.23133192065191041 -0.44894997889009952 0 0.25295261690053339 -0.46515340908355768 0 0.23133192065191041 -0.44894997889009952 0 0.2350258633961704 -0.47265568773240052 0 0.24319207251187089 -0.46192529683937977 0 0.23133192065191041 -0.44894997889009952 0 0.25295261690053339 -0.46515340908355768 0 0.2482141019255075 -0.43936867982436162 0 0.23133192065191041 -0.44894997889009952 0 0.2482141019255075 -0.43936867982436162 0 0.23133192065191041 -0.44894997889009952 0 0.22889857876164699 -0.4333341184509592 0 0.23133192065191041 -0.44894997889009952 0 0.22889857876164699 -0.4333341184509592 0 0.23133192065191041 -0.44894997889009952 0 0.22149785481647721 -0.43777088389444307 0 0.22889857876164699 -0.4333341184509592 0 0.23133192065191041 -0.44894997889009952 0 0.22055738125828939 -0.44087510031433591 0 0.21480279039032019 -0.459869249917502 0 0.23133192065191041 -0.44894997889009952 0 0.22055738125828939 -0.44087510031433591 0 0.23133192065191041 -0.44894997889009952 0 0.22055738125828939 -0.44087510031433591 0 0.22149785481647721 -0.43777088389444307 0 0.22055738125828939 -0.44087510031433591 0 0.21867413280542791 -0.43946371723527022 0 0.22055738125828939 -0.44087510031433591 0 0.22149785481647721 -0.43777088389444307 0 0.22055738125828939 -0.44087510031433591 0 0.22149785481647721 -0.43777088389444307 0 0.21867413280542791 -0.43946371723527022 0 0.22149785481647721 -0.43777088389444307 0 0.21867413280542791 -0.43946371723527022 0 0.22055738125828939 -0.44087510031433591 0 0.21480279039032019 -0.459869249917502 0 0.20214373673127689 -0.44937375990301448 0 0.22055738125828939 -0.44087510031433591 0 0.21480279039032019 -0.459869249917502 0 0.21867413280542791 -0.43946371723527022 0 0.20214373673127689 -0.44937375990301448 0 0.20186508143391299 -0.43728971971199149 0 0.22055738125828939 -0.44087510031433591 0 0.21867413280542791 -0.43946371723527022 0 0.20214373673127689 -0.44937375990301448 0 0.21867413280542791 -0.43946371723527022 0 0.20214373673127689 -0.44937375990301448 0 0.21480279039032019 -0.459869249917502 0 0.19881594092698729 -0.46498094924387579 0 0.20214373673127689 -0.44937375990301448 0 0.2090481995223519 -0.47886339952066848 0 0.21480279039032019 -0.459869249917502 0 0.19881594092698729 -0.46498094924387579 0 0.20214373673127689 -0.44937375990301448 0 0.18561334065712759 -0.45928380257076162 0 0.19881594092698729 -0.46498094924387579 0 0.20214373673127689 -0.44937375990301448 0 0.18561334065712759 -0.45928380257076162 0 0.19881594092698729 -0.46498094924387579 0 0.18561334065712759 -0.45928380257076162 0 0.18247163733385899 -0.47751453430743218 0 0.1908925536618741 -0.43803803614396353 0 0.20214373673127689 -0.44937375990301448 0 0.18561334065712759 -0.45928380257076162 0 0.1908925536618741 -0.43803803614396353 0 0.20214373673127689 -0.44937375990301448 0 0.20186508143391299 -0.43728971971199149 0 0.1908925536618741 -0.43803803614396353 0 0.19574990253707419 -0.42228336556571677 0 0.20186508143391299 -0.43728971971199149 0 0.1908925536618741 -0.43803803614396353 0 0.19574990253707419 -0.42228336556571677 0 0.18144818143657809 -0.42488196840461773 0 0.19574990253707419 -0.42228336556571677 0 0.18786034919209399 -0.41382868740072393 0 0.18144818143657809 -0.42488196840461773 0 0.19574990253707419 -0.42228336556571677 0 0.18786034919209399 -0.41382868740072393 0 0.19857944187989371 -0.40948959915464561 0 0.18786034919209399 -0.41382868740072393 0 0.19857944187989371 -0.40948959915464561 0 0.18333264022147791 -0.4039362632473692 0 0.19574990253707419 -0.42228336556571677 0 0.19857944187989371 -0.40948959915464561 0 0.20504482255874121 -0.41576754906996682 0 0.20504482255874121 -0.41576754906996682 0 0.21402628806187071 -0.40958478794424619 0 0.2118236577561263 -0.42171244361525861 0 0.19574990253707419 -0.42228336556571677 0 0.20504482255874121 -0.41576754906996682 0 0.2118236577561263 -0.42171244361525861 0 0.19857944187989371 -0.40948959915464561 0 0.21402628806187071 -0.40958478794424619 0 0.2074902980164301 -0.40106101061262461 0 0.19857944187989371 -0.40948959915464561 0 0.20504482255874121 -0.41576754906996682 0 0.21402628806187071 -0.40958478794424619 0 0.21402628806187071 -0.40958478794424619 0 0.2118236577561263 -0.42171244361525861 0 0.22684152379304459 -0.42013306214490997 0 0.21867413280542791 -0.43946371723527022 0 0.19574990253707419 -0.42228336556571677 0 0.20186508143391299 -0.43728971971199149 0 0.21867413280542791 -0.43946371723527022 0 0.19574990253707419 -0.42228336556571677 0 0.2152660003942003 -0.42934648981324769 0 0.21867413280542791 -0.43946371723527022 0 0.19574990253707419 -0.42228336556571677 0 0.2118236577561263 -0.42171244361525861 0 0.2152660003942003 -0.42934648981324769 0 0.22684152379304459 -0.42013306214490997 0 0.19574990253707419 -0.42228336556571677 0 0.2118236577561263 -0.42171244361525861 0 0.2152660003942003 -0.42934648981324769 0 0.22149785481647721 -0.43777088389444307 0 0.21867413280542791 -0.43946371723527022 0 0.2152660003942003 -0.42934648981324769 0 0.22149785481647721 -0.43777088389444307 0 0.22889857876164699 -0.4333341184509592 0 0.22684152379304459 -0.42013306214490997 0 0.22149785481647721 -0.43777088389444307 0 0.22684152379304459 -0.42013306214490997 0 0.22149785481647721 -0.43777088389444307 0 0.2152660003942003 -0.42934648981324769 0 0.22684152379304459 -0.42013306214490997 0 0.22149785481647721 -0.43777088389444307 0 0.22889857876164699 -0.4333341184509592 0 0.22889857876164699 -0.4333341184509592 0 0.22684152379304459 -0.42013306214490997 0 0.22889857876164699 -0.4333341184509592 0 0.24961192551231959 -0.42091637908341928 0 0.2482141019255075 -0.43936867982436162 0 0.22889857876164699 -0.4333341184509592 0 0.24961192551231959 -0.42091637908341928 0 0.22889857876164699 -0.4333341184509592 0 0.24961192551231959 -0.42091637908341928 0 0.22684152379304459 -0.42013306214490997 0 0.25688884166219722 -0.39115238923899892 0 0.24961192551231959 -0.42091637908341928 0 0.24185090561852091 -0.40712612725431258 0 0.24961192551231959 -0.42091637908341928 0 0.24185090561852091 -0.40712612725431258 0 0.22684152379304459 -0.42013306214490997 0 0.21402628806187071 -0.40958478794424619 0 0.22684152379304459 -0.42013306214490997 0 0.22241787434846791 -0.39174449388229332 0 0.22684152379304459 -0.42013306214490997 0 0.23406133150652189 -0.3963026785499224 0 0.24185090561852091 -0.40712612725431258 0 0.22684152379304459 -0.42013306214490997 0 0.23406133150652189 -0.3963026785499224 0 0.22684152379304459 -0.42013306214490997 0 0.22241787434846791 -0.39174449388229332 0 0.22684152379304459 -0.42013306214490997 0 0.23406133150652189 -0.3963026785499224 0 0.22241787434846791 -0.39174449388229332 0 0.25688884166219722 -0.39115238923899892 0 0.24185090561852091 -0.40712612725431258 0 0.23406133150652189 -0.3963026785499224 0 0.24160111759964739 -0.37141614390054711 0 0.2434524110614027 -0.37380613876212199 0 0.23406133150652189 -0.3963026785499224 0 0.24160111759964739 -0.37141614390054711 0 0.23406133150652189 -0.3963026785499224 0 0.24160111759964739 -0.37141614390054711 0 0.23406133150652189 -0.3963026785499224 0 0.22977196715031481 -0.37826502604680862 0 0.25688884166219722 -0.39115238923899892 0 0.2434524110614027 -0.37380613876212199 0 0.23406133150652189 -0.3963026785499224 0 0.25688884166219722 -0.39115238923899892 0 0.2434524110614027 -0.37380613876212199 0 0.2456369920424433 -0.37514815856696537 0 0.23406133150652189 -0.3963026785499224 0 0.22241787434846791 -0.39174449388229332 0 0.22977196715031481 -0.37826502604680862 0 0.2179942249038892 -0.36335592561967689 0 0.22241787434846791 -0.39174449388229332 0 0.22977196715031481 -0.37826502604680862 0 0.2179942249038892 -0.36335592561967689 0 0.22241787434846791 -0.39174449388229332 0 0.22241787434846791 -0.39174449388229332 0 0.20511101800436021 -0.37712990157521042 0 0.20119082542808861 -0.39135453841952611 0 0.2179942249038892 -0.36335592561967689 0 0.22241787434846791 -0.39174449388229332 0 0.20511101800436021 -0.37712990157521042 0 0.21402628806187071 -0.40958478794424619 0 0.22241787434846791 -0.39174449388229332 0 0.2074902980164301 -0.40106101061262461 0 0.22241787434846791 -0.39174449388229332 0 0.2074902980164301 -0.40106101061262461 0 0.20119082542808861 -0.39135453841952611 0 0.19857944187989371 -0.40948959915464561 0 0.183242781596889 -0.38820351894445432 0 0.18333264022147791 -0.4039362632473692 0 0.19857944187989371 -0.40948959915464561 0 0.183242781596889 -0.38820351894445432 0 0.19857944187989371 -0.40948959915464561 0 0.20119082542808861 -0.39135453841952611 0 0.183242781596889 -0.38820351894445432 0 0.19857944187989371 -0.40948959915464561 0 0.2074902980164301 -0.40106101061262461 0 0.20119082542808861 -0.39135453841952611 0 0.20119082542808861 -0.39135453841952611 0 0.19374597502362459 -0.37935506443326922 0 0.183242781596889 -0.38820351894445432 0 0.19476431548182729 -0.36905328316063829 0 0.20511101800436021 -0.37712990157521042 0 0.19374597502362459 -0.37935506443326922 0 0.20511101800436021 -0.37712990157521042 0 0.20119082542808861 -0.39135453841952611 0 0.19374597502362459 -0.37935506443326922 0 0.16790612131388441 -0.36691743873426269 0 0.183242781596889 -0.38820351894445432 0 0.1844209346069576 -0.37103408006651678 0 0.19374597502362459 -0.37935506443326922 0 0.183242781596889 -0.38820351894445432 0 0.16790612131388441 -0.36691743873426269 0 0.183242781596889 -0.38820351894445432 0 0.16943630479562849 -0.38125471868618538 0 0.1844209346069576 -0.37103408006651678 0 0.16790612131388441 -0.36691743873426269 0 0.183242781596889 -0.38820351894445432 0 0.183242781596889 -0.38820351894445432 0 0.1738776290561205 -0.39641966403481887 0 0.16943630479562849 -0.38125471868618538 0 0.183242781596889 -0.38820351894445432 0 0.18333264022147791 -0.4039362632473692 0 0.1738776290561205 -0.39641966403481887 0 0.18333264022147791 -0.4039362632473692 0 0.1738776290561205 -0.39641966403481887 0 0.17343213342297681 -0.41070981250383631 0 0.1738776290561205 -0.39641966403481887 0 0.15994428524363011 -0.3979940067922495 0 0.16943630479562849 -0.38125471868618538 0 0.1738776290561205 -0.39641966403481887 0 0.15994428524363011 -0.3979940067922495 0 0.17343213342297681 -0.41070981250383631 0 0.15994428524363011 -0.3979940067922495 0 0.16943630479562849 -0.38125471868618538 0 0.14456869038204631 -0.38642278023125848 0 0.15703687894702259 -0.37332117532895109 0 0.16943630479562849 -0.38125471868618538 0 0.14456869038204631 -0.38642278023125848 0 0.16943630479562849 -0.38125471868618538 0 0.14456869038204631 -0.38642278023125848 0 0.15703687894702259 -0.37332117532895109 0 0.14593551046301689 -0.36886274173519051 0 0.14456869038204631 -0.38642278023125848 0 0.14456869038204631 -0.38642278023125848 0 0.1197010759684639 -0.39159084177633152 0 0.1293399446644187 -0.3732177114672906 0 0.14456869038204631 -0.38642278023125848 0 0.1197010759684639 -0.39159084177633152 0 0.14593551046301689 -0.36886274173519051 0 0.1293399446644187 -0.3732177114672906 0 0.14456869038204631 -0.38642278023125848 0 0.14456869038204631 -0.38642278023125848 0 0.13896300069040229 -0.40945455830095112 0 0.1197010759684639 -0.39159084177633152 0 0.15994428524363011 -0.3979940067922495 0 0.14456869038204631 -0.38642278023125848 0 0.13896300069040229 -0.40945455830095112 0 0.13896300069040229 -0.40945455830095112 0 0.15112778612968791 -0.43367792342128908 0 0.15800544863226129 -0.41458937757671582 0 0.15994428524363011 -0.3979940067922495 0 0.13896300069040229 -0.40945455830095112 0 0.15800544863226129 -0.41458937757671582 0 0.13896300069040229 -0.40945455830095112 0 0.1239575695104575 -0.43321213244096218 0 0.1156362249047852 -0.40989768147426991 0 0.13896300069040229 -0.40945455830095112 0 0.15112778612968791 -0.43367792342128908 0 0.1239575695104575 -0.43321213244096218 0 0.15112778612968791 -0.43367792342128908 0 0.16739751603113909 -0.42495295807002842 0 0.15800544863226129 -0.41458937757671582 0 0.15112778612968791 -0.43367792342128908 0 0.16739751603113909 -0.42495295807002842 0 0.1734573188374999 -0.43910348819074119 0 0.15994428524363011 -0.3979940067922495 0 0.15800544863226129 -0.41458937757671582 0 0.17343213342297681 -0.41070981250383631 0 0.16739751603113909 -0.42495295807002842 0 0.15800544863226129 -0.41458937757671582 0 0.17343213342297681 -0.41070981250383631 0 0.16739751603113909 -0.42495295807002842 0 0.17343213342297681 -0.41070981250383631 0 0.18144818143657809 -0.42488196840461773 0 0.18786034919209399 -0.41382868740072393 0 0.18333264022147791 -0.4039362632473692 0 0.17343213342297681 -0.41070981250383631 0 0.18786034919209399 -0.41382868740072393 0 0.17343213342297681 -0.41070981250383631 0 0.18144818143657809 -0.42488196840461773 0 0.1908925536618741 -0.43803803614396353 0 0.18144818143657809 -0.42488196840461773 0 0.1734573188374999 -0.43910348819074119 0 0.16739751603113909 -0.42495295807002842 0 0.18144818143657809 -0.42488196840461773 0 0.1734573188374999 -0.43910348819074119 0 0.1734573188374999 -0.43910348819074119 0 0.18561334065712759 -0.45928380257076162 0 0.16373737200126351 -0.45537253579354142 0 0.1908925536618741 -0.43803803614396353 0 0.1734573188374999 -0.43910348819074119 0 0.18561334065712759 -0.45928380257076162 0 0.18561334065712759 -0.45928380257076162 0 0.17192935628440401 -0.46708413544148358 0 0.16373737200126351 -0.45537253579354142 0 0.18561334065712759 -0.45928380257076162 0 0.17192935628440401 -0.46708413544148358 0 0.18247163733385899 -0.47751453430743218 0 0.17192935628440401 -0.46708413544148358 0 0.16373737200126351 -0.45537253579354142 0 0.15589507514536591 -0.47616566909419938 0 0.15112778612968791 -0.43367792342128908 0 0.1734573188374999 -0.43910348819074119 0 0.16373737200126351 -0.45537253579354142 0 0.15112778612968791 -0.43367792342128908 0 0.16373737200126351 -0.45537253579354142 0 0.1395980863538461 -0.45282793189168052 0 0.15112778612968791 -0.43367792342128908 0 0.1395980863538461 -0.45282793189168052 0 0.1239575695104575 -0.43321213244096218 0 0.1395980863538461 -0.45282793189168052 0 0.1219403367049031 -0.45404607520459328 0 0.1239575695104575 -0.43321213244096218 0 0.1395980863538461 -0.45282793189168052 0 0.12931851295687269 -0.47481680388096648 0 0.1219403367049031 -0.45404607520459328 0 0.16373737200126351 -0.45537253579354142 0 0.1395980863538461 -0.45282793189168052 0 0.15589507514536591 -0.47616566909419938 0 0.1395980863538461 -0.45282793189168052 0 0.15589507514536591 -0.47616566909419938 0 0.12931851295687269 -0.47481680388096648 0 0.15589507514536591 -0.47616566909419938 0 0.12931851295687269 -0.47481680388096648 0 0.1403517573005002 -0.48442702281710659 0 0.15589507514536591 -0.47616566909419938 0 0.1403517573005002 -0.48442702281710659 0 0.16988230153797529 -0.48505926124788351 0 0.15589507514536591 -0.47616566909419938 0 0.12931851295687269 -0.47481680388096648 0 0.1403517573005002 -0.48442702281710659 0 0.1108212130630252 -0.48379478438632972 0 0.12931851295687269 -0.47481680388096648 0 0.1403517573005002 -0.48442702281710659 0 0.1108212130630252 -0.48379478438632972 0 0.1403517573005002 -0.48442702281710659 0 0.14631535477868551 -0.5 0 0.11639473188092909 -0.5 0 0.1403517573005002 -0.48442702281710659 0 0.16988230153797529 -0.48505926124788351 0 0.1403517573005002 -0.48442702281710659 0 0.14631535477868551 -0.5 0 0.16988230153797529 -0.48505926124788351 0 0.14631535477868551 -0.5 0 0.16988230153797529 -0.48505926124788351 0 0.17623597767644189 -0.5 0 0.17192935628440401 -0.46708413544148358 0 0.15589507514536591 -0.47616566909419938 0 0.18247163733385899 -0.47751453430743218 0 0.15589507514536591 -0.47616566909419938 0 0.18247163733385899 -0.47751453430743218 0 0.15589507514536591 -0.47616566909419938 0 0.16988230153797529 -0.48505926124788351 0 0.18247163733385899 -0.47751453430743218 0 0.19941284577545029 -0.48569149967866032 0 0.16988230153797529 -0.48505926124788351 0 0.18247163733385899 -0.47751453430743218 0 0.19941284577545029 -0.48569149967866032 0 0.16988230153797529 -0.48505926124788351 0 0.19941284577545029 -0.48569149967866032 0 0.16988230153797529 -0.48505926124788351 0 0.17623597767644189 -0.5 0 0.081290668825550139 -0.48316254595555291 0 0.051760124588075107 -0.48253030752477599 0 0.056553486085416098 -0.5 0 0.081290668825550139 -0.48316254595555291 0 0.086474108983172648 -0.5 0 0.056553486085416098 -0.5 0 0.081290668825550139 -0.48316254595555291 0 0.051760124588075107 -0.48253030752477599 0 0.076165388579886487 -0.47211907345450083 0 0.049588826391393337 -0.47077020824126797 0 0.076165388579886487 -0.47211907345450083 0 0.081290668825550139 -0.48316254595555291 0 0.051760124588075107 -0.48253030752477599 0 0.076165388579886487 -0.47211907345450083 0 0.081290668825550139 -0.48316254595555291 0 0.10274195076837959 -0.47346793866773362 0 0.076165388579886487 -0.47211907345450083 0 0.10274195076837959 -0.47346793866773362 0 0.081290668825550139 -0.48316254595555291 0 0.086474108983172648 -0.5 0 0.1108212130630252 -0.48379478438632972 0 0.086474108983172648 -0.5 0 0.11639473188092909 -0.5 0 0.1108212130630252 -0.48379478438632972 0 0.1403517573005002 -0.48442702281710659 0 0.11639473188092909 -0.5 0 0.1108212130630252 -0.48379478438632972 0 0.12931851295687269 -0.47481680388096648 0 0.1108212130630252 -0.48379478438632972 0 0.10274195076837959 -0.47346793866773362 0 0.12931851295687269 -0.47481680388096648 0 0.10274195076837959 -0.47346793866773362 0 0.1123386124891388 -0.46174931771233069 0 0.12931851295687269 -0.47481680388096648 0 0.10274195076837959 -0.47346793866773362 0 0.081290668825550139 -0.48316254595555291 0 0.1108212130630252 -0.48379478438632972 0 0.10274195076837959 -0.47346793866773362 0 0.081290668825550139 -0.48316254595555291 0 0.1108212130630252 -0.48379478438632972 0 0.099732124785865559 -0.46021411386410982 0 0.1123386124891388 -0.46174931771233069 0 0.1079601372296729 -0.44620165694425029 0 0.10274195076837959 -0.47346793866773362 0 0.099732124785865559 -0.46021411386410982 0 0.1123386124891388 -0.46174931771233069 0 0.12931851295687269 -0.47481680388096648 0 0.1123386124891388 -0.46174931771233069 0 0.1219403367049031 -0.45404607520459328 0 0.1123386124891388 -0.46174931771233069 0 0.1219403367049031 -0.45404607520459328 0 0.1079601372296729 -0.44620165694425029 0 0.1219403367049031 -0.45404607520459328 0 0.1079601372296729 -0.44620165694425029 0 0.1239575695104575 -0.43321213244096218 0 0.099732124785865559 -0.46021411386410982 0 0.089810032237677806 -0.44078506419823149 0 0.099732124785865559 -0.46021411386410982 0 0.1079601372296729 -0.44620165694425029 0 0.089810032237677806 -0.44078506419823149 0 0.089810032237677806 -0.44078506419823149 0 0.079143567696570258 -0.45362902782240871 0 0.069557767541088431 -0.43949542067355118 0 0.099732124785865559 -0.46021411386410982 0 0.089810032237677806 -0.44078506419823149 0 0.079143567696570258 -0.45362902782240871 0 0.076165388579886487 -0.47211907345450083 0 0.099732124785865559 -0.46021411386410982 0 0.079143567696570258 -0.45362902782240871 0 0.076165388579886487 -0.47211907345450083 0 0.10274195076837959 -0.47346793866773362 0 0.099732124785865559 -0.46021411386410982 0 0.076165388579886487 -0.47211907345450083 0 0.079143567696570258 -0.45362902782240871 0 0.06045252533833298 -0.45553146692165047 0 0.079143567696570258 -0.45362902782240871 0 0.069557767541088431 -0.43949542067355118 0 0.06045252533833298 -0.45553146692165047 0 0.069557767541088431 -0.43949542067355118 0 0.079887939689490053 -0.42135601453235327 0 0.058721979734467203 -0.42362587115337158 0 0.063782942820949415 -0.41261540476211772 0 0.079887939689490053 -0.42135601453235327 0 0.06996584714129897 -0.40192696486647678 0 0.079887939689490053 -0.42135601453235327 0 0.06996584714129897 -0.40192696486647678 0 0.063782942820949415 -0.41261540476211772 0 0.079887939689490053 -0.42135601453235327 0 0.058721979734467203 -0.42362587115337158 0 0.079887939689490053 -0.42135601453235327 0 0.09483346155488151 -0.39675890332140462 0 0.06996584714129897 -0.40192696486647678 0 0.079887939689490053 -0.42135601453235327 0 0.1016863813045964 -0.42424558244251093 0 0.09483346155488151 -0.39675890332140462 0 0.089810032237677806 -0.44078506419823149 0 0.079887939689490053 -0.42135601453235327 0 0.1016863813045964 -0.42424558244251093 0 0.089810032237677806 -0.44078506419823149 0 0.069557767541088431 -0.43949542067355118 0 0.079887939689490053 -0.42135601453235327 0 0.089810032237677806 -0.44078506419823149 0 0.079887939689490053 -0.42135601453235327 0 0.1079601372296729 -0.44620165694425029 0 0.089810032237677806 -0.44078506419823149 0 0.1016863813045964 -0.42424558244251093 0 0.1016863813045964 -0.42424558244251093 0 0.1239575695104575 -0.43321213244096218 0 0.1156362249047852 -0.40989768147426991 0 0.1079601372296729 -0.44620165694425029 0 0.1016863813045964 -0.42424558244251093 0 0.1239575695104575 -0.43321213244096218 0 0.1016863813045964 -0.42424558244251093 0 0.1156362249047852 -0.40989768147426991 0 0.09483346155488151 -0.39675890332140462 0 0.09483346155488151 -0.39675890332140462 0 0.1197010759684639 -0.39159084177633152 0 0.13896300069040229 -0.40945455830095112 0 0.1156362249047852 -0.40989768147426991 0 0.1197010759684639 -0.39159084177633152 0 0.1156362249047852 -0.40989768147426991 0 0.09483346155488151 -0.39675890332140462 0 0.1197010759684639 -0.39159084177633152 0 0.1293399446644187 -0.3732177114672906 0 0.1197010759684639 -0.39159084177633152 0 0.1107144866566718 -0.37807977024507899 0 0.09483346155488151 -0.39675890332140462 0 0.1107144866566718 -0.37807977024507899 0 0.09497445432140636 -0.37088025271897901 0 0.09483346155488151 -0.39675890332140462 0 0.1197010759684639 -0.39159084177633152 0 0.1107144866566718 -0.37807977024507899 0 0.09483346155488151 -0.39675890332140462 0 0.081009143343333048 -0.38409823474100951 0 0.09497445432140636 -0.37088025271897901 0 0.09483346155488151 -0.39675890332140462 0 0.06996584714129897 -0.40192696486647678 0 0.09483346155488151 -0.39675890332140462 0 0.081009143343333048 -0.38409823474100951 0 0.06996584714129897 -0.40192696486647678 0 0.081009143343333048 -0.38409823474100951 0 0.06996584714129897 -0.40192696486647678 0 0.062561458507202086 -0.38742798354587921 0 0.06996584714129897 -0.40192696486647678 0 0.062561458507202086 -0.38742798354587921 0 0.081009143343333048 -0.38409823474100951 0 0.070462898518649827 -0.3765639565358106 0 0.07750497875391435 -0.3656828842570517 0 0.070462898518649827 -0.3765639565358106 0 0.062561458507202086 -0.38742798354587921 0 0.058708355425466929 -0.37110324736519867 0 0.081009143343333048 -0.38409823474100951 0 0.070462898518649827 -0.3765639565358106 0 0.062561458507202086 -0.38742798354587921 0 0.044529033823313538 -0.39063167757380318 0 0.058708355425466929 -0.37110324736519867 0 0.040689258096181249 -0.36946386502332529 0 0.044529033823313538 -0.39063167757380318 0 0.058708355425466929 -0.37110324736519867 0 0.062561458507202086 -0.38742798354587921 0 0.044529033823313538 -0.39063167757380318 0 0.058708355425466929 -0.37110324736519867 0 0.06996584714129897 -0.40192696486647678 0 0.050157779681229038 -0.40604353632444151 0 0.06996584714129897 -0.40192696486647678 0 0.062561458507202086 -0.38742798354587921 0 0.050157779681229038 -0.40604353632444151 0 0.062561458507202086 -0.38742798354587921 0 0.050157779681229038 -0.40604353632444151 0 0.044529033823313538 -0.39063167757380318 0 0.044529033823313538 -0.39063167757380318 0 0.02483218176408699 -0.38220684372879632 0 0.030349712221159269 -0.41016010778240691 0 0.050157779681229038 -0.40604353632444151 0 0.044529033823313538 -0.39063167757380318 0 0.030349712221159269 -0.41016010778240691 0 0.044529033823313538 -0.39063167757380318 0 0.030349712221159269 -0.41016010778240691 0 0.044529033823313538 -0.39063167757380318 0 0.02483218176408699 -0.38220684372879632 0 0.040689258096181249 -0.36946386502332529 0 0.02483218176408699 -0.38220684372879632 0 0.0050281532125818866 -0.39259950183765319 0 0.0069058257338920652 -0.36938627074810892 0 0.0050281532125818866 -0.39259950183765319 0 0.0069058257338920652 -0.36938627074810892 0 0.0050281532125818866 -0.39259950183765319 0 0.030349712221159269 -0.41016010778240691 0 0.0031504806912710701 -0.41581273292719739 0 0.0050281532125818866 -0.39259950183765319 0 0.0031504806912710701 -0.41581273292719739 0 0.02483218176408699 -0.38220684372879632 0 0.0050281532125818866 -0.39259950183765319 0 0.030349712221159269 -0.41016010778240691 0 0.030349712221159269 -0.41016010778240691 0 0.0031504806912710701 -0.41581273292719739 0 0.030349712221159269 -0.41016010778240691 0 0.0031504806912710701 -0.41581273292719739 0 0.020858432218786031 -0.42323194607744552 0 0.030349712221159269 -0.41016010778240691 0 0.020858432218786031 -0.42323194607744552 0 0.041380918891680198 -0.42256136569710151 0 0.030349712221159269 -0.41016010778240691 0 0.020858432218786031 -0.42323194607744552 0 0.0031504806912710701 -0.41581273292719739 0 0.0095949731153237537 -0.42632812043780588 0 0.020858432218786031 -0.42323194607744552 0 0.0027023722465256209 -0.42135259398550873 0 0.0031504806912710701 -0.41581273292719739 0 0.0095949731153237537 -0.42632812043780588 0 0.0027023722465256209 -0.42135259398550873 0 0.0031504806912710701 -0.41581273292719739 0 0.0014073086159719201 -0.43498092765767848 0 0.0095949731153237537 -0.42632812043780588 0 0.01136715221641189 -0.43630378437248341 0 0.0027023722465256209 -0.42135259398550873 0 0.0014073086159719201 -0.43498092765767848 0 0.0095949731153237537 -0.42632812043780588 0 0.0095949731153237537 -0.42632812043780588 0 0.01136715221641189 -0.43630378437248341 0 0.020858432218786031 -0.42323194607744552 0 0.020858432218786031 -0.42323194607744552 0 0.041380918891680198 -0.42256136569710151 0 0.030009345302377879 -0.4382847041001543 0 0.01136715221641189 -0.43630378437248341 0 0.020858432218786031 -0.42323194607744552 0 0.01136715221641189 -0.43630378437248341 0 0.020858432218786031 -0.42323194607744552 0 0.030009345302377879 -0.4382847041001543 0 0.041380918891680198 -0.42256136569710151 0 0.048560354292294328 -0.43974093416152438 0 0.030009345302377879 -0.4382847041001543 0 0.050157779681229038 -0.40604353632444151 0 0.030349712221159269 -0.41016010778240691 0 0.050157779681229038 -0.40604353632444151 0 0.030349712221159269 -0.41016010778240691 0 0.041380918891680198 -0.42256136569710151 0 0.063782942820949415 -0.41261540476211772 0 0.06996584714129897 -0.40192696486647678 0 0.050157779681229038 -0.40604353632444151 0 0.050157779681229038 -0.40604353632444151 0 0.041380918891680198 -0.42256136569710151 0 0.058721979734467203 -0.42362587115337158 0 0.063782942820949415 -0.41261540476211772 0 0.050157779681229038 -0.40604353632444151 0 0.058721979734467203 -0.42362587115337158 0 0.069557767541088431 -0.43949542067355118 0 0.058721979734467203 -0.42362587115337158 0 0.048560354292294328 -0.43974093416152438 0 0.041380918891680198 -0.42256136569710151 0 0.058721979734467203 -0.42362587115337158 0 0.048560354292294328 -0.43974093416152438 0 0.069557767541088431 -0.43949542067355118 0 0.048560354292294328 -0.43974093416152438 0 0.06045252533833298 -0.45553146692165047 0 0.048560354292294328 -0.43974093416152438 0 0.06045252533833298 -0.45553146692165047 0 0.035786309247597077 -0.45458113859477922 0 0.06045252533833298 -0.45553146692165047 0 0.035786309247597077 -0.45458113859477922 0 0.049588826391393337 -0.47077020824126797 0 0.076165388579886487 -0.47211907345450083 0 0.06045252533833298 -0.45553146692165047 0 0.049588826391393337 -0.47077020824126797 0 0.035786309247597077 -0.45458113859477922 0 0.023012264202900229 -0.4694213430280344 0 0.049588826391393337 -0.47077020824126797 0 0.048560354292294328 -0.43974093416152438 0 0.035786309247597077 -0.45458113859477922 0 0.030009345302377879 -0.4382847041001543 0 0.048560354292294328 -0.43974093416152438 0 0.035786309247597077 -0.45458113859477922 0 0.035786309247597077 -0.45458113859477922 0 0.030009345302377879 -0.4382847041001543 0 0.02043139281212162 -0.45428192122133088 0 0.01136715221641189 -0.43630378437248341 0 0.030009345302377879 -0.4382847041001543 0 0.02043139281212162 -0.45428192122133088 0 0.01136715221641189 -0.43630378437248341 0 0.0056291128047756406 -0.45018857340308499 0 0.02043139281212162 -0.45428192122133088 0 0.0014073086159719201 -0.43498092765767848 0 0.01136715221641189 -0.43630378437248341 0 0.0056291128047756406 -0.45018857340308499 0 -0.0066177663544651297 -0.44479097031219911 0 0.0014073086159719201 -0.43498092765767848 0 0.0056291128047756406 -0.45018857340308499 0 0.0056291128047756406 -0.45018857340308499 0 0.0065458962590450812 -0.46858560999566512 0 0.02043139281212162 -0.45428192122133088 0 -0.002745718274078619 -0.46110876076750529 0 0.0056291128047756406 -0.45018857340308499 0 0.0065458962590450812 -0.46858560999566512 0 0.0065458962590450812 -0.46858560999566512 0 0.02043139281212162 -0.45428192122133088 0 0.023012264202900229 -0.4694213430280344 0 0.035786309247597077 -0.45458113859477922 0 0.02043139281212162 -0.45428192122133088 0 0.023012264202900229 -0.4694213430280344 0 0.035786309247597077 -0.45458113859477922 0 0.023012264202900229 -0.4694213430280344 0 0.023012264202900229 -0.4694213430280344 0 0.0098622522464014758 -0.48469832577322891 0 0.03396269306660276 -0.48045900382970402 0 0.023012264202900229 -0.4694213430280344 0 0.0098622522464014758 -0.48469832577322891 0 -0.0021164315900754271 -0.47662312421592329 0 0.0065458962590450812 -0.46858560999566512 0 0.0098622522464014758 -0.48469832577322891 0 0.0065458962590450812 -0.46858560999566512 0 0.023012264202900229 -0.4694213430280344 0 0.0098622522464014758 -0.48469832577322891 0 0.0065458962590450812 -0.46858560999566512 0 0.023012264202900229 -0.4694213430280344 0 -0.003287759710096871 -0.4999753085184237 0 0.0098622522464014758 -0.48469832577322891 0 0.026632863187659669 -0.5 0 -0.003287759710096871 -0.4999753085184237 0 0.0098622522464014758 -0.48469832577322891 0 0.0098622522464014758 -0.48469832577322891 0 0.026632863187659669 -0.5 0 0.03396269306660276 -0.48045900382970402 0 0.026632863187659669 -0.5 0 0.051760124588075107 -0.48253030752477599 0 0.056553486085416098 -0.5 0 0.026632863187659669 -0.5 0 0.03396269306660276 -0.48045900382970402 0 0.051760124588075107 -0.48253030752477599 0 0.03396269306660276 -0.48045900382970402 0 0.049588826391393337 -0.47077020824126797 0 0.051760124588075107 -0.48253030752477599 0 0.023012264202900229 -0.4694213430280344 0 0.03396269306660276 -0.48045900382970402 0 0.049588826391393337 -0.47077020824126797 0 0.023012264202900229 -0.4694213430280344 0 0.049588826391393337 -0.47077020824126797 0 0.076165388579886487 -0.47211907345450083 0 0.049588826391393337 -0.47077020824126797 0 0.051760124588075107 -0.48253030752477599 0 0.087299048115003067 -0.29353412061639389 0 0.06869787987090227 -0.29041771043677872 0 0.082091116891565175 -0.27965873385241502 0 0.082091116891565175 -0.27965873385241502 0 0.1014222982470384 -0.29196205252771368 0 0.087299048115003067 -0.29353412061639389 0 0.081105535141668114 -0.3049577378344861 0 0.06869787987090227 -0.29041771043677872 0 0.087299048115003067 -0.29353412061639389 0 0.082091116891565175 -0.27965873385241502 0 0.1014222982470384 -0.29196205252771368 0 0.081105535141668114 -0.3049577378344861 0 0.1031784104238387 -0.30067436843057671 0 0.081105535141668114 -0.3049577378344861 0 0.1031784104238387 -0.30067436843057671 0 0.08842877754454706 -0.3180414377073178 0 0.087299048115003067 -0.29353412061639389 0 0.081105535141668114 -0.3049577378344861 0 0.1031784104238387 -0.30067436843057671 0 0.081105535141668114 -0.3049577378344861 0 0.059032659859497537 -0.30924110723839571 0 0.081105535141668114 -0.3049577378344861 0 0.060764885790979439 -0.31453388668473958 0 0.059032659859497537 -0.30924110723839571 0 0.081105535141668114 -0.3049577378344861 0 0.06869787987090227 -0.29041771043677872 0 0.059032659859497537 -0.30924110723839571 0 0.06869787987090227 -0.29041771043677872 0 0.06275993553609413 -0.26735541517711298 0 0.082091116891565175 -0.27965873385241502 0 0.06275993553609413 -0.26735541517711298 0 0.082091116891565175 -0.27965873385241502 0 0.06275993553609413 -0.26735541517711298 0 0.077162150207926383 -0.25443221183474329 0 0.082091116891565175 -0.27965873385241502 0 0.06275993553609413 -0.26735541517711298 0 0.077162150207926383 -0.25443221183474329 0 0.057215552496959338 -0.2504827743481286 0 0.095850127492265791 -0.26431774112113871 0 0.090277956737490506 -0.23667342971456429 0 0.077162150207926383 -0.25443221183474329 0 0.095850127492265791 -0.26431774112113871 0 0.090277956737490506 -0.23667342971456429 0 0.077162150207926383 -0.25443221183474329 0 0.082091116891565175 -0.27965873385241502 0 0.095850127492265791 -0.26431774112113871 0 0.082091116891565175 -0.27965873385241502 0 0.095850127492265791 -0.26431774112113871 0 0.1014222982470384 -0.29196205252771368 0 0.095850127492265791 -0.26431774112113871 0 0.1014222982470384 -0.29196205252771368 0 0.095850127492265791 -0.26431774112113871 0 0.1130588832230901 -0.26831044876670368 0 0.1014222982470384 -0.29196205252771368 0 0.095850127492265791 -0.26431774112113871 0 0.1130588832230901 -0.26831044876670368 0 0.1086488576677434 -0.24704464851777039 0 0.12651154311148119 -0.25067683321005912 0 0.1130588832230901 -0.26831044876670368 0 0.1086488576677434 -0.24704464851777039 0 0.1296901392135488 -0.27175029108153159 0 0.12651154311148119 -0.25067683321005912 0 0.1130588832230901 -0.26831044876670368 0 0.1296901392135488 -0.27175029108153159 0 0.1130588832230901 -0.26831044876670368 0 0.1190909650277345 -0.28233775503612191 0 0.1130588832230901 -0.26831044876670368 0 0.1190909650277345 -0.28233775503612191 0 0.1014222982470384 -0.29196205252771368 0 0.1205231947239639 -0.2925339212025273 0 0.1014222982470384 -0.29196205252771368 0 0.1186700892819975 -0.30293939869430753 0 0.1190909650277345 -0.28233775503612191 0 0.1205231947239639 -0.2925339212025273 0 0.1014222982470384 -0.29196205252771368 0 0.12897492718765721 -0.28567042871328552 0 0.1190909650277345 -0.28233775503612191 0 0.1205231947239639 -0.2925339212025273 0 0.087299048115003067 -0.29353412061639389 0 0.1014222982470384 -0.29196205252771368 0 0.1031784104238387 -0.30067436843057671 0 0.1014222982470384 -0.29196205252771368 0 0.1031784104238387 -0.30067436843057671 0 0.1014222982470384 -0.29196205252771368 0 0.1031784104238387 -0.30067436843057671 0 0.10983512444835861 -0.29938259448546523 0 0.1031784104238387 -0.30067436843057671 0 0.10983512444835861 -0.29938259448546523 0 0.13591788031695881 -0.31391674486089799 0 0.1186700892819975 -0.30293939869430753 0 0.1173543477790244 -0.31253093745788529 0 0.1014222982470384 -0.29196205252771368 0 0.1186700892819975 -0.30293939869430753 0 0.1014222982470384 -0.29196205252771368 0 0.10983512444835861 -0.29938259448546523 0 0.1186700892819975 -0.30293939869430753 0 0.10983512444835861 -0.29938259448546523 0 0.1186700892819975 -0.30293939869430753 0 0.1173543477790244 -0.31253093745788529 0 0.1031784104238387 -0.30067436843057671 0 0.10983512444835861 -0.29938259448546523 0 0.1173543477790244 -0.31253093745788529 0 0.13127151545635721 -0.29695406517375222 0 0.1205231947239639 -0.2925339212025273 0 0.1186700892819975 -0.30293939869430753 0 0.1031784104238387 -0.30067436843057671 0 0.1173543477790244 -0.31253093745788529 0 0.1089509535990142 -0.32931275518598302 0 0.12757362860397881 -0.32895976309008168 0 0.1173543477790244 -0.31253093745788529 0 0.1089509535990142 -0.32931275518598302 0 0.12757362860397881 -0.32895976309008168 0 0.1249106845714444 -0.34345175217148999 0 0.1089509535990142 -0.32931275518598302 0 0.1249106845714444 -0.34345175217148999 0 0.1089509535990142 -0.32931275518598302 0 0.11472349677418869 -0.35795114194138938 0 0.1089509535990142 -0.32931275518598302 0 0.11472349677418869 -0.35795114194138938 0 0.1089509535990142 -0.32931275518598302 0 0.098441790014074299 -0.34442094312435068 0 0.092359427964462559 -0.33315043902395519 0 0.1031784104238387 -0.30067436843057671 0 0.1089509535990142 -0.32931275518598302 0 0.08842877754454706 -0.3180414377073178 0 0.1089509535990142 -0.32931275518598302 0 0.08842877754454706 -0.3180414377073178 0 0.092359427964462559 -0.33315043902395519 0 0.1031784104238387 -0.30067436843057671 0 0.1089509535990142 -0.32931275518598302 0 0.1293399446644187 -0.3732177114672906 0 0.1107144866566718 -0.37807977024507899 0 0.11472349677418869 -0.35795114194138938 0 0.13410198080629029 -0.35639527088251721 0 0.1249106845714444 -0.34345175217148999 0 0.11472349677418869 -0.35795114194138938 0 0.11472349677418869 -0.35795114194138938 0 0.098441790014074299 -0.34442094312435068 0 0.096870141318354197 -0.35658454494568931 0 0.1089509535990142 -0.32931275518598302 0 0.11472349677418869 -0.35795114194138938 0 0.098441790014074299 -0.34442094312435068 0 0.098441790014074299 -0.34442094312435068 0 0.096870141318354197 -0.35658454494568931 0 0.088121314535666406 -0.35031629137569492 0 0.1107144866566718 -0.37807977024507899 0 0.11472349677418869 -0.35795114194138938 0 0.09497445432140636 -0.37088025271897901 0 0.11472349677418869 -0.35795114194138938 0 0.096870141318354197 -0.35658454494568931 0 0.09497445432140636 -0.37088025271897901 0 0.081009143343333048 -0.38409823474100951 0 0.09497445432140636 -0.37088025271897901 0 0.07750497875391435 -0.3656828842570517 0 0.09497445432140636 -0.37088025271897901 0 0.088089650946435158 -0.35935409556803238 0 0.07750497875391435 -0.3656828842570517 0 0.096870141318354197 -0.35658454494568931 0 0.09497445432140636 -0.37088025271897901 0 0.088089650946435158 -0.35935409556803238 0 0.080465351844310029 -0.35414715873445762 0 0.088089650946435158 -0.35935409556803238 0 0.07750497875391435 -0.3656828842570517 0 0.080465351844310029 -0.35414715873445762 0 0.088089650946435158 -0.35935409556803238 0 0.088121314535666406 -0.35031629137569492 0 0.096870141318354197 -0.35658454494568931 0 0.088089650946435158 -0.35935409556803238 0 0.088121314535666406 -0.35031629137569492 0 0.098441790014074299 -0.34442094312435068 0 0.088121314535666406 -0.35031629137569492 0 0.087113391934235396 -0.34005114046510299 0 0.080465351844310029 -0.35414715873445762 0 0.088121314535666406 -0.35031629137569492 0 0.078698237707248417 -0.34357223904398942 0 0.088121314535666406 -0.35031629137569492 0 0.076746024602361379 -0.33946162561351828 0 0.088121314535666406 -0.35031629137569492 0 0.078698237707248417 -0.34357223904398942 0 0.076746024602361379 -0.33946162561351828 0 0.072887677027619308 -0.35157481715659361 0 0.078698237707248417 -0.34357223904398942 0 0.076746024602361379 -0.33946162561351828 0 0.072887677027619308 -0.35157481715659361 0 0.078698237707248417 -0.34357223904398942 0 0.080465351844310029 -0.35414715873445762 0 0.072887677027619308 -0.35157481715659361 0 0.078698237707248417 -0.34357223904398942 0 0.080465351844310029 -0.35414715873445762 0 0.072887677027619308 -0.35157481715659361 0 0.07750497875391435 -0.3656828842570517 0 0.072887677027619308 -0.35157481715659361 0 0.07750497875391435 -0.3656828842570517 0 0.072887677027619308 -0.35157481715659361 0 0.058708355425466929 -0.37110324736519867 0 0.070462898518649827 -0.3765639565358106 0 0.07750497875391435 -0.3656828842570517 0 0.058708355425466929 -0.37110324736519867 0 0.072887677027619308 -0.35157481715659361 0 0.07750497875391435 -0.3656828842570517 0 0.058708355425466929 -0.37110324736519867 0 0.072887677027619308 -0.35157481715659361 0 0.058708355425466929 -0.37110324736519867 0 0.0569077113329177 -0.35559275636862919 0 0.08842877754454706 -0.3180414377073178 0 0.08256954848103544 -0.33355100986742248 0 0.075788625983633423 -0.3267204647581215 0 0.08842877754454706 -0.3180414377073178 0 0.092359427964462559 -0.33315043902395519 0 0.08256954848103544 -0.33355100986742248 0 0.092359427964462559 -0.33315043902395519 0 0.087113391934235396 -0.34005114046510299 0 0.08256954848103544 -0.33355100986742248 0 0.098441790014074299 -0.34442094312435068 0 0.092359427964462559 -0.33315043902395519 0 0.087113391934235396 -0.34005114046510299 0 0.088121314535666406 -0.35031629137569492 0 0.087113391934235396 -0.34005114046510299 0 0.076746024602361379 -0.33946162561351828 0 0.087113391934235396 -0.34005114046510299 0 0.08256954848103544 -0.33355100986742248 0 0.076746024602361379 -0.33946162561351828 0 0.08256954848103544 -0.33355100986742248 0 0.076746024602361379 -0.33946162561351828 0 0.075788625983633423 -0.3267204647581215 0 0.076746024602361379 -0.33946162561351828 0 0.065370734669055325 -0.32860695985134281 0 0.075788625983633423 -0.3267204647581215 0 0.076746024602361379 -0.33946162561351828 0 0.065370734669055325 -0.32860695985134281 0 0.072887677027619308 -0.35157481715659361 0 0.065370734669055325 -0.32860695985134281 0 0.050381679561318893 -0.33985121077261521 0 0.072887677027619308 -0.35157481715659361 0 0.065370734669055325 -0.32860695985134281 0 0.072887677027619308 -0.35157481715659361 0 0.076746024602361379 -0.33946162561351828 0 0.065370734669055325 -0.32860695985134281 0 0.065370734669055325 -0.32860695985134281 0 0.075788625983633423 -0.3267204647581215 0 0.060764885790979439 -0.31453388668473958 0 0.08842877754454706 -0.3180414377073178 0 0.060764885790979439 -0.31453388668473958 0 0.081105535141668114 -0.3049577378344861 0 0.08842877754454706 -0.3180414377073178 0 0.060764885790979439 -0.31453388668473958 0 0.065370734669055325 -0.32860695985134281 0 0.060764885790979439 -0.31453388668473958 0 0.08842877754454706 -0.3180414377073178 0 0.075788625983633423 -0.3267204647581215 0 0.060764885790979439 -0.31453388668473958 0 0.060764885790979439 -0.31453388668473958 0 0.049068544335304082 -0.31305088802356579 0 0.065370734669055325 -0.32860695985134281 0 0.049068544335304082 -0.31305088802356579 0 0.065370734669055325 -0.32860695985134281 0 0.060764885790979439 -0.31453388668473958 0 0.049068544335304082 -0.31305088802356579 0 0.065370734669055325 -0.32860695985134281 0 0.049068544335304082 -0.31305088802356579 0 0.046241133700610698 -0.32301482638800499 0 0.065370734669055325 -0.32860695985134281 0 0.050381679561318893 -0.33985121077261521 0 0.046241133700610698 -0.32301482638800499 0 0.050381679561318893 -0.33985121077261521 0 0.039319970719954737 -0.32941185508361148 0 0.031789702978716271 -0.33826060040758071 0 0.050381679561318893 -0.33985121077261521 0 0.039319970719954737 -0.32941185508361148 0 0.046241133700610698 -0.32301482638800499 0 0.039319970719954737 -0.32941185508361148 0 0.031789702978716271 -0.33826060040758071 0 0.030260189162042189 -0.3261452819751407 0 0.046241133700610698 -0.32301482638800499 0 0.030084924720740348 -0.31485858305071052 0 0.043220948197292157 -0.31230946154618389 0 0.039319970719954737 -0.32941185508361148 0 0.030084924720740348 -0.31485858305071052 0 0.039319970719954737 -0.32941185508361148 0 0.030084924720740348 -0.31485858305071052 0 0.030260189162042189 -0.3261452819751407 0 0.039319970719954737 -0.32941185508361148 0 0.046241133700610698 -0.32301482638800499 0 0.030084924720740348 -0.31485858305071052 0 0.030084924720740348 -0.31485858305071052 0 0.043220948197292157 -0.31230946154618389 0 0.049068544335304082 -0.31305088802356579 0 0.046241133700610698 -0.32301482638800499 0 0.043220948197292157 -0.31230946154618389 0 0.049068544335304082 -0.31305088802356579 0 0.043220948197292157 -0.31230946154618389 0 0.058708355425466929 -0.37110324736519867 0 0.0569077113329177 -0.35559275636862919 0 0.040689258096181249 -0.36946386502332529 0 0.050381679561318893 -0.33985121077261521 0 0.0569077113329177 -0.35559275636862919 0 0.041396282325895963 -0.3538002106194762 0 0.072887677027619308 -0.35157481715659361 0 0.050381679561318893 -0.33985121077261521 0 0.0569077113329177 -0.35559275636862919 0 0.041396282325895963 -0.3538002106194762 0 0.024154767205954841 -0.35925048578135971 0 0.02977461885227561 -0.34956056659301049 0 0.050381679561318893 -0.33985121077261521 0 0.031789702978716271 -0.33826060040758071 0 0.041396282325895963 -0.3538002106194762 0 0.031789702978716271 -0.33826060040758071 0 0.041396282325895963 -0.3538002106194762 0 0.02977461885227561 -0.34956056659301049 0 0.0569077113329177 -0.35559275636862919 0 0.041396282325895963 -0.3538002106194762 0 0.040689258096181249 -0.36946386502332529 0 0.041396282325895963 -0.3538002106194762 0 0.040689258096181249 -0.36946386502332529 0 0.024154767205954841 -0.35925048578135971 0 0.02483218176408699 -0.38220684372879632 0 0.024154767205954841 -0.35925048578135971 0 0.0069058257338920652 -0.36938627074810892 0 0.02483218176408699 -0.38220684372879632 0 0.040689258096181249 -0.36946386502332529 0 0.024154767205954841 -0.35925048578135971 0 0.024154767205954841 -0.35925048578135971 0 0.02977461885227561 -0.34956056659301049 0 0.01987303825253009 -0.34214461453060041 0 0.024154767205954841 -0.35925048578135971 0 0.008783498255201274 -0.34617303965856439 0 0.01987303825253009 -0.34214461453060041 0 0.024154767205954841 -0.35925048578135971 0 0.008783498255201274 -0.34617303965856439 0 0.0069058257338920652 -0.36938627074810892 0 0.008783498255201274 -0.34617303965856439 0 0.0069058257338920652 -0.36938627074810892 0 0.008783498255201274 -0.34617303965856439 0 0.01987303825253009 -0.34214461453060041 0 0.02005928160718292 -0.31878225829209023 0 0.02647537007461748 -0.32048629471567258 0 0.023630977316182269 -0.32770907661812809 0 0.017744960770084479 -0.32527085615213452 0 0.02005928160718292 -0.31878225829209023 0 0.023630977316182269 -0.32770907661812809 0 0.017744960770084479 -0.32527085615213452 0 0.02005928160718292 -0.31878225829209023 0 0.010852413849038201 -0.32059551469645642 0 0.02005928160718292 -0.31878225829209023 0 0.02567794530362286 -0.31615317105036339 0 0.027176422718459461 -0.31027514937306411 0 0.02005928160718292 -0.31878225829209023 0 0.02567794530362286 -0.31615317105036339 0 0.02647537007461748 -0.32048629471567258 0 0.02567794530362286 -0.31615317105036339 0 0.030084924720740348 -0.31485858305071052 0 0.027176422718459461 -0.31027514937306411 0 0.030084924720740348 -0.31485858305071052 0 0.027176422718459461 -0.31027514937306411 0 0.02567794530362286 -0.31615317105036339 0 0.030084924720740348 -0.31485858305071052 0 0.02647537007461748 -0.32048629471567258 0 0.030084924720740348 -0.31485858305071052 0 0.02647537007461748 -0.32048629471567258 0 0.030260189162042189 -0.3261452819751407 0 0.02647537007461748 -0.32048629471567258 0 0.023630977316182269 -0.32770907661812809 0 0.030260189162042189 -0.3261452819751407 0 0.031789702978716271 -0.33826060040758071 0 0.023630977316182269 -0.32770907661812809 0 0.030260189162042189 -0.3261452819751407 0 0.031789702978716271 -0.33826060040758071 0 0.023630977316182269 -0.32770907661812809 0 0.017046793449947709 -0.33383059607174242 0 0.031789702978716271 -0.33826060040758071 0 0.02977461885227561 -0.34956056659301049 0 0.01987303825253009 -0.34214461453060041 0 0.031789702978716271 -0.33826060040758071 0 0.01987303825253009 -0.34214461453060041 0 0.017046793449947709 -0.33383059607174242 0 0.017744960770084479 -0.32527085615213452 0 0.023630977316182269 -0.32770907661812809 0 0.017046793449947709 -0.33383059607174242 0 0.008783498255201274 -0.34617303965856439 0 0.00086803735859259051 -0.33201321796046951 0 0.010852413849038201 -0.32059551469645642 0 0.008783498255201274 -0.34617303965856439 0 0.010852413849038201 -0.32059551469645642 0 0.008783498255201274 -0.34617303965856439 0 0.017046793449947709 -0.33383059607174242 0 0.010852413849038201 -0.32059551469645642 0 0.008783498255201274 -0.34617303965856439 0 0.01987303825253009 -0.34214461453060041 0 0.017046793449947709 -0.33383059607174242 0 -0.0020309994325907058 -0.31916012003143918 0 0.00086803735859259051 -0.33201321796046951 0 0.010852413849038201 -0.32059551469645642 0 0.017744960770084479 -0.32527085615213452 0 0.017046793449947709 -0.33383059607174242 0 0.010852413849038201 -0.32059551469645642 0 0.02005928160718292 -0.31878225829209023 0 0.010852413849038201 -0.32059551469645642 0 0.010514216402271549 -0.30816252041530962 0 -0.0020309994325907058 -0.31916012003143918 0 0.010852413849038201 -0.32059551469645642 0 0.010514216402271549 -0.30816252041530962 0 -0.0061479899139162061 -0.30604989145755401 0 0.010514216402271549 -0.30816252041530962 0 -0.0061479899139162061 -0.30604989145755401 0 0.010514216402271549 -0.30816252041530962 0 0.0032416631787821051 -0.2952062751416083 0 0.010514216402271549 -0.30816252041530962 0 0.0032416631787821051 -0.2952062751416083 0 0.01588460822170739 -0.29248066863844979 0 -0.0061479899139162061 -0.30604989145755401 0 -0.0020309994325907058 -0.31916012003143918 0 0.010514216402271549 -0.30816252041530962 0 0.01588460822170739 -0.29248066863844979 0 0.0045927937249545664 -0.27468618790383598 0 0.0032416631787821051 -0.2952062751416083 0 0.01588460822170739 -0.29248066863844979 0 0.0045927937249545664 -0.27468618790383598 0 0.01588460822170739 -0.29248066863844979 0 0.01717832382577638 -0.2791797631630728 0 0.0045927937249545664 -0.27468618790383598 0 0.024959002096379579 -0.29004479110498249 0 0.02680358585330592 -0.28020948846944671 0 0.01717832382577638 -0.2791797631630728 0 0.01588460822170739 -0.29248066863844979 0 0.024959002096379579 -0.29004479110498249 0 0.01717832382577638 -0.2791797631630728 0 0.024959002096379579 -0.29004479110498249 0 0.036196823668426387 -0.30076828015666812 0 0.024959002096379579 -0.29004479110498249 0 0.034565875964103758 -0.28568719502346451 0 0.02680358585330592 -0.28020948846944671 0 0.010514216402271549 -0.30816252041530962 0 0.01588460822170739 -0.29248066863844979 0 0.027176422718459461 -0.31027514937306411 0 0.01588460822170739 -0.29248066863844979 0 0.024959002096379579 -0.29004479110498249 0 0.027176422718459461 -0.31027514937306411 0 0.02005928160718292 -0.31878225829209023 0 0.010514216402271549 -0.30816252041530962 0 0.027176422718459461 -0.31027514937306411 0 0.024959002096379579 -0.29004479110498249 0 0.027176422718459461 -0.31027514937306411 0 0.036196823668426387 -0.30076828015666812 0 0.010514216402271549 -0.30816252041530962 0 0.027176422718459461 -0.31027514937306411 0 0.01588460822170739 -0.29248066863844979 0 0.027176422718459461 -0.31027514937306411 0 0.030084924720740348 -0.31485858305071052 0 0.027176422718459461 -0.31027514937306411 0 0.043220948197292157 -0.31230946154618389 0 0.027176422718459461 -0.31027514937306411 0 0.043220948197292157 -0.31230946154618389 0 0.027176422718459461 -0.31027514937306411 0 0.043220948197292157 -0.31230946154618389 0 0.036196823668426387 -0.30076828015666812 0 0.036196823668426387 -0.30076828015666812 0 0.050117888084116012 -0.2820022119164784 0 0.047434645240472847 -0.31149176920835397 0 0.036196823668426387 -0.30076828015666812 0 0.047434645240472847 -0.31149176920835397 0 0.043220948197292157 -0.31230946154618389 0 0.036196823668426387 -0.30076828015666812 0 0.047434645240472847 -0.31149176920835397 0 0.049068544335304082 -0.31305088802356579 0 0.043220948197292157 -0.31230946154618389 0 0.047434645240472847 -0.31149176920835397 0 0.043220948197292157 -0.31230946154618389 0 0.047434645240472847 -0.31149176920835397 0 0.024959002096379579 -0.29004479110498249 0 0.036196823668426387 -0.30076828015666812 0 0.034565875964103758 -0.28568719502346451 0 0.036196823668426387 -0.30076828015666812 0 0.034565875964103758 -0.28568719502346451 0 0.050117888084116012 -0.2820022119164784 0 0.050117888084116012 -0.2820022119164784 0 0.059032659859497537 -0.30924110723839571 0 0.06869787987090227 -0.29041771043677872 0 0.050117888084116012 -0.2820022119164784 0 0.059032659859497537 -0.30924110723839571 0 0.050117888084116012 -0.2820022119164784 0 0.059032659859497537 -0.30924110723839571 0 0.047434645240472847 -0.31149176920835397 0 0.060764885790979439 -0.31453388668473958 0 0.049068544335304082 -0.31305088802356579 0 0.059032659859497537 -0.30924110723839571 0 0.060764885790979439 -0.31453388668473958 0 0.059032659859497537 -0.30924110723839571 0 0.059032659859497537 -0.30924110723839571 0 0.047434645240472847 -0.31149176920835397 0 0.049068544335304082 -0.31305088802356579 0 0.059032659859497537 -0.30924110723839571 0 0.047434645240472847 -0.31149176920835397 0 0.049068544335304082 -0.31305088802356579 0 0.047434645240472847 -0.31149176920835397 0 0.06275993553609413 -0.26735541517711298 0 0.057215552496959338 -0.2504827743481286 0 0.043428754180623128 -0.25505209650181099 0 0.06275993553609413 -0.26735541517711298 0 0.047852073073311782 -0.26981866459542991 0 0.043428754180623128 -0.25505209650181099 0 0.06275993553609413 -0.26735541517711298 0 0.043428754180623128 -0.25505209650181099 0 0.06869787987090227 -0.29041771043677872 0 0.06275993553609413 -0.26735541517711298 0 0.050117888084116012 -0.2820022119164784 0 0.06275993553609413 -0.26735541517711298 0 0.050117888084116012 -0.2820022119164784 0 0.047852073073311782 -0.26981866459542991 0 0.047852073073311782 -0.26981866459542991 0 0.035101714492413873 -0.27486493478631702 0 0.043428754180623128 -0.25505209650181099 0 0.035101714492413873 -0.27486493478631702 0 0.043428754180623128 -0.25505209650181099 0 0.02389125788364619 -0.26864866858893421 0 0.034565875964103758 -0.28568719502346451 0 0.050117888084116012 -0.2820022119164784 0 0.035101714492413873 -0.27486493478631702 0 0.050117888084116012 -0.2820022119164784 0 0.047852073073311782 -0.26981866459542991 0 0.035101714492413873 -0.27486493478631702 0 0.034565875964103758 -0.28568719502346451 0 0.035101714492413873 -0.27486493478631702 0 0.02680358585330592 -0.28020948846944671 0 0.043428754180623128 -0.25505209650181099 0 0.020802600284906009 -0.25524651469675302 0 0.02389125788364619 -0.26864866858893421 0 0.020802600284906009 -0.25524651469675302 0 0.02389125788364619 -0.26864866858893421 0 0.0045927937249545664 -0.27468618790383598 0 0.035101714492413873 -0.27486493478631702 0 0.02680358585330592 -0.28020948846944671 0 0.02389125788364619 -0.26864866858893421 0 0.02680358585330592 -0.28020948846944671 0 0.02389125788364619 -0.26864866858893421 0 0.01717832382577638 -0.2791797631630728 0 0.02389125788364619 -0.26864866858893421 0 0.01717832382577638 -0.2791797631630728 0 0.0045927937249545664 -0.27468618790383598 0 -0.0044136576406840333 -0.26136957463815791 0 0.0045927937249545664 -0.27468618790383598 0 0.020802600284906009 -0.25524651469675302 0 0.0045927937249545664 -0.27468618790383598 0 0.020802600284906009 -0.25524651469675302 0 0.0045927937249545664 -0.27468618790383598 0 0.0069827734095793048 -0.25234323696199451 0 -0.0044136576406840333 -0.26136957463815791 0 0.0045927937249545664 -0.27468618790383598 0 0.0069827734095793048 -0.25234323696199451 0 -0.0044136576406840333 -0.26136957463815791 0 -0.001184802634769165 -0.24082336986081099 0 0.0069827734095793048 -0.25234323696199451 0 -0.001184802634769165 -0.24082336986081099 0 0.0069827734095793048 -0.25234323696199451 0 0.018315653970119389 -0.23205092496205529 0 0.020802600284906009 -0.25524651469675302 0 0.0069827734095793048 -0.25234323696199451 0 0.018315653970119389 -0.23205092496205529 0 -0.001184802634769165 -0.24082336986081099 0 0.0027647694815844878 -0.21569101881474459 0 -0.001184802634769165 -0.24082336986081099 0 0.018315653970119389 -0.23205092496205529 0 0.0027647694815844878 -0.21569101881474459 0 0.018315653970119389 -0.23205092496205529 0 0.0027647694815844878 -0.21569101881474459 0 0.02023830379352658 -0.20955774354422599 0 0.018315653970119389 -0.23205092496205529 0 0.02023830379352658 -0.20955774354422599 0 0.042606337052894211 -0.21854868137417199 0 0.020802600284906009 -0.25524651469675302 0 0.018315653970119389 -0.23205092496205529 0 0.037012406844857827 -0.2358068414896701 0 0.020802600284906009 -0.25524651469675302 0 0.037012406844857827 -0.2358068414896701 0 -0.0053809183871278742 -0.1946638549862337 0 0.0067143415979386452 -0.1905586677686783 0 0.0027647694815844878 -0.21569101881474459 0 0.0070475340763705777 -0.18843846079761209 0 0.0067143415979386452 -0.1905586677686783 0 0.032933618045151367 -0.19530201330107241 0 0.0067143415979386452 -0.1905586677686783 0 0.0027647694815844878 -0.21569101881474459 0 0.0067143415979386452 -0.1905586677686783 0 0.0055394191727325256 -0.18803859244228679 0 -0.0053809183871278742 -0.1946638549862337 0 0.0067143415979386452 -0.1905586677686783 0 0.0055394191727325256 -0.18803859244228679 0 0.0070475340763705777 -0.18843846079761209 0 0.0067143415979386452 -0.1905586677686783 0 0.0055394191727325256 -0.18803859244228679 0 0.0070475340763705777 -0.18843846079761209 0 0.0055394191727325256 -0.18803859244228679 0 0.0070475340763705777 -0.18843846079761209 0 0.0067143415979386452 -0.1905586677686783 0 0.0067143415979386452 -0.1905586677686783 0 0.0027647694815844878 -0.21569101881474459 0 0.02023830379352658 -0.20955774354422599 0 0.0067143415979386452 -0.1905586677686783 0 0.02023830379352658 -0.20955774354422599 0 0.032933618045151367 -0.19530201330107241 0 0.0070475340763705777 -0.18843846079761209 0 0.032933618045151367 -0.19530201330107241 0 0.018813506983312599 -0.18169837243115899 0 0.0070475340763705777 -0.18843846079761209 0 0.032933618045151367 -0.19530201330107241 0 0.032933618045151367 -0.19530201330107241 0 0.058819702013932128 -0.20216556580453299 0 0.044281493637246719 -0.18669645359169679 0 0.032933618045151367 -0.19530201330107241 0 0.058819702013932128 -0.20216556580453299 0 0.032933618045151367 -0.19530201330107241 0 0.042606337052894211 -0.21854868137417199 0 0.058819702013932128 -0.20216556580453299 0 0.02023830379352658 -0.20955774354422599 0 0.032933618045151367 -0.19530201330107241 0 0.042606337052894211 -0.21854868137417199 0 0.042606337052894211 -0.21854868137417199 0 0.058819702013932128 -0.20216556580453299 0 0.068222863114837995 -0.21894810374173679 0 0.058819702013932128 -0.20216556580453299 0 0.060213145762182722 -0.1865183279598982 0 0.044281493637246719 -0.18669645359169679 0 0.043428754180623128 -0.25505209650181099 0 0.020802600284906009 -0.25524651469675302 0 0.037012406844857827 -0.2358068414896701 0 0.057215552496959338 -0.2504827743481286 0 0.043428754180623128 -0.25505209650181099 0 0.037012406844857827 -0.2358068414896701 0 0.018315653970119389 -0.23205092496205529 0 0.042606337052894211 -0.21854868137417199 0 0.037012406844857827 -0.2358068414896701 0 0.042606337052894211 -0.21854868137417199 0 0.062701811587834236 -0.23600957677591089 0 0.068222863114837995 -0.21894810374173679 0 0.042606337052894211 -0.21854868137417199 0 0.037012406844857827 -0.2358068414896701 0 0.062701811587834236 -0.23600957677591089 0 0.057215552496959338 -0.2504827743481286 0 0.037012406844857827 -0.2358068414896701 0 0.062701811587834236 -0.23600957677591089 0 0.077162150207926383 -0.25443221183474329 0 0.057215552496959338 -0.2504827743481286 0 0.062701811587834236 -0.23600957677591089 0 0.077162150207926383 -0.25443221183474329 0 0.062701811587834236 -0.23600957677591089 0 0.090277956737490506 -0.23667342971456429 0 0.090277956737490506 -0.23667342971456429 0 0.084705785982713749 -0.2090291183079902 0 0.090277956737490506 -0.23667342971456429 0 0.092038680031141754 -0.22895992241737029 0 0.084705785982713749 -0.2090291183079902 0 0.090277956737490506 -0.23667342971456429 0 0.068222863114837995 -0.21894810374173679 0 0.084705785982713749 -0.2090291183079902 0 0.062701811587834236 -0.23600957677591089 0 0.090277956737490506 -0.23667342971456429 0 0.068222863114837995 -0.21894810374173679 0 0.058819702013932128 -0.20216556580453299 0 0.084705785982713749 -0.2090291183079902 0 0.058819702013932128 -0.20216556580453299 0 0.082893808019854187 -0.20003964449759051 0 0.084705785982713749 -0.2090291183079902 0 0.058819702013932128 -0.20216556580453299 0 0.068222863114837995 -0.21894810374173679 0 0.084705785982713749 -0.2090291183079902 0 0.058819702013932128 -0.20216556580453299 0 0.073300198786763152 -0.19432031294960289 0 0.082893808019854187 -0.20003964449759051 0 0.058819702013932128 -0.20216556580453299 0 0.073300198786763152 -0.19432031294960289 0 0.060213145762182722 -0.1865183279598982 0 0.073300198786763152 -0.19432031294960289 0 0.060213145762182722 -0.1865183279598982 0 0.073300198786763152 -0.19432031294960289 0 0.082893808019854187 -0.20003964449759051 0 0.080425528396652471 -0.18779416718807521 0 0.082893808019854187 -0.20003964449759051 0 0.096118828811243215 -0.18965820471940431 0 0.073300198786763152 -0.19432031294960289 0 0.080425528396652471 -0.18779416718807521 0 0.082893808019854187 -0.20003964449759051 0 0.080425528396652471 -0.18779416718807521 0 0.082893808019854187 -0.20003964449759051 0 0.082893808019854187 -0.20003964449759051 0 0.084705785982713749 -0.2090291183079902 0 0.1085996221098053 -0.21536443727571219 0 0.082893808019854187 -0.20003964449759051 0 0.084705785982713749 -0.2090291183079902 0 0.082893808019854187 -0.20003964449759051 0 0.1085996221098053 -0.21536443727571219 0 0.082893808019854187 -0.20003964449759051 0 0.1085996221098053 -0.21536443727571219 0 0.1032272552004823 -0.20208987846459689 0 0.092038680031141754 -0.22895992241737029 0 0.084705785982713749 -0.2090291183079902 0 0.1085996221098053 -0.21536443727571219 0 0.084705785982713749 -0.2090291183079902 0 0.1085996221098053 -0.21536443727571219 0 0.082893808019854187 -0.20003964449759051 0 0.096118828811243215 -0.18965820471940431 0 0.1032272552004823 -0.20208987846459689 0 0.096118828811243215 -0.18965820471940431 0 0.1032272552004823 -0.20208987846459689 0 0.11751407728223209 -0.20307117996901261 0 0.096118828811243215 -0.18965820471940431 0 0.11751407728223209 -0.20307117996901261 0 0.11751407728223209 -0.20307117996901261 0 0.1146139315735529 -0.1835054846847731 0 0.12689186766606159 -0.19246700357753219 0 0.096118828811243215 -0.18965820471940431 0 0.11751407728223209 -0.20307117996901261 0 0.1146139315735529 -0.1835054846847731 0 0.11751407728223209 -0.20307117996901261 0 0.12951356542420001 -0.20489977321663841 0 0.12689186766606159 -0.19246700357753219 0 0.1085996221098053 -0.21536443727571219 0 0.1275995492341914 -0.2204021632421978 0 0.1085996221098053 -0.21536443727571219 0 0.1228376410344912 -0.2116052311935725 0 0.1275995492341914 -0.2204021632421978 0 0.1085996221098053 -0.21536443727571219 0 0.11751407728223209 -0.20307117996901261 0 0.1228376410344912 -0.2116052311935725 0 0.1085996221098053 -0.21536443727571219 0 0.1032272552004823 -0.20208987846459689 0 0.11751407728223209 -0.20307117996901261 0 0.11751407728223209 -0.20307117996901261 0 0.1228376410344912 -0.2116052311935725 0 0.12951356542420001 -0.20489977321663841 0 0.1207931648286845 -0.22263374665234059 0 0.11222528271012459 -0.23673284416309789 0 0.10479678839503689 -0.23440891829302879 0 0.1085996221098053 -0.21536443727571219 0 0.1207931648286845 -0.22263374665234059 0 0.1275995492341914 -0.2204021632421978 0 0.1085996221098053 -0.21536443727571219 0 0.1207931648286845 -0.22263374665234059 0 0.1207931648286845 -0.22263374665234059 0 0.12303509207139229 -0.23786148011463151 0 0.11222528271012459 -0.23673284416309789 0 0.12651154311148119 -0.25067683321005912 0 0.12303509207139229 -0.23786148011463151 0 0.1086488576677434 -0.24704464851777039 0 0.12303509207139229 -0.23786148011463151 0 0.11222528271012459 -0.23673284416309789 0 0.1086488576677434 -0.24704464851777039 0 0.11222528271012459 -0.23673284416309789 0 0.10479678839503689 -0.23440891829302879 0 0.1086488576677434 -0.24704464851777039 0 0.090277956737490506 -0.23667342971456429 0 0.10479678839503689 -0.23440891829302879 0 0.1086488576677434 -0.24704464851777039 0 0.095850127492265791 -0.26431774112113871 0 0.090277956737490506 -0.23667342971456429 0 0.1086488576677434 -0.24704464851777039 0 0.090277956737490506 -0.23667342971456429 0 0.092038680031141754 -0.22895992241737029 0 0.10479678839503689 -0.23440891829302879 0 0.092038680031141754 -0.22895992241737029 0 0.1085996221098053 -0.21536443727571219 0 0.1207931648286845 -0.22263374665234059 0 0.092038680031141754 -0.22895992241737029 0 0.1207931648286845 -0.22263374665234059 0 0.10479678839503689 -0.23440891829302879 0 0.092038680031141754 -0.22895992241737029 0 0.1207931648286845 -0.22263374665234059 0 0.098720974722655438 -0.13344485393543709 0 0.11145091527001751 -0.15105043652999009 0 0.092187300535153407 -0.15716015009739631 0 0.098720974722655438 -0.13344485393543709 0 0.1215763880622987 -0.13563863986440339 0 0.11145091527001751 -0.15105043652999009 0 0.098720974722655438 -0.13344485393543709 0 0.1205749168059167 -0.11931849550142309 0 0.098720974722655438 -0.13344485393543709 0 0.1215763880622987 -0.13563863986440339 0 0.1205749168059167 -0.11931849550142309 0 0.11145091527001751 -0.15105043652999009 0 0.1218990906613112 -0.16386364713106691 0 0.12960368550217591 -0.1497928036050048 0 0.1215763880622987 -0.13563863986440339 0 0.11145091527001751 -0.15105043652999009 0 0.12960368550217591 -0.1497928036050048 0 0.11145091527001751 -0.15105043652999009 0 0.1218990906613112 -0.16386364713106691 0 0.1060699888203137 -0.1674214848467889 0 0.1218990906613112 -0.16386364713106691 0 0.1146139315735529 -0.1835054846847731 0 0.1060699888203137 -0.1674214848467889 0 0.1146139315735529 -0.1835054846847731 0 0.12689186766606159 -0.19246700357753219 0 0.13202107834196131 -0.17607034800289961 0 0.1218990906613112 -0.16386364713106691 0 0.1146139315735529 -0.1835054846847731 0 0.13202107834196131 -0.17607034800289961 0 0.096118828811243215 -0.18965820471940431 0 0.1146139315735529 -0.1835054846847731 0 0.1027528456187132 -0.17874862662099031 0 0.096118828811243215 -0.18965820471940431 0 0.1027528456187132 -0.17874862662099031 0 0.093078466716995489 -0.17309689476181561 0 0.1146139315735529 -0.1835054846847731 0 0.1027528456187132 -0.17874862662099031 0 0.1060699888203137 -0.1674214848467889 0 0.1027528456187132 -0.17874862662099031 0 0.1060699888203137 -0.1674214848467889 0 0.093078466716995489 -0.17309689476181561 0 0.11145091527001751 -0.15105043652999009 0 0.1060699888203137 -0.1674214848467889 0 0.092187300535153407 -0.15716015009739631 0 0.1060699888203137 -0.1674214848467889 0 0.092187300535153407 -0.15716015009739631 0 0.093078466716995489 -0.17309689476181561 0 0.092187300535153407 -0.15716015009739631 0 0.093078466716995489 -0.17309689476181561 0 0.074723580340252532 -0.17624522946979909 0 0.092187300535153407 -0.15716015009739631 0 0.074723580340252532 -0.17624522946979909 0 0.076867032639393984 -0.14757121236945089 0 0.096118828811243215 -0.18965820471940431 0 0.074723580340252532 -0.17624522946979909 0 0.096118828811243215 -0.18965820471940431 0 0.093078466716995489 -0.17309689476181561 0 0.074723580340252532 -0.17624522946979909 0 0.080425528396652471 -0.18779416718807521 0 0.096118828811243215 -0.18965820471940431 0 0.074723580340252532 -0.17624522946979909 0 0.073300198786763152 -0.19432031294960289 0 0.080425528396652471 -0.18779416718807521 0 0.074723580340252532 -0.17624522946979909 0 0.073300198786763152 -0.19432031294960289 0 0.074723580340252532 -0.17624522946979909 0 0.073300198786763152 -0.19432031294960289 0 0.074723580340252532 -0.17624522946979909 0 0.060213145762182722 -0.1865183279598982 0 0.074723580340252532 -0.17624522946979909 0 0.060213145762182722 -0.1865183279598982 0 0.053292474451973423 -0.16280977471258559 0 0.074723580340252532 -0.17624522946979909 0 0.076867032639393984 -0.14757121236945089 0 0.074723580340252532 -0.17624522946979909 0 0.076867032639393984 -0.14757121236945089 0 0.053292474451973423 -0.16280977471258559 0 0.074723580340252532 -0.17624522946979909 0 0.053292474451973423 -0.16280977471258559 0 0.076867032639393984 -0.14757121236945089 0 0.053292474451973423 -0.16280977471258559 0 0.098720974722655438 -0.13344485393543709 0 0.092187300535153407 -0.15716015009739631 0 0.076867032639393984 -0.14757121236945089 0 0.098720974722655438 -0.13344485393543709 0 0.076867032639393984 -0.14757121236945089 0 0.098720974722655438 -0.13344485393543709 0 0.076867032639393984 -0.14757121236945089 0 0.078829858968751776 -0.1213135178289516 0 0.076867032639393984 -0.14757121236945089 0 0.055371455508232803 -0.1231280070022614 0 0.078829858968751776 -0.1213135178289516 0 0.076867032639393984 -0.14757121236945089 0 0.078829858968751776 -0.1213135178289516 0 0.076867032639393984 -0.14757121236945089 0 0.05110011122583847 -0.14325249646536661 0 0.055371455508232803 -0.1231280070022614 0 0.05110011122583847 -0.14325249646536661 0 0.040376371290514211 -0.1288818322866554 0 0.055371455508232803 -0.1231280070022614 0 0.05110011122583847 -0.14325249646536661 0 0.040418710073851491 -0.1547390349309386 0 0.053292474451973423 -0.16280977471258559 0 0.076867032639393984 -0.14757121236945089 0 0.05110011122583847 -0.14325249646536661 0 0.053292474451973423 -0.16280977471258559 0 0.05110011122583847 -0.14325249646536661 0 0.040418710073851491 -0.1547390349309386 0 0.035445664672994863 -0.1423572199195606 0 0.040418710073851491 -0.1547390349309386 0 0.035445664672994863 -0.1423572199195606 0 0.026917808069804629 -0.15052730972613271 0 0.05110011122583847 -0.14325249646536661 0 0.035445664672994863 -0.1423572199195606 0 0.040376371290514211 -0.1288818322866554 0 0.060213145762182722 -0.1865183279598982 0 0.044281493637246719 -0.18669645359169679 0 0.037532483504510612 -0.17299701142220669 0 0.060213145762182722 -0.1865183279598982 0 0.053292474451973423 -0.16280977471258559 0 0.037532483504510612 -0.17299701142220669 0 0.060213145762182722 -0.1865183279598982 0 0.037532483504510612 -0.17299701142220669 0 0.040418710073851491 -0.1547390349309386 0 0.037532483504510612 -0.17299701142220669 0 0.026917808069804629 -0.15052730972613271 0 0.040418710073851491 -0.1547390349309386 0 0.053292474451973423 -0.16280977471258559 0 0.037532483504510612 -0.17299701142220669 0 0.053292474451973423 -0.16280977471258559 0 0.037532483504510612 -0.17299701142220669 0 0.040418710073851491 -0.1547390349309386 0 0.053292474451973423 -0.16280977471258559 0 0.032933618045151367 -0.19530201330107241 0 0.044281493637246719 -0.18669645359169679 0 0.028228656443800342 -0.17901099257796721 0 0.044281493637246719 -0.18669645359169679 0 0.037532483504510612 -0.17299701142220669 0 0.028228656443800342 -0.17901099257796721 0 0.037532483504510612 -0.17299701142220669 0 0.028228656443800342 -0.17901099257796721 0 0.037532483504510612 -0.17299701142220669 0 0.028228656443800342 -0.17901099257796721 0 0.02069049434262718 -0.17237552158500291 0 0.032933618045151367 -0.19530201330107241 0 0.018813506983312599 -0.18169837243115899 0 0.028228656443800342 -0.17901099257796721 0 0.018813506983312599 -0.18169837243115899 0 0.02069049434262718 -0.17237552158500291 0 0.0094626154188316054 -0.17307054996690049 0 0.018813506983312599 -0.18169837243115899 0 0.028228656443800342 -0.17901099257796721 0 0.02069049434262718 -0.17237552158500291 0 0.037532483504510612 -0.17299701142220669 0 0.02069049434262718 -0.17237552158500291 0 0.011877696761288191 -0.15770263913618851 0 0.037532483504510612 -0.17299701142220669 0 0.011877696761288191 -0.15770263913618851 0 0.037532483504510612 -0.17299701142220669 0 0.011877696761288191 -0.15770263913618851 0 0.026917808069804629 -0.15052730972613271 0 6.6905421586910963e-06 -0.1563607066549132 0 0.0094626154188316054 -0.17307054996690049 0 0.0093389094017142238 -0.1561891142170023 0 -0.0058359843666079686 -0.16363964220332 0 6.6905421586910963e-06 -0.1563607066549132 0 0.0094626154188316054 -0.17307054996690049 0 0.011877696761288191 -0.15770263913618851 0 0.0094626154188316054 -0.17307054996690049 0 0.0093389094017142238 -0.1561891142170023 0 0.011877696761288191 -0.15770263913618851 0 0.0093389094017142238 -0.1561891142170023 0 0.011877696761288191 -0.15770263913618851 0 0.0094626154188316054 -0.17307054996690049 0 0.02069049434262718 -0.17237552158500291 0 0.011877696761288191 -0.15770263913618851 0 0.0094626154188316054 -0.17307054996690049 0 -0.0058359843666079686 -0.16363964220332 0 0.0055394191727325256 -0.18803859244228679 0 0.0094626154188316054 -0.17307054996690049 0 0.0070475340763705777 -0.18843846079761209 0 0.0055394191727325256 -0.18803859244228679 0 0.0094626154188316054 -0.17307054996690049 0 0.0070475340763705777 -0.18843846079761209 0 0.0094626154188316054 -0.17307054996690049 0 0.0070475340763705777 -0.18843846079761209 0 0.018813506983312599 -0.18169837243115899 0 0.0094626154188316054 -0.17307054996690049 0 0.040376371290514211 -0.1288818322866554 0 0.01537192761671388 -0.13546776560880849 0 0.033311741032384698 -0.11562406365358199 0 0.035445664672994863 -0.1423572199195606 0 0.040376371290514211 -0.1288818322866554 0 0.01537192761671388 -0.13546776560880849 0 0.035445664672994863 -0.1423572199195606 0 0.026917808069804629 -0.15052730972613271 0 0.01537192761671388 -0.13546776560880849 0 0.011877696761288191 -0.15770263913618851 0 0.026917808069804629 -0.15052730972613271 0 0.01537192761671388 -0.13546776560880849 0 0.011877696761288191 -0.15770263913618851 0 0.0093389094017142238 -0.1561891142170023 0 0.01537192761671388 -0.13546776560880849 0 0.0093389094017142238 -0.1561891142170023 0 0.0037612551096544299 -0.14614698209637009 0 0.01537192761671388 -0.13546776560880849 0 0.011877696761288191 -0.15770263913618851 0 0.01537192761671388 -0.13546776560880849 0 6.6905421586910963e-06 -0.1563607066549132 0 0.0093389094017142238 -0.1561891142170023 0 0.0037612551096544299 -0.14614698209637009 0 -0.001804328442181366 -0.1347350379457383 0 0.01537192761671388 -0.13546776560880849 0 0.0023565758045892659 -0.1186395936522277 0 -0.001804328442181366 -0.1347350379457383 0 0.0037612551096544299 -0.14614698209637009 0 0.01537192761671388 -0.13546776560880849 0 0.01537192761671388 -0.13546776560880849 0 0.0023565758045892659 -0.1186395936522277 0 0.01886615847213317 -0.1132328920814273 0 0.0023565758045892659 -0.1186395936522277 0 0.01886615847213317 -0.1132328920814273 0 0.0053907052104941768 -0.1009810954330336 0 0.01537192761671388 -0.13546776560880849 0 0.01886615847213317 -0.1132328920814273 0 0.033311741032384698 -0.11562406365358199 0 0.01537192761671388 -0.13546776560880849 0 0.01886615847213317 -0.1132328920814273 0 0.01886615847213317 -0.1132328920814273 0 0.022242527465028819 -0.093503621502527001 0 0.033311741032384698 -0.11562406365358199 0 0.01886615847213317 -0.1132328920814273 0 0.0053907052104941768 -0.1009810954330336 0 0.022242527465028819 -0.093503621502527001 0 -0.003738735019576396 -0.076955575660818856 0 0.0053907052104941768 -0.1009810954330336 0 0.022242527465028819 -0.093503621502527001 0 -0.011946396347774609 -0.062471114810011399 0 -0.003738735019576396 -0.076955575660818856 0 0.019662620467299639 -0.061240274958773419 0 -0.003738735019576396 -0.076955575660818856 0 0.022242527465028819 -0.093503621502527001 0 0.019662620467299639 -0.061240274958773419 0 0.022242527465028819 -0.093503621502527001 0 0.037196737266713277 -0.087170031535929199 0 0.019662620467299639 -0.061240274958773419 0 0.045961600904296629 -0.07578818107419788 0 0.026795717917089911 -0.059263227253031493 0 0.019662620467299639 -0.061240274958773419 0 0.037196737266713277 -0.087170031535929199 0 0.04521513355785696 -0.082458475431184633 0 0.045961600904296629 -0.07578818107419788 0 0.037196737266713277 -0.087170031535929199 0 0.050537607379422853 -0.090050283850396359 0 0.043778574471002737 -0.1027638879925514 0 0.037196737266713277 -0.087170031535929199 0 0.04521513355785696 -0.082458475431184633 0 0.050537607379422853 -0.090050283850396359 0 0.037196737266713277 -0.087170031535929199 0 0.045961600904296629 -0.07578818107419788 0 0.019662620467299639 -0.061240274958773419 0 0.045961600904296629 -0.07578818107419788 0 0.026795717917089911 -0.059263227253031493 0 0.045961600904296629 -0.07578818107419788 0 0.026795717917089911 -0.059263227253031493 0 0.049574413333259737 -0.061694908330710799 0 0.045961600904296629 -0.07578818107419788 0 0.019662620467299639 -0.061240274958773419 0 0.045961600904296629 -0.07578818107419788 0 0.049574413333259737 -0.061694908330710799 0 0.062698336713607486 -0.065698741136813385 0 0.045961600904296629 -0.07578818107419788 0 0.063377143101204597 -0.085422002181323883 0 0.062698336713607486 -0.065698741136813385 0 0.045961600904296629 -0.07578818107419788 0 0.050537607379422853 -0.090050283850396359 0 0.063377143101204597 -0.085422002181323883 0 0.050537607379422853 -0.090050283850396359 0 0.062665764316778172 -0.103050431570789 0 0.063377143101204597 -0.085422002181323883 0 0.045961600904296629 -0.07578818107419788 0 0.063377143101204597 -0.085422002181323883 0 0.04521513355785696 -0.082458475431184633 0 0.045961600904296629 -0.07578818107419788 0 0.050537607379422853 -0.090050283850396359 0 0.050537607379422853 -0.090050283850396359 0 0.043778574471002737 -0.1027638879925514 0 0.062665764316778172 -0.103050431570789 0 0.055371455508232803 -0.1231280070022614 0 0.043778574471002737 -0.1027638879925514 0 0.062665764316778172 -0.103050431570789 0 0.040376371290514211 -0.1288818322866554 0 0.055371455508232803 -0.1231280070022614 0 0.033311741032384698 -0.11562406365358199 0 0.055371455508232803 -0.1231280070022614 0 0.033311741032384698 -0.11562406365358199 0 0.043778574471002737 -0.1027638879925514 0 0.022242527465028819 -0.093503621502527001 0 0.037196737266713277 -0.087170031535929199 0 0.043778574471002737 -0.1027638879925514 0 0.022242527465028819 -0.093503621502527001 0 0.033311741032384698 -0.11562406365358199 0 0.043778574471002737 -0.1027638879925514 0 0.03052456030401458 0.004994064051146439 0 0.0245491007131983 -0.0112766778098697 0 0.0069692068873070771 -0.0018413908764851859 0 -0.0015524305269044619 -0.01547941763841521 0 0.0069692068873070771 -0.0018413908764851859 0 0.01224958364242911 -0.022863603483599618 0 0.0245491007131983 -0.0112766778098697 0 0.0069692068873070771 -0.0018413908764851859 0 0.01224958364242911 -0.022863603483599618 0 -0.012757401769296239 -0.0061955889141616319 0 0.0088835792673592484 -0.00060076243150794517 0 0.0069692068873070771 -0.0018413908764851859 0 -0.0088423661079532444 -0.028535830389459609 0 -0.0015524305269044619 -0.01547941763841521 0 0.01224958364242911 -0.022863603483599618 0 0.0245491007131983 -0.0112766778098697 0 0.01224958364242911 -0.022863603483599618 0 0.02971679836612208 -0.02341925009007341 0 0.01224958364242911 -0.022863603483599618 0 0.02971679836612208 -0.02341925009007341 0 0.026008045617748572 -0.037644469578511683 0 -0.0066363599696963966 -0.046692368843346772 0 -0.011946396347774609 -0.062471114810011399 0 0.019662620467299639 -0.061240274958773419 0 0.026008045617748572 -0.037644469578511683 0 0.0076298349298838559 -0.042738273431864177 0 0.026008045617748572 -0.037644469578511683 0 0.0076298349298838559 -0.042738273431864177 0 0.026795717917089911 -0.059263227253031493 0 0.026008045617748572 -0.037644469578511683 0 0.026795717917089911 -0.059263227253031493 0 0.037064103594525701 -0.041833447127863542 0 -0.0088423661079532444 -0.028535830389459609 0 0.01224958364242911 -0.022863603483599618 0 0.0076298349298838559 -0.042738273431864177 0 0.01224958364242911 -0.022863603483599618 0 0.026008045617748572 -0.037644469578511683 0 0.0076298349298838559 -0.042738273431864177 0 -0.0066363599696963966 -0.046692368843346772 0 0.0076298349298838559 -0.042738273431864177 0 -0.0066363599696963966 -0.046692368843346772 0 0.0076298349298838559 -0.042738273431864177 0 0.019662620467299639 -0.061240274958773419 0 -0.0066363599696963966 -0.046692368843346772 0 0.019662620467299639 -0.061240274958773419 0 0.0076298349298838559 -0.042738273431864177 0 0.026795717917089911 -0.059263227253031493 0 0.019662620467299639 -0.061240274958773419 0 0.0076298349298838559 -0.042738273431864177 0 0.026795717917089911 -0.059263227253031493 0 0.026795717917089911 -0.059263227253031493 0 0.046805326934947752 -0.048533635089917121 0 0.049574413333259737 -0.061694908330710799 0 0.026795717917089911 -0.059263227253031493 0 0.046805326934947752 -0.048533635089917121 0 0.037064103594525701 -0.041833447127863542 0 0.049574413333259737 -0.061694908330710799 0 0.059810987695514441 -0.050986768020229792 0 0.062698336713607486 -0.065698741136813385 0 0.046805326934947752 -0.048533635089917121 0 0.049574413333259737 -0.061694908330710799 0 0.059810987695514441 -0.050986768020229792 0 0.055113734064475998 -0.036379433892617753 0 0.044386256305614283 -0.032550665725162867 0 0.066482856912528865 -0.026426252895801059 0 0.046805326934947752 -0.048533635089917121 0 0.055113734064475998 -0.036379433892617753 0 0.044386256305614283 -0.032550665725162867 0 0.046805326934947752 -0.048533635089917121 0 0.059810987695514441 -0.050986768020229792 0 0.055113734064475998 -0.036379433892617753 0 0.059810987695514441 -0.050986768020229792 0 0.055113734064475998 -0.036379433892617753 0 0.06984548449155506 -0.040403736469075392 0 0.055113734064475998 -0.036379433892617753 0 0.06984548449155506 -0.040403736469075392 0 0.026008045617748572 -0.037644469578511683 0 0.044386256305614283 -0.032550665725162867 0 0.026008045617748572 -0.037644469578511683 0 0.044386256305614283 -0.032550665725162867 0 0.037064103594525701 -0.041833447127863542 0 0.046805326934947752 -0.048533635089917121 0 0.044386256305614283 -0.032550665725162867 0 0.037064103594525701 -0.041833447127863542 0 0.046805326934947752 -0.048533635089917121 0 0.044386256305614283 -0.032550665725162867 0 0.02971679836612208 -0.02341925009007341 0 0.026008045617748572 -0.037644469578511683 0 0.044386256305614283 -0.032550665725162867 0 0.02971679836612208 -0.02341925009007341 0 0.044386256305614283 -0.032550665725162867 0 0.041391005551619918 -0.01276083385322322 0 0.0245491007131983 -0.0112766778098697 0 0.02971679836612208 -0.02341925009007341 0 0.041391005551619918 -0.01276083385322322 0 0.044386256305614283 -0.032550665725162867 0 0.041391005551619918 -0.01276083385322322 0 0.044386256305614283 -0.032550665725162867 0 0.054162455559473341 -0.020750398996017681 0 0.041391005551619918 -0.01276083385322322 0 0.044386256305614283 -0.032550665725162867 0 0.066482856912528865 -0.026426252895801059 0 0.044386256305614283 -0.032550665725162867 0 0.054162455559473341 -0.020750398996017681 0 0.066482856912528865 -0.026426252895801059 0 0.054162455559473341 -0.020750398996017681 0 0.064910012134661077 -0.015677483672529871 0 0.066482856912528865 -0.026426252895801059 0 0.054162455559473341 -0.020750398996017681 0 0.054792388614655123 -0.01219002207352903 0 0.064910012134661077 -0.015677483672529871 0 0.054792388614655123 -0.01219002207352903 0 0.055178452084847222 -0.0019276438637697969 0 0.041391005551619918 -0.01276083385322322 0 0.054162455559473341 -0.020750398996017681 0 0.054792388614655123 -0.01219002207352903 0 0.041391005551619918 -0.01276083385322322 0 0.054792388614655123 -0.01219002207352903 0 0.055178452084847222 -0.0019276438637697969 0 0.064910012134661077 -0.015677483672529871 0 0.03052456030401458 0.004994064051146439 0 0.038395754797625657 0.0070289980187163772 0 0.041391005551619918 -0.01276083385322322 0 0.038395754797625657 0.0070289980187163772 0 0.055178452084847222 -0.0019276438637697969 0 0.041391005551619918 -0.01276083385322322 0 0.03052456030401458 0.004994064051146439 0 0.0245491007131983 -0.0112766778098697 0 0.041391005551619918 -0.01276083385322322 0 0.038395754797625657 0.0070289980187163772 0 0.041391005551619918 -0.01276083385322322 0 0.075628619070943648 0.00099664393814992338 0 0.089859016564825936 0.0038210315699359421 0 0.091744532110893923 -0.011979748449161319 0 0.091744532110893923 -0.011979748449161319 0 0.064910012134661077 -0.015677483672529871 0 0.075628619070943648 0.00099664393814992338 0 0.055178452084847222 -0.0019276438637697969 0 0.064910012134661077 -0.015677483672529871 0 0.075628619070943648 0.00099664393814992338 0 0.091744532110893923 -0.011979748449161319 0 0.064910012134661077 -0.015677483672529871 0 0.066482856912528865 -0.026426252895801059 0 0.088579457519443905 -0.020301840066440799 0 0.077165013575628327 -0.032244625597525389 0 0.076454006318659826 -0.019477735444493601 0 0.066482856912528865 -0.026426252895801059 0 0.088579457519443905 -0.020301840066440799 0 0.066482856912528865 -0.026426252895801059 0 0.088579457519443905 -0.020301840066440799 0 0.091744532110893923 -0.011979748449161319 0 0.076454006318659826 -0.019477735444493601 0 0.064910012134661077 -0.015677483672529871 0 0.076454006318659826 -0.019477735444493601 0 0.064910012134661077 -0.015677483672529871 0 0.066482856912528865 -0.026426252895801059 0 0.088579457519443905 -0.020301840066440799 0 0.085488439231719629 -0.032238410162348408 0 0.077165013575628327 -0.032244625597525389 0 0.091744532110893923 -0.011979748449161319 0 0.076454006318659826 -0.019477735444493601 0 0.088579457519443905 -0.020301840066440799 0 0.091744532110893923 -0.011979748449161319 0 0.088579457519443905 -0.020301840066440799 0 0.1002336762852126 -0.01997127637455931 0 0.088579457519443905 -0.020301840066440799 0 0.085488439231719629 -0.032238410162348408 0 0.095859169296380303 -0.028088154928847961 0 0.084577234918633254 -0.044428039045536299 0 0.085488439231719629 -0.032238410162348408 0 0.095644046333213634 -0.038307987630325488 0 0.085488439231719629 -0.032238410162348408 0 0.095644046333213634 -0.038307987630325488 0 0.095859169296380303 -0.028088154928847961 0 0.084577234918633254 -0.044428039045536299 0 0.085488439231719629 -0.032238410162348408 0 0.077165013575628327 -0.032244625597525389 0 0.084577234918633254 -0.044428039045536299 0 0.085488439231719629 -0.032238410162348408 0 0.084577234918633254 -0.044428039045536299 0 0.077165013575628327 -0.032244625597525389 0 0.06984548449155506 -0.040403736469075392 0 0.066482856912528865 -0.026426252895801059 0 0.077165013575628327 -0.032244625597525389 0 0.06984548449155506 -0.040403736469075392 0 0.055113734064475998 -0.036379433892617753 0 0.066482856912528865 -0.026426252895801059 0 0.06984548449155506 -0.040403736469075392 0 0.084577234918633254 -0.044428039045536299 0 0.06984548449155506 -0.040403736469075392 0 0.071923400785536301 -0.054251843167729831 0 0.084577234918633254 -0.044428039045536299 0 0.06984548449155506 -0.040403736469075392 0 0.059810987695514441 -0.050986768020229792 0 0.06984548449155506 -0.040403736469075392 0 0.071923400785536301 -0.054251843167729831 0 0.059810987695514441 -0.050986768020229792 0 0.071923400785536301 -0.054251843167729831 0 0.062698336713607486 -0.065698741136813385 0 0.084577234918633254 -0.044428039045536299 0 0.071923400785536301 -0.054251843167729831 0 0.082684960108371203 -0.069741931166994328 0 0.084577234918633254 -0.044428039045536299 0 0.082684960108371203 -0.069741931166994328 0 0.084577234918633254 -0.044428039045536299 0 0.09603003920115398 -0.062036103944903068 0 0.082684960108371203 -0.069741931166994328 0 0.084577234918633254 -0.044428039045536299 0 0.09603003920115398 -0.062036103944903068 0 0.1046561155323658 -0.049913028177421742 0 0.084577234918633254 -0.044428039045536299 0 0.1046561155323658 -0.049913028177421742 0 0.09603003920115398 -0.062036103944903068 0 0.1046561155323658 -0.049913028177421742 0 0.10882987970603041 -0.065531267485592529 0 0.1046561155323658 -0.049913028177421742 0 0.1247349961460974 -0.05539801730931046 0 0.1046561155323658 -0.049913028177421742 0 0.1247349961460974 -0.05539801730931046 0 0.10882987970603041 -0.065531267485592529 0 0.1046561155323658 -0.049913028177421742 0 0.1247349961460974 -0.05539801730931046 0 0.1238545082669008 -0.039017506878004649 0 0.1238545082669008 -0.039017506878004649 0 0.1093502271123117 -0.02962126041056579 0 0.12636311192563571 -0.02540035750176016 0 0.1046561155323658 -0.049913028177421742 0 0.1238545082669008 -0.039017506878004649 0 0.1093502271123117 -0.02962126041056579 0 0.1046561155323658 -0.049913028177421742 0 0.095644046333213634 -0.038307987630325488 0 0.1093502271123117 -0.02962126041056579 0 0.084577234918633254 -0.044428039045536299 0 0.1046561155323658 -0.049913028177421742 0 0.095644046333213634 -0.038307987630325488 0 0.095644046333213634 -0.038307987630325488 0 0.095859169296380303 -0.028088154928847961 0 0.1093502271123117 -0.02962126041056579 0 0.088579457519443905 -0.020301840066440799 0 0.095859169296380303 -0.028088154928847961 0 0.1002336762852126 -0.01997127637455931 0 0.095859169296380303 -0.028088154928847961 0 0.1002336762852126 -0.01997127637455931 0 0.1093502271123117 -0.02962126041056579 0 0.1093502271123117 -0.02962126041056579 0 0.11857905208712689 -0.0082820132257927503 0 0.12636311192563571 -0.02540035750176016 0 0.1002336762852126 -0.01997127637455931 0 0.1093502271123117 -0.02962126041056579 0 0.11857905208712689 -0.0082820132257927503 0 0.10323644798107071 0.0062004188101722332 0 0.091744532110893923 -0.011979748449161319 0 0.11857905208712689 -0.0082820132257927503 0 0.089859016564825936 0.0038210315699359421 0 0.10323644798107071 0.0062004188101722332 0 0.091744532110893923 -0.011979748449161319 0 0.091744532110893923 -0.011979748449161319 0 0.1002336762852126 -0.01997127637455931 0 0.11857905208712689 -0.0082820132257927503 0 0.091744532110893923 -0.011979748449161319 0 0.11857905208712689 -0.0082820132257927503 0 0.080792685298111067 -0.095055823288452551 0 0.078829858968751776 -0.1213135178289516 0 0.080792685298111067 -0.095055823288452551 0 0.092127670622072472 -0.1158833574473437 0 0.1068907081299191 -0.10949256492810711 0 0.098720974722655438 -0.13344485393543709 0 0.078829858968751776 -0.1213135178289516 0 0.092127670622072472 -0.1158833574473437 0 0.080792685298111067 -0.095055823288452551 0 0.078829858968751776 -0.1213135178289516 0 0.092127670622072472 -0.1158833574473437 0 0.055371455508232803 -0.1231280070022614 0 0.078829858968751776 -0.1213135178289516 0 0.062665764316778172 -0.103050431570789 0 0.080792685298111067 -0.095055823288452551 0 0.062665764316778172 -0.103050431570789 0 0.063377143101204597 -0.085422002181323883 0 0.080792685298111067 -0.095055823288452551 0 0.078829858968751776 -0.1213135178289516 0 0.062665764316778172 -0.103050431570789 0 0.080792685298111067 -0.095055823288452551 0 0.063377143101204597 -0.085422002181323883 0 0.080792685298111067 -0.095055823288452551 0 0.063377143101204597 -0.085422002181323883 0 0.082684960108371203 -0.069741931166994328 0 0.063377143101204597 -0.085422002181323883 0 0.062698336713607486 -0.065698741136813385 0 0.082684960108371203 -0.069741931166994328 0 0.071923400785536301 -0.054251843167729831 0 0.062698336713607486 -0.065698741136813385 0 0.082684960108371203 -0.069741931166994328 0 0.09603003920115398 -0.062036103944903068 0 0.082684960108371203 -0.069741931166994328 0 0.099402005740369226 -0.080566253848970426 0 0.080792685298111067 -0.095055823288452551 0 0.082684960108371203 -0.069741931166994328 0 0.099402005740369226 -0.080566253848970426 0 0.080792685298111067 -0.095055823288452551 0 0.082684960108371203 -0.069741931166994328 0 0.09603003920115398 -0.062036103944903068 0 0.099402005740369226 -0.080566253848970426 0 0.10882987970603041 -0.065531267485592529 0 0.1247349961460974 -0.05539801730931046 0 0.10882987970603041 -0.065531267485592529 0 0.123613597802222 -0.084087692281025361 0 0.099402005740369226 -0.080566253848970426 0 0.10882987970603041 -0.065531267485592529 0 0.123613597802222 -0.084087692281025361 0 0.099402005740369226 -0.080566253848970426 0 0.123613597802222 -0.084087692281025361 0 0.1068907081299191 -0.10949256492810711 0 0.123613597802222 -0.084087692281025361 0 0.1068907081299191 -0.10949256492810711 0 0.13276190907683061 -0.1023683529235717 0 0.080792685298111067 -0.095055823288452551 0 0.099402005740369226 -0.080566253848970426 0 0.1068907081299191 -0.10949256492810711 0 0.080792685298111067 -0.095055823288452551 0 0.1068907081299191 -0.10949256492810711 0 0.098720974722655438 -0.13344485393543709 0 0.1068907081299191 -0.10949256492810711 0 0.1205749168059167 -0.11931849550142309 0 0.098720974722655438 -0.13344485393543709 0 0.092127670622072472 -0.1158833574473437 0 0.1068907081299191 -0.10949256492810711 0 0.1068907081299191 -0.10949256492810711 0 0.13298873096172559 -0.12392930656776451 0 0.1068907081299191 -0.10949256492810711 0 0.13298873096172559 -0.12392930656776451 0 0.13276190907683061 -0.1023683529235717 0 0.1068907081299191 -0.10949256492810711 0 0.1205749168059167 -0.11931849550142309 0 0.13298873096172559 -0.12392930656776451 0 0.13298873096172559 -0.12392930656776451 0 0.15300629315069611 -0.10095264983075471 0 0.16121406000879709 -0.1188195161277967 0 0.13298873096172559 -0.12392930656776451 0 0.15300629315069611 -0.10095264983075471 0 0.13276190907683061 -0.1023683529235717 0 0.123613597802222 -0.084087692281025361 0 0.13276190907683061 -0.1023683529235717 0 0.14109386595620771 -0.077890138828510841 0 0.1247349961460974 -0.05539801730931046 0 0.123613597802222 -0.084087692281025361 0 0.14109386595620771 -0.077890138828510841 0 0.1247349961460974 -0.05539801730931046 0 0.14109386595620771 -0.077890138828510841 0 0.1448138767598291 -0.060883006441199171 0 0.1580715044165846 -0.076072365840336206 0 0.1448138767598291 -0.060883006441199171 0 0.16313671568247309 -0.051192081849917768 0 0.14109386595620771 -0.077890138828510841 0 0.1580715044165846 -0.076072365840336206 0 0.1448138767598291 -0.060883006441199171 0 0.15300629315069611 -0.10095264983075471 0 0.14109386595620771 -0.077890138828510841 0 0.1580715044165846 -0.076072365840336206 0 0.15300629315069611 -0.10095264983075471 0 0.1580715044165846 -0.076072365840336206 0 0.15300629315069611 -0.10095264983075471 0 0.13276190907683061 -0.1023683529235717 0 0.14109386595620771 -0.077890138828510841 0 0.15300629315069611 -0.10095264983075471 0 0.1580715044165846 -0.076072365840336206 0 0.17455217631402001 -0.085212720062120037 0 0.1580715044165846 -0.076072365840336206 0 0.17308966747968649 -0.066603050728107946 0 0.17455217631402001 -0.085212720062120037 0 0.1580715044165846 -0.076072365840336206 0 0.17308966747968649 -0.066603050728107946 0 0.16313671568247309 -0.051192081849917768 0 0.1580715044165846 -0.076072365840336206 0 0.16313671568247309 -0.051192081849917768 0 0.17308966747968649 -0.066603050728107946 0 0.17455217631402001 -0.085212720062120037 0 0.18768504711095971 -0.069930589658437736 0 0.17455217631402001 -0.085212720062120037 0 0.17777101033466319 -0.10522528329663799 0 0.19012422487070529 -0.088422053553533275 0 0.17455217631402001 -0.085212720062120037 0 0.19012422487070529 -0.088422053553533275 0 0.18768504711095971 -0.069930589658437736 0 0.17777101033466319 -0.10522528329663799 0 0.18049194437142221 -0.1226867532002523 0 0.17777101033466319 -0.10522528329663799 0 0.18049194437142221 -0.1226867532002523 0 0.16121406000879709 -0.1188195161277967 0 0.17777101033466319 -0.10522528329663799 0 0.18049194437142221 -0.1226867532002523 0 0.18872353843320111 -0.11276083257242581 0 0.18049194437142221 -0.1226867532002523 0 0.16121406000879709 -0.1188195161277967 0 0.1700117256062928 -0.12938388961848599 0 0.15300629315069611 -0.10095264983075471 0 0.17777101033466319 -0.10522528329663799 0 0.16121406000879709 -0.1188195161277967 0 0.15300629315069611 -0.10095264983075471 0 0.17455217631402001 -0.085212720062120037 0 0.17777101033466319 -0.10522528329663799 0 0.14849000675410531 0.0052258133296127713 0 0.15418277615101489 -0.0059406774282838824 0 0.16571409850826779 -0.0054541394863414777 0 0.14541357206335959 -0.0045842780024242143 0 0.1392893784286732 -0.017783230524045759 0 0.15503740670816649 -0.01730481680896255 0 0.14849000675410531 0.0052258133296127713 0 0.15418277615101489 -0.0059406774282838824 0 0.14541357206335959 -0.0045842780024242143 0 0.15418277615101489 -0.0059406774282838824 0 0.14541357206335959 -0.0045842780024242143 0 0.15503740670816649 -0.01730481680896255 0 0.13209524965815869 0.0039907213177849564 0 0.11857905208712689 -0.0082820132257927503 0 0.14541357206335959 -0.0045842780024242143 0 0.11857905208712689 -0.0082820132257927503 0 0.14541357206335959 -0.0045842780024242143 0 0.11857905208712689 -0.0082820132257927503 0 0.14541357206335959 -0.0045842780024242143 0 0.1392893784286732 -0.017783230524045759 0 0.11857905208712689 -0.0082820132257927503 0 0.1392893784286732 -0.017783230524045759 0 0.12636311192563571 -0.02540035750176016 0 0.1392893784286732 -0.017783230524045759 0 0.12636311192563571 -0.02540035750176016 0 0.1407423937331656 -0.032297776470391858 0 0.15503740670816649 -0.01730481680896255 0 0.154506771156636 -0.035824553728896008 0 0.1407423937331656 -0.032297776470391858 0 0.1392893784286732 -0.017783230524045759 0 0.15503740670816649 -0.01730481680896255 0 0.1407423937331656 -0.032297776470391858 0 0.154506771156636 -0.035824553728896008 0 0.141964876957517 -0.04576882377961998 0 0.16313671568247309 -0.051192081849917768 0 0.154506771156636 -0.035824553728896008 0 0.141964876957517 -0.04576882377961998 0 0.1407423937331656 -0.032297776470391858 0 0.1247349961460974 -0.05539801730931046 0 0.1238545082669008 -0.039017506878004649 0 0.141964876957517 -0.04576882377961998 0 0.1238545082669008 -0.039017506878004649 0 0.12636311192563571 -0.02540035750176016 0 0.1407423937331656 -0.032297776470391858 0 0.1238545082669008 -0.039017506878004649 0 0.141964876957517 -0.04576882377961998 0 0.1407423937331656 -0.032297776470391858 0 0.1247349961460974 -0.05539801730931046 0 0.1448138767598291 -0.060883006441199171 0 0.1247349961460974 -0.05539801730931046 0 0.141964876957517 -0.04576882377961998 0 0.1448138767598291 -0.060883006441199171 0 0.141964876957517 -0.04576882377961998 0 0.1448138767598291 -0.060883006441199171 0 0.16313671568247309 -0.051192081849917768 0 0.17308966747968649 -0.066603050728107946 0 0.18200289387439469 -0.050607496229727988 0 0.18768504711095971 -0.069930589658437736 0 0.17308966747968649 -0.066603050728107946 0 0.16313671568247309 -0.051192081849917768 0 0.18200289387439469 -0.050607496229727988 0 0.16313671568247309 -0.051192081849917768 0 0.18200289387439469 -0.050607496229727988 0 0.17979603827769081 -0.036569354434385401 0 0.18200289387439469 -0.050607496229727988 0 0.17979603827769081 -0.036569354434385401 0 0.19492741816330311 -0.03674666207714504 0 0.154506771156636 -0.035824553728896008 0 0.16313671568247309 -0.051192081849917768 0 0.1682019269483617 -0.02631179785949923 0 0.16313671568247309 -0.051192081849917768 0 0.17979603827769081 -0.036569354434385401 0 0.1682019269483617 -0.02631179785949923 0 0.16313671568247309 -0.051192081849917768 0 0.1682019269483617 -0.02631179785949923 0 0.15503740670816649 -0.01730481680896255 0 0.1682019269483617 -0.02631179785949923 0 0.16571409850826779 -0.0054541394863414777 0 0.15503740670816649 -0.01730481680896255 0 0.154506771156636 -0.035824553728896008 0 0.1682019269483617 -0.02631179785949923 0 0.1682019269483617 -0.02631179785949923 0 0.1825887519163209 -0.0074563362914573982 0 0.19071123671992149 -0.017988734155636978 0 0.17979603827769081 -0.036569354434385401 0 0.1682019269483617 -0.02631179785949923 0 0.19071123671992149 -0.017988734155636978 0 0.1682019269483617 -0.02631179785949923 0 0.1825887519163209 -0.0074563362914573982 0 0.1732671382142503 -0.0014315138690806329 0 0.1906641315900689 0.0001580717851183816 0 0.18230838893869339 -0.0005862331732170681 0 0.1825887519163209 -0.0074563362914573982 0 0.18230838893869339 -0.0005862331732170681 0 0.1825887519163209 -0.0074563362914573982 0 0.1732671382142503 -0.0014315138690806329 0 0.1666594630979519 0.0050470461669360634 0 0.1732671382142503 -0.0014315138690806329 0 0.16571409850826779 -0.0054541394863414777 0 0.1682019269483617 -0.02631179785949923 0 0.1732671382142503 -0.0014315138690806329 0 0.14849000675410531 0.0052258133296127713 0 0.16571409850826779 -0.0054541394863414777 0 0.1682019269483617 -0.02631179785949923 0 0.1732671382142503 -0.0014315138690806329 0 0.16571409850826779 -0.0054541394863414777 0 0.15418277615101489 -0.0059406774282838824 0 0.15503740670816649 -0.01730481680896255 0 0.16571409850826779 -0.0054541394863414777 0 0.20804856663215149 -0.0015634331779642921 0 0.20867169955948231 -0.02381755345350009 0 0.22776480419624809 -0.02059807933693153 0 0.20804856663215149 -0.0015634331779642921 0 0.22776480419624809 -0.02059807933693153 0 0.1906641315900689 0.0001580717851183816 0 0.20804856663215149 -0.0015634331779642921 0 0.19071123671992149 -0.017988734155636978 0 0.20804856663215149 -0.0015634331779642921 0 0.19071123671992149 -0.017988734155636978 0 0.20867169955948231 -0.02381755345350009 0 0.1906641315900689 0.0001580717851183816 0 0.1825887519163209 -0.0074563362914573982 0 0.19071123671992149 -0.017988734155636978 0 0.19071123671992149 -0.017988734155636978 0 0.20867169955948231 -0.02381755345350009 0 0.19492741816330311 -0.03674666207714504 0 0.17979603827769081 -0.036569354434385401 0 0.19071123671992149 -0.017988734155636978 0 0.19492741816330311 -0.03674666207714504 0 0.20867169955948231 -0.02381755345350009 0 0.20865628942174641 -0.041460925798615288 0 0.22418204547990739 -0.034660633866966377 0 0.20867169955948231 -0.02381755345350009 0 0.20865628942174641 -0.041460925798615288 0 0.19492741816330311 -0.03674666207714504 0 0.20865628942174641 -0.041460925798615288 0 0.2166318054067212 -0.057144715270273878 0 0.22418204547990739 -0.034660633866966377 0 0.20865628942174641 -0.041460925798615288 0 0.19492741816330311 -0.03674666207714504 0 0.1988684784993178 -0.054935064325191067 0 0.18200289387439469 -0.050607496229727988 0 0.1988684784993178 -0.054935064325191067 0 0.18768504711095971 -0.069930589658437736 0 0.18200289387439469 -0.050607496229727988 0 0.19492741816330311 -0.03674666207714504 0 0.1988684784993178 -0.054935064325191067 0 0.20865628942174641 -0.041460925798615288 0 0.1988684784993178 -0.054935064325191067 0 0.2166318054067212 -0.057144715270273878 0 0.2166318054067212 -0.057144715270273878 0 0.23183067341442501 -0.048002053845677933 0 0.2390278010107269 -0.060570140749572648 0 0.23183067341442501 -0.048002053845677933 0 0.2390278010107269 -0.060570140749572648 0 0.24748104176034469 -0.039632725495898802 0 0.23183067341442501 -0.048002053845677933 0 0.24748104176034469 -0.039632725495898802 0 0.22418204547990739 -0.034660633866966377 0 0.24748104176034469 -0.039632725495898802 0 0.22418204547990739 -0.034660633866966377 0 0.22776480419624809 -0.02059807933693153 0 0.2166318054067212 -0.057144715270273878 0 0.23183067341442501 -0.048002053845677933 0 0.22418204547990739 -0.034660633866966377 0 0.2166318054067212 -0.057144715270273878 0 0.22418204547990739 -0.034660633866966377 0 0.20867169955948231 -0.02381755345350009 0 0.22418204547990739 -0.034660633866966377 0 0.22776480419624809 -0.02059807933693153 0 0.24748104176034469 -0.039632725495898802 0 0.22776480419624809 -0.02059807933693153 0 0.2501466703893197 -0.016627985344524771 0 0.24748104176034469 -0.039632725495898802 0 0.22776480419624809 -0.02059807933693153 0 0.2501466703893197 -0.016627985344524771 0 0.22776480419624809 -0.02059807933693153 0 0.23610350998135721 -0.0075461282908465231 0 0.24791750821287001 0.0002931308882695147 0 0.2501466703893197 -0.016627985344524771 0 0.23610350998135721 -0.0075461282908465231 0 0.20804856663215149 -0.0015634331779642921 0 0.22776480419624809 -0.02059807933693153 0 0.23610350998135721 -0.0075461282908465231 0 0.2356849571190365 0.0086676406587064235 0 0.20804856663215149 -0.0015634331779642921 0 0.23610350998135721 -0.0075461282908465231 0 0.2182553897597371 -0.096839243390108368 0 0.20153132526034859 -0.10211287807688919 0 0.21954877285841831 -0.11848621079438749 0 0.19398108518716231 -0.12459695948019681 0 0.20153132526034859 -0.10211287807688919 0 0.21954877285841831 -0.11848621079438749 0 0.19398108518716231 -0.12459695948019681 0 0.18872353843320111 -0.11276083257242581 0 0.20153132526034859 -0.10211287807688919 0 0.19398108518716231 -0.12459695948019681 0 0.20153132526034859 -0.10211287807688919 0 0.18049194437142221 -0.1226867532002523 0 0.19398108518716231 -0.12459695948019681 0 0.18872353843320111 -0.11276083257242581 0 0.17777101033466319 -0.10522528329663799 0 0.20153132526034859 -0.10211287807688919 0 0.19012422487070529 -0.088422053553533275 0 0.17777101033466319 -0.10522528329663799 0 0.18872353843320111 -0.11276083257242581 0 0.20153132526034859 -0.10211287807688919 0 0.19012422487070529 -0.088422053553533275 0 0.18768504711095971 -0.069930589658437736 0 0.20908156533353489 -0.079628796673581484 0 0.20153132526034859 -0.10211287807688919 0 0.19012422487070529 -0.088422053553533275 0 0.20908156533353489 -0.079628796673581484 0 0.1988684784993178 -0.054935064325191067 0 0.18768504711095971 -0.069930589658437736 0 0.20908156533353489 -0.079628796673581484 0 0.1988684784993178 -0.054935064325191067 0 0.2166318054067212 -0.057144715270273878 0 0.20908156533353489 -0.079628796673581484 0 0.2166318054067212 -0.057144715270273878 0 0.20908156533353489 -0.079628796673581484 0 0.2279432333238664 -0.080866649807188995 0 0.2166318054067212 -0.057144715270273878 0 0.20908156533353489 -0.079628796673581484 0 0.20153132526034859 -0.10211287807688919 0 0.20908156533353489 -0.079628796673581484 0 0.2182553897597371 -0.096839243390108368 0 0.20908156533353489 -0.079628796673581484 0 0.2279432333238664 -0.080866649807188995 0 0.2182553897597371 -0.096839243390108368 0 0.20153132526034859 -0.10211287807688919 0 0.20908156533353489 -0.079628796673581484 0 0.2182553897597371 -0.096839243390108368 0 0.2279432333238664 -0.080866649807188995 0 0.2337942008489276 -0.1019966578010377 0 0.2166318054067212 -0.057144715270273878 0 0.2390278010107269 -0.060570140749572648 0 0.2279432333238664 -0.080866649807188995 0 0.2390278010107269 -0.060570140749572648 0 0.2279432333238664 -0.080866649807188995 0 0.24886617790526061 -0.080236610860173155 0 0.2279432333238664 -0.080866649807188995 0 0.24886617790526061 -0.080236610860173155 0 0.2337942008489276 -0.1019966578010377 0 0.25198738406827031 -0.1021412675522356 0 0.2337942008489276 -0.1019966578010377 0 0.2416484582047024 -0.1209318708076659 0 0.25198738406827031 -0.1021412675522356 0 0.24886617790526061 -0.080236610860173155 0 0.2337942008489276 -0.1019966578010377 0 0.2182553897597371 -0.096839243390108368 0 0.2337942008489276 -0.1019966578010377 0 0.21954877285841831 -0.11848621079438749 0 0.2337942008489276 -0.1019966578010377 0 0.21954877285841831 -0.11848621079438749 0 0.2416484582047024 -0.1209318708076659 0 0.25397086595578461 -0.1303306494712195 0 0.2416484582047024 -0.1209318708076659 0 0.23792332586712131 -0.1408981035227542 0 0.23792332586712131 -0.1408981035227542 0 0.24731732500113879 -0.14945499385802569 0 0.22969393890426831 -0.1563152018040736 0 0.23792332586712131 -0.1408981035227542 0 0.2105681021376514 -0.14052316331331041 0 0.22969393890426831 -0.1563152018040736 0 0.23792332586712131 -0.1408981035227542 0 0.2105681021376514 -0.14052316331331041 0 0.21954877285841831 -0.11848621079438749 0 0.23792332586712131 -0.1408981035227542 0 0.2105681021376514 -0.14052316331331041 0 0.21954877285841831 -0.11848621079438749 0 0.2416484582047024 -0.1209318708076659 0 0.23792332586712131 -0.1408981035227542 0 0.19398108518716231 -0.12459695948019681 0 0.21954877285841831 -0.11848621079438749 0 0.2105681021376514 -0.14052316331331041 0 0.2105681021376514 -0.14052316331331041 0 0.20804437565205841 -0.16544812038655249 0 0.22969393890426831 -0.1563152018040736 0 0.2105681021376514 -0.14052316331331041 0 0.1832128784081814 -0.14014822310386649 0 0.1851847766253405 -0.1528027898470756 0 0.2105681021376514 -0.14052316331331041 0 0.20804437565205841 -0.16544812038655249 0 0.1851847766253405 -0.1528027898470756 0 0.19398108518716231 -0.12459695948019681 0 0.2105681021376514 -0.14052316331331041 0 0.1832128784081814 -0.14014822310386649 0 0.2105681021376514 -0.14052316331331041 0 0.1832128784081814 -0.14014822310386649 0 0.18908541913847701 -0.1778349850152125 0 0.20804437565205841 -0.16544812038655249 0 0.2074928417644881 -0.18778665431748789 0 0.18908541913847701 -0.1778349850152125 0 0.20804437565205841 -0.16544812038655249 0 0.1851847766253405 -0.1528027898470756 0 0.20804437565205841 -0.16544812038655249 0 0.1851847766253405 -0.1528027898470756 0 0.20804437565205841 -0.16544812038655249 0 0.23090397467877841 -0.17809345092602599 0 0.2074928417644881 -0.18778665431748789 0 0.23090397467877841 -0.17809345092602599 0 0.22229470549320551 -0.1929126604613397 0 0.2074928417644881 -0.18778665431748789 0 0.20804437565205841 -0.16544812038655249 0 0.23090397467877841 -0.17809345092602599 0 0.22969393890426831 -0.1563152018040736 0 0.20804437565205841 -0.16544812038655249 0 0.23090397467877841 -0.17809345092602599 0 0.24731732500113879 -0.14945499385802569 0 0.22969393890426831 -0.1563152018040736 0 0.2434065300888619 -0.16347337881777299 0 0.23090397467877841 -0.17809345092602599 0 0.22969393890426831 -0.1563152018040736 0 0.2434065300888619 -0.16347337881777299 0 0.25534567383725199 -0.15937398040090159 0 0.24731732500113879 -0.14945499385802569 0 0.2434065300888619 -0.16347337881777299 0 0.25927541709435248 -0.1746896075115108 0 0.23090397467877841 -0.17809345092602599 0 0.2434065300888619 -0.16347337881777299 0 0.25376357370549929 -0.1907387814654973 0 0.25927541709435248 -0.1746896075115108 0 0.23090397467877841 -0.17809345092602599 0 0.25376357370549929 -0.1907387814654973 0 0.23090397467877841 -0.17809345092602599 0 0.2534310251782988 -0.20649658344732699 0 0.25376357370549929 -0.1907387814654973 0 0.23484852641168469 -0.19883643935578041 0 0.25376357370549929 -0.1907387814654973 0 0.23090397467877841 -0.17809345092602599 0 0.23484852641168469 -0.19883643935578041 0 0.25376357370549929 -0.1907387814654973 0 0.23484852641168469 -0.19883643935578041 0 0.23484852641168469 -0.19883643935578041 0 0.24009434286719139 -0.21506083973814061 0 0.22888439593986321 -0.21070010795685701 0 0.2534310251782988 -0.20649658344732699 0 0.24009434286719139 -0.21506083973814061 0 0.2534310251782988 -0.20649658344732699 0 0.23484852641168469 -0.19883643935578041 0 0.24009434286719139 -0.21506083973814061 0 0.23484852641168469 -0.19883643935578041 0 0.22888439593986321 -0.21070010795685701 0 0.21593347911787081 -0.20693409724606471 0 0.24009434286719139 -0.21506083973814061 0 0.22888439593986321 -0.21070010795685701 0 0.22466123536270571 -0.22196905548744211 0 0.22888439593986321 -0.21070010795685701 0 0.22466123536270571 -0.22196905548744211 0 0.21593347911787081 -0.20693409724606471 0 0.23484852641168469 -0.19883643935578041 0 0.21593347911787081 -0.20693409724606471 0 0.23090397467877841 -0.17809345092602599 0 0.23484852641168469 -0.19883643935578041 0 0.22229470549320551 -0.1929126604613397 0 0.23484852641168469 -0.19883643935578041 0 0.22229470549320551 -0.1929126604613397 0 0.21593347911787081 -0.20693409724606471 0 0.26084247138012789 -0.25028624293207419 0 0.23796864831380779 -0.24658202382257269 0 0.24193546674605559 -0.23128758054257539 0 0.23796864831380779 -0.24658202382257269 0 0.24193546674605559 -0.23128758054257539 0 0.2266150740394802 -0.23694288085183779 0 0.24009434286719139 -0.21506083973814061 0 0.24193546674605559 -0.23128758054257539 0 0.22466123536270571 -0.22196905548744211 0 0.25798105568421759 -0.22824851326803819 0 0.24009434286719139 -0.21506083973814061 0 0.24193546674605559 -0.23128758054257539 0 0.24193546674605559 -0.23128758054257539 0 0.22466123536270571 -0.22196905548744211 0 0.2266150740394802 -0.23694288085183779 0 0.22466123536270571 -0.22196905548744211 0 0.2266150740394802 -0.23694288085183779 0 0.2117508891021081 -0.23242112810166329 0 0.2189440269244467 -0.25448423513046758 0 0.2266150740394802 -0.23694288085183779 0 0.2117508891021081 -0.23242112810166329 0 0.2189440269244467 -0.25448423513046758 0 0.23796864831380779 -0.24658202382257269 0 0.2266150740394802 -0.23694288085183779 0 0.2266150740394802 -0.23694288085183779 0 0.2117508891021081 -0.23242112810166329 0 0.2189440269244467 -0.25448423513046758 0 0.20033081304862471 -0.25000178680590562 0 0.2117508891021081 -0.23242112810166329 0 0.2117508891021081 -0.23242112810166329 0 0.20925014791429569 -0.22085108226460151 0 0.196886704164736 -0.22789937535148849 0 0.2117508891021081 -0.23242112810166329 0 0.196886704164736 -0.22789937535148849 0 0.22466123536270571 -0.22196905548744211 0 0.2117508891021081 -0.23242112810166329 0 0.20925014791429569 -0.22085108226460151 0 0.20925014791429569 -0.22085108226460151 0 0.196886704164736 -0.22789937535148849 0 0.19701843182405679 -0.21503175513634909 0 0.20033081304862471 -0.25000178680590562 0 0.196886704164736 -0.22789937535148849 0 0.18062225926454509 -0.24057702378108159 0 0.20033081304862471 -0.25000178680590562 0 0.196886704164736 -0.22789937535148849 0 0.20033081304862471 -0.25000178680590562 0 0.2117508891021081 -0.23242112810166329 0 0.196886704164736 -0.22789937535148849 0 0.22229470549320551 -0.1929126604613397 0 0.2074928417644881 -0.18778665431748789 0 0.21593347911787081 -0.20693409724606471 0 0.2074928417644881 -0.18778665431748789 0 0.21593347911787081 -0.20693409724606471 0 0.192986061651607 -0.2028671801833504 0 0.20925014791429569 -0.22085108226460151 0 0.21593347911787081 -0.20693409724606471 0 0.19701843182405679 -0.21503175513634909 0 0.21593347911787081 -0.20693409724606471 0 0.19701843182405679 -0.21503175513634909 0 0.22466123536270571 -0.22196905548744211 0 0.20925014791429569 -0.22085108226460151 0 0.21593347911787081 -0.20693409724606471 0 0.21593347911787081 -0.20693409724606471 0 0.19701843182405679 -0.21503175513634909 0 0.192986061651607 -0.2028671801833504 0 0.196886704164736 -0.22789937535148849 0 0.192986061651607 -0.2028671801833504 0 0.18424199786133391 -0.21312494972952151 0 0.196886704164736 -0.22789937535148849 0 0.19701843182405679 -0.21503175513634909 0 0.192986061651607 -0.2028671801833504 0 0.196886704164736 -0.22789937535148849 0 0.192986061651607 -0.2028671801833504 0 0.18908541913847701 -0.1778349850152125 0 0.2074928417644881 -0.18778665431748789 0 0.192986061651607 -0.2028671801833504 0 0.18908541913847701 -0.1778349850152125 0 0.192986061651607 -0.2028671801833504 0 0.192986061651607 -0.2028671801833504 0 0.17537475745665931 -0.19180140649041269 0 0.17916765846793001 -0.20408271221861921 0 0.18908541913847701 -0.1778349850152125 0 0.192986061651607 -0.2028671801833504 0 0.17537475745665931 -0.19180140649041269 0 0.17537475745665931 -0.19180140649041269 0 0.17916765846793001 -0.20408271221861921 0 0.16999152458733879 -0.2020027589472615 0 0.192986061651607 -0.2028671801833504 0 0.18424199786133391 -0.21312494972952151 0 0.17916765846793001 -0.20408271221861921 0 0.18424199786133391 -0.21312494972952151 0 0.17276919007452249 -0.21119867926761871 0 0.1758963946247967 -0.22151402759854219 0 0.18424199786133391 -0.21312494972952151 0 0.17276919007452249 -0.21119867926761871 0 0.17916765846793001 -0.20408271221861921 0 0.17276919007452249 -0.21119867926761871 0 0.17916765846793001 -0.20408271221861921 0 0.16999152458733879 -0.2020027589472615 0 0.17276919007452249 -0.21119867926761871 0 0.15490608508485729 -0.2151286798455963 0 0.1758963946247967 -0.22151402759854219 0 0.15490608508485729 -0.2151286798455963 0 0.17276919007452249 -0.21119867926761871 0 0.16238663131764891 -0.20646468348472949 0 0.15490608508485729 -0.2151286798455963 0 0.17276919007452249 -0.21119867926761871 0 0.1758963946247967 -0.22151402759854219 0 0.15490608508485729 -0.2151286798455963 0 0.17276919007452249 -0.21119867926761871 0 0.16238663131764891 -0.20646468348472949 0 0.16999152458733879 -0.2020027589472615 0 0.16238663131764891 -0.20646468348472949 0 0.15339431187783731 -0.20550337033910049 0 0.15490608508485729 -0.2151286798455963 0 0.16238663131764891 -0.20646468348472949 0 0.15930986420355611 -0.1976291403250654 0 0.15339431187783731 -0.20550337033910049 0 0.17537475745665931 -0.19180140649041269 0 0.15930986420355611 -0.1976291403250654 0 0.16999152458733879 -0.2020027589472615 0 0.17537475745665931 -0.19180140649041269 0 0.15930986420355611 -0.1976291403250654 0 0.15312584431565321 -0.18160713247970159 0 0.16238663131764891 -0.20646468348472949 0 0.15930986420355611 -0.1976291403250654 0 0.16999152458733879 -0.2020027589472615 0 0.196886704164736 -0.22789937535148849 0 0.18424199786133391 -0.21312494972952151 0 0.1758963946247967 -0.22151402759854219 0 0.196886704164736 -0.22789937535148849 0 0.1758963946247967 -0.22151402759854219 0 0.196886704164736 -0.22789937535148849 0 0.18062225926454509 -0.24057702378108159 0 0.1758963946247967 -0.22151402759854219 0 0.18062225926454509 -0.24057702378108159 0 0.1758963946247967 -0.22151402759854219 0 0.15871827149382611 -0.23301398095995909 0 0.1758963946247967 -0.22151402759854219 0 0.15871827149382611 -0.23301398095995909 0 0.15490608508485729 -0.2151286798455963 0 0.15871827149382611 -0.23301398095995909 0 0.16667594085935189 -0.24998724856028839 0 0.14373455284401759 -0.2363104976063157 0 0.18062225926454509 -0.24057702378108159 0 0.15871827149382611 -0.23301398095995909 0 0.16667594085935189 -0.24998724856028839 0 0.15871827149382611 -0.23301398095995909 0 0.16667594085935189 -0.24998724856028839 0 0.16667594085935189 -0.24998724856028839 0 0.14373455284401759 -0.2363104976063157 0 0.15117153063132349 -0.25975291351931151 0 0.16667594085935189 -0.24998724856028839 0 0.14373455284401759 -0.2363104976063157 0 0.14373455284401759 -0.2363104976063157 0 0.13577688347849121 -0.21933723000598529 0 0.15076060212829809 -0.2160407133596309 0 0.15871827149382611 -0.23301398095995909 0 0.14373455284401759 -0.2363104976063157 0 0.15076060212829809 -0.2160407133596309 0 0.15871827149382611 -0.23301398095995909 0 0.15490608508485729 -0.2151286798455963 0 0.15076060212829809 -0.2160407133596309 0 0.15871827149382611 -0.23301398095995909 0 0.15076060212829809 -0.2160407133596309 0 0.1207931648286845 -0.22263374665234059 0 0.12303509207139229 -0.23786148011463151 0 0.14373455284401759 -0.2363104976063157 0 0.1207931648286845 -0.22263374665234059 0 0.14373455284401759 -0.2363104976063157 0 0.1207931648286845 -0.22263374665234059 0 0.14373455284401759 -0.2363104976063157 0 0.13577688347849121 -0.21933723000598529 0 0.1207931648286845 -0.22263374665234059 0 0.13577688347849121 -0.21933723000598529 0 0.1275995492341914 -0.2204021632421978 0 0.1207931648286845 -0.22263374665234059 0 0.13577688347849121 -0.21933723000598529 0 0.12651154311148119 -0.25067683321005912 0 0.13719241161554699 -0.25897252103841278 0 0.14373455284401759 -0.2363104976063157 0 0.12651154311148119 -0.25067683321005912 0 0.12303509207139229 -0.23786148011463151 0 0.14373455284401759 -0.2363104976063157 0 0.15930986420355611 -0.1976291403250654 0 0.14079668570836151 -0.19478823201433751 0 0.15312584431565321 -0.18160713247970159 0 0.15930986420355611 -0.1976291403250654 0 0.14079668570836151 -0.19478823201433751 0 0.15339431187783731 -0.20550337033910049 0 0.14079668570836151 -0.19478823201433751 0 0.14957229307476241 -0.21350611602577521 0 0.14079668570836151 -0.19478823201433751 0 0.14806594666719311 -0.2130478785886169 0 0.137583603491201 -0.20961044166906129 0 0.14079668570836151 -0.19478823201433751 0 0.14957229307476241 -0.21350611602577521 0 0.14806594666719311 -0.2130478785886169 0 0.14079668570836151 -0.19478823201433751 0 0.15339431187783731 -0.20550337033910049 0 0.14957229307476241 -0.21350611602577521 0 0.15339431187783731 -0.20550337033910049 0 0.15490608508485729 -0.2151286798455963 0 0.14957229307476241 -0.21350611602577521 0 0.15490608508485729 -0.2151286798455963 0 0.15076060212829809 -0.2160407133596309 0 0.15490608508485729 -0.2151286798455963 0 0.14957229307476241 -0.21350611602577521 0 0.14957229307476241 -0.21350611602577521 0 0.15076060212829809 -0.2160407133596309 0 0.14957229307476241 -0.21350611602577521 0 0.15076060212829809 -0.2160407133596309 0 0.14806594666719311 -0.2130478785886169 0 0.14957229307476241 -0.21350611602577521 0 0.14806594666719311 -0.2130478785886169 0 0.15490608508485729 -0.2151286798455963 0 0.14957229307476241 -0.21350611602577521 0 0.15076060212829809 -0.2160407133596309 0 0.13577688347849121 -0.21933723000598529 0 0.15076060212829809 -0.2160407133596309 0 0.14806594666719311 -0.2130478785886169 0 0.13577688347849121 -0.21933723000598529 0 0.15076060212829809 -0.2160407133596309 0 0.13577688347849121 -0.21933723000598529 0 0.137583603491201 -0.20961044166906129 0 0.13066224853251501 -0.21317096786549111 0 0.13577688347849121 -0.21933723000598529 0 0.14806594666719311 -0.2130478785886169 0 0.137583603491201 -0.20961044166906129 0 0.1228376410344912 -0.2116052311935725 0 0.1275995492341914 -0.2204021632421978 0 0.13066224853251501 -0.21317096786549111 0 0.13577688347849121 -0.21933723000598529 0 0.1275995492341914 -0.2204021632421978 0 0.13066224853251501 -0.21317096786549111 0 0.1228376410344912 -0.2116052311935725 0 0.13066224853251501 -0.21317096786549111 0 0.12951356542420001 -0.20489977321663841 0 0.137583603491201 -0.20961044166906129 0 0.13066224853251501 -0.21317096786549111 0 0.12951356542420001 -0.20489977321663841 0 0.14079668570836151 -0.19478823201433751 0 0.12951356542420001 -0.20489977321663841 0 0.12689186766606159 -0.19246700357753219 0 0.14079668570836151 -0.19478823201433751 0 0.12689186766606159 -0.19246700357753219 0 0.13202107834196131 -0.17607034800289961 0 0.14079668570836151 -0.19478823201433751 0 0.137583603491201 -0.20961044166906129 0 0.12951356542420001 -0.20489977321663841 0 0.14079668570836151 -0.19478823201433751 0 0.13202107834196131 -0.17607034800289961 0 0.13202107834196131 -0.17607034800289961 0 0.15312584431565321 -0.18160713247970159 0 0.143812008240223 -0.16174511992435561 0 0.14079668570836151 -0.19478823201433751 0 0.13202107834196131 -0.17607034800289961 0 0.15312584431565321 -0.18160713247970159 0 0.15312584431565321 -0.18160713247970159 0 0.143812008240223 -0.16174511992435561 0 0.16744067194315809 -0.16760854812113929 0 0.1218990906613112 -0.16386364713106691 0 0.13202107834196131 -0.17607034800289961 0 0.143812008240223 -0.16174511992435561 0 0.1218990906613112 -0.16386364713106691 0 0.143812008240223 -0.16174511992435561 0 0.12960368550217591 -0.1497928036050048 0 0.1215763880622987 -0.13563863986440339 0 0.12960368550217591 -0.1497928036050048 0 0.13661951924704371 -0.1387273310433122 0 0.12960368550217591 -0.1497928036050048 0 0.13661951924704371 -0.1387273310433122 0 0.14241699760807899 -0.14752374661034631 0 0.143812008240223 -0.16174511992435561 0 0.12960368550217591 -0.1497928036050048 0 0.14241699760807899 -0.14752374661034631 0 0.1215763880622987 -0.13563863986440339 0 0.1205749168059167 -0.11931849550142309 0 0.13298873096172559 -0.12392930656776451 0 0.1215763880622987 -0.13563863986440339 0 0.13298873096172559 -0.12392930656776451 0 0.13661951924704371 -0.1387273310433122 0 0.13298873096172559 -0.12392930656776451 0 0.13661951924704371 -0.1387273310433122 0 0.1590867537935321 -0.13836604820742179 0 0.13298873096172559 -0.12392930656776451 0 0.16121406000879709 -0.1188195161277967 0 0.1590867537935321 -0.13836604820742179 0 0.13298873096172559 -0.12392930656776451 0 0.1590867537935321 -0.13836604820742179 0 0.13661951924704371 -0.1387273310433122 0 0.14241699760807899 -0.14752374661034631 0 0.1590867537935321 -0.13836604820742179 0 0.143812008240223 -0.16174511992435561 0 0.14241699760807899 -0.14752374661034631 0 0.1590867537935321 -0.13836604820742179 0 0.1590867537935321 -0.13836604820742179 0 0.17118979850823099 -0.1399834305896312 0 0.1851847766253405 -0.1528027898470756 0 0.143812008240223 -0.16174511992435561 0 0.1590867537935321 -0.13836604820742179 0 0.16744067194315809 -0.16760854812113929 0 0.1590867537935321 -0.13836604820742179 0 0.1851847766253405 -0.1528027898470756 0 0.16744067194315809 -0.16760854812113929 0 0.16121406000879709 -0.1188195161277967 0 0.1590867537935321 -0.13836604820742179 0 0.1700117256062928 -0.12938388961848599 0 0.1590867537935321 -0.13836604820742179 0 0.17118979850823099 -0.1399834305896312 0 0.1700117256062928 -0.12938388961848599 0 0.18049194437142221 -0.1226867532002523 0 0.19398108518716231 -0.12459695948019681 0 0.1832128784081814 -0.14014822310386649 0 0.18049194437142221 -0.1226867532002523 0 0.1700117256062928 -0.12938388961848599 0 0.1832128784081814 -0.14014822310386649 0 0.18049194437142221 -0.1226867532002523 0 0.1832128784081814 -0.14014822310386649 0 0.17118979850823099 -0.1399834305896312 0 0.1832128784081814 -0.14014822310386649 0 0.17118979850823099 -0.1399834305896312 0 0.1700117256062928 -0.12938388961848599 0 0.1832128784081814 -0.14014822310386649 0 0.1590867537935321 -0.13836604820742179 0 0.1851847766253405 -0.1528027898470756 0 0.17118979850823099 -0.1399834305896312 0 0.1832128784081814 -0.14014822310386649 0 0.1851847766253405 -0.1528027898470756 0 0.1832128784081814 -0.14014822310386649 0 0.1851847766253405 -0.1528027898470756 0 0.18908541913847701 -0.1778349850152125 0 0.1851847766253405 -0.1528027898470756 0 0.16744067194315809 -0.16760854812113929 0 0.18908541913847701 -0.1778349850152125 0 0.1851847766253405 -0.1528027898470756 0 0.18908541913847701 -0.1778349850152125 0 0.17537475745665931 -0.19180140649041269 0 0.16744067194315809 -0.16760854812113929 0 0.17537475745665931 -0.19180140649041269 0 0.15312584431565321 -0.18160713247970159 0 0.16744067194315809 -0.16760854812113929 0 
</DataArray>
</Points>
<Cells>
<DataArray type="UInt32" Name="connectivity" format="ascii">
0 1 2 3 4 5 6 7 8 9 10 11 12 13 14 15 16 17 18 19 20 21 22 23 24 25 26 27 28 29 30 31 32 33 34 35 36 37 38 39 40 41 42 43 44 45 46 47 48 49 50 51 52 53 54 55 56 57 58 59 60 61 62 63 64 65 66 67 68 69 70 71 72 73 74 75 76 77 78 79 80 81 82 83 84 85 86 87 88 89 90 91 92 93 94 95 96 97 98 99 100 101 102 103 104 105 106 107 108 109 110 111 112 113 114 115 116 117 118 119 120 121 122 123 124 125 126 127 128 129 130 131 132 133 134 135 136 137 138 139 140 141 142 143 144 145 146 147 148 149 150 151 152 153 154 155 156 157 158 159 160 161 162 163 164 165 166 167 168 169 170 171 172 173 174 175 176 177 178 179 180 181 182 183 184 185 186 187 188 189 190 191 192 193 194 195 196 197 198 199 200 201 202 203 204 205 206 207 208 209 210 211 212 213 214 215 216 217 218 219 220 221 222 223 224 225 226 227 228 229 230 231 232 233 234 235 236 237 238 239 240 241 242 243 244 245 246 247 248 249 250 251 252 253 254 255 256 257 258 259 260 261 262 263 264 265 266 267 268 269 270 271 272 273 274 275 276 277 278 279 280 281 282 283 284 285 286 287 288 289 290 291 292 293 294 295 296 297 298 299 300 301 302 303 304 305 306 307 308 309 310 311 312 313 314 315 316 317 318 319 320 321 322 323 324 325 326 327 328 329 330 331 332 333 334 335 336 337 338 339 340 341 342 343 344 345 346 347 348 349 350 351 352 353 354 355 356 357 358 359 360 361 362 363 364 365 366 367 368 369 370 371 372 373 374 375 376 377 378 379 380 381 382 383 384 385 386 387 388 389 390 391 392 393 394 395 396 397 398 399 400 401 402 403 404 405 406 407 408 409 410 411 412 413 414 415 416 417 418 419 420 421 422 423 424 425 426 427 428 429 430 431 432 433 434 435 436 437 438 439 440 441 442 443 444 445 446 447 448 449 450 451 452 453 454 455 456 457 458 459 460 461 462 463 464 465 466 467 468 469 470 471 472 473 474 475 476 477 478 479 480 481 482 483 484 485 486 487 488 489 490 491 492 493 494 495 496 497 498 499 500 501 502 503 504 505 506 507 508 509 510 511 512 513 514 515 516 517 518 519 520 521 522 523 524 525 526 527 528 529 530 531 532 533 534 535 536 537 538 539 540 541 542 543 544 545 546 547 548 549 550 551 552 553 554 555 556 557 558 559 560 561 562 563 564 565 566 567 568 569 570 571 572 573 574 575 576 577 578 579 580 581 582 583 584 585 586 587 588 589 590 591 592 593 594 595 596 597 598 599 600 601 602 603 604 605 606 607 608 609 610 611 612 613 614 615 616 617 618 619 620 621 622 623 624 625 626 627 628 629 630 631 632 633 634 635 636 637 638 639 640 641 642 643 644 645 646 647 648 649 650 651 652 653 654 655 656 657 658 659 660 661 662 663 664 665 666 667 668 669 670 671 672 673 674 675 676 677 678 679 680 681 682 683 684 685 686 687 688 689 690 691 692 693 694 695 696 697 698 699 700 701 702 703 704 705 706 707 708 709 710 711 712 713 714 715 716 717 718 719 720 721 722 723 724 725 726 727 728 729 730 731 732 733 734 735 736 737 738 739 740 741 742 743 744 745 746 747 748 749 750 751 752 753 754 755 756 757 758 759 760 761 762 763 764 765 766 767 768 769 770 771 772 773 774 775 776 777 778 779 780 781 782 783 784 785 786 787 788 789 790 791 792 793 794 795 796 797 798 799 800 801 802 803 804 805 806 807 808 809 810 811 812 813 814 815 816 817 818 819 820 821 822 823 824 825 826 827 828 829 830 831 832 833 834 835 836 837 838 839 840 841 842 843 844 845 846 847 848 849 850 851 852 853 854 855 856 857 858 859 860 861 862 863 864 865 866 867 868 869 870 871 872 873 874 875 876 877 878 879 880 881 882 883 884 885 886 887 888 889 890 891 892 893 894 895 896 897 898 899 900 901 902 903 904 905 906 907 908 909 910 911 912 913 914 915 916 917 918 919 920 921 922 923 924 925 926 927 928 929 930 931 932 933 934 935 936 937 938 939 940 941 942 943 944 945 946 947 948 949 950 951 952 953 954 955 956 957 958 959 960 961 962 963 964 965 966 967 968 969 970 971 972 973 974 975 976 977 978 979 980 981 982 983 984 985 986 987 988 989 990 991 992 993 994 995 996 997 998 999 1000 1001 1002 1003 1004 1005 1006 1007 1008 1009 1010 1011 1012 1013 1014 1015 1016 1017 1018 1019 1020 1021 1022 1023 1024 1025 1026 1027 1028 1029 1030 1031 1032 1033 1034 1035 1036 1037 1038 1039 1040 1041 1042 1043 1044 1045 1046 1047 1048 1049 1050 1051 1052 1053 1054 1055 1056 1057 1058 1059 1060 1061 1062 1063 1064 1065 1066 1067 1068 1069 1070 1071 1072 1073 1074 1075 1076 1077 1078 1079 1080 1081 1082 1083 1084 1085 1086 1087 1088 1089 1090 1091 1092 1093 1094 1095 1096 1097 1098 1099 1100 1101 1102 1103 1104 1105 1106 1107 1108 1109 1110 1111 1112 1113 1114 1115 1116 1117 1118 1119 1120 1121 1122 1123 1124 1125 1126 1127 1128 1129 1130 1131 1132 1133 1134 1135 1136 1137 1138 1139 1140 1141 1142 1143 1144 1145 1146 1147 1148 1149 1150 1151 1152 1153 1154 1155 1156 1157 1158 1159 1160 1161 1162 1163 1164 1165 1166 1167 1168 1169 1170 1171 1172 1173 1174 1175 1176 1177 1178 1179 1180 1181 1182 1183 1184 1185 1186 1187 1188 1189 1190 1191 1192 1193 1194 1195 1196 1197 1198 1199 1200 1201 1202 1203 1204 1205 1206 1207 1208 1209 1210 1211 1212 1213 1214 1215 1216 1217 1218 1219 1220 1221 1222 1223 1224 1225 1226 1227 1228 1229 1230 1231 1232 1233 1234 1235 1236 1237 1238 1239 1240 1241 1242 1243 1244 1245 1246 1247 1248 1249 1250 1251 1252 1253 1254 1255 1256 1257 1258 1259 1260 1261 1262 1263 1264 1265 1266 1267 1268 1269 1270 1271 1272 1273 1274 1275 1276 1277 1278 1279 1280 1281 1282 1283 1284 1285 1286 1287 1288 1289 1290 1291 1292 1293 1294 1295 1296 1297 1298 1299 1300 1301 1302 1303 1304 1305 1306 1307 1308 1309 1310 1311 1312 1313 1314 1315 1316 1317 1318 1319 1320 1321 1322 1323 1324 1325 1326 1327 1328 1329 1330 1331 1332 1333 1334 1335 1336 1337 1338 1339 1340 1341 1342 1343 1344 1345 1346 1347 1348 1349 1350 1351 1352 1353 1354 1355 1356 1357 1358 1359 1360 1361 1362 1363 1364 1365 1366 1367 1368 1369 1370 1371 1372 1373 1374 1375 1376 1377 1378 1379 1380 1381 1382 1383 1384 1385 1386 1387 1388 1389 1390 1391 1392 1393 1394 1395 1396 1397 1398 1399 1400 1401 1402 1403 1404 1405 1406 1407 1408 1409 1410 1411 1412 1413 1414 1415 1416 1417 1418 1419 1420 1421 1422 1423 1424 1425 1426 1427 1428 1429 1430 1431 1432 1433 1434 1435 1436 1437 1438 1439 1440 1441 1442 1443 1444 1445 1446 1447 1448 1449 1450 1451 1452 1453 1454 1455 1456 1457 1458 1459 1460 1461 1462 1463 1464 1465 1466 1467 1468 1469 1470 1471 1472 1473 1474 1475 1476 1477 1478 1479 1480 1481 1482 1483 1484 1485 1486 1487 1488 1489 1490 1491 1492 1493 1494 1495 1496 1497 1498 1499 1500 1501 1502 1503 1504 1505 1506 1507 1508 1509 1510 1511 1512 1513 1514 1515 1516 1517 1518 1519 1520 1521 1522 1523 1524 1525 1526 1527 1528 1529 1530 1531 1532 1533 1534 1535 1536 1537 1538 1539 1540 1541 1542 1543 1544 1545 1546 1547 1548 1549 1550 1551 1552 1553 1554 1555 1556 1557 1558 1559 1560 1561 1562 1563 1564 1565 1566 1567 1568 1569 1570 1571 1572 1573 1574 1575 1576 1577 1578 1579 1580 1581 1582 1583 1584 1585 1586 1587 1588 1589 1590 1591 1592 1593 1594 1595 1596 1597 1598 1599 1600 1601 1602 1603 1604 1605 1606 1607 1608 1609 1610 1611 1612 1613 1614 1615 1616 1617 1618 1619 1620 1621 1622 1623 1624 1625 1626 1627 1628 1629 1630 1631 1632 1633 1634 1635 1636 1637 1638 1639 1640 1641 1642 1643 1644 1645 1646 1647 1648 1649 1650 1651 1652 1653 1654 1655 1656 1657 1658 1659 1660 1661 1662 1663 1664 1665 1666 1667 1668 1669 1670 1671 1672 1673 1674 1675 1676 1677 1678 1679 1680 1681 1682 1683 1684 1685 1686 1687 1688 1689 1690 1691 1692 1693 1694 1695 1696 1697 1698 1699 1700 1701 1702 1703 1704 1705 1706 1707 1708 1709 1710 1711 1712 1713 1714 1715 1716 1717 1718 1719 1720 1721 1722 1723 1724 1725 1726 1727 1728 1729 1730 1731 1732 1733 1734 1735 1736 1737 1738 1739 1740 1741 1742 1743 1744 1745 1746 1747 1748 1749 1750 1751 1752 1753 1754 1755 1756 1757 1758 1759 1760 1761 1762 1763 1764 1765 1766 1767 1768 1769 1770 1771 1772 1773 1774 1775 1776 1777 1778 1779 1780 1781 1782 1783 1784 1785 1786 1787 1788 1789 1790 1791 1792 1793 1794 1795 1796 1797 1798 1799 1800 1801 1802 1803 1804 1805 1806 1807 1808 1809 1810 1811 1812 1813 1814 1815 1816 1817 1818 1819 1820 1821 1822 1823 1824 1825 1826 1827 1828 1829 1830 1831 1832 1833 1834 1835 1836 1837 1838 1839 1840 1841 1842 1843 1844 1845 1846 1847 1848 1849 1850 1851 1852 1853 1854 1855 1856 1857 1858 1859 1860 1861 1862 1863 1864 1865 1866 1867 1868 1869 1870 1871 1872 1873 1874 1875 1876 1877 1878 1879 1880 1881 1882 1883 1884 1885 1886 1887 1888 1889 1890 1891 1892 1893 1894 1895 1896 1897 1898 1899 1900 1901 1902 1903 1904 1905 1906 1907 1908 1909 1910 1911 1912 1913 1914 1915 1916 1917 1918 1919 1920 1921 1922 1923 1924 1925 1926 1927 1928 1929 1930 1931 1932 1933 1934 1935 1936 1937 1938 1939 1940 1941 1942 1943 1944 1945 1946 1947 1948 1949 1950 1951 1952 1953 1954 1955 1956 1957 1958 1959 1960 1961 1962 1963 1964 1965 1966 1967 1968 1969 1970 1971 1972 1973 1974 1975 1976 1977 1978 1979 1980 1981 1982 1983 1984 1985 1986 1987 1988 1989 1990 1991 1992 1993 1994 1995 1996 1997 1998 1999 2000 2001 2002 2003 2004 2005 2006 2007 2008 2009 2010 2011 2012 2013 2014 2015 2016 2017 2018 2019 2020 2021 2022 2023 2024 2025 2026 2027 2028 2029 2030 2031 2032 2033 2034 2035 2036 2037 2038 2039 2040 2041 2042 2043 2044 2045 2046 2047 2048 2049 2050 2051 2052 2053 2054 2055 2056 2057 2058 2059 2060 2061 2062 2063 2064 2065 2066 2067 2068 2069 2070 2071 2072 2073 2074 2075 2076 2077 2078 2079 2080 2081 2082 2083 2084 2085 2086 2087 2088 2089 2090 2091 2092 2093 2094 2095 2096 2097 2098 2099 2100 2101 2102 2103 2104 2105 2106 2107 2108 2109 2110 2111 2112 2113 2114 2115 2116 2117 2118 2119 2120 2121 2122 2123 2124 2125 2126 2127 2128 2129 2130 2131 2132 2133 2134 2135 2136 2137 2138 2139 2140 2141 2142 2143 2144 2145 2146 2147 2148 2149 2150 2151 2152 2153 2154 2155 2156 2157 2158 2159 2160 2161 2162 2163 2164 2165 2166 2167 2168 2169 2170 2171 2172 2173 2174 2175 2176 2177 2178 2179 2180 2181 2182 2183 2184 2185 2186 2187 2188 2189 2190 2191 2192 2193 2194 2195 2196 2197 2198 2199 2200 2201 2202 2203 2204 2205 2206 2207 2208 2209 2210 2211 2212 2213 2214 2215 2216 2217 2218 2219 2220 2221 2222 2223 2224 2225 2226 2227 2228 2229 2230 2231 2232 2233 2234 2235 2236 2237 2238 2239 2240 2241 2242 2243 2244 2245 2246 2247 2248 2249 2250 2251 2252 2253 2254 2255 2256 2257 2258 2259 2260 2261 2262 2263 2264 2265 2266 2267 2268 2269 2270 2271 2272 2273 2274 2275 2276 2277 2278 2279 2280 2281 2282 2283 2284 2285 2286 2287 2288 2289 2290 2291 2292 2293 2294 2295 2296 2297 2298 2299 2300 2301 2302 2303 2304 2305 2306 2307 2308 2309 2310 2311 2312 2313 2314 2315 2316 2317 2318 2319 2320 2321 2322 2323 2324 2325 2326 2327 2328 2329 2330 2331 2332 2333 2334 2335 2336 2337 2338 2339 2340 2341 2342 2343 2344 2345 2346 2347 2348 2349 2350 2351 2352 2353 2354 2355 2356 2357 2358 2359 2360 2361 2362 2363 2364 2365 2366 2367 2368 2369 2370 2371 2372 2373 2374 2375 2376 2377 2378 2379 2380 2381 2382 2383 2384 2385 2386 2387 2388 2389 2390 2391 2392 2393 2394 2395 2396 2397 2398 2399 2400 2401 2402 2403 2404 2405 2406 2407 2408 2409 2410 2411 2412 2413 2414 2415 2416 2417 2418 2419 2420 2421 2422 2423 2424 2425 2426 2427 2428 2429 2430 2431 2432 2433 2434 2435 2436 2437 2438 2439 2440 2441 2442 2443 2444 2445 2446 2447 2448 2449 2450 2451 2452 2453 2454 2455 2456 2457 2458 2459 2460 2461 2462 2463 2464 2465 2466 2467 2468 2469 2470 2471 2472 2473 2474 2475 2476 2477 2478 2479 2480 2481 2482 2483 2484 2485 2486 2487 2488 2489 2490 2491 2492 2493 2494 2495 2496 2497 2498 2499 2500 2501 2502 2503 2504 2505 2506 2507 2508 2509 2510 2511 2512 2513 2514 2515 2516 2517 2518 2519 2520 2521 2522 2523 2524 2525 2526 2527 2528 2529 2530 2531 2532 2533 2534 2535 2536 2537 2538 2539 2540 2541 2542 2543 2544 2545 2546 2547 2548 2549 2550 2551 2552 2553 2554 2555 2556 2557 2558 2559 2560 2561 2562 2563 2564 2565 2566 2567 2568 2569 2570 2571 2572 2573 2574 2575 2576 2577 2578 2579 2580 2581 2582 2583 2584 2585 2586 2587 2588 2589 2590 2591 2592 2593 2594 2595 2596 2597 2598 2599 2600 2601 2602 2603 2604 2605 2606 2607 2608 2609 2610 2611 2612 2613 2614 2615 2616 2617 2618 2619 2620 2621 2622 2623 2624 2625 2626 2627 2628 2629 2630 2631 2632 2633 2634 2635 2636 2637 2638 2639 2640 2641 2642 2643 2644 2645 2646 2647 2648 2649 2650 2651 2652 2653 2654 2655 2656 2657 2658 2659 2660 2661 2662 2663 2664 2665 2666 2667 2668 2669 2670 2671 2672 2673 2674 2675 2676 2677 2678 2679 2680 2681 2682 2683 2684 2685 2686 2687 2688 2689 2690 2691 2692 2693 2694 2695 2696 2697 2698 2699 2700 2701 2702 2703 2704 2705 2706 2707 2708 2709 2710 2711 2712 2713 2714 2715 2716 2717 2718 2719 2720 2721 2722 2723 2724 2725 2726 2727 2728 2729 2730 2731 2732 2733 2734 2735 2736 2737 2738 2739 2740 2741 2742 2743 2744 2745 2746 2747 2748 2749 2750 2751 2752 2753 2754 2755 2756 2757 2758 2759 2760 2761 2762 2763 2764 2765 2766 2767 2768 2769 2770 2771 2772 2773 2774 2775 2776 2777 2778 2779 2780 2781 2782 2783 2784 2785 2786 2787 2788 2789 2790 2791 2792 2793 2794 2795 2796 2797 2798 2799 2800 2801 2802 2803 2804 2805 2806 2807 2808 2809 2810 2811 2812 2813 2814 2815 2816 2817 2818 2819 2820 2821 2822 2823 2824 2825 2826 2827 2828 2829 2830 2831 2832 2833 2834 2835 2836 2837 2838 2839 2840 2841 2842 2843 2844 2845 2846 2847 2848 2849 2850 2851 2852 2853 2854 2855 2856 2857 2858 2859 2860 2861 2862 2863 2864 2865 2866 2867 2868 2869 2870 2871 2872 2873 2874 2875 2876 2877 2878 2879 2880 2881 2882 2883 2884 2885 2886 2887 2888 2889 2890 2891 2892 2893 2894 2895 2896 2897 2898 2899 2900 2901 2902 2903 2904 2905 2906 2907 2908 2909 2910 2911 2912 2913 2914 2915 2916 2917 2918 2919 2920 2921 2922 2923 2924 2925 2926 2927 2928 2929 2930 2931 2932 2933 2934 2935 2936 2937 2938 2939 2940 2941 2942 2943 2944 2945 2946 2947 2948 2949 2950 2951 2952 2953 2954 2955 2956 2957 2958 2959 2960 2961 2962 2963 2964 2965 2966 2967 2968 2969 2970 2971 2972 2973 2974 2975 2976 2977 2978 2979 2980 2981 2982 2983 2984 2985 2986 2987 2988 2989 2990 2991 2992 2993 2994 2995 2996 2997 2998 2999 3000 3001 3002 3003 3004 3005 3006 3007 3008 3009 3010 3011 3012 3013 3014 3015 3016 3017 3018 3019 3020 3021 3022 3023 3024 3025 3026 3027 3028 3029 3030 3031 3032 3033 3034 3035 3036 3037 3038 3039 3040 3041 3042 3043 3044 3045 3046 3047 3048 3049 3050 3051 3052 3053 3054 3055 3056 3057 3058 3059 3060 3061 3062 3063 3064 3065 3066 3067 3068 3069 3070 3071 3072 3073 3074 3075 3076 3077 3078 3079 3080 3081 3082 3083 3084 3085 3086 3087 3088 3089 3090 3091 3092 3093 3094 3095 3096 3097 3098 3099 3100 3101 3102 3103 3104 3105 3106 3107 3108 3109 3110 3111 3112 3113 3114 3115 3116 3117 3118 3119 3120 3121 3122 3123 3124 3125 3126 3127 3128 3129 3130 3131 3132 3133 3134 3135 3136 3137 3138 3139 3140 3141 3142 3143 3144 3145 3146 3147 3148 3149 3150 3151 3152 3153 3154 3155 3156 3157 3158 3159 3160 3161 3162 3163 3164 3165 3166 3167 3168 3169 3170 3171 3172 3173 3174 3175 3176 3177 3178 3179 3180 3181 3182 3183 3184 3185 3186 3187 3188 3189 3190 3191 3192 3193 3194 3195 3196 3197 3198 3199 3200 3201 3202 3203 3204 3205 3206 3207 3208 3209 3210 3211 3212 3213 3214 3215 3216 3217 3218 3219 3220 3221 3222 3223 3224 3225 3226 3227 3228 3229 3230 3231 3232 3233 3234 3235 3236 3237 3238 3239 3240 3241 3242 3243 3244 3245 3246 3247 3248 3249 3250 3251 3252 3253 3254 3255 3256 3257 3258 3259 3260 3261 3262 3263 3264 3265 3266 3267 3268 3269 3270 3271 3272 3273 3274 3275 3276 3277 3278 3279 3280 3281 3282 3283 3284 3285 3286 3287 3288 3289 3290 3291 3292 3293 3294 3295 3296 3297 3298 3299 3300 3301 3302 3303 3304 3305 3306 3307 3308 3309 3310 3311 3312 3313 3314 3315 3316 3317 3318 3319 3320 3321 3322 3323 3324 3325 3326 3327 3328 3329 3330 3331 3332 3333 3334 3335 3336 3337 3338 3339 3340 3341 3342 3343 3344 3345 3346 3347 3348 3349 3350 3351 3352 3353 3354 3355 3356 3357 3358 3359 3360 3361 3362 3363 3364 3365 3366 3367 3368 3369 3370 3371 3372 3373 3374 3375 3376 3377 3378 3379 3380 3381 3382 3383 3384 3385 3386 3387 3388 3389 3390 3391 3392 3393 3394 3395 3396 3397 3398 3399 3400 3401 3402 3403 3404 3405 3406 3407 3408 3409 3410 3411 3412 3413 3414 3415 3416 3417 3418 3419 3420 3421 3422 3423 3424 3425 3426 3427 3428 3429 3430 3431 3432 3433 3434 3435 3436 3437 3438 3439 3440 3441 3442 3443 3444 3445 3446 3447 3448 3449 3450 3451 3452 3453 3454 3455 3456 3457 3458 3459 3460 3461 3462 3463 3464 3465 3466 3467 3468 3469 3470 3471 3472 3473 3474 3475 3476 3477 3478 3479 3480 3481 3482 3483 3484 3485 3486 3487 3488 3489 3490 3491 3492 3493 3494 3495 3496 3497 3498 3499 3500 3501 3502 3503 3504 3505 3506 3507 3508 3509 3510 3511 3512 3513 3514 3515 3516 3517 3518 3519 3520 3521 3522 3523 3524 3525 3526 3527 3528 3529 3530 3531 3532 3533 3534 3535 3536 3537 3538 3539 3540 3541 3542 3543 3544 3545 3546 3547 3548 3549 3550 3551 3552 3553 3554 3555 3556 3557 3558 3559 3560 3561 3562 3563 3564 3565 3566 3567 3568 3569 3570 3571 3572 3573 3574 3575 3576 3577 3578 3579 3580 3581 3582 3583 3584 3585 3586 3587 3588 3589 3590 3591 3592 3593 3594 3595 3596 3597 3598 3599 3600 3601 3602 3603 3604 3605 3606 3607 3608 3609 3610 3611 3612 3613 3614 3615 3616 3617 3618 3619 3620 3621 3622 3623 3624 3625 3626 3627 3628 3629 3630 3631 3632 3633 3634 3635 3636 3637 3638 3639 3640 3641 3642 3643 3644 3645 3646 3647 3648 3649 3650 3651 3652 3653 3654 3655 3656 3657 3658 3659 3660 3661 3662 3663 3664 3665 3666 3667 3668 3669 3670 3671 3672 3673 3674 3675 3676 3677 3678 3679 3680 3681 3682 3683 3684 3685 3686 3687 3688 3689 3690 3691 3692 3693 3694 3695 3696 3697 3698 3699 3700 3701 3702 3703 3704 3705 3706 3707 3708 3709 3710 3711 3712 3713 3714 3715 3716 3717 3718 3719 3720 3721 3722 3723 3724 3725 3726 3727 3728 3729 3730 3731 3732 3733 3734 3735 3736 3737 3738 3739 3740 3741 3742 3743 3744 3745 3746 3747 3748 3749 3750 3751 3752 3753 3754 3755 3756 3757 3758 3759 3760 3761 3762 3763 3764 3765 3766 3767 3768 3769 3770 3771 3772 3773 3774 3775 3776 3777 3778 3779 3780 3781 3782 3783 3784 3785 3786 3787 3788 3789 3790 3791 3792 3793 3794 3795 3796 3797 3798 3799 3800 3801 3802 3803 3804 3805 3806 3807 3808 3809 3810 3811 3812 3813 3814 3815 3816 3817 3818 3819 3820 3821 3822 3823 3824 3825 3826 3827 3828 3829 3830 3831 3832 3833 3834 3835 3836 3837 3838 3839 3840 3841 3842 3843 3844 3845 3846 3847 3848 3849 3850 3851 3852 3853 3854 3855 3856 3857 3858 3859 3860 3861 3862 3863 3864 3865 3866 3867 3868 3869 3870 3871 3872 3873 3874 3875 3876 3877 3878 3879 3880 3881 3882 3883 3884 3885 3886 3887 3888 3889 3890 3891 3892 3893 3894 3895 3896 3897 3898 3899 3900 3901 3902 3903 3904 3905 3906 3907 3908 3909 3910 3911 3912 3913 3914 3915 3916 3917 3918 3919 3920 3921 3922 3923 3924 3925 3926 3927 3928 3929 3930 3931 3932 3933 3934 3935 3936 3937 3938 3939 3940 3941 3942 3943 3944 3945 3946 3947 3948 3949 3950 3951 3952 3953 3954 3955 3956 3957 3958 3959 3960 3961 3962 3963 3964 3965 3966 3967 3968 3969 3970 3971 3972 3973 3974 3975 3976 3977 3978 3979 3980 3981 3982 3983 3984 3985 3986 3987 3988 3989 3990 3991 3992 3993 3994 3995 3996 3997 3998 3999 4000 4001 4002 4003 4004 4005 4006 4007 4008 4009 4010 4011 4012 4013 4014 4015 4016 4017 4018 4019 4020 4021 4022 4023 4024 4025 4026 4027 4028 4029 4030 4031 4032 4033 4034 4035 4036 4037 4038 4039 4040 4041 4042 4043 4044 4045 4046 4047 4048 4049 4050 4051 4052 4053 4054 4055 4056 4057 4058 4059 4060 4061 4062 4063 4064 4065 4066 4067 4068 4069 4070 4071 4072 4073 4074 4075 4076 4077 4078 4079 4080 4081 4082 4083 4084 4085 4086 4087 4088 4089 4090 4091 4092 4093 4094 4095 4096 4097 4098 4099 4100 4101 4102 4103 4104 4105 4106 4107 4108 4109 4110 4111 4112 4113 4114 4115 4116 4117 4118 4119 4120 4121 4122 4123 4124 4125 4126 4127 4128 4129 4130 4131 4132 4133 4134 4135 4136 4137 4138 4139 4140 4141 4142 4143 4144 4145 4146 4147 4148 4149 4150 4151 4152 4153 4154 4155 4156 4157 4158 4159 4160 4161 4162 4163 4164 4165 4166 4167 4168 4169 4170 4171 4172 4173 4174 4175 4176 4177 4178 4179 4180 4181 4182 4183 4184 4185 4186 4187 4188 4189 4190 4191 4192 4193 4194 4195 4196 4197 4198 4199 4200 4201 4202 4203 4204 4205 4206 4207 4208 4209 4210 4211 4212 4213 4214 4215 4216 4217 4218 4219 4220 4221 4222 4223 4224 4225 4226 4227 4228 4229 4230 4231 4232 4233 4234 4235 4236 4237 4238 4239 4240 4241 4242 4243 4244 4245 4246 4247 4248 4249 4250 4251 4252 4253 4254 4255 4256 4257 4258 4259 4260 4261 4262 4263 4264 4265 4266 4267 4268 4269 4270 4271 4272 4273 4274 4275 4276 4277 4278 4279 4280 4281 4282 4283 4284 4285 4286 4287 4288 4289 4290 4291 4292 4293 4294 4295 4296 4297 4298 4299 4300 4301 4302 4303 4304 4305 4306 4307 4308 4309 4310 4311 4312 4313 4314 4315 4316 4317 4318 4319 4320 4321 4322 4323 4324 4325 4326 4327 4328 4329 4330 4331 4332 4333 4334 4335 4336 4337 4338 4339 4340 4341 4342 4343 4344 4345 4346 4347 4348 4349 4350 4351 4352 4353 4354 4355 4356 4357 4358 4359 4360 4361 4362 4363 4364 4365 4366 4367 4368 4369 4370 4371 4372 4373 4374 4375 4376 4377 4378 4379 4380 4381 4382 4383 4384 4385 4386 4387 4388 4389 4390 4391 4392 4393 4394 4395 4396 4397 4398 4399 4400 4401 4402 4403 4404 4405 4406 4407 4408 4409 4410 4411 4412 4413 4414 4415 4416 4417 4418 4419 4420 4421 4422 4423 4424 4425 4426 4427 4428 4429 4430 4431 4432 4433 4434 4435 4436 4437 4438 4439 4440 4441 4442 4443 4444 4445 4446 4447 4448 4449 4450 4451 4452 4453 4454 4455 4456 4457 4458 4459 4460 4461 4462 4463 4464 4465 4466 4467 4468 4469 4470 4471 4472 4473 4474 4475 4476 4477 4478 4479 4480 4481 4482 4483 4484 4485 4486 4487 4488 4489 4490 4491 4492 4493 4494 4495 4496 4497 4498 4499 4500 4501 4502 4503 4504 4505 4506 4507 4508 4509 4510 4511 4512 4513 4514 4515 4516 4517 4518 4519 4520 4521 4522 4523 4524 4525 4526 4527 4528 4529 4530 4531 4532 4533 4534 4535 4536 4537 4538 4539 4540 4541 4542 4543 4544 4545 4546 4547 4548 4549 4550 4551 4552 4553 4554 4555 4556 4557 4558 4559 4560 4561 4562 4563 4564 4565 4566 4567 4568 4569 4570 4571 4572 4573 4574 4575 4576 4577 4578 4579 4580 4581 4582 4583 4584 4585 4586 4587 4588 4589 4590 4591 4592 4593 4594 4595 4596 4597 4598 4599 4600 4601 4602 4603 4604 4605 4606 4607 4608 4609 4610 4611 4612 4613 4614 4615 4616 4617 4618 4619 4620 4621 4622 4623 4624 4625 4626 4627 4628 4629 4630 4631 4632 4633 4634 4635 4636 4637 4638 4639 4640 4641 4642 4643 4644 4645 4646 4647 4648 4649 4650 4651 4652 4653 4654 4655 4656 4657 4658 4659 4660 4661 4662 4663 4664 4665 4666 4667 4668 4669 4670 4671 4672 4673 4674 4675 4676 4677 4678 4679 4680 4681 4682 4683 4684 4685 4686 4687 4688 4689 4690 4691 4692 4693 4694 4695 4696 4697 4698 4699 4700 4701 4702 4703 4704 4705 4706 4707 4708 4709 4710 4711 4712 4713 4714 4715 4716 4717 4718 4719 4720 4721 4722 4723 4724 4725 4726 4727 4728 4729 4730 4731 4732 4733 4734 4735 4736 4737 4738 4739 4740 4741 4742 4743 4744 4745 4746 4747 4748 4749 4750 4751 4752 4753 4754 4755 4756 4757 4758 4759 4760 4761 4762 4763 4764 4765 4766 4767 4768 4769 4770 4771 4772 4773 4774 4775 4776 4777 4778 4779 4780 4781 4782 4783 4784 4785 4786 4787 4788 4789 4790 4791 4792 4793 4794 4795 4796 4797 4798 4799 4800 4801 4802 4803 4804 4805 4806 4807 4808 4809 4810 4811 4812 4813 4814 4815 4816 4817 4818 4819 4820 4821 4822 4823 4824 4825 4826 4827 4828 4829 4830 4831 4832 4833 4834 4835 4836 4837 4838 4839 4840 4841 4842 4843 4844 4845 4846 4847 4848 4849 4850 4851 4852 4853 4854 4855 4856 4857 4858 4859 4860 4861 4862 4863 4864 4865 4866 4867 4868 4869 4870 4871 4872 4873 4874 4875 4876 4877 4878 4879 4880 4881 4882 4883 4884 4885 4886 4887 4888 4889 4890 4891 4892 4893 4894 4895 4896 4897 4898 4899 4900 4901 4902 4903 4904 4905 4906 4907 4908 4909 4910 4911 4912 4913 4914 4915 4916 4917 4918 4919 4920 4921 4922 4923 4924 4925 4926 4927 4928 4929 4930 4931 4932 4933 4934 4935 4936 4937 4938 4939 4940 4941 4942 4943 4944 4945 4946 4947 4948 4949 4950 4951 4952 4953 4954 4955 4956 4957 4958 4959 4960 4961 4962 4963 4964 4965 4966 4967 4968 4969 4970 4971 4972 4973 4974 4975 4976 4977 4978 4979 4980 4981 4982 4983 4984 4985 4986 4987 4988 4989 4990 4991 4992 4993 4994 4995 4996 4997 4998 4999 5000 5001 5002 5003 5004 5005 5006 5007 5008 5009 5010 5011 5012 5013 5014 5015 5016 5017 5018 5019 5020 5021 5022 5023 5024 5025 5026 5027 5028 5029 5030 5031 5032 5033 5034 5035 5036 5037 5038 5039 5040 5041 5042 5043 5044 5045 5046 5047 5048 5049 5050 5051 5052 5053 5054 5055 5056 5057 5058 5059 5060 5061 5062 5063 5064 5065 5066 5067 5068 5069 5070 5071 5072 5073 5074 5075 5076 5077 5078 5079 5080 5081 5082 5083 5084 5085 5086 5087 5088 5089 5090 5091 5092 5093 5094 5095 5096 5097 5098 5099 5100 5101 5102 5103 5104 5105 5106 5107 5108 5109 5110 5111 5112 5113 5114 5115 5116 5117 5118 5119 5120 5121 5122 5123 5124 5125 5126 5127 5128 5129 5130 5131 5132 5133 5134 5135 5136 5137 5138 5139 5140 5141 5142 5143 5144 5145 5146 5147 5148 5149 5150 5151 5152 5153 5154 5155 5156 5157 5158 5159 5160 5161 5162 5163 5164 5165 5166 5167 5168 5169 5170 5171 5172 5173 5174 5175 5176 5177 5178 5179 5180 5181 5182 5183 5184 5185 5186 5187 5188 5189 5190 5191 5192 5193 5194 5195 5196 5197 5198 5199 5200 5201 5202 5203 5204 5205 5206 5207 5208 5209 5210 5211 5212 5213 5214 5215 5216 5217 5218 5219 5220 5221 5222 5223 5224 5225 5226 5227 5228 5229 5230 5231 5232 5233 5234 5235 5236 5237 5238 5239 5240 5241 5242 5243 5244 5245 5246 5247 5248 5249 5250 5251 5252 5253 5254 5255 5256 5257 5258 5259 5260 5261 5262 5263 5264 5265 5266 5267 5268 5269 5270 5271 5272 5273 5274 5275 5276 5277 5278 5279 5280 5281 5282 5283 5284 5285 5286 5287 5288 5289 5290 5291 5292 5293 5294 5295 5296 5297 5298 5299 5300 5301 5302 5303 5304 5305 5306 5307 5308 5309 5310 5311 5312 5313 5314 5315 5316 5317 5318 5319 5320 5321 5322 5323 5324 5325 5326 5327 5328 5329 5330 5331 5332 5333 5334 5335 5336 5337 5338 5339 5340 5341 5342 5343 5344 5345 5346 5347 5348 5349 5350 5351 5352 5353 5354 5355 5356 5357 5358 5359 5360 5361 5362 5363 5364 5365 5366 5367 5368 5369 5370 5371 5372 5373 5374 5375 5376 5377 5378 5379 5380 5381 5382 5383 5384 5385 5386 5387 5388 5389 5390 5391 5392 5393 5394 5395 5396 5397 5398 5399 5400 5401 5402 5403 5404 5405 5406 5407 5408 5409 5410 5411 5412 5413 5414 5415 5416 5417 5418 5419 5420 5421 5422 5423 5424 5425 5426 5427 5428 5429 5430 5431 5432 5433 5434 5435 5436 5437 5438 5439 5440 5441 5442 5443 5444 5445 5446 5447 5448 5449 5450 5451 5452 5453 5454 5455 5456 5457 5458 5459 5460 5461 5462 5463 5464 5465 5466 5467 5468 5469 5470 5471 5472 5473 5474 5475 5476 5477 5478 5479 5480 5481 5482 5483 5484 5485 5486 5487 5488 5489 5490 5491 5492 5493 5494 5495 5496 5497 5498 5499 5500 5501 5502 5503 5504 5505 5506 5507 5508 5509 5510 5511 5512 5513 5514 5515 5516 5517 5518 5519 5520 5521 5522 5523 5524 5525 5526 5527 5528 5529 5530 5531 5532 5533 5534 5535 5536 5537 5538 5539 5540 5541 5542 5543 5544 5545 5546 5547 5548 5549 5550 5551 5552 5553 5554 5555 5556 5557 5558 5559 5560 5561 5562 5563 5564 5565 5566 5567 5568 5569 5570 5571 5572 5573 5574 5575 5576 5577 5578 5579 5580 5581 5582 5583 5584 5585 5586 5587 5588 5589 5590 5591 5592 5593 5594 5595 5596 5597 5598 5599 5600 5601 5602 5603 5604 5605 5606 5607 5608 5609 5610 5611 5612 5613 5614 5615 5616 5617 5618 5619 5620 5621 5622 5623 5624 5625 5626 5627 5628 5629 5630 5631 5632 5633 5634 5635 5636 5637 5638 5639 5640 5641 5642 5643 5644 5645 5646 5647 5648 5649 5650 5651 5652 5653 5654 5655 5656 5657 5658 5659 5660 5661 5662 5663 5664 5665 5666 5667 5668 5669 5670 5671 5672 5673 5674 5675 5676 5677 5678 5679 5680 5681 5682 5683 5684 5685 5686 5687 5688 5689 5690 5691 5692 5693 5694 5695 5696 5697 5698 5699 5700 5701 5702 5703 5704 5705 5706 5707 5708 5709 5710 5711 5712 5713 5714 5715 5716 5717 5718 5719 5720 5721 5722 5723 5724 5725 5726 5727 5728 5729 5730 5731 5732 5733 5734 5735 5736 5737 5738 5739 5740 5741 5742 5743 5744 5745 5746 5747 5748 5749 5750 5751 5752 5753 5754 5755 5756 5757 5758 5759 5760 5761 5762 5763 5764 5765 5766 5767 5768 5769 5770 5771 5772 5773 5774 5775 5776 5777 5778 5779 5780 5781 5782 5783 5784 5785 5786 5787 5788 5789 5790 5791 5792 5793 5794 5795 5796 5797 5798 5799 5800 5801 5802 5803 5804 5805 5806 5807 5808 5809 5810 5811 5812 5813 5814 5815 5816 5817 5818 5819 5820 5821 5822 5823 5824 5825 5826 5827 5828 5829 5830 5831 5832 5833 5834 5835 5836 5837 5838 5839 5840 5841 5842 5843 5844 5845 5846 5847 5848 5849 5850 5851 5852 5853 5854 5855 5856 5857 5858 5859 5860 5861 5862 5863 5864 5865 5866 5867 5868 5869 5870 5871 5872 5873 5874 5875 5876 5877 5878 5879 5880 5881 5882 5883 5884 5885 5886 5887 5888 5889 5890 5891 5892 5893 5894 5895 5896 5897 5898 5899 5900 5901 5902 5903 5904 5905 5906 5907 5908 5909 5910 5911 5912 5913 5914 5915 5916 5917 5918 5919 5920 5921 5922 5923 5924 5925 5926 5927 5928 5929 5930 5931 5932 5933 5934 5935 5936 5937 5938 5939 5940 5941 5942 5943 5944 5945 5946 5947 5948 5949 5950 5951 5952 5953 5954 5955 5956 5957 5958 5959 5960 5961 5962 5963 5964 5965 5966 5967 5968 5969 5970 5971 5972 5973 5974 5975 5976 5977 5978 5979 5980 5981 5982 5983 5984 5985 5986 5987 5988 5989 5990 5991 5992 5993 5994 5995 5996 5997 5998 5999 6000 6001 6002 6003 6004 6005 6006 6007 6008 6009 6010 6011 6012 6013 6014 6015 6016 6017 6018 6019 6020 6021 6022 6023 6024 6025 6026 6027 6028 6029 6030 6031 6032 6033 6034 6035 6036 6037 6038 6039 6040 6041 6042 6043 6044 6045 6046 6047 6048 6049 6050 6051 6052 6053 6054 6055 6056 6057 6058 6059 6060 6061 6062 6063 6064 6065 6066 6067 6068 6069 6070 6071 6072 6073 6074 6075 6076 6077 6078 6079 6080 6081 6082 6083 6084 6085 6086 6087 6088 6089 6090 6091 6092 6093 6094 6095 6096 6097 6098 6099 6100 6101 6102 6103 6104 6105 6106 6107 6108 6109 6110 6111 6112 6113 6114 6115 6116 6117 6118 6119 6120 6121 6122 6123 6124 6125 6126 6127 6128 6129 6130 6131 6132 6133 6134 6135 6136 6137 6138 6139 6140 6141 6142 6143 6144 6145 6146 6147 6148 6149 6150 6151 6152 6153 6154 6155 6156 6157 6158 6159 6160 6161 6162 6163 6164 6165 6166 6167 6168 6169 6170 6171 6172 6173 6174 6175 6176 6177 6178 6179 6180 6181 6182 6183 6184 6185 6186 6187 6188 6189 6190 6191 6192 6193 6194 6195 6196 6197 6198 6199 6200 6201 6202 6203 6204 6205 6206 6207 6208 6209 6210 6211 6212 6213 6214 6215 6216 6217 6218 6219 6220 6221 6222 6223 6224 6225 6226 6227 6228 6229 6230 6231 6232 6233 6234 6235 6236 6237 6238 6239 6240 6241 6242 6243 6244 6245 6246 6247 6248 6249 6250 6251 6252 6253 6254 6255 6256 6257 6258 6259 6260 6261 6262 6263 6264 6265 6266 6267 6268 6269 6270 6271 6272 6273 6274 6275 6276 6277 6278 6279 6280 6281 6282 6283 6284 6285 6286 6287 6288 6289 6290 6291 6292 6293 6294 6295 6296 6297 6298 6299 6300 6301 6302 6303 6304 6305 6306 6307 6308 6309 6310 6311 6312 6313 6314 6315 6316 6317 6318 6319 6320 6321 6322 6323 6324 6325 6326 6327 6328 6329 6330 6331 6332 6333 6334 6335 6336 6337 6338 6339 6340 6341 6342 6343 6344 6345 6346 6347 6348 6349 6350 6351 6352 6353 6354 6355 6356 6357 6358 6359 6360 6361 6362 6363 6364 6365 6366 6367 6368 6369 6370 6371 6372 6373 6374 6375 6376 6377 6378 6379 6380 6381 6382 6383 6384 6385 6386 6387 6388 6389 6390 6391 6392 6393 6394 6395 6396 6397 6398 6399 6400 6401 6402 6403 6404 6405 6406 6407 6408 6409 6410 6411 6412 6413 6414 6415 6416 6417 6418 6419 6420 6421 6422 6423 6424 6425 6426 6427 6428 6429 6430 6431 6432 6433 6434 6435 6436 6437 6438 6439 6440 6441 6442 6443 6444 6445 6446 6447 6448 6449 6450 6451 6452 6453 6454 6455 6456 6457 6458 6459 6460 6461 6462 6463 6464 6465 6466 6467 6468 6469 6470 6471 6472 6473 6474 6475 6476 6477 6478 6479 6480 6481 6482 6483 6484 6485 6486 6487 6488 6489 6490 6491 6492 6493 6494 6495 6496 6497 6498 6499 6500 6501 6502 6503 6504 6505 6506 6507 6508 6509 6510 6511 6512 6513 6514 6515 6516 6517 6518 6519 6520 6521 6522 6523 6524 6525 6526 6527 6528 6529 6530 6531 6532 6533 6534 6535 6536 6537 6538 6539 6540 6541 6542 6543 6544 6545 6546 6547 6548 6549 6550 6551 6552 6553 6554 6555 6556 6557 6558 6559 6560 6561 6562 6563 6564 6565 6566 6567 6568 6569 6570 6571 6572 6573 6574 6575 6576 6577 6578 6579 6580 6581 6582 6583 6584 6585 6586 6587 6588 6589 6590 6591 6592 6593 6594 6595 6596 6597 6598 6599 6600 6601 6602 6603 6604 6605 6606 6607 6608 6609 6610 6611 6612 6613 6614 6615 6616 6617 6618 6619 6620 6621 6622 6623 6624 6625 6626 6627 6628 6629 6630 6631 6632 6633 6634 6635 6636 6637 6638 6639 6640 6641 6642 6643 6644 6645 6646 6647 6648 6649 6650 6651 6652 6653 6654 6655 6656 6657 6658 6659 6660 6661 6662 6663 6664 6665 6666 6667 6668 6669 6670 6671 6672 6673 6674 6675 6676 6677 6678 6679 6680 6681 6682 6683 6684 6685 6686 6687 6688 6689 6690 6691 6692 6693 6694 6695 6696 6697 6698 6699 6700 6701 6702 6703 6704 6705 6706 6707 6708 6709 6710 6711 6712 6713 6714 6715 6716 6717 6718 6719 6720 6721 6722 6723 6724 6725 6726 6727 6728 6729 6730 6731 6732 6733 6734 6735 6736 6737 6738 6739 6740 6741 6742 6743 6744 6745 6746 6747 6748 6749 6750 6751 6752 6753 6754 6755 6756 6757 6758 6759 6760 6761 6762 6763 6764 6765 6766 6767 6768 6769 6770 6771 6772 6773 6774 6775 6776 6777 6778 6779 6780 6781 6782 6783 6784 6785 6786 6787 6788 6789 6790 6791 6792 6793 6794 6795 6796 6797 6798 6799 6800 6801 6802 6803 6804 6805 6806 6807 6808 6809 6810 6811 6812 6813 6814 6815 6816 6817 6818 6819 6820 6821 6822 6823 6824 6825 6826 6827 6828 6829 6830 6831 6832 6833 6834 6835 6836 6837 6838 6839 6840 6841 6842 6843 6844 6845 6846 6847 6848 6849 6850 6851 6852 6853 6854 6855 6856 6857 6858 6859 6860 6861 6862 6863 6864 6865 6866 6867 6868 6869 6870 6871 6872 6873 6874 6875 6876 6877 6878 6879 6880 6881 6882 6883 6884 6885 6886 6887 6888 6889 6890 6891 6892 6893 6894 6895 6896 6897 6898 6899 6900 6901 6902 6903 6904 6905 6906 6907 6908 6909 6910 6911 6912 6913 6914 6915 6916 6917 6918 6919 6920 6921 6922 6923 6924 6925 6926 6927 6928 6929 6930 6931 6932 6933 6934 6935 6936 6937 6938 6939 6940 6941 6942 6943 6944 6945 6946 6947 6948 6949 6950 6951 6952 6953 6954 6955 6956 6957 6958 6959 6960 6961 6962 6963 6964 6965 6966 6967 6968 6969 6970 6971 6972 6973 6974 6975 6976 6977 6978 6979 6980 6981 6982 6983 6984 6985 6986 6987 6988 6989 6990 6991 6992 6993 6994 6995 6996 6997 6998 6999 7000 7001 7002 7003 7004 7005 7006 7007 7008 7009 7010 7011 7012 7013 7014 7015 7016 7017 7018 7019 7020 7021 7022 7023 7024 7025 7026 7027 7028 7029 7030 7031 7032 7033 7034 7035 7036 7037 7038 7039 7040 7041 7042 7043 7044 7045 7046 7047 7048 7049 7050 7051 7052 7053 7054 7055 7056 7057 7058 7059 7060 7061 7062 7063 7064 7065 7066 7067 7068 7069 7070 7071 7072 7073 7074 7075 7076 7077 7078 7079 7080 7081 7082 7083 7084 7085 7086 7087 7088 7089 7090 7091 7092 7093 7094 7095 7096 7097 7098 7099 7100 7101 7102 7103 7104 7105 7106 7107 7108 7109 7110 7111 7112 7113 7114 7115 7116 7117 7118 7119 7120 7121 7122 7123 7124 7125 7126 7127 7128 7129 7130 7131 7132 7133 7134 7135 7136 7137 7138 7139 7140 7141 7142 7143 7144 7145 7146 7147 7148 7149 7150 7151 7152 7153 7154 7155 7156 7157 7158 7159 7160 7161 7162 7163 7164 7165 7166 7167 7168 7169 7170 7171 7172 7173 7174 7175 7176 7177 7178 7179 7180 7181 7182 7183 7184 7185 7186 7187 7188 7189 7190 7191 7192 7193 7194 7195 7196 7197 7198 7199 7200 7201 7202 7203 7204 7205 7206 7207 7208 7209 7210 7211 7212 7213 7214 7215 7216 7217 7218 7219 7220 7221 7222 7223 7224 7225 7226 7227 7228 7229 7230 7231 7232 7233 7234 7235 7236 7237 7238 7239 7240 7241 7242 7243 7244 7245 7246 7247 7248 7249 7250 7251 7252 7253 7254 7255 7256 7257 7258 7259 7260 7261 7262 7263 7264 7265 7266 7267 7268 7269 7270 7271 7272 7273 7274 7275 7276 7277 7278 7279 7280 7281 7282 7283 7284 7285 7286 7287 7288 7289 7290 7291 7292 7293 7294 7295 7296 7297 7298 7299 7300 7301 7302 7303 7304 7305 7306 7307 7308 7309 7310 7311 7312 7313 7314 7315 7316 7317 7318 7319 7320 7321 7322 7323 7324 7325 7326 7327 7328 7329 7330 7331 7332 7333 7334 7335 7336 7337 7338 7339 7340 7341 7342 7343 7344 7345 7346 7347 7348 7349 7350 7351 7352 7353 7354 7355 7356 7357 7358 7359 7360 7361 7362 7363 7364 7365 7366 7367 7368 7369 7370 7371 7372 7373 7374 7375 7376 7377 7378 7379 7380 7381 7382 7383 7384 7385 7386 7387 7388 7389 7390 7391 7392 7393 7394 7395 7396 7397 7398 7399 7400 7401 7402 7403 7404 7405 7406 7407 7408 7409 7410 7411 7412 7413 7414 7415 7416 7417 7418 7419 7420 7421 7422 7423 7424 7425 7426 7427 7428 7429 7430 7431 7432 7433 7434 7435 7436 7437 7438 7439 7440 7441 7442 7443 7444 7445 7446 7447 7448 7449 7450 7451 7452 7453 7454 7455 7456 7457 7458 7459 7460 7461 7462 7463 7464 7465 7466 7467 7468 7469 7470 7471 7472 7473 7474 7475 7476 7477 7478 7479 7480 7481 7482 7483 7484 7485 7486 7487 7488 7489 7490 7491 7492 7493 7494 7495 7496 7497 7498 7499 7500 7501 7502 7503 7504 7505 7506 7507 7508 7509 7510 7511 7512 7513 7514 7515 7516 7517 7518 7519 7520 7521 7522 7523 7524 7525 7526 7527 7528 7529 7530 7531 7532 7533 7534 7535 7536 7537 7538 7539 7540 7541 7542 7543 7544 7545 7546 7547 7548 7549 7550 7551 7552 7553 7554 7555 7556 7557 7558 7559 7560 7561 7562 7563 7564 7565 7566 7567 7568 7569 7570 7571 7572 7573 7574 7575 7576 7577 7578 7579 7580 7581 7582 7583 7584 7585 7586 7587 7588 7589 7590 7591 7592 7593 7594 7595 7596 7597 7598 7599 7600 7601 7602 7603 7604 7605 7606 7607 7608 7609 7610 7611 7612 7613 7614 7615 7616 7617 7618 7619 7620 7621 7622 7623 7624 7625 7626 7627 7628 7629 7630 7631 7632 7633 7634 7635 7636 7637 7638 7639 7640 7641 7642 7643 7644 7645 7646 7647 7648 7649 7650 7651 7652 7653 7654 7655 7656 7657 7658 7659 7660 7661 7662 7663 7664 7665 7666 7667 7668 7669 7670 7671 7672 7673 7674 7675 7676 7677 7678 7679 7680 7681 7682 7683 7684 7685 7686 7687 7688 7689 7690 7691 7692 7693 7694 7695 7696 7697 7698 7699 7700 7701 7702 7703 7704 7705 7706 7707 7708 7709 7710 7711 7712 7713 7714 7715 7716 7717 7718 7719 7720 7721 7722 7723 7724 7725 7726 7727 7728 7729 7730 7731 7732 7733 7734 7735 7736 7737 7738 7739 7740 7741 7742 7743 7744 7745 7746 7747 7748 7749 7750 7751 7752 7753 7754 7755 7756 7757 7758 7759 7760 7761 7762 7763 7764 7765 7766 7767 7768 7769 7770 7771 7772 7773 7774 7775 7776 7777 7778 7779 7780 7781 7782 7783 7784 7785 7786 7787 7788 7789 7790 7791 7792 7793 7794 7795 7796 7797 7798 7799 7800 7801 7802 7803 7804 7805 7806 7807 7808 7809 7810 7811 7812 7813 7814 7815 7816 7817 7818 7819 7820 7821 7822 7823 7824 7825 7826 7827 7828 7829 7830 7831 7832 7833 7834 7835 7836 7837 7838 7839 7840 7841 7842 7843 7844 7845 7846 7847 7848 7849 7850 7851 7852 7853 7854 7855 7856 7857 7858 7859 7860 7861 7862 7863 7864 7865 7866 7867 7868 7869 7870 7871 7872 7873 7874 7875 7876 7877 7878 7879 7880 7881 7882 7883 7884 7885 7886 7887 7888 7889 7890 7891 7892 7893 7894 7895 7896 7897 7898 7899 7900 7901 7902 7903 7904 7905 7906 7907 7908 7909 7910 7911 7912 7913 7914 7915 7916 7917 7918 7919 7920 7921 7922 7923 7924 7925 7926 7927 7928 7929 7930 7931 7932 7933 7934 7935 7936 7937 7938 7939 7940 7941 7942 7943 7944 7945 7946 7947 7948 7949 7950 7951 7952 7953 7954 7955 7956 7957 7958 7959 7960 7961 7962 7963 7964 7965 7966 7967 7968 7969 7970 7971 7972 7973 7974 7975 7976 7977 7978 7979 7980 7981 7982 7983 7984 7985 7986 7987 7988 7989 7990 7991 7992 7993 7994 7995 7996 7997 7998 7999 8000 8001 8002 8003 8004 8005 8006 8007 8008 8009 8010 8011 8012 8013 8014 8015 8016 8017 8018 8019 8020 8021 8022 8023 8024 8025 8026 8027 8028 8029 8030 8031 8032 8033 8034 8035 8036 8037 8038 8039 8040 8041 8042 8043 8044 8045 8046 8047 8048 8049 8050 8051 8052 8053 8054 8055 8056 8057 8058 8059 8060 8061 8062 8063 8064 8065 8066 8067 8068 8069 8070 8071 8072 8073 8074 8075 8076 8077 8078 8079 8080 8081 8082 8083 8084 8085 8086 8087 8088 8089 8090 8091 8092 8093 8094 8095 8096 8097 8098 8099 8100 8101 8102 8103 8104 8105 8106 8107 8108 8109 8110 8111 8112 8113 8114 8115 8116 8117 8118 8119 8120 8121 8122 8123 8124 8125 8126 8127 8128 8129 8130 8131 8132 8133 8134 8135 8136 8137 8138 8139 8140 8141 8142 8143 8144 8145 8146 8147 8148 8149 8150 8151 8152 8153 8154 8155 8156 8157 8158 8159 8160 8161 8162 8163 8164 8165 8166 8167 8168 8169 8170 8171 8172 8173 8174 8175 8176 8177 8178 8179 8180 8181 8182 8183 8184 8185 8186 8187 8188 8189 8190 8191 8192 8193 8194 8195 8196 8197 8198 8199 8200 8201 8202 8203 8204 8205 8206 8207 8208 8209 8210 8211 8212 8213 8214 8215 8216 8217 8218 8219 8220 8221 8222 8223 8224 8225 8226 8227 8228 8229 8230 8231 8232 8233 8234 8235 8236 8237 8238 8239 8240 8241 8242 8243 8244 8245 8246 8247 8248 8249 8250 8251 8252 8253 8254 8255 8256 8257 8258 8259 8260 8261 8262 8263 8264 8265 8266 8267 8268 8269 8270 8271 8272 8273 8274 8275 8276 8277 8278 8279 8280 8281 8282 8283 8284 8285 8286 8287 8288 8289 8290 8291 8292 8293 8294 8295 8296 8297 8298 8299 8300 8301 8302 8303 8304 8305 8306 8307 8308 8309 8310 8311 8312 8313 8314 8315 8316 8317 8318 8319 8320 8321 8322 8323 8324 8325 8326 8327 8328 8329 8330 8331 8332 8333 8334 8335 8336 8337 8338 8339 8340 8341 8342 8343 8344 8345 8346 8347 8348 8349 8350 8351 8352 8353 8354 8355 8356 8357 8358 8359 8360 8361 8362 8363 8364 8365 8366 8367 8368 8369 8370 8371 8372 8373 8374 8375 8376 8377 8378 8379 8380 8381 8382 8383 8384 8385 8386 8387 8388 8389 8390 8391 8392 8393 8394 8395 8396 8397 8398 8399 8400 8401 8402 8403 8404 8405 8406 8407 8408 8409 8410 8411 8412 8413 8414 8415 8416 8417 8418 8419 8420 8421 8422 8423 8424 8425 8426 8427 8428 8429 8430 8431 8432 8433 8434 8435 8436 8437 8438 8439 8440 8441 8442 8443 8444 8445 8446 8447 8448 8449 8450 8451 8452 8453 8454 8455 8456 8457 8458 8459 8460 8461 8462 8463 8464 8465 8466 8467 8468 8469 8470 8471 8472 8473 8474 8475 8476 8477 8478 8479 8480 8481 8482 8483 8484 8485 8486 8487 8488 8489 8490 8491 8492 8493 8494 8495 8496 8497 8498 8499 8500 8501 8502 8503 8504 8505 8506 8507 8508 8509 8510 8511 8512 8513 8514 8515 8516 8517 8518 8519 8520 8521 8522 8523 8524 8525 8526 8527 8528 8529 8530 8531 8532 8533 8534 8535 8536 8537 8538 8539 8540 8541 8542 8543 8544 8545 8546 8547 8548 8549 8550 8551 8552 8553 8554 8555 8556 8557 8558 8559 8560 8561 8562 8563 8564 8565 8566 8567 8568 8569 8570 8571 8572 8573 8574 8575 8576 8577 8578 8579 8580 8581 8582 8583 8584 8585 8586 8587 8588 8589 8590 8591 8592 8593 8594 8595 8596 8597 8598 8599 8600 8601 8602 8603 8604 8605 8606 8607 8608 8609 8610 8611 8612 8613 8614 8615 8616 8617 8618 8619 8620 8621 8622 8623 8624 8625 8626 8627 8628 8629 8630 8631 8632 8633 8634 8635 8636 8637 8638 8639 8640 8641 8642 8643 8644 8645 8646 8647 8648 8649 8650 8651 8652 8653 8654 8655 8656 8657 8658 8659 8660 8661 8662 8663 8664 8665 8666 8667 8668 8669 8670 8671 8672 8673 8674 8675 8676 8677 8678 8679 8680 8681 8682 8683 8684 8685 8686 8687 8688 8689 8690 8691 8692 8693 8694 8695 8696 8697 8698 8699 8700 8701 8702 8703 8704 8705 8706 8707 8708 8709 8710 8711 8712 8713 8714 8715 8716 8717 8718 8719 8720 8721 8722 8723 8724 8725 8726 8727 8728 8729 8730 8731 8732 8733 8734 8735 8736 8737 8738 8739 8740 8741 8742 8743 8744 8745 8746 8747 8748 8749 8750 8751 8752 8753 8754 8755 8756 8757 8758 8759 8760 8761 8762 8763 8764 8765 8766 8767 8768 8769 8770 8771 8772 8773 8774 8775 8776 8777 8778 8779 8780 8781 8782 8783 8784 8785 8786 8787 8788 8789 8790 8791 8792 8793 8794 8795 8796 8797 8798 8799 8800 8801 8802 8803 8804 8805 8806 8807 8808 8809 8810 8811 8812 8813 8814 8815 8816 8817 8818 8819 8820 8821 8822 8823 8824 8825 8826 8827 8828 8829 8830 8831 8832 8833 8834 8835 8836 8837 8838 8839 8840 8841 8842 8843 8844 8845 8846 8847 8848 8849 8850 8851 8852 8853 8854 8855 8856 8857 8858 8859 8860 8861 8862 8863 8864 8865 8866 8867 8868 8869 8870 8871 8872 8873 8874 8875 8876 8877 8878 8879 8880 8881 8882 8883 8884 8885 8886 8887 8888 8889 8890 8891 8892 8893 8894 8895 8896 8897 8898 8899 8900 8901 8902 8903 8904 8905 8906 8907 8908 8909 8910 8911 8912 8913 8914 8915 8916 8917 8918 8919 8920 8921 8922 8923 8924 8925 8926 8927 8928 8929 8930 8931 8932 8933 8934 8935 8936 8937 8938 8939 8940 8941 8942 8943 8944 8945 8946 8947 8948 8949 8950 8951 8952 8953 8954 8955 8956 8957 8958 8959 8960 8961 8962 8963 8964 8965 8966 8967 8968 8969 8970 8971 8972 8973 8974 8975 8976 8977 8978 8979 8980 8981 8982 8983 8984 8985 8986 8987 8988 8989 8990 8991 8992 8993 8994 8995 8996 8997 8998 8999 9000 9001 9002 9003 9004 9005 9006 9007 9008 9009 9010 9011 9012 9013 9014 9015 9016 9017 9018 9019 9020 9021 9022 9023 9024 9025 9026 9027 9028 9029 9030 9031 9032 9033 9034 9035 9036 9037 9038 9039 9040 9041 9042 9043 9044 9045 9046 9047 9048 9049 9050 9051 9052 9053 9054 9055 9056 9057 9058 9059 9060 9061 9062 9063 9064 9065 9066 9067 9068 9069 9070 9071 9072 9073 9074 9075 9076 9077 9078 9079 9080 9081 9082 9083 9084 9085 9086 9087 9088 9089 9090 9091 9092 9093 9094 9095 9096 9097 9098 9099 9100 9101 9102 9103 9104 9105 9106 9107 9108 9109 9110 9111 9112 9113 9114 9115 9116 9117 9118 9119 9120 9121 9122 9123 9124 9125 9126 9127 9128 9129 9130 9131 9132 9133 9134 9135 9136 9137 9138 9139 9140 9141 9142 9143 9144 9145 9146 9147 9148 9149 9150 9151 9152 9153 9154 9155 9156 9157 9158 9159 9160 9161 9162 9163 9164 9165 9166 9167 9168 9169 9170 9171 9172 9173 9174 9175 9176 9177 9178 9179 9180 9181 9182 9183 9184 9185 9186 9187 9188 9189 9190 9191 9192 9193 9194 9195 9196 9197 9198 9199 9200 9201 9202 9203 9204 9205 9206 9207 9208 9209 9210 9211 9212 9213 9214 9215 9216 9217 9218 9219 9220 9221 9222 9223 9224 9225 9226 9227 9228 9229 9230 9231 9232 9233 9234 9235 9236 9237 9238 9239 9240 9241 9242 9243 9244 9245 9246 9247 9248 9249 9250 9251 9252 9253 9254 9255 9256 9257 9258 9259 9260 9261 9262 9263 9264 9265 9266 9267 9268 9269 9270 9271 9272 9273 9274 9275 9276 9277 9278 9279 9280 9281 9282 9283 9284 9285 9286 9287 9288 9289 9290 9291 9292 9293 9294 9295 9296 9297 9298 9299 9300 9301 9302 9303 9304 9305 9306 9307 9308 9309 9310 9311 9312 9313 9314 9315 9316 9317 9318 9319 9320 9321 9322 9323 9324 9325 9326 9327 9328 9329 9330 9331 9332 9333 9334 9335 9336 9337 9338 9339 9340 9341 9342 9343 9344 9345 9346 9347 9348 9349 9350 9351 9352 9353 9354 9355 9356 9357 9358 9359 9360 9361 9362 9363 9364 9365 9366 9367 9368 9369 9370 9371 9372 9373 9374 9375 9376 9377 9378 9379 9380 9381 9382 9383 9384 9385 9386 9387 9388 9389 9390 9391 9392 9393 9394 9395 9396 9397 9398 9399 9400 9401 9402 9403 9404 9405 9406 9407 9408 9409 9410 9411 9412 9413 9414 9415 9416 9417 9418 9419 9420 9421 9422 9423 9424 9425 9426 9427 9428 9429 9430 9431 9432 9433 9434 9435 9436 9437 9438 9439 9440 9441 9442 9443 9444 9445 9446 9447 9448 9449 9450 9451 9452 9453 9454 9455 9456 9457 9458 9459 9460 9461 9462 9463 9464 9465 9466 9467 9468 9469 9470 9471 9472 9473 9474 9475 9476 9477 9478 9479 9480 9481 9482 9483 9484 9485 9486 9487 9488 9489 9490 9491 9492 9493 9494 9495 9496 9497 9498 9499 9500 9501 9502 9503 9504 9505 9506 9507 9508 9509 9510 9511 9512 9513 9514 9515 9516 9517 9518 9519 9520 9521 9522 9523 9524 9525 9526 9527 9528 9529 9530 9531 9532 9533 9534 9535 9536 9537 9538 9539 9540 9541 9542 9543 9544 9545 9546 9547 9548 9549 9550 9551 9552 9553 9554 9555 9556 9557 9558 9559 9560 9561 9562 9563 9564 9565 9566 9567 9568 9569 9570 9571 9572 9573 9574 9575 9576 9577 9578 9579 9580 9581 9582 9583 9584 9585 9586 9587 9588 9589 9590 9591 9592 9593 9594 9595 9596 9597 9598 9599 9600 9601 9602 9603 9604 9605 9606 9607 9608 9609 9610 9611 9612 9613 9614 9615 9616 9617 9618 9619 9620 9621 9622 9623 9624 9625 9626 9627 9628 9629 9630 9631 9632 9633 9634 9635 9636 9637 9638 9639 9640 9641 9642 9643 9644 9645 9646 9647 9648 9649 9650 9651 9652 9653 9654 9655 9656 9657 9658 9659 9660 9661 9662 9663 9664 9665 9666 9667 9668 9669 9670 9671 9672 9673 9674 9675 9676 9677 9678 9679 9680 9681 9682 9683 9684 9685 9686 9687 9688 9689 9690 9691 9692 9693 9694 9695 9696 9697 9698 9699 9700 9701 9702 9703 9704 9705 9706 9707 9708 9709 9710 9711 9712 9713 9714 9715 9716 9717 9718 9719 9720 9721 9722 9723 9724 9725 9726 9727 9728 9729 9730 9731 9732 9733 9734 9735 9736 9737 9738 9739 9740 9741 9742 9743 9744 9745 9746 9747 9748 9749 9750 9751 9752 9753 9754 9755 9756 9757 9758 9759 9760 9761 9762 9763 9764 9765 9766 9767 9768 9769 9770 9771 9772 9773 9774 9775 9776 9777 9778 9779 9780 9781 9782 9783 9784 9785 9786 9787 9788 9789 9790 9791 9792 9793 9794 9795 9796 9797 9798 9799 9800 9801 9802 9803 9804 9805 9806 9807 9808 9809 9810 9811 9812 9813 9814 9815 9816 9817 9818 9819 9820 9821 9822 9823 9824 9825 9826 9827 9828 9829 9830 9831 9832 9833 9834 9835 9836 9837 9838 9839 9840 9841 9842 9843 9844 9845 9846 9847 9848 9849 9850 9851 9852 9853 9854 9855 9856 9857 9858 9859 9860 9861 9862 9863 9864 9865 9866 9867 9868 9869 9870 9871 9872 9873 9874 9875 9876 9877 9878 9879 9880 9881 9882 9883 9884 9885 9886 9887 9888 9889 9890 9891 9892 9893 9894 9895 9896 9897 9898 9899 9900 9901 9902 9903 9904 9905 9906 9907 9908 9909 9910 9911 9912 9913 9914 9915 9916 9917 9918 9919 9920 9921 9922 9923 9924 9925 9926 9927 9928 9929 9930 9931 9932 9933 9934 9935 9936 9937 9938 9939 9940 9941 9942 9943 9944 9945 9946 9947 9948 9949 9950 9951 9952 9953 9954 9955 9956 9957 9958 9959 9960 9961 9962 9963 9964 9965 9966 9967 9968 9969 9970 9971 9972 9973 9974 9975 9976 9977 9978 9979 9980 9981 9982 9983 9984 9985 9986 9987 9988 9989 9990 9991 9992 9993 9994 9995 9996 9997 9998 9999 10000 10001 10002 10003 10004 10005 10006 10007 10008 10009 10010 10011 10012 10013 10014 10015 10016 10017 10018 10019 10020 10021 10022 10023 10024 10025 10026 10027 10028 10029 10030 10031 10032 10033 10034 10035 10036 10037 10038 10039 10040 10041 10042 10043 10044 10045 10046 10047 10048 10049 10050 10051 10052 10053 10054 10055 10056 10057 10058 10059 10060 10061 10062 10063 10064 10065 10066 10067 10068 10069 10070 10071 10072 10073 10074 10075 10076 10077 10078 10079 10080 10081 10082 10083 10084 10085 10086 10087 10088 10089 10090 10091 10092 10093 10094 10095 10096 10097 10098 10099 10100 10101 10102 10103 10104 10105 10106 10107 10108 10109 10110 10111 10112 10113 10114 10115 10116 10117 10118 10119 10120 10121 10122 10123 10124 10125 10126 10127 10128 10129 10130 10131 10132 10133 10134 10135 10136 10137 10138 10139 10140 10141 10142 10143 10144 10145 10146 10147 10148 10149 10150 10151 10152 10153 10154 10155 10156 10157 10158 10159 10160 10161 10162 10163 10164 10165 10166 10167 10168 10169 10170 10171 10172 10173 10174 10175 10176 10177 10178 10179 10180 10181 10182 10183 10184 10185 10186 10187 10188 10189 10190 10191 10192 10193 10194 10195 10196 10197 10198 10199 10200 10201 10202 10203 10204 10205 10206 10207 10208 10209 10210 10211 10212 10213 10214 10215 10216 10217 10218 10219 10220 10221 10222 10223 10224 10225 10226 10227 10228 10229 10230 10231 10232 10233 10234 10235 10236 10237 10238 10239 10240 10241 10242 10243 10244 10245 10246 10247 10248 10249 10250 10251 10252 10253 10254 10255 10256 10257 10258 10259 10260 10261 10262 10263 10264 10265 10266 10267 10268 10269 10270 10271 10272 10273 10274 10275 10276 10277 10278 10279 10280 10281 10282 10283 10284 10285 10286 10287 10288 10289 10290 10291 10292 10293 10294 10295 10296 10297 10298 10299 10300 10301 10302 10303 10304 10305 10306 10307 10308 10309 10310 10311 10312 10313 10314 10315 10316 10317 10318 10319 10320 10321 10322 10323 10324 10325 10326 10327 10328 10329 10330 10331 10332 10333 10334 10335 10336 10337 10338 10339 10340 10341 10342 10343 10344 10345 10346 10347 10348 10349 10350 10351 10352 10353 10354 10355 10356 10357 10358 10359 10360 10361 10362 10363 10364 10365 10366 10367 10368 10369 10370 10371 10372 10373 10374 10375 10376 10377 10378 10379 10380 10381 10382 10383 10384 10385 10386 10387 10388 10389 10390 10391 10392 10393 10394 10395 10396 10397 10398 10399 10400 10401 10402 10403 10404 10405 10406 10407 10408 10409 10410 10411 10412 10413 10414 10415 10416 10417 10418 10419 10420 10421 10422 10423 10424 10425 10426 10427 10428 10429 10430 10431 10432 10433 10434 10435 10436 10437 10438 10439 10440 10441 10442 10443 10444 10445 10446 10447 10448 10449 10450 10451 10452 10453 10454 10455 10456 10457 10458 10459 10460 10461 10462 10463 10464 10465 10466 10467 10468 10469 10470 10471 10472 10473 10474 10475 10476 10477 10478 10479 10480 10481 10482 10483 10484 10485 10486 10487 10488 10489 10490 10491 10492 10493 10494 10495 10496 10497 10498 10499 10500 10501 10502 10503 10504 10505 10506 10507 10508 10509 10510 10511 10512 10513 10514 10515 10516 10517 10518 10519 10520 10521 10522 10523 10524 10525 10526 10527 10528 10529 10530 10531 10532 10533 10534 10535 10536 10537 10538 10539 10540 10541 10542 10543 10544 10545 10546 10547 10548 10549 10550 10551 10552 10553 10554 10555 10556 10557 10558 10559 10560 10561 10562 10563 10564 10565 10566 10567 10568 10569 10570 10571 10572 10573 10574 10575 10576 10577 10578 10579 10580 10581 10582 10583 10584 10585 10586 10587 10588 10589 10590 10591 10592 10593 10594 10595 10596 10597 10598 10599 10600 10601 10602 10603 10604 10605 10606 10607 10608 10609 10610 10611 10612 10613 10614 10615 10616 10617 10618 10619 10620 10621 10622 10623 10624 10625 10626 10627 10628 10629 10630 10631 10632 10633 10634 10635 10636 10637 10638 10639 10640 10641 10642 10643 10644 10645 10646 10647 10648 10649 10650 10651 10652 10653 10654 10655 10656 10657 10658 10659 10660 10661 10662 10663 10664 10665 10666 10667 10668 10669 10670 10671 10672 10673 10674 10675 10676 10677 10678 10679 10680 10681 10682 10683 10684 10685 10686 10687 10688 10689 10690 10691 10692 10693 10694 10695 10696 10697 10698 10699 10700 10701 10702 10703 10704 10705 10706 10707 10708 10709 10710 10711 10712 10713 10714 10715 10716 10717 10718 10719 10720 10721 10722 10723 10724 10725 10726 10727 10728 10729 10730 10731 10732 10733 10734 10735 10736 10737 10738 10739 10740 10741 10742 10743 10744 10745 10746 10747 10748 10749 10750 10751 10752 10753 10754 10755 10756 10757 10758 10759 10760 10761 10762 10763 10764 10765 10766 10767 10768 10769 10770 10771 10772 10773 10774 10775 10776 10777 10778 10779 10780 10781 10782 10783 10784 10785 10786 10787 10788 10789 10790 10791 10792 10793 10794 10795 10796 10797 10798 10799 10800 10801 10802 10803 10804 10805 10806 10807 10808 10809 10810 10811 10812 10813 10814 10815 10816 10817 10818 10819 10820 10821 10822 10823 10824 10825 10826 10827 10828 10829 10830 10831 10832 10833 10834 10835 10836 10837 10838 10839 10840 10841 10842 10843 10844 10845 10846 10847 10848 10849 10850 10851 10852 10853 10854 10855 10856 10857 10858 10859 10860 10861 10862 10863 10864 10865 10866 10867 10868 10869 10870 10871 10872 10873 10874 10875 10876 10877 10878 10879 10880 10881 10882 10883 10884 10885 10886 10887 10888 10889 10890 10891 10892 10893 10894 10895 10896 10897 10898 10899 10900 10901 10902 10903 10904 10905 10906 10907 10908 10909 10910 10911 10912 10913 10914 10915 10916 10917 10918 10919 10920 10921 10922 10923 10924 10925 10926 10927 10928 10929 10930 10931 10932 10933 10934 10935 10936 10937 10938 10939 10940 10941 10942 10943 10944 10945 10946 10947 10948 10949 10950 10951 10952 10953 10954 10955 10956 10957 10958 10959 10960 10961 10962 10963 10964 10965 10966 10967 10968 10969 10970 10971 10972 10973 10974 10975 10976 10977 10978 10979 10980 10981 10982 10983 10984 10985 10986 10987 10988 10989 10990 10991 10992 10993 10994 10995 10996 10997 10998 10999 11000 11001 11002 11003 11004 11005 11006 11007 11008 11009 11010 11011 11012 11013 11014 11015 11016 11017 11018 11019 11020 11021 11022 11023 11024 11025 11026 11027 11028 11029 11030 11031 11032 11033 11034 11035 11036 11037 11038 11039 11040 11041 11042 11043 11044 11045 11046 11047 11048 11049 11050 11051 11052 11053 11054 11055 11056 11057 11058 11059 11060 11061 11062 11063 11064 11065 11066 11067 11068 11069 11070 11071 11072 11073 11074 11075 11076 11077 11078 11079 11080 11081 11082 11083 11084 11085 11086 11087 11088 11089 11090 11091 11092 11093 11094 11095 11096 11097 11098 11099 11100 11101 11102 11103 11104 11105 11106 11107 11108 11109 11110 11111 11112 11113 11114 11115 11116 11117 11118 11119 11120 11121 11122 11123 11124 11125 11126 11127 11128 11129 11130 11131 11132 11133 11134 11135 11136 11137 11138 11139 11140 11141 11142 11143 11144 11145 11146 11147 11148 11149 11150 11151 11152 11153 11154 11155 11156 11157 11158 11159 11160 11161 11162 11163 11164 11165 11166 11167 11168 11169 11170 11171 11172 11173 11174 11175 11176 11177 11178 11179 11180 11181 11182 11183 11184 11185 11186 11187 11188 11189 11190 11191 11192 11193 11194 11195 11196 11197 11198 11199 11200 11201 11202 11203 11204 11205 11206 11207 11208 11209 11210 11211 11212 11213 11214 11215 11216 11217 11218 11219 11220 11221 11222 11223 11224 11225 11226 11227 11228 11229 11230 11231 11232 11233 11234 11235 11236 11237 11238 11239 11240 11241 11242 11243 11244 11245 11246 11247 11248 11249 11250 11251 11252 11253 11254 11255 11256 11257 11258 11259 11260 11261 11262 11263 11264 11265 11266 11267 11268 11269 11270 11271 11272 11273 11274 11275 11276 11277 11278 11279 11280 11281 11282 11283 11284 11285 11286 11287 11288 11289 11290 11291 11292 11293 11294 11295 11296 11297 11298 11299 11300 11301 11302 11303 11304 11305 11306 11307 11308 11309 11310 11311 11312 11313 11314 11315 11316 11317 11318 11319 11320 11321 11322 11323 11324 11325 11326 11327 11328 11329 11330 11331 11332 11333 11334 11335 11336 11337 11338 11339 11340 11341 11342 11343 11344 11345 11346 11347 11348 11349 11350 11351 11352 11353 11354 11355 11356 11357 11358 11359 11360 11361 11362 11363 11364 11365 11366 11367 11368 11369 11370 11371 11372 11373 11374 11375 11376 11377 11378 11379 11380 11381 11382 11383 11384 11385 11386 11387 11388 11389 11390 11391 11392 11393 11394 11395 11396 11397 11398 11399 11400 11401 11402 11403 11404 11405 11406 11407 11408 11409 11410 11411 11412 11413 11414 11415 11416 11417 11418 11419 11420 11421 11422 11423 11424 11425 11426 11427 11428 11429 11430 11431 11432 11433 11434 11435 11436 11437 11438 11439 11440 11441 11442 11443 11444 11445 11446 11447 11448 11449 11450 11451 11452 11453 11454 11455 11456 11457 11458 11459 11460 11461 11462 11463 11464 11465 11466 11467 11468 11469 11470 11471 11472 11473 11474 11475 11476 11477 11478 11479 11480 11481 11482 11483 11484 11485 11486 11487 11488 11489 11490 11491 11492 11493 11494 11495 11496 11497 11498 11499 11500 11501 11502 11503 11504 11505 11506 11507 11508 11509 11510 11511 11512 11513 11514 11515 11516 11517 11518 11519 11520 11521 11522 11523 11524 11525 11526 11527 11528 11529 11530 11531 11532 11533 11534 11535 11536 11537 11538 11539 11540 11541 11542 11543 11544 11545 11546 11547 11548 11549 11550 11551 11552 11553 11554 11555 11556 11557 11558 11559 11560 11561 11562 11563 11564 11565 11566 11567 11568 11569 11570 11571 11572 11573 11574 11575 11576 11577 11578 11579 11580 11581 11582 11583 11584 11585 11586 11587 11588 11589 11590 11591 11592 11593 11594 11595 11596 11597 11598 11599 11600 11601 11602 11603 11604 11605 11606 11607 11608 11609 11610 11611 11612 11613 11614 11615 11616 11617 11618 11619 11620 11621 11622 11623 11624 11625 11626 11627 11628 11629 11630 11631 11632 11633 11634 11635 11636 11637 11638 11639 11640 11641 11642 11643 11644 11645 11646 11647 11648 11649 11650 11651 11652 11653 11654 11655 11656 11657 11658 11659 11660 11661 11662 11663 11664 11665 11666 11667 11668 11669 11670 11671 11672 11673 11674 11675 11676 11677 11678 11679 11680 11681 11682 11683 11684 11685 11686 11687 11688 11689 11690 11691 11692 11693 11694 11695 11696 11697 11698 11699 11700 11701 11702 11703 11704 11705 11706 11707 11708 11709 11710 11711 11712 11713 11714 11715 11716 11717 11718 11719 11720 11721 11722 11723 11724 11725 11726 11727 11728 11729 11730 11731 11732 11733 11734 11735 11736 11737 11738 11739 11740 11741 11742 11743 11744 11745 11746 11747 11748 11749 11750 11751 11752 11753 11754 11755 11756 11757 11758 11759 11760 11761 11762 11763 11764 11765 11766 11767 11768 11769 11770 11771 11772 11773 11774 11775 11776 11777 11778 11779 11780 11781 11782 11783 11784 11785 11786 11787 11788 11789 11790 11791 11792 11793 11794 11795 11796 11797 11798 11799 11800 11801 11802 11803 11804 11805 11806 11807 11808 11809 11810 11811 11812 11813 11814 11815 11816 11817 11818 11819 11820 11821 11822 11823 11824 11825 11826 11827 11828 11829 11830 11831 11832 11833 11834 11835 11836 11837 11838 11839 11840 11841 11842 11843 11844 11845 11846 11847 11848 11849 11850 11851 11852 11853 11854 11855 11856 11857 11858 11859 11860 11861 11862 11863 11864 11865 11866 11867 11868 11869 11870 11871 11872 11873 11874 11875 11876 11877 11878 11879 11880 11881 11882 11883 11884 11885 11886 11887 11888 11889 11890 11891 11892 11893 11894 11895 11896 11897 11898 11899 11900 11901 11902 11903 11904 11905 11906 11907 11908 11909 11910 11911 11912 11913 11914 11915 11916 11917 11918 11919 11920 11921 11922 11923 11924 11925 11926 11927 11928 11929 11930 11931 11932 11933 11934 11935 11936 11937 11938 11939 11940 11941 11942 11943 11944 11945 11946 11947 11948 11949 11950 11951 11952 11953 11954 11955 11956 11957 11958 11959 11960 11961 11962 11963 11964 11965 11966 11967 11968 11969 11970 11971 11972 11973 11974 11975 11976 11977 11978 11979 11980 11981 11982 11983 11984 11985 11986 11987 11988 11989 11990 11991 11992 11993 11994 11995 11996 11997 11998 11999 12000 12001 12002 12003 12004 12005 12006 12007 12008 12009 12010 12011 12012 12013 12014 12015 12016 12017 12018 12019 12020 12021 12022 12023 12024 12025 12026 12027 12028 12029 12030 12031 12032 12033 12034 12035 12036 12037 12038 12039 12040 12041 12042 12043 12044 12045 12046 12047 12048 12049 12050 12051 12052 12053 12054 12055 12056 12057 12058 12059 12060 12061 12062 12063 12064 12065 12066 12067 12068 12069 12070 12071 12072 12073 12074 12075 12076 12077 12078 12079 12080 12081 12082 12083 12084 12085 12086 12087 12088 12089 12090 12091 12092 12093 12094 12095 12096 12097 12098 12099 12100 12101 12102 12103 12104 12105 12106 12107 12108 12109 12110 12111 12112 12113 12114 12115 12116 12117 12118 12119 12120 12121 12122 12123 12124 12125 12126 12127 12128 12129 12130 12131 12132 12133 12134 12135 12136 12137 12138 12139 12140 12141 12142 12143 12144 12145 12146 12147 12148 12149 12150 12151 12152 12153 12154 12155 12156 12157 12158 12159 12160 12161 12162 12163 12164 12165 12166 12167 12168 12169 12170 12171 12172 12173 12174 12175 12176 12177 12178 12179 12180 12181 12182 12183 12184 12185 12186 12187 12188 12189 12190 12191 12192 12193 12194 12195 12196 12197 12198 12199 12200 12201 12202 12203 12204 12205 12206 12207 12208 12209 12210 12211 12212 12213 12214 12215 12216 12217 12218 12219 12220 12221 12222 12223 12224 12225 12226 12227 12228 12229 12230 12231 12232 12233 12234 12235 12236 12237 12238 12239 12240 12241 12242 12243 12244 12245 12246 12247 12248 12249 12250 12251 12252 12253 12254 12255 12256 12257 12258 12259 12260 12261 12262 12263 12264 12265 12266 12267 12268 12269 12270 12271 12272 12273 12274 12275 12276 12277 12278 12279 12280 12281 12282 12283 12284 12285 12286 12287 12288 12289 12290 12291 12292 12293 12294 12295 12296 12297 12298 12299 12300 12301 12302 12303 12304 12305 12306 12307 12308 12309 12310 12311 12312 12313 12314 12315 12316 12317 12318 12319 12320 12321 12322 12323 12324 12325 12326 12327 12328 12329 12330 12331 12332 12333 12334 12335 12336 12337 12338 12339 12340 12341 12342 12343 12344 12345 12346 12347 12348 12349 12350 12351 12352 12353 12354 12355 12356 12357 12358 12359 12360 12361 12362 12363 12364 12365 12366 12367 12368 12369 12370 12371 12372 12373 12374 12375 12376 12377 12378 12379 12380 12381 12382 12383 12384 12385 12386 12387 12388 12389 12390 12391 12392 12393 12394 12395 12396 12397 12398 12399 12400 12401 12402 12403 12404 12405 12406 12407 12408 12409 12410 12411 12412 12413 12414 12415 12416 12417 12418 12419 12420 12421 12422 12423 12424 12425 12426 12427 12428 12429 12430 12431 12432 12433 12434 12435 12436 12437 12438 12439 12440 12441 12442 12443 12444 12445 12446 12447 12448 12449 12450 12451 12452 12453 12454 12455 12456 12457 12458 12459 12460 12461 12462 12463 12464 12465 12466 12467 12468 12469 12470 12471 12472 12473 12474 12475 12476 12477 12478 12479 12480 12481 12482 12483 12484 12485 12486 12487 12488 12489 12490 12491 12492 12493 12494 12495 12496 12497 12498 12499 12500 12501 12502 12503 12504 12505 12506 12507 12508 12509 12510 12511 12512 12513 12514 12515 12516 12517 12518 12519 12520 12521 12522 12523 12524 12525 12526 12527 12528 12529 12530 12531 12532 12533 12534 12535 12536 12537 12538 12539 12540 12541 12542 12543 12544 12545 12546 12547 12548 12549 12550 12551 12552 12553 12554 12555 12556 12557 12558 12559 12560 12561 12562 12563 12564 12565 12566 12567 12568 12569 12570 12571 12572 12573 12574 12575 12576 12577 12578 12579 12580 12581 12582 12583 12584 12585 12586 12587 12588 12589 12590 12591 12592 12593 12594 12595 12596 12597 12598 12599 12600 12601 12602 12603 12604 12605 12606 12607 12608 12609 12610 12611 12612 12613 12614 12615 12616 12617 12618 12619 12620 12621 12622 12623 12624 12625 12626 12627 12628 12629 12630 12631 12632 12633 12634 12635 12636 12637 12638 12639 12640 12641 12642 12643 12644 12645 12646 12647 12648 12649 12650 12651 12652 12653 12654 12655 12656 12657 12658 12659 12660 12661 12662 12663 12664 12665 12666 12667 12668 12669 12670 12671 12672 12673 12674 12675 12676 12677 12678 12679 12680 12681 12682 12683 12684 12685 12686 12687 12688 12689 12690 12691 12692 12693 12694 12695 12696 12697 12698 12699 12700 12701 12702 12703 12704 12705 12706 12707 12708 12709 12710 12711 12712 12713 12714 12715 12716 12717 12718 12719 12720 12721 12722 12723 12724 12725 12726 12727 12728 12729 12730 12731 12732 12733 12734 12735 12736 12737 12738 12739 12740 12741 12742 12743 12744 12745 12746 12747 12748 12749 12750 12751 12752 12753 12754 12755 12756 12757 12758 12759 12760 12761 12762 12763 12764 12765 12766 12767 12768 12769 12770 12771 12772 12773 12774 12775 12776 12777 12778 12779 12780 12781 12782 12783 12784 12785 12786 12787 12788 12789 12790 12791 12792 12793 12794 12795 12796 12797 12798 12799 12800 12801 12802 12803 12804 12805 12806 12807 12808 12809 12810 12811 12812 12813 12814 12815 12816 12817 12818 12819 12820 12821 12822 12823 12824 12825 12826 12827 12828 12829 12830 12831 12832 12833 12834 12835 12836 12837 12838 12839 12840 12841 12842 12843 12844 12845 12846 12847 12848 12849 12850 12851 12852 12853 12854 12855 12856 12857 12858 12859 12860 12861 12862 12863 12864 12865 12866 12867 12868 12869 12870 12871 12872 12873 12874 12875 12876 12877 12878 12879 12880 12881 12882 12883 12884 12885 12886 12887 12888 12889 12890 12891 12892 12893 12894 12895 12896 12897 12898 12899 12900 12901 12902 12903 12904 12905 12906 12907 12908 12909 12910 12911 12912 12913 12914 12915 12916 12917 12918 12919 12920 12921 12922 12923 12924 12925 12926 12927 12928 12929 12930 12931 12932 12933 12934 12935 12936 12937 12938 12939 12940 12941 12942 12943 12944 12945 12946 12947 12948 12949 12950 12951 12952 12953 12954 12955 12956 12957 12958 12959 12960 12961 12962 12963 12964 12965 12966 12967 12968 12969 12970 12971 12972 12973 12974 12975 12976 12977 12978 12979 12980 12981 12982 12983 12984 12985 12986 12987 12988 12989 12990 12991 12992 12993 12994 12995 12996 12997 12998 12999 13000 13001 13002 13003 13004 13005 13006 13007 13008 13009 13010 13011 13012 13013 13014 13015 13016 13017 13018 13019 13020 13021 13022 13023 13024 13025 13026 13027 13028 13029 13030 13031 13032 13033 13034 13035 13036 13037 13038 13039 13040 13041 13042 13043 13044 13045 13046 13047 13048 13049 13050 13051 13052 13053 13054 13055 13056 13057 13058 13059 13060 13061 13062 13063 13064 13065 13066 13067 13068 13069 13070 13071 13072 13073 13074 13075 13076 13077 13078 13079 13080 13081 13082 13083 13084 13085 13086 13087 13088 13089 13090 13091 13092 13093 13094 13095 13096 13097 13098 13099 13100 13101 13102 13103 13104 13105 13106 13107 13108 13109 13110 13111 13112 13113 13114 13115 13116 13117 13118 13119 13120 13121 13122 13123 13124 13125 13126 13127 13128 13129 13130 13131 13132 13133 13134 13135 13136 13137 13138 13139 13140 13141 13142 13143 13144 13145 13146 13147 13148 13149 13150 13151 13152 13153 13154 13155 13156 13157 13158 13159 13160 13161 13162 13163 13164 13165 13166 13167 13168 13169 13170 13171 13172 13173 13174 13175 13176 13177 13178 13179 13180 13181 13182 13183 13184 13185 13186 13187 13188 13189 13190 13191 13192 13193 13194 13195 13196 13197 13198 13199 13200 13201 13202 13203 13204 13205 13206 13207 13208 13209 13210 13211 13212 13213 13214 13215 13216 13217 13218 13219 13220 13221 13222 13223 13224 13225 13226 13227 13228 13229 13230 13231 13232 13233 13234 13235 13236 13237 13238 13239 13240 13241 13242 13243 13244 13245 13246 13247 13248 13249 13250 13251 13252 13253 13254 13255 13256 13257 13258 13259 13260 13261 13262 13263 13264 13265 13266 13267 13268 13269 13270 13271 13272 13273 13274 13275 13276 13277 13278 13279 13280 13281 13282 13283 13284 13285 13286 13287 13288 13289 13290 13291 13292 13293 13294 13295 13296 13297 13298 13299 13300 13301 13302 13303 13304 13305 13306 13307 13308 13309 13310 13311 13312 13313 13314 13315 13316 13317 13318 13319 13320 13321 13322 13323 13324 13325 13326 13327 13328 13329 13330 13331 13332 13333 13334 13335 13336 13337 13338 13339 13340 13341 13342 13343 13344 13345 13346 13347 13348 13349 13350 13351 13352 13353 13354 13355 13356 13357 13358 13359 13360 13361 13362 13363 13364 13365 13366 13367 13368 13369 13370 13371 13372 13373 13374 13375 13376 13377 13378 13379 13380 13381 13382 13383 13384 13385 13386 13387 13388 13389 13390 13391 13392 13393 13394 13395 13396 13397 13398 13399 13400 13401 13402 13403 13404 13405 13406 13407 13408 13409 13410 13411 13412 13413 13414 13415 13416 13417 13418 13419 13420 13421 13422 13423 13424 13425 13426 13427 13428 13429 13430 13431 13432 13433 13434 13435 13436 13437 13438 13439 13440 13441 13442 13443 13444 13445 13446 13447 13448 13449 13450 13451 13452 13453 13454 13455 13456 13457 13458 13459 13460 13461 13462 13463 13464 13465 13466 13467 13468 13469 13470 13471 13472 13473 13474 13475 13476 13477 13478 13479 13480 13481 13482 13483 13484 13485 13486 13487 13488 13489 13490 13491 13492 13493 13494 13495 13496 13497 13498 13499 13500 13501 13502 13503 13504 13505 13506 13507 13508 13509 13510 13511 13512 13513 13514 13515 13516 13517 13518 13519 13520 13521 13522 13523 13524 13525 13526 13527 13528 13529 13530 13531 13532 13533 13534 13535 13536 13537 13538 13539 13540 13541 13542 13543 13544 13545 13546 13547 13548 13549 13550 13551 13552 13553 13554 13555 13556 13557 13558 13559 13560 13561 13562 13563 13564 13565 13566 13567 13568 13569 13570 13571 13572 13573 13574 13575 13576 13577 13578 13579 13580 13581 13582 13583 13584 13585 13586 13587 13588 13589 13590 13591 13592 13593 13594 13595 13596 13597 13598 13599 13600 13601 13602 13603 13604 13605 13606 13607 13608 13609 13610 13611 13612 13613 13614 13615 13616 13617 13618 13619 13620 13621 13622 13623 13624 13625 13626 13627 13628 13629 13630 13631 13632 13633 13634 13635 13636 13637 13638 13639 13640 13641 13642 13643 13644 13645 13646 13647 13648 13649 13650 13651 13652 13653 13654 13655 13656 13657 13658 13659 13660 13661 13662 13663 13664 13665 13666 13667 13668 13669 13670 13671 13672 13673 13674 13675 13676 13677 13678 13679 13680 13681 13682 13683 13684 13685 13686 13687 13688 13689 13690 13691 13692 13693 13694 13695 13696 13697 13698 13699 13700 13701 13702 13703 13704 13705 13706 13707 13708 13709 13710 13711 13712 13713 13714 13715 13716 13717 13718 13719 13720 13721 13722 13723 13724 13725 13726 13727 13728 13729 13730 13731 13732 13733 13734 13735 13736 13737 13738 13739 13740 13741 13742 13743 13744 13745 13746 13747 13748 13749 13750 13751 13752 13753 13754 13755 13756 13757 13758 13759 13760 13761 13762 13763 13764 13765 13766 13767 13768 13769 13770 13771 13772 13773 13774 13775 13776 13777 13778 13779 13780 13781 13782 13783 13784 13785 13786 13787 13788 13789 13790 13791 13792 13793 13794 13795 13796 13797 13798 13799 13800 13801 13802 13803 13804 13805 13806 13807 13808 13809 13810 13811 13812 13813 13814 13815 13816 13817 13818 13819 13820 13821 13822 13823 13824 13825 13826 13827 13828 13829 13830 13831 13832 13833 13834 13835 13836 13837 13838 13839 13840 13841 13842 13843 13844 13845 13846 13847 13848 13849 13850 13851 13852 13853 13854 13855 13856 13857 13858 13859 13860 13861 13862 13863 13864 13865 13866 13867 13868 13869 13870 13871 13872 13873 13874 13875 13876 13877 13878 13879 13880 13881 13882 13883 13884 13885 13886 13887 13888 13889 13890 13891 13892 13893 13894 13895 13896 13897 13898 13899 13900 13901 13902 13903 13904 13905 13906 13907 13908 13909 13910 13911 13912 13913 13914 13915 13916 13917 13918 13919 13920 13921 13922 13923 13924 13925 13926 13927 13928 13929 13930 13931 13932 13933 13934 13935 13936 13937 13938 13939 13940 13941 13942 13943 13944 13945 13946 13947 13948 13949 13950 13951 13952 13953 13954 13955 13956 13957 13958 13959 13960 13961 13962 13963 13964 13965 13966 13967 13968 13969 13970 13971 13972 13973 13974 13975 13976 13977 13978 13979 13980 13981 13982 13983 13984 13985 13986 13987 13988 13989 13990 13991 13992 13993 13994 13995 13996 13997 13998 13999 14000 14001 14002 14003 14004 14005 14006 14007 14008 14009 14010 14011 14012 14013 14014 14015 14016 14017 14018 14019 14020 14021 14022 14023 14024 14025 14026 14027 14028 14029 14030 14031 14032 14033 14034 14035 14036 14037 14038 14039 14040 14041 14042 14043 14044 14045 14046 14047 14048 14049 14050 14051 14052 14053 14054 14055 14056 14057 14058 14059 14060 14061 14062 14063 14064 14065 14066 14067 14068 14069 14070 14071 14072 14073 14074 14075 14076 14077 14078 14079 14080 14081 14082 14083 14084 14085 14086 14087 14088 14089 14090 14091 14092 14093 14094 14095 14096 14097 14098 14099 14100 14101 14102 14103 14104 14105 14106 14107 14108 14109 14110 14111 14112 14113 14114 14115 14116 14117 14118 14119 14120 14121 14122 14123 14124 14125 14126 14127 14128 14129 14130 14131 14132 14133 14134 14135 14136 14137 14138 14139 14140 14141 14142 14143 14144 14145 14146 14147 14148 14149 14150 14151 14152 14153 14154 14155 14156 14157 14158 14159 14160 14161 14162 14163 14164 14165 14166 14167 14168 14169 14170 14171 14172 14173 14174 14175 14176 14177 14178 14179 14180 14181 14182 14183 14184 14185 14186 14187 14188 14189 14190 14191 14192 14193 14194 14195 14196 14197 14198 14199 14200 14201 14202 14203 14204 14205 14206 14207 14208 14209 14210 14211 14212 14213 14214 14215 14216 14217 14218 14219 14220 14221 14222 14223 14224 14225 14226 14227 14228 14229 14230 14231 14232 14233 14234 14235 14236 14237 14238 14239 14240 14241 14242 14243 14244 14245 14246 14247 14248 14249 14250 14251 14252 14253 14254 14255 14256 14257 14258 14259 14260 14261 14262 14263 14264 14265 14266 14267 14268 14269 14270 14271 14272 14273 14274 14275 14276 14277 14278 14279 14280 14281 14282 14283 14284 14285 14286 14287 14288 14289 14290 14291 14292 14293 14294 14295 14296 14297 14298 14299 14300 14301 14302 14303 14304 14305 14306 14307 14308 14309 14310 14311 14312 14313 14314 14315 14316 14317 14318 14319 14320 14321 14322 14323 14324 14325 14326 14327 14328 14329 14330 14331 14332 14333 14334 14335 14336 14337 14338 14339 14340 14341 14342 14343 14344 14345 14346 14347 14348 14349 14350 14351 14352 14353 14354 14355 14356 14357 14358 14359 14360 14361 14362 14363 14364 14365 14366 14367 14368 14369 14370 14371 14372 14373 14374 14375 14376 14377 14378 14379 14380 14381 14382 14383 14384 14385 14386 14387 14388 14389 14390 14391 14392 14393 14394 14395 14396 14397 14398 14399 14400 14401 14402 14403 14404 14405 14406 14407 14408 14409 14410 14411 14412 14413 14414 14415 14416 14417 14418 14419 14420 14421 14422 14423 14424 14425 14426 14427 14428 14429 14430 14431 14432 14433 14434 14435 14436 14437 14438 14439 14440 14441 14442 14443 14444 14445 14446 14447 14448 14449 14450 14451 14452 14453 14454 14455 14456 14457 14458 14459 14460 14461 14462 14463 14464 14465 14466 14467 14468 14469 14470 14471 14472 14473 14474 14475 14476 14477 14478 14479 14480 14481 14482 14483 14484 14485 14486 14487 14488 14489 14490 14491 14492 14493 14494 14495 14496 14497 14498 14499 14500 14501 14502 14503 14504 14505 14506 14507 14508 14509 14510 14511 14512 14513 14514 14515 14516 14517 14518 14519 14520 14521 14522 14523 14524 14525 14526 14527 14528 14529 14530 14531 14532 14533 14534 14535 14536 14537 14538 14539 14540 14541 14542 14543 14544 14545 14546 14547 14548 14549 14550 14551 14552 14553 14554 14555 14556 14557 14558 14559 14560 14561 14562 14563 14564 14565 14566 14567 14568 14569 14570 14571 14572 14573 14574 14575 14576 14577 14578 14579 14580 14581 14582 14583 14584 14585 14586 14587 14588 14589 14590 14591 14592 14593 14594 14595 14596 14597 14598 14599 14600 14601 14602 14603 14604 14605 14606 14607 14608 14609 14610 14611 14612 14613 14614 14615 14616 14617 14618 14619 14620 14621 14622 14623 14624 14625 14626 14627 14628 14629 14630 14631 14632 14633 14634 14635 14636 14637 14638 14639 14640 14641 14642 14643 14644 14645 14646 14647 14648 14649 14650 14651 14652 14653 14654 14655 14656 14657 14658 14659 14660 14661 14662 14663 14664 14665 14666 14667 14668 14669 14670 14671 14672 14673 14674 14675 14676 14677 14678 14679 14680 14681 14682 14683 14684 14685 14686 14687 14688 14689 14690 14691 14692 14693 14694 14695 14696 14697 14698 14699 14700 14701 14702 14703 14704 14705 14706 14707 14708 14709 14710 14711 14712 14713 14714 14715 14716 14717 14718 14719 14720 14721 14722 14723 14724 14725 14726 14727 14728 14729 14730 14731 14732 14733 14734 14735 14736 14737 14738 14739 14740 14741 14742 14743 14744 14745 14746 14747 14748 14749 14750 14751 14752 14753 14754 14755 14756 14757 14758 14759 14760 14761 14762 14763 14764 14765 14766 14767 14768 14769 14770 14771 14772 14773 14774 14775 14776 14777 14778 14779 14780 14781 14782 14783 14784 14785 14786 14787 14788 14789 14790 14791 14792 14793 14794 14795 14796 14797 14798 14799 14800 14801 14802 14803 14804 14805 14806 14807 14808 14809 14810 14811 14812 14813 14814 14815 14816 14817 14818 14819 14820 14821 14822 14823 14824 14825 14826 14827 14828 14829 14830 14831 14832 14833 14834 14835 14836 14837 14838 14839 14840 14841 14842 14843 14844 14845 14846 14847 14848 14849 14850 14851 14852 14853 14854 14855 14856 14857 14858 14859 14860 14861 14862 14863 14864 14865 14866 14867 14868 14869 14870 14871 14872 14873 14874 14875 14876 14877 14878 14879 14880 14881 14882 14883 14884 14885 14886 14887 14888 14889 14890 14891 14892 14893 14894 14895 14896 14897 14898 14899 14900 14901 14902 14903 14904 14905 14906 14907 14908 14909 14910 14911 14912 14913 14914 14915 14916 14917 14918 14919 14920 14921 14922 14923 14924 14925 14926 14927 14928 14929 14930 14931 14932 14933 14934 14935 14936 14937 14938 14939 14940 14941 14942 14943 14944 14945 14946 14947 14948 14949 14950 14951 14952 14953 14954 14955 14956 14957 14958 14959 14960 14961 14962 14963 14964 14965 14966 14967 14968 14969 14970 14971 14972 14973 14974 14975 14976 14977 14978 14979 14980 14981 14982 14983 14984 14985 14986 14987 14988 14989 14990 14991 14992 14993 14994 14995 14996 14997 14998 14999 15000 15001 15002 15003 15004 15005 15006 15007 15008 15009 15010 15011 15012 15013 15014 15015 15016 15017 15018 15019 15020 15021 15022 15023 15024 15025 15026 15027 15028 15029 15030 15031 15032 15033 15034 15035 15036 15037 15038 15039 15040 15041 15042 15043 15044 15045 15046 15047 15048 15049 15050 15051 15052 15053 15054 15055 15056 15057 15058 15059 15060 15061 15062 15063 15064 15065 15066 15067 15068 15069 15070 15071 15072 15073 15074 15075 15076 15077 15078 15079 15080 15081 15082 15083 15084 15085 15086 15087 15088 15089 15090 15091 15092 15093 15094 15095 15096 15097 15098 15099 15100 15101 15102 15103 15104 15105 15106 15107 15108 15109 15110 15111 15112 15113 15114 15115 15116 15117 15118 15119 15120 15121 15122 15123 15124 15125 15126 15127 15128 15129 15130 15131 15132 15133 15134 15135 15136 15137 15138 15139 15140 15141 15142 15143 15144 15145 15146 15147 15148 15149 15150 15151 15152 15153 15154 15155 15156 15157 15158 15159 15160 15161 15162 15163 15164 15165 15166 15167 15168 15169 15170 15171 15172 15173 15174 15175 15176 15177 15178 15179 15180 15181 15182 15183 15184 15185 15186 15187 15188 15189 15190 15191 15192 15193 15194 15195 15196 15197 15198 15199 15200 15201 15202 15203 15204 15205 15206 15207 15208 15209 15210 15211 15212 15213 15214 15215 15216 15217 15218 15219 15220 15221 15222 15223 15224 15225 15226 15227 15228 15229 15230 15231 15232 15233 15234 15235 15236 15237 15238 15239 15240 15241 15242 15243 15244 15245 15246 15247 15248 15249 15250 15251 15252 15253 15254 15255 15256 15257 15258 15259 15260 15261 15262 15263 15264 15265 15266 15267 15268 15269 15270 15271 15272 15273 15274 15275 15276 15277 15278 15279 15280 15281 15282 15283 15284 15285 15286 15287 15288 15289 15290 15291 15292 15293 15294 15295 15296 15297 15298 15299 15300 15301 15302 15303 15304 15305 15306 15307 15308 15309 15310 15311 15312 15313 15314 15315 15316 15317 15318 15319 15320 15321 15322 15323 15324 15325 15326 15327 15328 15329 15330 15331 15332 15333 15334 15335 15336 15337 15338 15339 15340 15341 15342 15343 15344 15345 15346 15347 15348 15349 15350 15351 15352 15353 15354 15355 15356 15357 15358 15359 15360 15361 15362 15363 15364 15365 15366 15367 15368 15369 15370 15371 15372 15373 15374 15375 15376 15377 15378 15379 15380 15381 15382 15383 15384 15385 15386 15387 15388 15389 15390 15391 15392 15393 15394 15395 15396 15397 15398 15399 15400 15401 15402 15403 15404 15405 15406 15407 15408 15409 15410 15411 15412 15413 15414 15415 15416 15417 15418 15419 15420 15421 15422 15423 15424 15425 15426 15427 15428 15429 15430 15431 15432 15433 15434 15435 15436 15437 15438 15439 15440 15441 15442 15443 15444 15445 15446 15447 15448 15449 15450 15451 15452 15453 15454 15455 15456 15457 15458 15459 15460 15461 15462 15463 15464 15465 15466 15467 15468 15469 15470 15471 15472 15473 15474 15475 15476 15477 15478 15479 15480 15481 15482 15483 15484 15485 15486 15487 15488 15489 15490 15491 15492 15493 15494 15495 15496 15497 15498 15499 15500 15501 15502 15503 15504 15505 15506 15507 15508 15509 15510 15511 15512 15513 15514 15515 15516 15517 15518 15519 15520 15521 15522 15523 15524 15525 15526 15527 15528 15529 15530 15531 15532 15533 15534 15535 15536 15537 15538 15539 15540 15541 15542 15543 15544 15545 15546 15547 15548 15549 15550 15551 15552 15553 15554 15555 15556 15557 15558 15559 15560 15561 15562 15563 15564 15565 15566 15567 15568 15569 15570 15571 15572 15573 15574 15575 15576 15577 15578 15579 15580 15581 15582 15583 15584 15585 15586 15587 15588 15589 15590 15591 15592 15593 15594 15595 15596 15597 15598 15599 15600 15601 15602 15603 15604 15605 15606 15607 15608 15609 15610 15611 15612 15613 15614 15615 15616 15617 15618 15619 15620 15621 15622 15623 15624 15625 15626 15627 15628 15629 15630 15631 15632 15633 15634 15635 15636 15637 15638 15639 15640 15641 15642 15643 15644 15645 15646 15647 15648 15649 15650 15651 15652 15653 15654 15655 15656 15657 15658 15659 15660 15661 15662 15663 15664 15665 15666 15667 15668 15669 15670 15671 15672 15673 15674 15675 15676 15677 15678 15679 15680 15681 15682 15683 15684 15685 15686 15687 15688 15689 15690 15691 15692 15693 15694 15695 15696 15697 15698 15699 15700 15701 15702 15703 15704 15705 15706 15707 15708 15709 15710 15711 15712 15713 15714 15715 15716 15717 15718 15719 15720 15721 15722 15723 15724 15725 15726 15727 15728 15729 15730 15731 15732 15733 15734 15735 15736 15737 15738 15739 15740 15741 15742 15743 15744 15745 15746 15747 15748 15749 15750 15751 15752 15753 15754 15755 15756 15757 15758 15759 15760 15761 15762 15763 15764 15765 15766 15767 15768 15769 15770 15771 15772 15773 15774 15775 15776 15777 15778 15779 15780 15781 15782 15783 15784 15785 15786 15787 15788 15789 15790 15791 15792 15793 15794 15795 15796 15797 15798 15799 15800 15801 15802 15803 15804 15805 15806 15807 15808 15809 15810 15811 15812 15813 15814 15815 15816 15817 15818 15819 15820 15821 15822 15823 15824 15825 15826 15827 15828 15829 15830 15831 15832 15833 15834 15835 15836 15837 15838 15839 15840 15841 15842 15843 15844 15845 15846 15847 15848 15849 15850 15851 15852 15853 15854 15855 15856 15857 15858 15859 15860 15861 15862 15863 15864 15865 15866 15867 15868 15869 15870 15871 15872 15873 15874 15875 15876 15877 15878 15879 15880 15881 15882 15883 15884 15885 15886 15887 15888 15889 15890 15891 15892 15893 15894 15895 15896 15897 15898 15899 15900 15901 15902 15903 15904 15905 15906 15907 15908 15909 15910 15911 15912 15913 15914 15915 15916 15917 15918 15919 15920 15921 15922 15923 15924 15925 15926 15927 15928 15929 15930 15931 15932 15933 15934 15935 15936 15937 15938 15939 15940 15941 15942 15943 15944 15945 15946 15947 15948 15949 15950 15951 15952 15953 15954 15955 15956 15957 15958 15959 15960 15961 15962 15963 15964 15965 15966 15967 15968 15969 15970 15971 15972 15973 15974 15975 15976 15977 15978 15979 15980 15981 15982 15983 15984 15985 15986 15987 15988 15989 15990 15991 15992 15993 15994 15995 15996 15997 15998 15999 16000 16001 16002 16003 16004 16005 16006 16007 16008 16009 16010 16011 16012 16013 16014 16015 16016 16017 16018 16019 16020 16021 16022 16023 16024 16025 16026 16027 16028 16029 16030 16031 16032 16033 16034 16035 16036 16037 16038 16039 16040 16041 16042 16043 16044 16045 16046 16047 16048 16049 16050 16051 16052 16053 16054 16055 16056 16057 16058 16059 16060 16061 16062 16063 16064 16065 16066 16067 16068 16069 16070 16071 16072 16073 16074 16075 16076 16077 16078 16079 16080 16081 16082 16083 16084 16085 16086 16087 16088 16089 16090 16091 16092 16093 16094 16095 16096 16097 16098 16099 16100 16101 16102 16103 16104 16105 16106 16107 16108 16109 16110 16111 16112 16113 16114 16115 16116 16117 16118 16119 16120 16121 16122 16123 16124 16125 16126 16127 16128 16129 16130 16131 16132 16133 16134 16135 16136 16137 16138 16139 16140 16141 16142 16143 16144 16145 16146 16147 16148 16149 16150 16151 16152 16153 16154 16155 16156 16157 16158 16159 16160 16161 16162 16163 16164 16165 16166 16167 16168 16169 16170 16171 16172 16173 16174 16175 16176 16177 16178 16179 16180 16181 16182 16183 16184 16185 16186 16187 16188 16189 16190 16191 16192 16193 16194 16195 16196 16197 16198 16199 16200 16201 16202 16203 16204 16205 16206 16207 16208 16209 16210 16211 16212 16213 16214 16215 16216 16217 16218 16219 16220 16221 16222 16223 16224 16225 16226 16227 16228 16229 16230 16231 16232 16233 16234 16235 16236 16237 16238 16239 16240 16241 16242 16243 16244 16245 16246 16247 16248 16249 16250 16251 16252 16253 16254 16255 16256 16257 16258 16259 16260 16261 16262 16263 16264 16265 16266 16267 16268 16269 16270 16271 16272 16273 16274 16275 16276 16277 16278 16279 16280 16281 16282 16283 16284 16285 16286 16287 16288 16289 16290 16291 16292 16293 16294 16295 16296 16297 16298 16299 16300 16301 16302 16303 16304 16305 16306 16307 16308 16309 16310 16311 16312 16313 16314 16315 16316 16317 16318 16319 16320 16321 16322 16323 16324 16325 16326 16327 16328 16329 16330 16331 16332 16333 16334 16335 16336 16337 16338 16339 16340 16341 16342 16343 16344 16345 16346 16347 16348 16349 16350 16351 16352 16353 16354 16355 16356 16357 16358 16359 16360 16361 16362 16363 16364 16365 16366 16367 16368 16369 16370 16371 16372 16373 16374 16375 16376 16377 16378 16379 16380 16381 16382 16383 16384 16385 16386 16387 16388 16389 16390 16391 16392 16393 16394 16395 16396 16397 16398 16399 16400 16401 16402 16403 16404 16405 16406 16407 16408 16409 16410 16411 16412 16413 16414 16415 16416 16417 16418 16419 16420 16421 16422 16423 16424 16425 16426 16427 16428 16429 16430 16431 16432 16433 16434 16435 16436 16437 16438 16439 16440 16441 16442 16443 16444 16445 16446 16447 16448 16449 16450 16451 16452 16453 16454 16455 16456 16457 16458 16459 16460 16461 16462 16463 16464 16465 16466 16467 16468 16469 16470 16471 16472 16473 16474 16475 16476 16477 16478 16479 16480 16481 16482 16483 16484 16485 16486 16487 16488 16489 16490 16491 16492 16493 16494 16495 16496 16497 16498 16499 16500 16501 16502 16503 16504 16505 16506 16507 16508 16509 16510 16511 16512 16513 16514 16515 16516 16517 16518 16519 16520 16521 16522 16523 16524 16525 16526 16527 16528 16529 16530 16531 16532 16533 16534 16535 16536 16537 16538 16539 16540 16541 16542 16543 16544 16545 16546 16547 16548 16549 16550 16551 16552 16553 16554 16555 16556 16557 16558 16559 16560 16561 16562 16563 16564 16565 16566 16567 16568 16569 16570 16571 16572 16573 16574 16575 16576 16577 16578 16579 16580 16581 16582 16583 16584 16585 16586 16587 16588 16589 16590 16591 16592 16593 16594 16595 16596 16597 16598 16599 16600 16601 16602 16603 16604 16605 16606 16607 16608 16609 16610 16611 16612 16613 16614 16615 16616 16617 16618 16619 16620 16621 16622 16623 16624 16625 16626 16627 16628 16629 16630 16631 16632 16633 16634 16635 16636 16637 16638 16639 16640 16641 16642 16643 16644 16645 16646 16647 16648 16649 16650 16651 16652 16653 16654 16655 16656 16657 16658 16659 16660 16661 16662 16663 16664 16665 16666 16667 16668 16669 16670 16671 16672 16673 16674 16675 16676 16677 16678 16679 16680 16681 16682 16683 16684 16685 16686 16687 16688 16689 16690 16691 16692 16693 16694 16695 16696 16697 16698 16699 16700 16701 16702 16703 16704 16705 16706 16707 16708 16709 16710 16711 16712 16713 16714 16715 16716 16717 16718 16719 16720 16721 16722 16723 16724 16725 16726 16727 16728 16729 16730 16731 16732 16733 16734 16735 16736 16737 16738 16739 16740 16741 16742 16743 16744 16745 16746 16747 16748 16749 16750 16751 16752 16753 16754 16755 16756 16757 16758 16759 16760 16761 16762 16763 16764 16765 16766 16767 16768 16769 16770 16771 16772 16773 16774 16775 16776 16777 16778 16779 16780 16781 16782 16783 16784 16785 16786 16787 16788 16789 16790 16791 16792 16793 16794 16795 16796 16797 16798 16799 16800 16801 16802 16803 16804 16805 16806 16807 16808 16809 16810 16811 16812 16813 16814 16815 16816 16817 16818 16819 16820 16821 16822 16823 16824 16825 16826 16827 16828 16829 16830 16831 16832 16833 16834 16835 16836 16837 16838 16839 16840 16841 16842 16843 16844 16845 16846 16847 16848 16849 16850 16851 16852 16853 16854 16855 16856 16857 16858 16859 16860 16861 16862 16863 16864 16865 16866 16867 16868 16869 16870 16871 16872 16873 16874 16875 16876 16877 16878 16879 16880 16881 16882 16883 16884 16885 16886 16887 16888 16889 16890 16891 16892 16893 16894 16895 16896 16897 16898 16899 16900 16901 16902 16903 16904 16905 16906 16907 16908 16909 16910 16911 16912 16913 16914 16915 16916 16917 16918 16919 16920 16921 16922 16923 16924 16925 16926 16927 16928 16929 16930 16931 16932 16933 16934 16935 16936 16937 16938 16939 16940 16941 16942 16943 16944 16945 16946 16947 16948 16949 16950 16951 16952 16953 16954 16955 16956 16957 16958 16959 16960 16961 16962 16963 16964 16965 16966 16967 16968 16969 16970 16971 16972 16973 16974 16975 16976 16977 16978 16979 16980 16981 16982 16983 16984 16985 16986 16987 16988 16989 16990 16991 16992 16993 16994 16995 16996 16997 16998 16999 17000 17001 17002 17003 17004 17005 17006 17007 17008 17009 17010 17011 17012 17013 17014 17015 17016 17017 17018 17019 17020 17021 17022 17023 17024 17025 17026 17027 17028 17029 17030 17031 17032 17033 17034 17035 17036 17037 17038 17039 17040 17041 17042 17043 17044 17045 17046 17047 17048 17049 17050 17051 17052 17053 17054 17055 17056 17057 17058 17059 17060 17061 17062 17063 17064 17065 17066 17067 17068 17069 17070 17071 17072 17073 17074 17075 17076 17077 17078 17079 17080 17081 17082 17083 17084 17085 17086 17087 17088 17089 17090 17091 17092 17093 17094 17095 17096 17097 17098 17099 17100 17101 17102 17103 17104 17105 17106 17107 17108 17109 17110 17111 17112 17113 17114 17115 17116 17117 17118 17119 17120 17121 17122 17123 17124 17125 17126 17127 17128 17129 17130 17131 17132 17133 17134 17135 17136 17137 17138 17139 17140 17141 17142 17143 17144 17145 17146 17147 17148 17149 17150 17151 17152 17153 17154 17155 17156 17157 17158 17159 17160 17161 17162 17163 17164 17165 17166 17167 17168 17169 17170 17171 17172 17173 17174 17175 17176 17177 17178 17179 17180 17181 17182 17183 17184 17185 17186 17187 17188 17189 17190 17191 17192 17193 17194 17195 17196 17197 17198 17199 17200 17201 17202 17203 17204 17205 17206 17207 17208 17209 17210 17211 17212 17213 17214 17215 17216 17217 17218 17219 17220 17221 17222 17223 17224 17225 17226 17227 17228 17229 17230 17231 17232 17233 17234 17235 17236 17237 17238 17239 17240 17241 17242 17243 17244 17245 17246 17247 17248 17249 17250 17251 17252 17253 17254 17255 17256 17257 17258 17259 17260 17261 17262 17263 17264 17265 17266 17267 17268 17269 17270 17271 17272 17273 17274 17275 17276 17277 17278 17279 17280 17281 17282 17283 17284 17285 17286 17287 17288 17289 17290 17291 17292 17293 17294 17295 17296 17297 17298 17299 17300 17301 17302 17303 17304 17305 17306 17307 17308 17309 17310 17311 17312 17313 17314 17315 17316 17317 17318 17319 17320 17321 17322 17323 17324 17325 17326 17327 17328 17329 17330 17331 17332 17333 17334 17335 17336 17337 17338 17339 17340 17341 17342 17343 17344 17345 17346 17347 17348 17349 17350 17351 17352 17353 17354 17355 17356 17357 17358 17359 17360 17361 17362 17363 17364 17365 17366 17367 17368 17369 17370 17371 17372 17373 17374 17375 17376 17377 17378 17379 17380 17381 17382 17383 17384 17385 17386 17387 17388 17389 17390 17391 17392 17393 17394 17395 17396 17397 17398 17399 17400 17401 17402 17403 17404 17405 17406 17407 17408 17409 17410 17411 17412 17413 17414 17415 17416 17417 17418 17419 17420 17421 17422 17423 17424 17425 17426 17427 17428 17429 17430 17431 17432 17433 17434 17435 17436 17437 17438 17439 17440 17441 17442 17443 17444 17445 17446 17447 17448 17449 17450 17451 17452 17453 17454 17455 17456 17457 17458 17459 17460 17461 17462 17463 17464 17465 17466 17467 17468 17469 17470 17471 17472 17473 17474 17475 17476 17477 17478 17479 17480 17481 17482 17483 17484 17485 17486 17487 17488 17489 17490 17491 17492 17493 17494 17495 17496 17497 17498 17499 17500 17501 17502 17503 17504 17505 17506 17507 17508 17509 17510 17511 17512 17513 17514 17515 17516 17517 17518 17519 17520 17521 17522 17523 17524 17525 17526 17527 17528 17529 17530 17531 17532 17533 17534 17535 17536 17537 17538 17539 17540 17541 17542 17543 17544 17545 17546 17547 17548 17549 17550 17551 17552 17553 17554 17555 17556 17557 17558 17559 17560 17561 17562 17563 17564 17565 17566 17567 17568 17569 17570 17571 17572 17573 17574 17575 17576 17577 17578 17579 17580 17581 17582 17583 17584 17585 17586 17587 17588 17589 17590 17591 17592 17593 17594 17595 17596 17597 17598 17599 17600 17601 17602 17603 17604 17605 17606 17607 17608 17609 17610 17611 17612 17613 17614 17615 17616 17617 17618 17619 17620 17621 17622 17623 17624 17625 17626 17627 17628 17629 17630 17631 17632 17633 17634 17635 17636 17637 17638 17639 17640 17641 17642 17643 17644 17645 17646 17647 17648 17649 17650 17651 17652 17653 17654 17655 17656 17657 17658 17659 17660 17661 17662 17663 17664 17665 17666 17667 17668 17669 17670 17671 17672 17673 17674 17675 17676 17677 17678 17679 17680 17681 17682 17683 17684 17685 17686 17687 17688 17689 17690 17691 17692 17693 17694 17695 17696 17697 17698 17699 17700 17701 17702 17703 17704 17705 17706 17707 17708 17709 17710 17711 17712 17713 17714 17715 17716 17717 17718 17719 17720 17721 17722 17723 17724 17725 17726 17727 17728 17729 17730 17731 17732 17733 17734 17735 17736 17737 17738 17739 17740 17741 17742 17743 17744 17745 17746 17747 17748 17749 17750 17751 17752 17753 17754 17755 17756 17757 17758 17759 17760 17761 17762 17763 17764 17765 17766 17767 17768 17769 17770 17771 17772 17773 17774 17775 17776 17777 17778 17779 17780 17781 17782 17783 17784 17785 17786 17787 17788 17789 17790 17791 17792 17793 17794 17795 17796 17797 17798 17799 17800 17801 17802 17803 17804 17805 17806 17807 17808 17809 17810 17811 17812 17813 17814 17815 17816 17817 17818 17819 17820 17821 17822 17823 17824 17825 17826 17827 17828 17829 17830 17831 17832 17833 17834 17835 17836 17837 17838 17839 17840 17841 17842 17843 17844 17845 17846 17847 17848 17849 17850 17851 17852 17853 17854 17855 17856 17857 17858 17859 17860 17861 17862 17863 17864 17865 17866 17867 17868 17869 17870 17871 17872 17873 17874 17875 17876 17877 17878 17879 17880 17881 17882 17883 17884 17885 17886 17887 17888 17889 17890 17891 17892 17893 17894 17895 17896 17897 17898 17899 17900 17901 17902 17903 17904 17905 17906 17907 17908 17909 17910 17911 17912 17913 17914 17915 17916 17917 17918 17919 17920 17921 17922 17923 17924 17925 17926 17927 17928 17929 17930 17931 17932 17933 17934 17935 17936 17937 17938 17939 17940 17941 17942 17943 17944 17945 17946 17947 17948 17949 17950 17951 17952 17953 17954 17955 17956 17957 17958 17959 17960 17961 17962 17963 17964 17965 17966 17967 17968 17969 17970 17971 17972 17973 17974 17975 17976 17977 17978 17979 17980 17981 17982 17983 17984 17985 17986 17987 17988 17989 17990 17991 17992 17993 17994 17995 17996 17997 17998 17999 18000 18001 18002 18003 18004 18005 18006 18007 18008 18009 18010 18011 18012 18013 18014 18015 18016 18017 18018 18019 18020 18021 18022 18023 18024 18025 18026 18027 18028 18029 18030 18031 18032 18033 18034 18035 18036 18037 18038 18039 18040 18041 18042 18043 18044 18045 18046 18047 18048 18049 18050 18051 18052 18053 18054 18055 18056 18057 18058 18059 18060 18061 18062 18063 18064 18065 18066 18067 18068 18069 18070 18071 18072 18073 18074 18075 18076 18077 18078 18079 18080 18081 18082 18083 18084 18085 18086 18087 18088 18089 18090 18091 18092 18093 18094 18095 18096 18097 18098 18099 18100 18101 18102 18103 18104 18105 18106 18107 18108 18109 18110 18111 18112 18113 18114 18115 18116 18117 18118 18119 18120 18121 18122 18123 18124 18125 18126 18127 18128 18129 18130 18131 18132 18133 18134 18135 18136 18137 18138 18139 18140 18141 18142 18143 18144 18145 18146 18147 18148 18149 18150 18151 18152 18153 18154 18155 18156 18157 18158 18159 18160 18161 18162 18163 18164 18165 18166 18167 18168 18169 18170 18171 18172 18173 18174 18175 18176 18177 18178 18179 18180 18181 18182 18183 18184 18185 18186 18187 18188 18189 18190 18191 18192 18193 18194 18195 18196 18197 18198 18199 18200 18201 18202 18203 18204 18205 18206 18207 18208 18209 18210 18211 18212 18213 18214 18215 18216 18217 18218 18219 18220 18221 18222 18223 18224 18225 18226 18227 18228 18229 18230 18231 18232 18233 18234 18235 18236 18237 18238 18239 18240 18241 18242 18243 18244 18245 18246 18247 18248 18249 18250 18251 18252 18253 18254 18255 18256 18257 18258 18259 18260 18261 18262 18263 18264 18265 18266 18267 18268 18269 18270 18271 18272 18273 18274 18275 18276 18277 18278 18279 18280 18281 18282 18283 18284 18285 18286 18287 18288 18289 18290 18291 18292 18293 18294 18295 18296 18297 18298 18299 18300 18301 18302 18303 18304 18305 18306 18307 18308 18309 18310 18311 18312 18313 18314 18315 18316 18317 18318 18319 18320 18321 18322 18323 18324 18325 18326 18327 18328 18329 18330 18331 18332 18333 18334 18335 18336 18337 18338 18339 18340 18341 18342 18343 18344 18345 18346 18347 18348 18349 18350 18351 18352 18353 18354 18355 18356 18357 18358 18359 18360 18361 18362 18363 18364 18365 18366 18367 18368 18369 18370 18371 18372 18373 18374 18375 18376 18377 18378 18379 18380 18381 18382 18383 18384 18385 18386 18387 18388 18389 18390 18391 18392 18393 18394 18395 18396 18397 18398 18399 18400 18401 18402 18403 18404 18405 18406 18407 18408 18409 18410 18411 18412 18413 18414 18415 18416 18417 18418 18419 18420 18421 18422 18423 18424 18425 18426 18427 18428 18429 18430 18431 18432 18433 18434 18435 18436 18437 18438 18439 18440 18441 18442 18443 18444 18445 18446 18447 18448 18449 18450 18451 18452 18453 18454 18455 18456 18457 18458 18459 18460 18461 18462 18463 18464 18465 18466 18467 18468 18469 18470 18471 18472 18473 18474 18475 18476 18477 18478 18479 18480 18481 18482 18483 18484 18485 18486 18487 18488 18489 18490 18491 18492 18493 18494 18495 18496 18497 18498 18499 18500 18501 18502 18503 18504 18505 18506 18507 18508 18509 18510 18511 18512 18513 18514 18515 18516 18517 18518 18519 18520 18521 18522 18523 18524 18525 18526 18527 18528 18529 18530 18531 18532 18533 18534 18535 18536 18537 18538 18539 18540 18541 18542 18543 18544 18545 18546 18547 18548 18549 18550 18551 18552 18553 18554 18555 18556 18557 18558 18559 18560 18561 18562 18563 18564 18565 18566 18567 18568 18569 18570 18571 18572 18573 18574 18575 18576 18577 18578 18579 18580 18581 18582 18583 18584 18585 18586 18587 18588 18589 18590 18591 18592 18593 18594 18595 18596 18597 18598 18599 18600 18601 18602 18603 18604 18605 18606 18607 18608 18609 18610 18611 18612 18613 18614 18615 18616 18617 18618 18619 18620 18621 18622 18623 18624 18625 18626 18627 18628 18629 18630 18631 18632 18633 18634 18635 18636 18637 18638 18639 18640 18641 18642 18643 18644 18645 18646 18647 18648 18649 18650 18651 18652 18653 18654 18655 18656 18657 18658 18659 18660 18661 18662 18663 18664 18665 18666 18667 18668 18669 18670 18671 18672 18673 18674 18675 18676 18677 18678 18679 18680 18681 18682 18683 18684 18685 18686 18687 18688 18689 18690 18691 18692 18693 18694 18695 18696 18697 18698 18699 18700 18701 18702 18703 18704 18705 18706 18707 18708 18709 18710 18711 18712 18713 18714 18715 18716 18717 18718 18719 18720 18721 18722 18723 18724 18725 18726 18727 18728 18729 18730 18731 18732 18733 18734 18735 18736 18737 18738 18739 18740 18741 18742 18743 18744 18745 18746 18747 18748 18749 18750 18751 18752 18753 18754 18755 18756 18757 18758 18759 18760 18761 18762 18763 18764 18765 18766 18767 18768 18769 18770 18771 18772 18773 18774 18775 18776 18777 18778 18779 18780 18781 18782 18783 18784 18785 18786 18787 18788 18789 18790 18791 18792 18793 18794 18795 18796 18797 18798 18799 18800 18801 18802 18803 18804 18805 18806 18807 18808 18809 18810 18811 18812 18813 18814 18815 18816 18817 18818 18819 18820 18821 18822 18823 18824 18825 18826 18827 18828 18829 18830 18831 18832 18833 18834 18835 18836 18837 18838 18839 18840 18841 18842 18843 18844 18845 18846 18847 18848 18849 18850 18851 18852 18853 18854 18855 18856 18857 18858 18859 18860 18861 18862 18863 18864 18865 18866 18867 18868 18869 18870 18871 18872 18873 18874 18875 18876 18877 18878 18879 18880 18881 18882 18883 18884 18885 18886 18887 18888 18889 18890 18891 18892 18893 18894 18895 18896 18897 18898 18899 18900 18901 18902 18903 18904 18905 18906 18907 18908 18909 18910 18911 18912 18913 18914 18915 18916 18917 18918 18919 18920 18921 18922 18923 18924 18925 18926 18927 18928 18929 18930 18931 18932 18933 18934 18935 18936 18937 18938 18939 18940 18941 18942 18943 18944 18945 18946 18947 18948 18949 18950 18951 18952 18953 18954 18955 18956 18957 18958 18959 18960 18961 18962 18963 18964 18965 18966 18967 18968 18969 18970 18971 18972 18973 18974 18975 18976 18977 18978 18979 18980 18981 18982 18983 18984 18985 18986 18987 18988 18989 18990 18991 18992 18993 18994 18995 18996 18997 18998 18999 19000 19001 19002 19003 19004 19005 19006 19007 19008 19009 19010 19011 19012 19013 19014 19015 19016 19017 19018 19019 19020 19021 19022 19023 19024 19025 19026 19027 19028 19029 19030 19031 19032 19033 19034 19035 19036 19037 19038 19039 19040 19041 19042 19043 19044 19045 19046 19047 19048 19049 19050 19051 19052 19053 19054 19055 19056 19057 19058 19059 19060 19061 19062 19063 19064 19065 19066 19067 19068 19069 19070 19071 19072 19073 19074 19075 19076 19077 19078 19079 19080 19081 19082 19083 19084 19085 19086 19087 19088 19089 19090 19091 19092 19093 19094 19095 19096 19097 19098 19099 19100 19101 19102 19103 19104 19105 19106 19107 19108 19109 19110 19111 19112 19113 19114 19115 19116 19117 19118 19119 19120 19121 19122 19123 19124 19125 19126 19127 19128 19129 19130 19131 19132 19133 19134 19135 19136 19137 19138 19139 19140 19141 19142 19143 19144 19145 19146 19147 19148 19149 19150 19151 19152 19153 19154 19155 19156 19157 19158 19159 19160 19161 19162 19163 19164 19165 19166 19167 19168 19169 19170 19171 19172 19173 19174 19175 19176 19177 19178 19179 19180 19181 19182 19183 19184 19185 19186 19187 19188 19189 19190 19191 19192 19193 19194 19195 19196 19197 19198 19199 19200 19201 19202 19203 19204 19205 19206 19207 19208 19209 19210 19211 19212 19213 19214 19215 19216 19217 19218 19219 19220 19221 19222 19223 19224 19225 19226 19227 19228 19229 19230 19231 19232 19233 19234 19235 19236 19237 19238 19239 19240 19241 19242 19243 19244 19245 19246 19247 19248 19249 19250 19251 19252 19253 19254 19255 19256 19257 19258 19259 19260 19261 19262 19263 19264 19265 19266 19267 19268 19269 19270 19271 19272 19273 19274 19275 19276 19277 19278 19279 19280 19281 19282 19283 19284 19285 19286 19287 19288 19289 19290 19291 19292 19293 19294 19295 19296 19297 19298 19299 19300 19301 19302 19303 19304 19305 19306 19307 19308 19309 19310 19311 19312 19313 19314 19315 19316 19317 19318 19319 19320 19321 19322 19323 19324 19325 19326 19327 19328 19329 19330 19331 19332 19333 19334 19335 19336 19337 19338 19339 19340 19341 19342 19343 19344 19345 19346 19347 19348 19349 19350 19351 19352 19353 19354 19355 19356 19357 19358 19359 19360 19361 19362 19363 19364 19365 19366 19367 19368 19369 19370 19371 19372 19373 19374 19375 19376 19377 19378 19379 19380 19381 19382 19383 19384 19385 19386 19387 19388 19389 19390 19391 19392 19393 19394 19395 19396 19397 19398 19399 19400 19401 19402 19403 19404 19405 19406 19407 19408 19409 19410 19411 19412 19413 19414 19415 19416 19417 19418 19419 19420 19421 19422 19423 19424 19425 19426 19427 19428 19429 19430 19431 19432 19433 19434 19435 19436 19437 19438 19439 19440 19441 19442 19443 19444 19445 19446 19447 19448 19449 19450 19451 19452 19453 19454 19455 19456 19457 19458 19459 19460 19461 19462 19463 19464 19465 19466 19467 19468 19469 19470 19471 19472 19473 19474 19475 19476 19477 19478 19479 19480 19481 19482 19483 19484 19485 19486 19487 19488 19489 19490 19491 19492 19493 19494 19495 19496 19497 19498 19499 19500 19501 19502 19503 19504 19505 19506 19507 19508 19509 19510 19511 19512 19513 19514 19515 19516 19517 19518 19519 19520 19521 19522 19523 19524 19525 19526 19527 19528 19529 19530 19531 19532 19533 19534 19535 19536 19537 19538 19539 19540 19541 19542 19543 19544 19545 19546 19547 19548 19549 19550 19551 19552 19553 19554 19555 19556 19557 19558 19559 19560 19561 19562 19563 19564 19565 19566 19567 19568 19569 19570 19571 19572 19573 19574 19575 19576 19577 19578 19579 19580 19581 19582 19583 19584 19585 19586 19587 19588 19589 19590 19591 19592 19593 19594 19595 19596 19597 19598 19599 19600 19601 19602 19603 19604 19605 19606 19607 19608 19609 19610 19611 19612 19613 19614 19615 19616 19617 19618 19619 19620 19621 19622 19623 19624 19625 19626 19627 19628 19629 19630 19631 19632 19633 19634 19635 19636 19637 19638 19639 19640 19641 19642 19643 19644 19645 19646 19647 19648 19649 19650 19651 19652 19653 19654 19655 19656 19657 19658 19659 19660 19661 19662 19663 19664 19665 19666 19667 19668 19669 19670 19671 19672 19673 19674 19675 19676 19677 19678 19679 19680 19681 19682 19683 19684 19685 19686 19687 19688 19689 19690 19691 19692 19693 19694 19695 19696 19697 19698 19699 19700 19701 19702 19703 19704 19705 19706 19707 19708 19709 19710 19711 19712 19713 19714 19715 19716 19717 19718 19719 19720 19721 19722 19723 19724 19725 19726 19727 19728 19729 19730 19731 19732 19733 19734 19735 19736 19737 19738 19739 19740 19741 19742 19743 19744 19745 19746 19747 19748 19749 19750 19751 19752 19753 19754 19755 19756 19757 19758 19759 19760 19761 19762 19763 19764 19765 19766 19767 19768 19769 19770 19771 19772 19773 19774 19775 19776 19777 19778 19779 19780 19781 19782 19783 19784 19785 19786 19787 19788 19789 19790 19791 19792 19793 19794 19795 19796 19797 19798 19799 19800 19801 19802 19803 19804 19805 19806 19807 19808 19809 19810 19811 19812 19813 19814 19815 19816 19817 19818 19819 19820 19821 19822 19823 19824 19825 19826 19827 19828 19829 19830 19831 19832 19833 19834 19835 19836 19837 19838 19839 19840 19841 19842 19843 19844 19845 19846 19847 19848 19849 19850 19851 19852 19853 19854 19855 19856 19857 19858 19859 19860 19861 19862 19863 19864 19865 19866 19867 19868 19869 19870 19871 19872 19873 19874 19875 19876 19877 19878 19879 19880 19881 19882 19883 19884 19885 19886 19887 19888 19889 19890 19891 19892 19893 19894 19895 19896 19897 19898 19899 19900 19901 19902 19903 19904 19905 19906 19907 19908 19909 19910 19911 19912 19913 19914 19915 19916 19917 19918 19919 19920 19921 19922 19923 19924 19925 19926 19927 19928 19929 19930 19931 19932 19933 19934 19935 19936 19937 19938 19939 19940 19941 19942 19943 19944 19945 19946 19947 19948 19949 19950 19951 19952 19953 19954 19955 19956 19957 19958 19959 19960 19961 19962 19963 19964 19965 19966 19967 19968 19969 19970 19971 19972 19973 19974 19975 19976 19977 19978 19979 19980 19981 19982 19983 19984 19985 19986 19987 19988 19989 19990 19991 19992 19993 19994 19995 19996 19997 19998 19999 20000 20001 20002 20003 20004 20005 20006 20007 20008 20009 20010 20011 20012 20013 20014 20015 20016 20017 20018 20019 20020 20021 20022 20023 20024 20025 20026 20027 20028 20029 20030 20031 20032 20033 20034 20035 20036 20037 20038 20039 20040 20041 20042 20043 20044 20045 20046 20047 20048 20049 20050 20051 20052 20053 20054 20055 20056 20057 20058 20059 20060 20061 20062 20063 20064 20065 20066 20067 20068 20069 20070 20071 20072 20073 20074 20075 20076 20077 20078 20079 20080 20081 20082 20083 20084 20085 20086 20087 20088 20089 20090 20091 20092 20093 20094 20095 20096 20097 20098 20099 20100 20101 20102 20103 20104 20105 20106 20107 20108 20109 20110 20111 20112 20113 20114 20115 20116 20117 20118 20119 20120 20121 20122 20123 20124 20125 20126 20127 20128 20129 20130 20131 20132 20133 20134 20135 20136 20137 20138 20139 20140 20141 20142 20143 20144 20145 20146 20147 20148 20149 20150 20151 20152 20153 20154 20155 20156 20157 20158 20159 20160 20161 20162 20163 20164 20165 20166 20167 20168 20169 20170 20171 20172 20173 20174 20175 20176 20177 20178 20179 20180 20181 20182 20183 20184 20185 20186 20187 20188 20189 20190 20191 20192 20193 20194 20195 20196 20197 20198 20199 20200 20201 20202 20203 20204 20205 20206 20207 20208 20209 20210 20211 20212 20213 20214 20215 20216 20217 20218 20219 20220 20221 20222 20223 20224 20225 20226 20227 20228 20229 20230 20231 20232 20233 20234 20235 20236 20237 20238 20239 20240 20241 20242 20243 20244 20245 20246 20247 20248 20249 20250 20251 20252 20253 20254 20255 20256 20257 20258 20259 20260 20261 20262 20263 20264 20265 20266 20267 20268 20269 20270 20271 20272 20273 20274 20275 20276 20277 20278 20279 20280 20281 20282 20283 20284 20285 20286 20287 20288 20289 20290 20291 20292 20293 20294 20295 20296 20297 20298 20299 20300 20301 20302 20303 20304 20305 20306 20307 20308 20309 20310 20311 20312 20313 20314 20315 20316 20317 20318 20319 20320 20321 20322 20323 20324 20325 20326 20327 20328 20329 20330 20331 20332 20333 20334 20335 20336 20337 20338 20339 20340 20341 20342 20343 20344 20345 20346 20347 20348 20349 20350 20351 20352 20353 20354 20355 20356 20357 20358 20359 20360 20361 20362 20363 20364 20365 20366 20367 20368 20369 20370 20371 20372 20373 20374 20375 20376 20377 20378 20379 20380 20381 20382 20383 20384 20385 20386 20387 20388 20389 20390 20391 20392 20393 20394 20395 20396 20397 20398 20399 20400 20401 20402 20403 20404 20405 20406 20407 20408 20409 20410 20411 20412 20413 20414 20415 20416 20417 20418 20419 20420 20421 20422 20423 20424 20425 20426 20427 20428 20429 20430 20431 20432 20433 20434 20435 20436 20437 20438 20439 20440 20441 20442 20443 20444 20445 20446 20447 20448 20449 20450 20451 20452 20453 20454 20455 20456 20457 20458 20459 20460 20461 20462 20463 20464 20465 20466 20467 20468 20469 20470 20471 20472 20473 20474 20475 20476 20477 20478 20479 20480 20481 20482 20483 20484 20485 20486 20487 20488 20489 20490 20491 20492 20493 20494 20495 20496 20497 20498 20499 20500 20501 20502 20503 20504 20505 20506 20507 20508 20509 20510 20511 20512 20513 20514 20515 20516 20517 20518 20519 20520 20521 20522 20523 20524 20525 20526 20527 20528 20529 20530 20531 20532 20533 20534 20535 20536 20537 20538 20539 20540 20541 20542 20543 20544 20545 20546 20547 20548 20549 20550 20551 20552 20553 20554 20555 20556 20557 20558 20559 20560 20561 20562 20563 20564 20565 20566 20567 20568 20569 20570 20571 20572 20573 20574 20575 20576 20577 20578 20579 20580 20581 20582 20583 20584 20585 20586 20587 20588 20589 20590 20591 20592 20593 20594 20595 20596 20597 20598 20599 20600 20601 20602 20603 20604 20605 20606 20607 20608 20609 20610 20611 20612 20613 20614 20615 20616 20617 20618 20619 20620 20621 20622 20623 20624 20625 20626 20627 20628 20629 20630 20631 20632 20633 20634 20635 20636 20637 20638 20639 20640 20641 20642 20643 20644 20645 20646 20647 20648 20649 20650 20651 20652 20653 20654 20655 20656 20657 20658 20659 20660 20661 20662 20663 20664 20665 20666 20667 20668 20669 20670 20671 20672 20673 20674 20675 20676 20677 20678 20679 20680 20681 20682 20683 20684 20685 20686 20687 20688 20689 20690 20691 20692 20693 20694 20695 20696 20697 20698 20699 20700 20701 20702 20703 20704 20705 20706 20707 20708 20709 20710 20711 20712 20713 20714 20715 20716 20717 20718 20719 20720 20721 20722 20723 20724 20725 20726 20727 20728 20729 20730 20731 20732 20733 20734 20735 20736 20737 20738 20739 20740 20741 20742 20743 20744 20745 20746 20747 20748 20749 20750 20751 20752 20753 20754 20755 20756 20757 20758 20759 20760 20761 20762 20763 20764 20765 20766 20767 20768 20769 20770 20771 20772 20773 20774 20775 20776 20777 20778 20779 20780 20781 20782 20783 20784 20785 20786 20787 20788 20789 20790 20791 20792 20793 20794 20795 20796 20797 20798 20799 20800 20801 20802 20803 20804 20805 20806 20807 20808 20809 20810 20811 20812 20813 20814 20815 20816 20817 20818 20819 20820 20821 20822 20823 20824 20825 20826 20827 20828 20829 20830 20831 20832 20833 20834 20835 20836 20837 20838 20839 20840 20841 20842 20843 20844 20845 20846 20847 20848 20849 20850 20851 20852 20853 20854 20855 20856 20857 20858 20859 20860 20861 20862 20863 20864 20865 20866 20867 20868 20869 20870 20871 20872 20873 20874 20875 20876 20877 20878 20879 20880 20881 20882 20883 20884 20885 20886 20887 20888 20889 20890 20891 20892 20893 20894 20895 20896 20897 20898 20899 20900 20901 20902 20903 20904 20905 20906 20907 20908 20909 20910 20911 20912 20913 20914 20915 20916 20917 20918 20919 20920 20921 20922 20923 20924 20925 20926 20927 20928 20929 20930 20931 20932 20933 20934 20935 20936 20937 20938 20939 20940 20941 20942 20943 20944 20945 20946 20947 20948 20949 20950 20951 20952 20953 20954 20955 20956 20957 20958 20959 20960 20961 20962 20963 20964 20965 20966 20967 20968 20969 20970 20971 20972 20973 20974 20975 20976 20977 20978 20979 20980 20981 20982 20983 20984 20985 20986 20987 20988 20989 20990 20991 20992 20993 20994 20995 20996 20997 20998 20999 21000 21001 21002 21003 21004 21005 21006 21007 21008 21009 21010 21011 21012 21013 21014 21015 21016 21017 21018 21019 21020 21021 21022 21023 21024 21025 21026 21027 21028 21029 21030 21031 21032 21033 21034 21035 21036 21037 21038 21039 21040 21041 21042 21043 21044 21045 21046 21047 21048 21049 21050 21051 21052 21053 21054 21055 21056 21057 21058 21059 21060 21061 21062 21063 21064 21065 21066 21067 21068 21069 21070 21071 21072 21073 21074 21075 21076 21077 21078 21079 21080 21081 21082 21083 21084 21085 21086 21087 21088 21089 21090 21091 21092 21093 21094 21095 21096 21097 21098 21099 21100 21101 21102 21103 21104 21105 21106 21107 21108 21109 21110 21111 21112 21113 21114 21115 21116 21117 21118 21119 21120 21121 21122 21123 21124 21125 21126 21127 21128 21129 21130 21131 21132 21133 21134 21135 21136 21137 21138 21139 21140 21141 21142 21143 21144 21145 21146 21147 21148 21149 21150 21151 21152 21153 21154 21155 21156 21157 21158 21159 21160 21161 21162 21163 21164 21165 21166 21167 21168 21169 21170 21171 21172 21173 21174 21175 21176 21177 21178 21179 21180 21181 21182 21183 21184 21185 21186 21187 21188 21189 21190 21191 21192 21193 21194 21195 21196 21197 21198 21199 21200 21201 21202 21203 21204 21205 21206 21207 21208 21209 21210 21211 21212 21213 21214 21215 21216 21217 21218 21219 21220 21221 21222 21223 21224 21225 21226 21227 21228 21229 21230 21231 21232 21233 21234 21235 21236 21237 21238 21239 21240 21241 21242 21243 21244 21245 21246 21247 21248 21249 21250 21251 21252 21253 21254 21255 21256 21257 21258 21259 21260 21261 21262 21263 21264 21265 21266 21267 21268 21269 21270 21271 21272 21273 21274 21275 21276 21277 21278 21279 21280 21281 21282 21283 21284 21285 21286 21287 21288 21289 21290 21291 21292 21293 21294 21295 21296 21297 21298 21299 21300 21301 21302 21303 21304 21305 21306 21307 21308 21309 21310 21311 21312 21313 21314 21315 21316 21317 21318 21319 21320 21321 21322 21323 21324 21325 21326 21327 21328 21329 21330 21331 21332 21333 21334 21335 21336 21337 21338 21339 21340 21341 21342 21343 21344 21345 21346 21347 21348 21349 21350 21351 21352 21353 21354 21355 21356 21357 21358 21359 21360 21361 21362 21363 21364 21365 21366 21367 21368 21369 21370 21371 21372 21373 21374 21375 21376 21377 21378 21379 21380 21381 21382 21383 21384 21385 21386 21387 21388 21389 21390 21391 21392 21393 21394 21395 21396 21397 21398 21399 21400 21401 21402 21403 21404 21405 21406 21407 21408 21409 21410 21411 21412 21413 21414 21415 21416 21417 21418 21419 21420 21421 21422 21423 21424 21425 21426 21427 21428 21429 21430 21431 21432 21433 21434 21435 21436 21437 21438 21439 21440 21441 21442 21443 21444 21445 21446 21447 21448 21449 21450 21451 21452 21453 21454 21455 21456 21457 21458 21459 21460 21461 21462 21463 21464 21465 21466 21467 21468 21469 21470 21471 21472 21473 21474 21475 21476 21477 21478 21479 21480 21481 21482 21483 21484 21485 21486 21487 21488 21489 21490 21491 21492 21493 21494 21495 21496 21497 21498 21499 21500 21501 21502 21503 21504 21505 21506 21507 21508 21509 21510 21511 21512 21513 21514 21515 21516 21517 21518 21519 21520 21521 21522 21523 21524 21525 21526 21527 21528 21529 21530 21531 21532 21533 21534 21535 21536 21537 21538 21539 21540 21541 21542 21543 21544 21545 21546 21547 21548 21549 21550 21551 21552 21553 21554 21555 21556 21557 21558 21559 21560 21561 21562 21563 21564 21565 21566 21567 21568 21569 21570 21571 21572 21573 21574 21575 21576 21577 21578 21579 21580 21581 21582 21583 21584 21585 21586 21587 21588 21589 21590 21591 21592 21593 21594 21595 21596 21597 21598 21599 21600 21601 21602 21603 21604 21605 21606 21607 21608 21609 21610 21611 21612 21613 21614 21615 21616 21617 21618 21619 21620 21621 21622 21623 21624 21625 21626 21627 21628 21629 21630 21631 21632 21633 21634 21635 21636 21637 21638 21639 21640 21641 21642 21643 21644 21645 21646 21647 21648 21649 21650 21651 21652 21653 21654 21655 21656 21657 21658 21659 21660 21661 21662 21663 21664 21665 21666 21667 21668 21669 21670 21671 21672 21673 21674 21675 21676 21677 21678 21679 21680 21681 21682 21683 21684 21685 21686 21687 21688 21689 21690 21691 21692 21693 21694 21695 21696 21697 21698 21699 21700 21701 21702 21703 21704 21705 21706 21707 21708 21709 21710 21711 21712 21713 21714 21715 21716 21717 21718 21719 21720 21721 21722 21723 21724 21725 21726 21727 21728 21729 21730 21731 21732 21733 21734 21735 21736 21737 21738 21739 21740 21741 21742 21743 21744 21745 21746 21747 21748 21749 21750 21751 21752 21753 21754 21755 21756 21757 21758 21759 21760 21761 21762 21763 21764 21765 21766 21767 21768 21769 21770 21771 21772 21773 21774 21775 21776 21777 21778 21779 21780 21781 21782 21783 21784 21785 21786 21787 21788 21789 21790 21791 21792 21793 21794 21795 21796 21797 21798 21799 21800 21801 21802 21803 21804 21805 21806 21807 21808 21809 21810 21811 21812 21813 21814 21815 21816 21817 21818 21819 21820 21821 21822 21823 21824 21825 21826 21827 21828 21829 21830 21831 21832 21833 21834 21835 21836 21837 21838 21839 21840 21841 21842 21843 21844 21845 21846 21847 21848 21849 21850 21851 21852 21853 21854 21855 21856 21857 21858 21859 21860 21861 21862 21863 21864 21865 21866 21867 21868 21869 21870 21871 21872 21873 21874 21875 21876 21877 21878 21879 21880 21881 21882 21883 21884 21885 21886 21887 21888 21889 21890 21891 21892 21893 21894 21895 21896 21897 21898 21899 21900 21901 21902 21903 21904 21905 21906 21907 21908 21909 21910 21911 21912 21913 21914 21915 21916 21917 21918 21919 21920 21921 21922 21923 21924 21925 21926 21927 21928 21929 21930 21931 21932 21933 21934 21935 21936 21937 21938 21939 21940 21941 21942 21943 21944 21945 21946 21947 21948 21949 21950 21951 21952 21953 21954 21955 21956 21957 21958 21959 21960 21961 21962 21963 21964 21965 21966 21967 21968 21969 21970 21971 21972 21973 21974 21975 21976 21977 21978 21979 21980 21981 21982 21983 21984 21985 21986 21987 21988 21989 21990 21991 21992 21993 21994 21995 21996 21997 21998 21999 22000 22001 22002 22003 22004 22005 22006 22007 22008 22009 22010 22011 22012 22013 22014 22015 22016 22017 22018 22019 22020 22021 22022 22023 22024 22025 22026 22027 22028 22029 22030 22031 22032 22033 22034 22035 22036 22037 22038 22039 22040 22041 22042 22043 22044 22045 22046 22047 22048 22049 22050 22051 22052 22053 22054 22055 22056 22057 22058 22059 22060 22061 22062 22063 22064 22065 22066 22067 22068 22069 22070 22071 22072 22073 22074 22075 22076 22077 22078 22079 22080 22081 22082 22083 22084 22085 22086 22087 22088 22089 22090 22091 22092 22093 22094 22095 22096 22097 22098 22099 22100 22101 22102 22103 22104 22105 22106 22107 22108 22109 22110 22111 22112 22113 22114 22115 22116 22117 22118 22119 22120 22121 22122 22123 22124 22125 22126 22127 22128 22129 22130 22131 22132 22133 22134 22135 22136 22137 22138 22139 22140 22141 22142 22143 22144 22145 22146 22147 22148 22149 22150 22151 22152 22153 22154 22155 22156 22157 22158 22159 22160 22161 22162 22163 22164 22165 22166 22167 22168 22169 22170 22171 22172 22173 22174 22175 22176 22177 22178 22179 22180 22181 22182 22183 22184 22185 22186 22187 22188 22189 22190 22191 22192 22193 22194 22195 22196 22197 22198 22199 22200 22201 22202 22203 22204 22205 22206 22207 22208 22209 22210 22211 22212 22213 22214 22215 22216 22217 22218 22219 22220 22221 22222 22223 22224 22225 22226 22227 22228 22229 22230 22231 22232 22233 22234 22235 22236 22237 22238 22239 22240 22241 22242 22243 22244 22245 22246 22247 22248 22249 22250 22251 22252 22253 22254 22255 22256 22257 22258 22259 22260 22261 22262 22263 22264 22265 22266 22267 22268 22269 22270 22271 22272 22273 22274 22275 22276 22277 22278 22279 22280 22281 22282 22283 22284 22285 22286 22287 22288 22289 22290 22291 22292 22293 22294 22295 22296 22297 22298 22299 22300 22301 22302 22303 22304 22305 22306 22307 22308 22309 22310 22311 22312 22313 22314 22315 22316 22317 22318 22319 22320 22321 22322 22323 22324 22325 22326 22327 22328 22329 22330 22331 22332 22333 22334 22335 22336 22337 22338 22339 22340 22341 22342 22343 22344 22345 22346 22347 22348 22349 22350 22351 22352 22353 22354 22355 22356 22357 22358 22359 22360 22361 22362 22363 22364 22365 22366 22367 22368 22369 22370 22371 22372 22373 22374 22375 22376 22377 22378 22379 22380 22381 22382 22383 22384 22385 22386 22387 22388 22389 22390 22391 22392 22393 22394 22395 22396 22397 22398 22399 22400 22401 22402 22403 22404 22405 22406 22407 22408 22409 22410 22411 22412 22413 22414 22415 22416 22417 22418 22419 22420 22421 22422 22423 22424 22425 22426 22427 22428 22429 22430 22431 22432 22433 22434 22435 22436 22437 22438 22439 22440 22441 22442 22443 22444 22445 22446 22447 22448 22449 22450 22451 22452 22453 22454 22455 22456 22457 22458 22459 22460 22461 22462 22463 22464 22465 22466 22467 22468 22469 22470 22471 22472 22473 22474 22475 22476 22477 22478 22479 22480 22481 22482 22483 22484 22485 22486 22487 22488 22489 22490 22491 22492 22493 22494 22495 22496 22497 22498 22499 22500 22501 22502 22503 22504 22505 22506 22507 22508 22509 22510 22511 22512 22513 22514 22515 22516 22517 22518 22519 22520 22521 22522 22523 22524 22525 22526 22527 22528 22529 22530 22531 22532 22533 22534 22535 22536 22537 22538 22539 22540 22541 22542 22543 22544 22545 22546 22547 22548 22549 22550 22551 22552 22553 22554 22555 22556 22557 22558 22559 22560 22561 22562 22563 22564 22565 22566 22567 22568 22569 22570 22571 22572 22573 22574 22575 22576 22577 22578 22579 22580 22581 22582 22583 22584 22585 22586 22587 22588 22589 22590 22591 22592 22593 22594 22595 22596 22597 22598 22599 22600 22601 22602 22603 22604 22605 22606 22607 22608 22609 22610 22611 22612 22613 22614 22615 22616 22617 22618 22619 22620 22621 22622 22623 22624 22625 22626 22627 22628 22629 22630 22631 22632 22633 22634 22635 22636 22637 22638 22639 22640 22641 22642 22643 22644 22645 22646 22647 22648 22649 22650 22651 22652 22653 22654 22655 22656 22657 22658 22659 22660 22661 22662 22663 22664 22665 22666 22667 22668 22669 22670 22671 22672 22673 22674 22675 22676 22677 22678 22679 22680 22681 22682 22683 22684 22685 22686 22687 22688 22689 22690 22691 22692 22693 22694 22695 22696 22697 22698 22699 22700 22701 22702 22703 22704 22705 22706 22707 22708 22709 22710 22711 22712 22713 22714 22715 22716 22717 22718 22719 22720 22721 22722 22723 22724 22725 22726 22727 22728 22729 22730 22731 22732 22733 22734 22735 22736 22737 22738 22739 22740 22741 22742 22743 22744 22745 22746 22747 22748 22749 22750 22751 22752 22753 22754 22755 22756 22757 22758 22759 22760 22761 22762 22763 22764 22765 22766 22767 22768 22769 22770 22771 22772 22773 22774 22775 22776 22777 22778 22779 22780 22781 22782 22783 22784 22785 22786 22787 22788 22789 22790 22791 22792 22793 22794 22795 22796 22797 22798 22799 22800 22801 22802 22803 22804 22805 22806 22807 22808 22809 22810 22811 22812 22813 22814 22815 22816 22817 22818 22819 22820 22821 22822 22823 22824 22825 22826 22827 22828 22829 22830 22831 22832 22833 22834 22835 22836 22837 22838 22839 22840 22841 22842 22843 22844 22845 22846 22847 22848 22849 22850 22851 22852 22853 22854 22855 22856 22857 22858 22859 22860 22861 22862 22863 22864 22865 22866 22867 22868 22869 22870 22871 22872 22873 22874 22875 22876 22877 22878 22879 22880 22881 22882 22883 22884 22885 22886 22887 22888 22889 22890 22891 22892 22893 22894 22895 22896 22897 22898 22899 22900 22901 22902 22903 22904 22905 22906 22907 22908 22909 22910 22911 22912 22913 22914 22915 22916 22917 22918 22919 22920 22921 22922 22923 22924 22925 22926 22927 22928 22929 22930 22931 22932 22933 22934 22935 22936 22937 22938 22939 22940 22941 22942 22943 22944 22945 22946 22947 22948 22949 22950 22951 22952 22953 22954 22955 22956 22957 22958 22959 22960 22961 22962 22963 22964 22965 22966 22967 22968 22969 22970 22971 22972 22973 22974 22975 22976 22977 22978 22979 22980 22981 22982 22983 22984 22985 22986 22987 22988 22989 22990 22991 22992 22993 22994 22995 22996 22997 22998 22999 23000 23001 23002 23003 23004 23005 23006 23007 23008 23009 23010 23011 23012 23013 23014 23015 23016 23017 23018 23019 23020 23021 23022 23023 23024 23025 23026 23027 23028 23029 23030 23031 23032 23033 23034 23035 23036 23037 23038 23039 23040 23041 23042 23043 23044 23045 23046 23047 23048 23049 23050 23051 23052 23053 23054 23055 23056 23057 23058 23059 23060 23061 23062 23063 23064 23065 23066 23067 23068 23069 23070 23071 23072 23073 23074 23075 23076 23077 23078 23079 23080 23081 23082 23083 23084 23085 23086 23087 23088 23089 23090 23091 23092 23093 23094 23095 23096 23097 23098 23099 23100 23101 23102 23103 23104 23105 23106 23107 23108 23109 23110 23111 23112 23113 23114 23115 23116 23117 23118 23119 23120 23121 23122 23123 23124 23125 23126 23127 23128 23129 23130 23131 23132 23133 23134 23135 23136 23137 23138 23139 23140 23141 23142 23143 23144 23145 23146 23147 23148 23149 23150 23151 23152 23153 23154 23155 23156 23157 23158 23159 23160 23161 23162 23163 23164 23165 23166 23167 23168 23169 23170 23171 23172 23173 23174 23175 23176 23177 23178 23179 23180 23181 23182 23183 23184 23185 23186 23187 23188 23189 23190 23191 23192 23193 23194 23195 23196 23197 23198 23199 23200 23201 23202 23203 23204 23205 23206 23207 23208 23209 23210 23211 23212 23213 23214 23215 23216 23217 23218 23219 23220 23221 23222 23223 23224 23225 23226 23227 23228 23229 23230 23231 23232 23233 23234 23235 23236 23237 23238 23239 23240 23241 23242 23243 23244 23245 23246 23247 23248 23249 23250 23251 23252 23253 23254 23255 23256 23257 23258 23259 23260 23261 23262 23263 23264 23265 23266 23267 23268 23269 23270 23271 23272 23273 23274 23275 23276 23277 23278 23279 23280 23281 23282 23283 23284 23285 23286 23287 23288 23289 23290 23291 23292 23293 23294 23295 23296 23297 23298 23299 23300 23301 23302 23303 23304 23305 23306 23307 23308 23309 23310 23311 23312 23313 23314 23315 23316 23317 23318 23319 23320 23321 23322 23323 23324 23325 23326 23327 23328 23329 23330 23331 23332 23333 23334 23335 23336 23337 23338 23339 23340 23341 23342 23343 23344 23345 23346 23347 23348 23349 23350 23351 23352 23353 23354 23355 23356 23357 23358 23359 23360 23361 23362 23363 23364 23365 23366 23367 23368 23369 23370 23371 23372 23373 23374 23375 23376 23377 23378 23379 23380 23381 23382 23383 23384 23385 23386 23387 23388 23389 23390 23391 23392 23393 23394 23395 23396 23397 23398 23399 23400 23401 23402 23403 23404 23405 23406 23407 23408 23409 23410 23411 23412 23413 23414 23415 23416 23417 23418 23419 23420 23421 23422 23423 23424 23425 23426 23427 23428 23429 23430 23431 23432 23433 23434 23435 23436 23437 23438 23439 23440 23441 23442 23443 23444 23445 23446 23447 23448 23449 23450 23451 23452 23453 23454 23455 23456 23457 23458 23459 23460 23461 23462 23463 23464 23465 23466 23467 23468 23469 23470 23471 23472 23473 23474 23475 23476 23477 23478 23479 23480 23481 23482 23483 23484 23485 23486 23487 23488 23489 23490 23491 23492 23493 23494 23495 23496 23497 23498 23499 23500 23501 23502 23503 23504 23505 23506 23507 23508 23509 23510 23511 23512 23513 23514 23515 23516 23517 23518 23519 23520 23521 23522 23523 23524 23525 23526 23527 23528 23529 23530 23531 23532 23533 23534 23535 23536 23537 23538 23539 23540 23541 23542 23543 23544 23545 23546 23547 23548 23549 23550 23551 23552 23553 23554 23555 23556 23557 23558 23559 23560 23561 23562 23563 23564 23565 23566 23567 23568 23569 23570 23571 23572 23573 23574 23575 23576 23577 23578 23579 23580 23581 23582 23583 23584 23585 23586 23587 23588 23589 23590 23591 23592 23593 23594 23595 23596 23597 23598 23599 23600 23601 23602 23603 23604 23605 23606 23607 23608 23609 23610 23611 23612 23613 23614 23615 23616 23617 23618 23619 23620 23621 23622 23623 23624 23625 23626 23627 23628 23629 23630 23631 23632 23633 23634 23635 23636 23637 23638 23639 23640 23641 23642 23643 23644 23645 23646 23647 23648 23649 23650 23651 23652 23653 23654 23655 23656 23657 23658 23659 23660 23661 23662 23663 23664 23665 23666 23667 23668 23669 23670 23671 23672 23673 23674 23675 23676 23677 23678 23679 23680 23681 23682 23683 23684 23685 23686 23687 23688 23689 23690 23691 23692 23693 23694 23695 23696 23697 23698 23699 23700 23701 23702 23703 23704 23705 23706 23707 23708 23709 23710 23711 23712 23713 23714 23715 23716 23717 23718 23719 23720 23721 23722 23723 23724 23725 23726 23727 23728 23729 23730 23731 23732 23733 23734 23735 23736 23737 23738 23739 23740 23741 23742 23743 23744 23745 23746 23747 23748 23749 23750 23751 23752 23753 23754 23755 23756 23757 23758 23759 23760 23761 23762 23763 23764 23765 23766 23767 23768 23769 23770 23771 23772 23773 23774 23775 23776 23777 23778 23779 23780 23781 23782 23783 23784 23785 23786 23787 23788 23789 23790 23791 23792 23793 23794 23795 23796 23797 23798 23799 23800 23801 23802 23803 23804 23805 23806 23807 23808 23809 23810 23811 23812 23813 23814 23815 23816 23817 23818 23819 23820 23821 23822 23823 23824 23825 23826 23827 23828 23829 23830 23831 23832 23833 23834 23835 23836 23837 23838 23839 23840 23841 23842 23843 23844 23845 23846 23847 23848 23849 23850 23851 23852 23853 23854 23855 23856 23857 23858 23859 23860 23861 23862 23863 23864 23865 23866 23867 23868 23869 23870 23871 23872 23873 23874 23875 23876 23877 23878 23879 23880 23881 23882 23883 23884 23885 23886 23887 23888 23889 23890 23891 23892 23893 23894 23895 23896 23897 23898 23899 23900 23901 23902 23903 23904 23905 23906 23907 23908 23909 23910 23911 23912 23913 23914 23915 23916 23917 23918 23919 23920 23921 23922 23923 23924 23925 23926 23927 23928 23929 23930 23931 23932 23933 23934 23935 23936 23937 23938 23939 23940 23941 23942 23943 23944 23945 23946 23947 23948 23949 23950 23951 23952 23953 23954 23955 23956 23957 23958 23959 23960 23961 23962 23963 23964 23965 23966 23967 23968 23969 23970 23971 23972 23973 23974 23975 23976 23977 23978 23979 23980 23981 23982 23983 23984 23985 23986 23987 23988 23989 23990 23991 23992 23993 23994 23995 23996 23997 23998 23999 24000 24001 24002 24003 24004 24005 24006 24007 24008 24009 24010 24011 24012 24013 24014 24015 24016 24017 24018 24019 24020 24021 24022 24023 24024 24025 24026 24027 24028 24029 24030 24031 24032 24033 24034 24035 24036 24037 24038 24039 24040 24041 24042 24043 24044 24045 24046 24047 24048 24049 24050 24051 24052 24053 24054 24055 24056 24057 24058 24059 24060 24061 24062 24063 24064 24065 24066 24067 24068 24069 24070 24071 24072 24073 24074 24075 24076 24077 24078 24079 24080 24081 24082 24083 24084 24085 24086 24087 24088 24089 24090 24091 24092 24093 24094 24095 24096 24097 24098 24099 24100 24101 24102 24103 24104 24105 24106 24107 24108 24109 24110 24111 24112 24113 24114 24115 24116 24117 24118 24119 24120 24121 24122 24123 24124 24125 24126 24127 24128 24129 24130 24131 24132 24133 24134 24135 24136 24137 24138 24139 24140 24141 24142 24143 24144 24145 24146 24147 24148 24149 24150 24151 24152 24153 24154 24155 24156 24157 24158 24159 24160 24161 24162 24163 24164 24165 24166 24167 24168 24169 24170 24171 24172 24173 24174 24175 24176 24177 24178 24179 24180 24181 24182 24183 24184 24185 24186 24187 24188 24189 24190 24191 24192 24193 24194 24195 24196 24197 24198 24199 24200 24201 24202 24203 24204 24205 24206 24207 24208 24209 24210 24211 24212 24213 24214 24215 24216 24217 24218 24219 24220 24221 24222 24223 24224 24225 24226 24227 24228 24229 24230 24231 24232 24233 24234 24235 24236 24237 24238 24239 24240 24241 24242 24243 24244 24245 24246 24247 24248 24249 24250 24251 24252 24253 24254 24255 24256 24257 24258 24259 24260 24261 24262 24263 24264 24265 24266 24267 24268 24269 24270 24271 24272 24273 24274 24275 24276 24277 24278 24279 24280 24281 24282 24283 24284 24285 24286 24287 24288 24289 24290 24291 24292 24293 24294 24295 24296 24297 24298 24299 24300 24301 24302 24303 24304 24305 24306 24307 24308 24309 24310 24311 24312 24313 24314 24315 24316 24317 24318 24319 24320 24321 24322 24323 24324 24325 24326 24327 24328 24329 24330 24331 24332 24333 24334 24335 24336 24337 24338 24339 24340 24341 24342 24343 24344 24345 24346 24347 24348 24349 24350 24351 24352 24353 24354 24355 24356 24357 24358 24359 24360 24361 24362 24363 24364 24365 24366 24367 24368 24369 24370 24371 24372 24373 24374 24375 24376 24377 24378 24379 24380 24381 24382 24383 24384 24385 24386 24387 24388 24389 24390 24391 24392 24393 24394 24395 24396 24397 24398 24399 24400 24401 24402 24403 24404 24405 24406 24407 24408 24409 24410 24411 24412 24413 24414 24415 24416 24417 24418 24419 24420 24421 24422 24423 24424 24425 24426 24427 24428 24429 24430 24431 24432 24433 24434 24435 24436 24437 24438 24439 24440 24441 24442 24443 24444 24445 24446 24447 24448 24449 24450 24451 24452 24453 24454 24455 24456 24457 24458 24459 24460 24461 24462 24463 24464 24465 24466 24467 24468 24469 24470 24471 24472 24473 24474 24475 24476 24477 24478 24479 24480 24481 24482 24483 24484 24485 24486 24487 24488 24489 24490 24491 24492 24493 24494 24495 24496 24497 24498 24499 24500 24501 24502 24503 24504 24505 24506 24507 24508 24509 24510 24511 24512 24513 24514 24515 24516 24517 24518 24519 24520 24521 24522 24523 24524 24525 24526 24527 24528 24529 24530 24531 24532 24533 24534 24535 24536 24537 24538 24539 24540 24541 24542 24543 24544 24545 24546 24547 24548 24549 24550 24551 24552 24553 24554 24555 24556 24557 24558 24559 24560 24561 24562 24563 24564 24565 24566 24567 24568 24569 24570 24571 24572 24573 24574 24575 24576 24577 24578 24579 24580 24581 24582 24583 24584 24585 24586 24587 24588 24589 24590 24591 24592 24593 24594 24595 24596 24597 24598 24599 24600 24601 24602 24603 24604 24605 24606 24607 24608 24609 24610 24611 24612 24613 24614 24615 24616 24617 24618 24619 24620 24621 24622 24623 24624 24625 24626 24627 24628 24629 24630 24631 24632 24633 24634 24635 24636 24637 24638 24639 24640 24641 24642 24643 24644 24645 24646 24647 24648 24649 24650 24651 24652 24653 24654 24655 24656 24657 24658 24659 24660 24661 24662 24663 24664 24665 24666 24667 24668 24669 24670 24671 24672 24673 24674 24675 24676 24677 24678 24679 24680 24681 24682 24683 24684 24685 24686 24687 24688 24689 24690 24691 24692 24693 24694 24695 24696 24697 24698 24699 24700 24701 24702 24703 24704 24705 24706 24707 24708 24709 24710 24711 24712 24713 24714 24715 24716 24717 24718 24719 24720 24721 24722 24723 24724 24725 24726 24727 24728 24729 24730 24731 24732 24733 24734 24735 24736 24737 24738 24739 24740 24741 24742 24743 24744 24745 24746 24747 24748 24749 24750 24751 24752 24753 24754 24755 24756 24757 24758 24759 24760 24761 24762 24763 24764 24765 24766 24767 24768 24769 24770 24771 24772 24773 24774 24775 24776 24777 24778 24779 24780 24781 24782 24783 24784 24785 24786 24787 24788 24789 24790 24791 24792 24793 24794 24795 24796 24797 24798 24799 24800 24801 24802 24803 24804 24805 24806 24807 24808 24809 24810 24811 24812 24813 24814 24815 24816 24817 24818 24819 24820 24821 24822 24823 24824 24825 24826 24827 24828 24829 24830 24831 24832 24833 24834 24835 24836 24837 24838 24839 24840 24841 24842 24843 24844 24845 24846 24847 24848 24849 24850 24851 24852 24853 24854 24855 24856 24857 24858 24859 24860 24861 24862 24863 24864 24865 24866 24867 24868 24869 24870 24871 24872 24873 24874 24875 24876 24877 24878 24879 24880 24881 24882 24883 24884 24885 24886 24887 24888 24889 24890 24891 24892 24893 24894 24895 24896 24897 24898 24899 24900 24901 24902 24903 24904 24905 24906 24907 24908 24909 24910 24911 24912 24913 24914 24915 24916 24917 24918 24919 24920 24921 24922 24923 24924 24925 24926 24927 24928 24929 24930 24931 24932 24933 24934 24935 24936 24937 24938 24939 24940 24941 24942 24943 24944 24945 24946 24947 24948 24949 24950 24951 24952 24953 24954 24955 24956 24957 24958 24959 24960 24961 24962 24963 24964 24965 24966 24967 24968 24969 24970 24971 24972 24973 24974 24975 24976 24977 24978 24979 24980 24981 24982 24983 24984 24985 24986 24987 24988 24989 24990 24991 24992 24993 24994 24995 24996 24997 24998 24999 25000 25001 25002 25003 25004 25005 25006 25007 25008 25009 25010 25011 25012 25013 25014 25015 25016 25017 25018 25019 25020 25021 25022 25023 25024 25025 25026 25027 25028 25029 25030 25031 25032 25033 25034 25035 25036 25037 25038 25039 25040 25041 25042 25043 25044 25045 25046 25047 25048 25049 25050 25051 25052 25053 25054 25055 25056 25057 25058 25059 25060 25061 25062 25063 25064 25065 25066 25067 25068 25069 25070 25071 25072 25073 25074 25075 25076 25077 25078 25079 25080 25081 25082 25083 25084 25085 25086 25087 25088 25089 25090 25091 25092 25093 25094 25095 25096 25097 25098 25099 25100 25101 25102 25103 25104 25105 25106 25107 25108 25109 25110 25111 25112 25113 25114 25115 25116 25117 25118 25119 25120 25121 25122 25123 25124 25125 25126 25127 25128 25129 25130 25131 25132 25133 25134 25135 25136 25137 25138 25139 25140 25141 25142 25143 25144 25145 25146 25147 25148 25149 25150 25151 25152 25153 25154 25155 25156 25157 25158 25159 25160 25161 25162 25163 25164 25165 25166 25167 25168 25169 25170 25171 25172 25173 25174 25175 25176 25177 25178 25179 25180 25181 25182 25183 25184 25185 25186 25187 25188 25189 25190 25191 25192 25193 25194 25195 25196 25197 25198 25199 25200 25201 25202 25203 25204 25205 25206 25207 25208 25209 25210 25211 25212 25213 25214 25215 25216 25217 25218 25219 25220 25221 25222 25223 25224 25225 25226 25227 25228 25229 25230 25231 25232 25233 25234 25235 25236 25237 25238 25239 25240 25241 25242 25243 25244 25245 25246 25247 25248 25249 25250 25251 25252 25253 25254 25255 25256 25257 25258 25259 25260 25261 25262 25263 25264 25265 25266 25267 25268 25269 25270 25271 25272 25273 25274 25275 25276 25277 25278 25279 25280 25281 25282 25283 25284 25285 25286 25287 25288 25289 25290 25291 25292 25293 25294 25295 25296 25297 25298 25299 25300 25301 25302 25303 25304 25305 25306 25307 25308 25309 25310 25311 25312 25313 25314 25315 25316 25317 25318 25319 25320 25321 25322 25323 25324 25325 25326 25327 25328 25329 25330 25331 25332 25333 25334 25335 25336 25337 25338 25339 25340 25341 25342 25343 25344 25345 25346 25347 25348 25349 25350 25351 25352 25353 25354 25355 25356 25357 25358 25359 25360 25361 25362 25363 25364 25365 25366 25367 25368 25369 25370 25371 25372 25373 25374 25375 25376 25377 25378 25379 25380 25381 25382 25383 25384 25385 25386 25387 25388 25389 25390 25391 25392 25393 25394 25395 25396 25397 25398 25399 25400 25401 25402 25403 25404 25405 25406 25407 25408 25409 25410 25411 25412 25413 25414 25415 25416 25417 25418 25419 25420 25421 25422 25423 25424 25425 25426 25427 25428 25429 25430 25431 25432 25433 25434 25435 25436 25437 25438 25439 25440 25441 25442 25443 25444 25445 25446 25447 25448 25449 25450 25451 25452 25453 25454 25455 25456 25457 25458 25459 25460 25461 25462 25463 25464 25465 25466 25467 25468 25469 25470 25471 25472 25473 25474 25475 25476 25477 25478 25479 25480 25481 25482 25483 25484 25485 25486 25487 25488 25489 25490 25491 25492 25493 25494 25495 25496 25497 25498 25499 25500 25501 25502 25503 25504 25505 25506 25507 25508 25509 25510 25511 25512 25513 25514 25515 25516 25517 25518 25519 25520 25521 25522 25523 25524 25525 25526 25527 25528 25529 25530 25531 25532 25533 25534 25535 25536 25537 25538 25539 25540 25541 25542 25543 25544 25545 25546 25547 25548 25549 25550 25551 25552 25553 25554 25555 25556 25557 25558 25559 25560 25561 25562 25563 25564 25565 25566 25567 25568 25569 25570 25571 25572 25573 25574 25575 25576 25577 25578 25579 25580 25581 25582 25583 25584 25585 25586 25587 25588 25589 25590 25591 25592 25593 25594 25595 25596 25597 25598 25599 25600 25601 25602 25603 25604 25605 25606 25607 25608 25609 25610 25611 25612 25613 25614 25615 25616 25617 25618 25619 25620 25621 25622 25623 25624 25625 25626 25627 25628 25629 25630 25631 25632 25633 25634 25635 25636 25637 25638 25639 25640 25641 25642 25643 25644 25645 25646 25647 25648 25649 25650 25651 25652 25653 25654 25655 25656 25657 25658 25659 25660 25661 25662 25663 25664 25665 25666 25667 25668 25669 25670 25671 25672 25673 25674 25675 25676 25677 25678 25679 25680 25681 25682 25683 25684 25685 25686 25687 25688 25689 25690 25691 25692 25693 25694 25695 25696 25697 25698 25699 25700 25701 25702 25703 25704 25705 25706 25707 25708 25709 25710 25711 25712 25713 25714 25715 25716 25717 25718 25719 25720 25721 25722 25723 25724 25725 25726 25727 25728 25729 25730 25731 25732 25733 25734 25735 25736 25737 25738 25739 25740 25741 25742 25743 25744 25745 25746 25747 25748 25749 25750 25751 25752 25753 25754 25755 25756 25757 25758 25759 25760 25761 25762 25763 25764 25765 25766 25767 25768 25769 25770 25771 25772 25773 25774 25775 25776 25777 25778 25779 25780 25781 25782 25783 25784 25785 25786 25787 25788 25789 25790 25791 25792 25793 25794 25795 25796 25797 25798 25799 25800 25801 25802 25803 25804 25805 25806 25807 25808 25809 25810 25811 25812 25813 25814 25815 25816 25817 25818 25819 25820 25821 25822 25823 25824 25825 25826 25827 25828 25829 25830 25831 25832 25833 25834 25835 25836 25837 25838 25839 25840 25841 25842 25843 25844 25845 25846 25847 25848 25849 25850 25851 25852 25853 25854 25855 25856 25857 25858 25859 25860 25861 25862 25863 25864 25865 25866 25867 25868 25869 25870 25871 25872 25873 25874 25875 25876 25877 25878 25879 25880 25881 25882 25883 25884 25885 25886 25887 25888 25889 25890 25891 25892 25893 25894 25895 25896 25897 25898 25899 25900 25901 25902 25903 25904 25905 25906 25907 25908 25909 25910 25911 25912 25913 25914 25915 25916 25917 25918 25919 25920 25921 25922 25923 25924 25925 25926 25927 25928 25929 25930 25931 25932 25933 25934 25935 25936 25937 25938 25939 25940 25941 25942 25943 25944 25945 25946 25947 25948 25949 25950 25951 25952 25953 25954 25955 25956 25957 25958 25959 25960 25961 25962 25963 25964 25965 25966 25967 25968 25969 25970 25971 25972 25973 25974 25975 25976 25977 25978 25979 25980 25981 25982 25983 25984 25985 25986 25987 25988 25989 25990 25991 25992 25993 25994 25995 25996 25997 25998 25999 26000 26001 26002 26003 26004 26005 26006 26007 26008 26009 26010 26011 26012 26013 26014 26015 26016 26017 26018 26019 26020 26021 26022 26023 26024 26025 26026 26027 26028 26029 26030 26031 26032 26033 26034 26035 26036 26037 26038 26039 26040 26041 26042 26043 26044 26045 26046 26047 26048 26049 26050 26051 26052 26053 26054 26055 26056 26057 26058 26059 26060 26061 26062 26063 26064 26065 26066 26067 26068 26069 26070 26071 26072 26073 26074 26075 26076 26077 26078 26079 26080 26081 26082 26083 26084 26085 26086 26087 26088 26089 26090 26091 26092 26093 26094 26095 26096 26097 26098 26099 26100 26101 26102 26103 26104 26105 26106 26107 26108 26109 26110 26111 26112 26113 26114 26115 26116 26117 26118 26119 26120 26121 26122 26123 26124 26125 26126 26127 26128 26129 26130 26131 26132 26133 26134 26135 26136 26137 26138 26139 26140 26141 26142 26143 26144 26145 26146 26147 26148 26149 26150 26151 26152 26153 26154 26155 26156 26157 26158 26159 26160 26161 26162 26163 26164 26165 26166 26167 26168 26169 26170 26171 26172 26173 26174 26175 26176 26177 26178 26179 26180 26181 26182 26183 26184 26185 26186 26187 26188 26189 26190 26191 26192 26193 26194 26195 26196 26197 26198 26199 26200 26201 26202 26203 26204 26205 26206 26207 26208 26209 26210 26211 26212 26213 26214 26215 26216 26217 26218 26219 26220 26221 26222 26223 26224 26225 26226 26227 26228 26229 26230 26231 26232 26233 26234 26235 26236 26237 26238 26239 26240 26241 26242 26243 26244 26245 26246 26247 26248 26249 26250 26251 26252 26253 26254 26255 26256 26257 26258 26259 26260 26261 26262 26263 26264 26265 26266 26267 26268 26269 26270 26271 26272 26273 26274 26275 26276 26277 26278 26279 26280 26281 26282 26283 26284 26285 26286 26287 26288 26289 26290 26291 26292 26293 26294 26295 26296 26297 26298 26299 26300 26301 26302 26303 26304 26305 26306 26307 26308 26309 26310 26311 26312 26313 26314 26315 26316 26317 26318 26319 26320 26321 26322 26323 26324 26325 26326 26327 26328 26329 26330 26331 26332 26333 26334 26335 26336 26337 26338 26339 26340 26341 26342 26343 26344 26345 26346 26347 26348 26349 26350 26351 26352 26353 26354 26355 26356 26357 26358 26359 26360 26361 26362 26363 26364 26365 26366 26367 26368 26369 26370 26371 26372 26373 26374 26375 26376 26377 26378 26379 26380 26381 26382 26383 26384 26385 26386 26387 26388 26389 26390 26391 26392 26393 26394 26395 26396 26397 26398 26399 26400 26401 26402 26403 26404 26405 26406 26407 26408 26409 26410 26411 26412 26413 26414 26415 26416 26417 26418 26419 26420 26421 26422 26423 26424 26425 26426 26427 26428 26429 26430 26431 26432 26433 26434 26435 26436 26437 26438 26439 26440 26441 26442 26443 26444 26445 26446 26447 26448 26449 26450 26451 26452 26453 26454 26455 26456 26457 26458 26459 26460 26461 26462 26463 26464 26465 26466 26467 26468 26469 26470 26471 26472 26473 26474 26475 26476 26477 26478 26479 26480 26481 26482 26483 26484 26485 26486 26487 26488 26489 26490 26491 26492 26493 26494 26495 26496 26497 26498 26499 26500 26501 26502 26503 26504 26505 26506 26507 26508 26509 26510 26511 26512 26513 26514 26515 26516 26517 26518 26519 26520 26521 26522 26523 26524 26525 26526 26527 26528 26529 26530 26531 26532 26533 26534 26535 26536 26537 26538 26539 26540 26541 26542 26543 26544 26545 26546 26547 26548 26549 26550 26551 26552 26553 26554 26555 26556 26557 26558 26559 26560 26561 26562 26563 26564 26565 26566 26567 26568 26569 26570 26571 26572 26573 26574 26575 26576 26577 26578 26579 26580 26581 26582 26583 26584 26585 26586 26587 26588 26589 26590 26591 26592 26593 26594 26595 26596 26597 26598 26599 26600 26601 26602 26603 26604 26605 26606 26607 26608 26609 26610 26611 26612 26613 26614 26615 26616 26617 26618 26619 26620 26621 26622 26623 26624 26625 26626 26627 26628 26629 26630 26631 26632 26633 26634 26635 26636 26637 26638 26639 26640 26641 26642 26643 26644 26645 26646 26647 26648 26649 26650 26651 26652 26653 26654 26655 26656 26657 26658 26659 26660 26661 26662 26663 26664 26665 26666 26667 26668 26669 26670 26671 26672 26673 26674 26675 26676 26677 26678 26679 26680 26681 26682 26683 26684 26685 26686 26687 26688 26689 26690 26691 26692 26693 26694 26695 26696 26697 26698 26699 26700 26701 26702 26703 26704 26705 26706 26707 26708 26709 26710 26711 26712 26713 26714 26715 26716 26717 26718 26719 26720 26721 26722 26723 26724 26725 26726 26727 26728 26729 26730 26731 26732 26733 26734 26735 26736 26737 26738 26739 26740 26741 26742 26743 26744 26745 26746 26747 26748 26749 26750 26751 26752 26753 26754 26755 26756 26757 26758 26759 26760 26761 26762 26763 26764 26765 26766 26767 26768 26769 26770 26771 26772 26773 26774 26775 26776 26777 26778 26779 26780 26781 26782 26783 26784 26785 26786 26787 26788 26789 26790 26791 26792 26793 26794 26795 26796 26797 26798 26799 26800 26801 26802 26803 26804 26805 26806 26807 26808 26809 26810 26811 26812 26813 26814 26815 26816 26817 26818 26819 26820 26821 26822 26823 26824 26825 26826 26827 26828 26829 26830 26831 26832 26833 26834 26835 26836 26837 26838 26839 26840 26841 26842 26843 26844 26845 26846 26847 26848 26849 26850 26851 26852 26853 26854 26855 26856 26857 26858 26859 26860 26861 26862 26863 26864 26865 26866 26867 26868 26869 26870 26871 26872 26873 26874 26875 26876 26877 26878 26879 26880 26881 26882 26883 26884 26885 26886 26887 26888 26889 26890 26891 26892 26893 26894 26895 26896 26897 26898 26899 26900 26901 26902 26903 26904 26905 26906 26907 26908 26909 26910 26911 26912 26913 26914 26915 26916 26917 26918 26919 26920 26921 26922 26923 26924 26925 26926 26927 26928 26929 26930 26931 26932 26933 26934 26935 26936 26937 26938 26939 26940 26941 26942 26943 26944 26945 26946 26947 26948 26949 26950 26951 26952 26953 26954 26955 26956 26957 26958 26959 26960 26961 26962 26963 26964 26965 26966 26967 26968 26969 26970 26971 26972 26973 26974 26975 26976 26977 26978 26979 26980 26981 26982 26983 26984 26985 26986 26987 26988 26989 26990 26991 26992 26993 26994 26995 26996 26997 26998 26999 27000 27001 27002 27003 27004 27005 27006 27007 27008 27009 27010 27011 27012 27013 27014 27015 27016 27017 27018 27019 27020 27021 27022 27023 27024 27025 27026 27027 27028 27029 27030 27031 27032 27033 27034 27035 27036 27037 27038 27039 27040 27041 27042 27043 27044 27045 27046 27047 27048 27049 27050 27051 27052 27053 27054 27055 27056 27057 27058 27059 27060 27061 27062 27063 27064 27065 27066 27067 27068 27069 27070 27071 27072 27073 27074 27075 27076 27077 27078 27079 27080 27081 27082 27083 27084 27085 27086 27087 27088 27089 27090 27091 27092 27093 27094 27095 27096 27097 27098 27099 27100 27101 27102 27103 27104 27105 27106 27107 27108 27109 27110 27111 27112 27113 27114 27115 27116 27117 27118 27119 27120 27121 27122 27123 27124 27125 27126 27127 27128 27129 27130 27131 27132 27133 27134 27135 27136 27137 27138 27139 27140 27141 27142 27143 27144 27145 27146 27147 27148 27149 27150 27151 27152 27153 27154 27155 27156 27157 27158 27159 27160 27161 27162 27163 27164 27165 27166 27167 27168 27169 27170 27171 27172 27173 27174 27175 27176 27177 27178 27179 27180 27181 27182 27183 27184 27185 27186 27187 27188 27189 27190 27191 27192 27193 27194 27195 27196 27197 27198 27199 27200 27201 27202 27203 27204 27205 27206 27207 27208 27209 27210 27211 27212 27213 27214 27215 27216 27217 27218 27219 27220 27221 27222 27223 27224 27225 27226 27227 27228 27229 27230 27231 27232 27233 27234 27235 27236 27237 27238 27239 27240 27241 27242 27243 27244 27245 27246 27247 27248 27249 27250 27251 27252 27253 27254 27255 27256 27257 27258 27259 27260 27261 27262 27263 27264 27265 27266 27267 27268 27269 27270 27271 27272 27273 27274 27275 27276 27277 27278 27279 27280 27281 27282 27283 27284 27285 27286 27287 27288 27289 27290 27291 27292 27293 27294 27295 27296 27297 27298 27299 27300 27301 27302 27303 27304 27305 27306 27307 27308 27309 27310 27311 27312 27313 27314 27315 27316 27317 27318 27319 27320 27321 27322 27323 27324 27325 27326 27327 27328 27329 27330 27331 27332 27333 27334 27335 27336 27337 27338 27339 27340 27341 27342 27343 27344 27345 27346 27347 27348 27349 27350 27351 27352 27353 27354 27355 27356 27357 27358 27359 27360 27361 27362 27363 27364 27365 27366 27367 27368 27369 27370 27371 27372 27373 27374 27375 27376 27377 27378 27379 27380 27381 27382 27383 27384 27385 27386 27387 27388 27389 27390 27391 27392 27393 27394 27395 27396 27397 27398 27399 27400 27401 27402 27403 27404 27405 27406 27407 27408 27409 27410 27411 27412 27413 27414 27415 27416 27417 27418 27419 27420 27421 27422 27423 27424 27425 27426 27427 27428 27429 27430 27431 27432 27433 27434 27435 27436 27437 27438 27439 27440 27441 27442 27443 27444 27445 27446 27447 27448 27449 27450 27451 27452 27453 27454 27455 27456 27457 27458 27459 27460 27461 27462 27463 27464 27465 27466 27467 27468 27469 27470 27471 27472 27473 27474 27475 27476 27477 27478 27479 27480 27481 27482 27483 27484 27485 27486 27487 27488 27489 27490 27491 27492 27493 27494 27495 27496 27497 27498 27499 27500 27501 27502 27503 27504 27505 27506 27507 27508 27509 27510 27511 27512 27513 27514 27515 27516 27517 27518 27519 27520 27521 27522 27523 27524 27525 27526 27527 27528 27529 27530 27531 27532 27533 27534 27535 27536 27537 27538 27539 27540 27541 27542 27543 27544 27545 27546 27547 27548 27549 27550 27551 27552 27553 27554 27555 27556 27557 27558 27559 27560 27561 27562 27563 27564 27565 27566 27567 27568 27569 27570 27571 27572 27573 27574 27575 27576 27577 27578 27579 27580 27581 27582 27583 27584 27585 27586 27587 27588 27589 27590 27591 27592 27593 27594 27595 27596 27597 27598 27599 27600 27601 27602 27603 27604 27605 27606 27607 27608 27609 27610 27611 27612 27613 27614 27615 27616 27617 27618 27619 27620 27621 27622 27623 27624 27625 27626 27627 27628 27629 27630 27631 27632 27633 27634 27635 27636 27637 27638 27639 27640 27641 27642 27643 27644 27645 27646 27647 27648 27649 27650 27651 27652 27653 27654 27655 27656 27657 27658 27659 27660 27661 27662 27663 27664 27665 27666 27667 27668 27669 27670 27671 27672 27673 27674 27675 27676 27677 27678 27679 27680 27681 27682 27683 27684 27685 27686 27687 27688 27689 27690 27691 27692 27693 27694 27695 27696 27697 27698 27699 27700 27701 27702 27703 27704 27705 27706 27707 27708 27709 27710 27711 27712 27713 27714 27715 27716 27717 27718 27719 27720 27721 27722 27723 27724 27725 27726 27727 27728 27729 27730 27731 27732 27733 27734 27735 27736 27737 27738 27739 27740 27741 27742 27743 27744 27745 27746 27747 27748 27749 27750 27751 27752 27753 27754 27755 27756 27757 27758 27759 27760 27761 27762 27763 27764 27765 27766 27767 27768 27769 27770 27771 27772 27773 27774 27775 27776 27777 27778 27779 27780 27781 27782 27783 27784 27785 27786 27787 27788 27789 27790 27791 27792 27793 27794 27795 27796 27797 27798 27799 27800 27801 27802 27803 27804 27805 27806 27807 27808 27809 27810 27811 27812 27813 27814 27815 27816 27817 27818 27819 27820 27821 27822 27823 27824 27825 27826 27827 27828 27829 27830 27831 27832 27833 27834 27835 27836 27837 27838 27839 27840 27841 27842 27843 27844 27845 27846 27847 27848 27849 27850 27851 27852 27853 27854 27855 27856 27857 27858 27859 27860 27861 27862 27863 27864 27865 27866 27867 27868 27869 27870 27871 27872 27873 27874 27875 27876 27877 27878 27879 27880 27881 27882 27883 27884 27885 27886 27887 27888 27889 27890 27891 27892 27893 27894 27895 27896 27897 27898 27899 27900 27901 27902 27903 27904 27905 27906 27907 27908 27909 27910 27911 27912 27913 27914 27915 27916 27917 27918 27919 27920 27921 27922 27923 27924 27925 27926 27927 27928 27929 27930 27931 27932 27933 27934 27935 27936 27937 27938 27939 27940 27941 27942 27943 27944 27945 27946 27947 27948 27949 27950 27951 27952 27953 27954 27955 27956 27957 27958 27959 27960 27961 27962 27963 27964 27965 27966 27967 27968 27969 27970 27971 27972 27973 27974 27975 27976 27977 27978 27979 27980 27981 27982 27983 27984 27985 27986 27987 27988 27989 27990 27991 27992 27993 27994 27995 27996 27997 27998 27999 28000 28001 28002 28003 28004 28005 28006 28007 28008 28009 28010 28011 28012 28013 28014 28015 28016 28017 28018 28019 28020 28021 28022 28023 28024 28025 28026 28027 28028 28029 28030 28031 28032 28033 28034 28035 28036 28037 28038 28039 28040 28041 28042 28043 28044 28045 28046 28047 28048 28049 28050 28051 28052 28053 28054 28055 28056 28057 28058 28059 28060 28061 28062 28063 28064 28065 28066 28067 28068 28069 28070 28071 28072 28073 28074 28075 28076 28077 28078 28079 28080 28081 28082 28083 28084 28085 28086 28087 28088 28089 28090 28091 28092 28093 28094 28095 28096 28097 28098 28099 28100 28101 28102 28103 28104 28105 28106 28107 28108 28109 28110 28111 28112 28113 28114 28115 28116 28117 28118 28119 28120 28121 28122 28123 28124 28125 28126 28127 28128 28129 28130 28131 28132 28133 28134 28135 28136 28137 28138 28139 28140 28141 28142 28143 28144 28145 28146 28147 28148 28149 28150 28151 28152 28153 28154 28155 28156 28157 28158 28159 28160 28161 28162 28163 28164 28165 28166 28167 28168 28169 28170 28171 28172 28173 28174 28175 28176 28177 28178 28179 28180 28181 28182 28183 28184 28185 28186 28187 28188 28189 28190 28191 28192 28193 28194 28195 28196 28197 28198 28199 28200 28201 28202 28203 28204 28205 28206 28207 28208 28209 28210 28211 28212 28213 28214 28215 28216 28217 28218 28219 28220 28221 28222 28223 28224 28225 28226 28227 28228 28229 28230 28231 28232 28233 28234 28235 28236 28237 28238 28239 28240 28241 28242 28243 28244 28245 28246 28247 28248 28249 28250 28251 28252 28253 28254 28255 28256 28257 28258 28259 28260 28261 28262 28263 28264 28265 28266 28267 28268 28269 28270 28271 28272 28273 28274 28275 28276 28277 28278 28279 28280 28281 28282 28283 28284 28285 28286 28287 28288 28289 28290 28291 28292 28293 28294 28295 28296 28297 28298 28299 28300 28301 28302 28303 28304 28305 28306 28307 28308 28309 28310 28311 28312 28313 28314 28315 28316 28317 28318 28319 28320 28321 28322 28323 28324 28325 28326 28327 28328 28329 28330 28331 28332 28333 28334 28335 28336 28337 28338 28339 28340 28341 28342 28343 28344 28345 28346 28347 28348 28349 28350 28351 28352 28353 28354 28355 28356 28357 28358 28359 28360 28361 28362 28363 28364 28365 28366 28367 28368 28369 28370 28371 28372 28373 28374 28375 28376 28377 28378 28379 28380 28381 28382 28383 28384 28385 28386 28387 28388 28389 28390 28391 28392 28393 28394 28395 28396 28397 28398 28399 28400 28401 28402 28403 28404 28405 28406 28407 28408 28409 28410 28411 28412 28413 28414 28415 28416 28417 28418 28419 28420 28421 28422 28423 28424 28425 28426 28427 28428 28429 28430 28431 28432 28433 28434 28435 28436 28437 28438 28439 28440 28441 28442 28443 28444 28445 28446 28447 28448 28449 28450 28451 28452 28453 28454 28455 28456 28457 28458 28459 28460 28461 28462 28463 28464 28465 28466 28467 28468 28469 28470 28471 28472 28473 28474 28475 28476 28477 28478 28479 28480 28481 28482 28483 28484 28485 28486 28487 28488 28489 28490 28491 28492 28493 28494 28495 28496 28497 28498 28499 28500 28501 28502 28503 28504 28505 28506 28507 28508 28509 28510 28511 28512 28513 28514 28515 28516 28517 28518 28519 28520 28521 28522 28523 28524 28525 28526 28527 28528 28529 28530 28531 28532 28533 28534 28535 28536 28537 28538 28539 28540 28541 28542 28543 28544 28545 28546 28547 28548 28549 28550 28551 28552 28553 28554 28555 28556 28557 28558 28559 28560 28561 28562 28563 28564 28565 28566 28567 28568 28569 28570 28571 28572 28573 28574 28575 28576 28577 28578 28579 28580 28581 28582 28583 28584 28585 28586 28587 28588 28589 28590 28591 28592 28593 28594 28595 28596 28597 28598 28599 28600 28601 28602 28603 28604 28605 28606 28607 28608 28609 28610 28611 28612 28613 28614 28615 28616 28617 28618 28619 28620 28621 28622 28623 28624 28625 28626 28627 28628 28629 28630 28631 28632 28633 28634 28635 28636 28637 28638 28639 28640 28641 28642 28643 28644 28645 28646 28647 28648 28649 28650 28651 28652 28653 28654 28655 28656 28657 28658 28659 28660 28661 28662 28663 28664 28665 28666 28667 28668 28669 28670 28671 28672 28673 28674 28675 28676 28677 28678 28679 28680 28681 28682 28683 28684 28685 28686 28687 28688 28689 28690 28691 28692 28693 28694 28695 28696 28697 28698 28699 28700 28701 28702 28703 28704 28705 28706 28707 28708 28709 28710 28711 28712 28713 28714 28715 28716 28717 28718 28719 28720 28721 28722 28723 28724 28725 28726 28727 28728 28729 28730 28731 28732 28733 28734 28735 28736 28737 28738 28739 28740 28741 28742 28743 28744 28745 28746 28747 28748 28749 28750 28751 28752 28753 28754 28755 28756 28757 28758 28759 28760 28761 28762 28763 28764 28765 28766 28767 28768 28769 28770 28771 28772 28773 28774 28775 28776 28777 28778 28779 28780 28781 28782 28783 28784 28785 28786 28787 28788 28789 28790 28791 28792 28793 28794 28795 28796 28797 28798 28799 28800 28801 28802 28803 28804 28805 28806 28807 28808 28809 28810 28811 28812 28813 28814 28815 28816 28817 28818 28819 28820 28821 28822 28823 28824 28825 28826 28827 28828 28829 28830 28831 28832 28833 28834 28835 28836 28837 28838 28839 28840 28841 28842 28843 28844 28845 28846 28847 28848 28849 28850 28851 28852 28853 28854 28855 28856 28857 28858 28859 28860 28861 28862 28863 28864 28865 28866 28867 28868 28869 28870 28871 28872 28873 28874 28875 28876 28877 28878 28879 28880 28881 28882 28883 28884 28885 28886 28887 28888 28889 28890 28891 28892 28893 28894 28895 28896 28897 28898 28899 28900 28901 28902 28903 28904 28905 28906 28907 28908 28909 28910 28911 28912 28913 28914 28915 28916 28917 28918 28919 28920 28921 28922 28923 28924 28925 28926 28927 28928 28929 28930 28931 28932 28933 28934 28935 28936 28937 28938 28939 28940 28941 28942 28943 28944 28945 28946 28947 28948 28949 28950 28951 28952 28953 28954 28955 28956 28957 28958 28959 28960 28961 28962 28963 28964 28965 28966 28967 28968 28969 28970 28971 28972 28973 28974 28975 28976 28977 28978 28979 28980 28981 28982 28983 28984 28985 28986 28987 28988 28989 28990 28991 28992 28993 28994 28995 28996 28997 28998 28999 29000 29001 29002 29003 29004 29005 29006 29007 29008 29009 29010 29011 29012 29013 29014 29015 29016 29017 29018 29019 29020 29021 29022 29023 29024 29025 29026 29027 29028 29029 29030 29031 29032 29033 29034 29035 29036 29037 29038 29039 29040 29041 29042 29043 29044 29045 29046 29047 29048 29049 29050 29051 29052 29053 29054 29055 29056 29057 29058 29059 29060 29061 29062 29063 29064 29065 29066 29067 29068 29069 29070 29071 29072 29073 29074 29075 29076 29077 29078 29079 29080 29081 29082 29083 29084 29085 29086 29087 29088 29089 29090 29091 29092 29093 29094 29095 29096 29097 29098 29099 29100 29101 29102 29103 29104 29105 29106 29107 29108 29109 29110 29111 29112 29113 29114 29115 29116 29117 29118 29119 29120 29121 29122 29123 29124 29125 29126 29127 29128 29129 29130 29131 29132 29133 29134 29135 29136 29137 29138 29139 29140 29141 29142 29143 29144 29145 29146 29147 29148 29149 29150 29151 29152 29153 29154 29155 29156 29157 29158 29159 29160 29161 29162 29163 29164 29165 29166 29167 29168 29169 29170 29171 29172 29173 29174 29175 29176 29177 29178 29179 29180 29181 29182 29183 29184 29185 29186 29187 29188 29189 29190 29191 29192 29193 29194 29195 29196 29197 29198 29199 29200 29201 29202 29203 29204 29205 29206 29207 29208 29209 29210 29211 29212 29213 29214 29215 29216 29217 29218 29219 29220 29221 29222 29223 29224 29225 29226 29227 29228 29229 29230 29231 29232 29233 29234 29235 29236 29237 29238 29239 29240 29241 29242 29243 29244 29245 29246 29247 29248 29249 29250 29251 29252 29253 29254 29255 29256 29257 29258 29259 29260 29261 29262 29263 29264 29265 29266 29267 29268 29269 29270 29271 29272 29273 29274 29275 29276 29277 29278 29279 29280 29281 29282 29283 29284 29285 29286 29287 29288 29289 29290 29291 29292 29293 29294 29295 29296 29297 29298 29299 29300 29301 29302 29303 29304 29305 29306 29307 29308 29309 29310 29311 29312 29313 29314 29315 29316 29317 29318 29319 29320 29321 29322 29323 29324 29325 29326 29327 29328 29329 29330 29331 29332 29333 29334 29335 29336 29337 29338 29339 29340 29341 29342 29343 29344 29345 29346 29347 29348 29349 29350 29351 29352 29353 29354 29355 29356 29357 29358 29359 29360 29361 29362 29363 29364 29365 29366 29367 29368 29369 29370 29371 29372 29373 29374 29375 29376 29377 29378 29379 29380 29381 29382 29383 29384 29385 29386 29387 29388 29389 29390 29391 29392 29393 29394 29395 29396 29397 29398 29399 29400 29401 29402 29403 29404 29405 29406 29407 29408 29409 29410 29411 29412 29413 29414 29415 29416 29417 29418 29419 29420 29421 29422 29423 29424 29425 29426 29427 29428 29429 29430 29431 29432 29433 29434 29435 29436 29437 29438 29439 29440 29441 29442 29443 29444 29445 29446 29447 29448 29449 29450 29451 29452 29453 29454 29455 29456 29457 29458 29459 29460 29461 29462 29463 29464 29465 29466 29467 29468 29469 29470 29471 29472 29473 29474 29475 29476 29477 29478 29479 29480 29481 29482 29483 29484 29485 29486 29487 29488 29489 29490 29491 29492 29493 29494 29495 29496 29497 29498 29499 29500 29501 29502 29503 29504 29505 29506 29507 29508 29509 29510 29511 29512 29513 29514 29515 29516 29517 29518 29519 29520 29521 29522 29523 29524 29525 29526 29527 29528 29529 29530 29531 29532 29533 29534 29535 29536 29537 29538 29539 29540 29541 29542 29543 29544 29545 29546 29547 29548 29549 29550 29551 29552 29553 29554 29555 29556 29557 29558 29559 29560 29561 29562 29563 29564 29565 29566 29567 29568 29569 29570 29571 29572 29573 29574 29575 29576 29577 29578 29579 29580 29581 29582 29583 29584 29585 29586 29587 29588 29589 29590 29591 29592 29593 29594 29595 29596 29597 29598 29599 29600 29601 29602 29603 29604 29605 29606 29607 29608 29609 29610 29611 29612 29613 29614 29615 29616 29617 29618 29619 29620 29621 29622 29623 29624 29625 29626 29627 29628 29629 29630 29631 29632 29633 29634 29635 29636 29637 29638 29639 29640 29641 29642 29643 29644 29645 29646 29647 29648 29649 29650 29651 29652 29653 29654 29655 29656 29657 29658 29659 29660 29661 29662 29663 29664 29665 29666 29667 29668 29669 29670 29671 29672 29673 29674 29675 29676 29677 29678 29679 29680 29681 29682 29683 29684 29685 29686 29687 29688 29689 29690 29691 29692 29693 29694 29695 29696 29697 29698 29699 29700 29701 29702 29703 29704 29705 29706 29707 29708 29709 29710 29711 29712 29713 29714 29715 29716 29717 29718 29719 29720 29721 29722 29723 29724 29725 29726 29727 29728 29729 29730 29731 29732 29733 29734 29735 29736 29737 29738 29739 29740 29741 29742 29743 29744 29745 29746 29747 29748 29749 29750 29751 29752 29753 29754 29755 29756 29757 29758 29759 29760 29761 29762 29763 29764 29765 29766 29767 29768 29769 29770 29771 29772 29773 29774 29775 29776 29777 29778 29779 29780 29781 29782 29783 29784 29785 29786 29787 29788 29789 29790 29791 29792 29793 29794 29795 29796 29797 29798 29799 29800 29801 29802 29803 29804 29805 29806 29807 29808 29809 29810 29811 29812 29813 29814 29815 29816 29817 29818 29819 29820 29821 29822 29823 29824 29825 29826 29827 29828 29829 29830 29831 29832 29833 29834 29835 29836 29837 29838 29839 29840 29841 29842 29843 29844 29845 29846 29847 29848 29849 29850 29851 29852 29853 29854 29855 29856 29857 29858 29859 29860 29861 29862 29863 29864 29865 29866 29867 29868 29869 29870 29871 29872 29873 29874 29875 29876 29877 29878 29879 29880 29881 29882 29883 29884 29885 29886 29887 29888 29889 29890 29891 29892 29893 29894 29895 29896 29897 29898 29899 29900 29901 29902 29903 29904 29905 29906 29907 29908 29909 29910 29911 29912 29913 29914 29915 29916 29917 29918 29919 29920 29921 29922 29923 29924 29925 29926 29927 29928 29929 29930 29931 29932 29933 29934 29935 29936 29937 29938 29939 29940 29941 29942 29943 29944 29945 29946 29947 29948 29949 29950 29951 29952 29953 29954 29955 29956 29957 29958 29959 29960 29961 29962 29963 29964 29965 29966 29967 29968 29969 29970 29971 29972 29973 29974 29975 29976 29977 29978 29979 29980 29981 29982 29983 29984 29985 29986 29987 29988 29989 29990 29991 29992 29993 29994 29995 29996 29997 29998 29999 30000 30001 30002 30003 30004 30005 30006 30007 30008 30009 30010 30011 30012 30013 30014 30015 30016 30017 30018 30019 30020 30021 30022 30023 30024 30025 30026 30027 30028 30029 30030 30031 30032 30033 30034 30035 30036 30037 30038 30039 30040 30041 30042 30043 30044 30045 30046 30047 30048 30049 30050 30051 30052 30053 30054 30055 30056 30057 30058 30059 30060 30061 30062 30063 30064 30065 30066 30067 30068 30069 30070 30071 30072 30073 30074 30075 30076 30077 30078 30079 30080 30081 30082 30083 30084 30085 30086 30087 30088 30089 30090 30091 30092 30093 30094 30095 30096 30097 30098 30099 30100 30101 30102 30103 30104 30105 30106 30107 30108 30109 30110 30111 30112 30113 30114 30115 30116 30117 30118 30119 30120 30121 30122 30123 30124 30125 30126 30127 30128 30129 30130 30131 30132 30133 30134 30135 30136 30137 30138 30139 30140 30141 30142 30143 30144 30145 30146 30147 30148 30149 30150 30151 30152 30153 30154 30155 30156 30157 30158 30159 30160 30161 30162 30163 30164 30165 30166 30167 30168 30169 30170 30171 30172 30173 30174 30175 30176 30177 30178 30179 30180 30181 30182 30183 30184 30185 30186 30187 30188 30189 30190 30191 30192 30193 30194 30195 30196 30197 30198 30199 30200 30201 30202 30203 30204 30205 30206 30207 30208 30209 30210 30211 30212 30213 30214 30215 30216 30217 30218 30219 30220 30221 30222 30223 30224 30225 30226 30227 30228 30229 30230 30231 30232 30233 30234 30235 30236 30237 30238 30239 30240 30241 30242 30243 30244 30245 30246 30247 30248 30249 30250 30251 30252 30253 30254 30255 30256 30257 30258 30259 30260 30261 30262 30263 30264 30265 30266 30267 30268 30269 30270 30271 30272 30273 30274 30275 30276 30277 30278 30279 30280 30281 30282 30283 30284 30285 30286 30287 30288 30289 30290 30291 30292 30293 30294 30295 30296 30297 30298 30299 30300 30301 30302 30303 30304 30305 30306 30307 30308 30309 30310 30311 30312 30313 30314 30315 30316 30317 30318 30319 30320 30321 30322 30323 30324 30325 30326 30327 30328 30329 30330 30331 30332 30333 30334 30335 30336 30337 30338 30339 30340 30341 30342 30343 30344 30345 30346 30347 30348 30349 30350 30351 30352 30353 30354 30355 30356 30357 30358 30359 30360 30361 30362 30363 30364 30365 30366 30367 30368 30369 30370 30371 30372 30373 30374 30375 30376 30377 30378 30379 30380 30381 30382 30383 30384 30385 30386 30387 30388 30389 30390 30391 30392 30393 30394 30395 30396 30397 30398 30399 30400 30401 30402 30403 30404 30405 30406 30407 30408 30409 30410 30411 30412 30413 30414 30415 30416 30417 30418 30419 30420 30421 30422 30423 30424 30425 30426 30427 30428 30429 30430 30431 30432 30433 30434 30435 30436 30437 30438 30439 30440 30441 30442 30443 30444 30445 30446 30447 30448 30449 30450 30451 30452 30453 30454 30455 30456 30457 30458 30459 30460 30461 30462 30463 30464 30465 30466 30467 30468 
</DataArray>
<DataArray type="UInt32" Name="offsets" format="ascii">
3 6 9 12 15 18 21 24 27 29 32 35 37 40 43 46 49 52 55 57 60 62 65 68 70 73 76 79 81 84 87 90 92 95 97 99 102 105 108 110 113 116 119 122 124 126 129 131 134 137 140 143 146 148 151 153 156 159 162 165 167 170 173 176 179 182 185 188 191 194 197 200 203 206 208 211 214 217 219 222 225 228 231 234 237 240 243 246 249 252 255 258 261 263 266 269 272 275 278 280 283 286 288 291 294 297 300 302 305 308 310 313 316 319 322 325 328 330 333 336 339 342 345 348 351 353 356 359 361 364 367 370 373 376 379 382 385 388 391 394 397 400 403 406 409 411 414 417 420 422 425 428 431 433 436 438 441 444 446 449 451 454 457 459 462 465 468 471 474 477 480 483 485 488 491 493 496 499 502 505 508 511 514 517 520 523 525 528 531 534 536 539 542 545 548 551 554 557 560 563 566 569 572 575 577 580 583 586 588 590 593 596 599 602 605 608 611 614 616 619 622 625 628 631 633 636 639 642 645 648 651 654 657 660 663 666 669 672 675 678 681 683 686 689 692 695 698 701 704 707 710 712 715 718 721 724 727 730 733 736 739 741 743 746 749 752 755 758 761 764 767 770 773 776 779 782 785 788 791 794 797 800 803 806 809 812 815 818 821 824 827 830 833 836 839 842 845 848 851 853 856 859 862 865 868 871 874 876 879 882 885 888 891 893 896 899 902 905 908 911 914 917 920 923 926 929 932 935 938 941 944 947 950 953 956 959 962 965 967 970 973 975 977 980 983 986 989 992 995 998 1000 1002 1005 1008 1011 1014 1017 1020 1023 1026 1029 1032 1035 1038 1041 1044 1047 1050 1052 1055 1058 1061 1064 1067 1070 1073 1076 1078 1081 1083 1086 1089 1092 1095 1097 1099 1102 1105 1108 1111 1114 1117 1120 1122 1125 1128 1131 1134 1137 1140 1143 1145 1148 1151 1154 1156 1159 1162 1165 1168 1171 1174 1177 1180 1183 1186 1189 1192 1195 1198 1201 1204 1207 1210 1213 1216 1219 1222 1225 1227 1230 1233 1236 1239 1242 1245 1248 1250 1252 1255 1258 1261 1263 1266 1269 1272 1275 1278 1281 1284 1287 1290 1293 1296 1299 1302 1305 1308 1310 1313 1316 1319 1322 1324 1327 1330 1333 1335 1338 1341 1344 1347 1349 1352 1355 1358 1361 1364 1367 1370 1373 1376 1379 1382 1385 1387 1390 1393 1396 1399 1401 1404 1407 1410 1413 1415 1418 1421 1423 1426 1429 1432 1435 1438 1440 1443 1445 1447 1450 1453 1455 1458 1461 1464 1467 1470 1473 1476 1478 1481 1484 1487 1489 1491 1494 1497 1500 1503 1505 1508 1511 1514 1517 1520 1523 1526 1528 1531 1533 1535 1538 1541 1544 1547 1550 1553 1556 1559 1562 1565 1568 1571 1574 1577 1580 1583 1586 1589 1592 1595 1598 1601 1604 1607 1610 1613 1616 1618 1621 1624 1627 1630 1633 1635 1638 1641 1644 1647 1650 1653 1655 1658 1660 1663 1666 1668 1671 1674 1676 1679 1682 1684 1686 1689 1692 1695 1697 1700 1702 1705 1708 1711 1714 1717 1720 1723 1725 1728 1731 1733 1736 1739 1742 1744 1747 1750 1752 1755 1758 1761 1764 1766 1769 1772 1775 1778 1781 1783 1786 1789 1792 1795 1798 1801 1804 1807 1810 1813 1815 1818 1821 1823 1826 1829 1832 1834 1837 1840 1843 1846 1848 1851 1854 1856 1859 1862 1865 1868 1871 1874 1877 1880 1883 1886 1889 1892 1895 1898 1901 1904 1906 1909 1912 1915 1918 1920 1923 1926 1929 1931 1934 1937 1940 1943 1946 1949 1952 1954 1957 1960 1963 1966 1969 1972 1975 1978 1981 1984 1987 1990 1993 1996 1999 2002 2005 2008 2011 2014 2016 2019 2022 2025 2028 2031 2034 2037 2039 2042 2045 2048 2050 2053 2056 2059 2062 2065 2067 2069 2072 2075 2078 2081 2084 2087 2090 2093 2096 2098 2101 2104 2106 2109 2112 2115 2118 2121 2123 2126 2129 2132 2135 2138 2141 2144 2146 2149 2152 2155 2158 2160 2163 2165 2168 2171 2174 2176 2179 2182 2185 2188 2191 2194 2197 2200 2203 2206 2209 2211 2214 2217 2220 2223 2226 2229 2232 2235 2238 2240 2243 2246 2249 2252 2255 2258 2261 2264 2267 2269 2272 2275 2278 2281 2284 2287 2289 2292 2295 2298 2301 2304 2307 2309 2312 2315 2317 2319 2322 2325 2328 2330 2333 2336 2339 2342 2344 2347 2350 2353 2356 2359 2362 2365 2367 2370 2373 2376 2379 2382 2385 2388 2391 2394 2397 2400 2403 2406 2408 2411 2414 2417 2420 2423 2426 2429 2432 2435 2438 2441 2444 2447 2450 2453 2456 2459 2461 2464 2467 2470 2473 2476 2479 2482 2485 2488 2491 2494 2497 2499 2502 2505 2508 2511 2514 2517 2519 2522 2525 2527 2529 2532 2534 2537 2540 2543 2546 2549 2552 2555 2558 2561 2564 2567 2570 2573 2576 2579 2582 2585 2588 2590 2593 2596 2599 2602 2605 2608 2611 2614 2617 2620 2623 2626 2629 2632 2634 2636 2638 2641 2644 2647 2650 2652 2655 2658 2661 2664 2667 2670 2673 2676 2679 2682 2685 2687 2690 2693 2696 2699 2701 2703 2706 2709 2711 2714 2717 2720 2722 2725 2728 2730 2733 2736 2739 2742 2745 2748 2751 2754 2757 2760 2763 2766 2769 2772 2775 2778 2781 2784 2787 2790 2793 2796 2799 2802 2805 2808 2811 2814 2817 2820 2823 2826 2829 2832 2835 2838 2841 2844 2847 2850 2853 2856 2859 2861 2864 2867 2870 2872 2875 2878 2881 2883 2886 2889 2892 2895 2898 2901 2904 2906 2909 2912 2915 2918 2920 2923 2925 2928 2931 2933 2936 2938 2941 2944 2947 2950 2953 2956 2959 2962 2965 2968 2971 2974 2977 2980 2983 2986 2988 2991 2994 2997 3000 3003 3005 3008 3011 3013 3016 3018 3021 3024 3027 3030 3033 3035 3038 3041 3044 3047 3050 3053 3056 3059 3062 3065 3068 3071 3074 3077 3080 3083 3085 3088 3091 3094 3097 3100 3102 3105 3108 3111 3114 3117 3120 3123 3126 3129 3132 3135 3137 3139 3142 3145 3148 3151 3154 3156 3159 3162 3165 3168 3171 3174 3177 3180 3183 3186 3189 3192 3194 3197 3200 3203 3206 3209 3212 3215 3218 3220 3223 3226 3228 3231 3234 3236 3239 3242 3245 3248 3251 3253 3256 3259 3262 3265 3267 3270 3272 3274 3277 3280 3283 3286 3288 3291 3294 3297 3299 3302 3305 3308 3310 3313 3316 3319 3322 3325 3327 3330 3333 3336 3338 3341 3344 3347 3350 3353 3356 3359 3362 3365 3368 3371 3374 3377 3380 3383 3386 3389 3392 3395 3398 3401 3404 3407 3410 3413 3416 3419 3422 3425 3428 3431 3433 3436 3439 3442 3445 3448 3451 3453 3456 3459 3462 3465 3468 3471 3474 3477 3480 3483 3486 3489 3492 3495 3497 3500 3502 3505 3508 3511 3514 3517 3519 3522 3525 3527 3530 3533 3536 3539 3542 3545 3548 3551 3554 3556 3558 3561 3563 3566 3569 3572 3574 3577 3580 3583 3585 3588 3591 3594 3597 3600 3603 3606 3608 3611 3614 3617 3620 3623 3625 3628 3630 3633 3636 3639 3641 3644 3647 3650 3652 3655 3657 3660 3663 3666 3668 3671 3674 3677 3680 3683 3685 3687 3690 3692 3695 3697 3699 3702 3704 3707 3710 3712 3714 3717 3719 3721 3724 3727 3729 3732 3735 3737 3739 3742 3745 3747 3750 3753 3756 3759 3762 3765 3768 3771 3774 3777 3780 3783 3786 3789 3791 3794 3797 3799 3802 3804 3807 3810 3813 3816 3819 3821 3824 3827 3829 3832 3835 3838 3841 3844 3846 3849 3852 3854 3857 3860 3863 3865 3867 3869 3872 3874 3877 3879 3882 3884 3887 3890 3892 3894 3897 3899 3901 3904 3907 3909 3912 3914 3916 3919 3922 3925 3927 3930 3933 3936 3938 3940 3943 3946 3949 3951 3954 3957 3959 3962 3965 3968 3971 3973 3976 3978 3980 3983 3986 3989 3991 3994 3997 4000 4003 4006 4009 4012 4015 4017 4020 4023 4025 4028 4030 4033 4036 4039 4042 4044 4047 4050 4052 4055 4058 4060 4063 4066 4069 4071 4074 4076 4079 4082 4084 4087 4090 4092 4095 4098 4101 4104 4107 4110 4113 4116 4119 4122 4124 4127 4130 4133 4136 4139 4142 4144 4147 4150 4153 4155 4158 4160 4163 4165 4168 4171 4174 4177 4180 4183 4186 4189 4192 4195 4197 4200 4203 4206 4209 4212 4215 4217 4220 4223 4226 4229 4232 4235 4238 4241 4244 4247 4250 4253 4256 4259 4262 4265 4268 4271 4274 4276 4279 4282 4285 4288 4291 4294 4297 4300 4303 4306 4309 4312 4315 4318 4321 4324 4327 4330 4333 4336 4339 4342 4345 4348 4351 4354 4356 4359 4362 4365 4367 4370 4373 4376 4379 4382 4385 4388 4391 4394 4397 4400 4403 4406 4409 4412 4415 4418 4421 4424 4427 4430 4432 4435 4438 4441 4444 4447 4450 4453 4456 4459 4462 4464 4467 4470 4472 4475 4478 4481 4484 4486 4489 4492 4495 4498 4500 4503 4506 4509 4512 4515 4518 4521 4524 4527 4530 4533 4536 4539 4542 4545 4547 4550 4553 4556 4559 4562 4565 4568 4571 4574 4577 4580 4583 4585 4588 4591 4594 4597 4599 4602 4605 4608 4611 4614 4617 4620 4622 4625 4628 4631 4634 4636 4639 4642 4645 4648 4650 4653 4656 4659 4662 4665 4668 4671 4674 4677 4679 4682 4685 4688 4690 4693 4695 4698 4701 4704 4707 4710 4713 4716 4719 4722 4725 4728 4731 4734 4737 4740 4743 4746 4749 4752 4755 4758 4761 4764 4767 4770 4773 4775 4778 4781 4784 4787 4790 4793 4796 4798 4801 4804 4807 4810 4812 4815 4818 4821 4824 4827 4830 4833 4836 4839 4842 4845 4848 4851 4854 4857 4859 4862 4865 4868 4871 4873 4876 4879 4882 4885 4888 4891 4894 4896 4899 4902 4905 4908 4911 4914 4917 4920 4923 4926 4929 4932 4935 4938 4941 4944 4947 4950 4953 4956 4959 4962 4965 4968 4971 4974 4977 4980 4983 4986 4989 4992 4995 4998 5001 5004 5007 5010 5013 5016 5019 5022 5025 5028 5031 5034 5037 5040 5043 5046 5049 5052 5055 5058 5061 5064 5067 5070 5073 5076 5079 5082 5084 5087 5090 5093 5096 5099 5101 5104 5107 5110 5113 5116 5119 5122 5125 5128 5131 5134 5137 5139 5142 5145 5148 5151 5153 5156 5159 5162 5164 5167 5170 5173 5176 5179 5181 5184 5187 5190 5193 5195 5197 5199 5202 5205 5208 5211 5214 5217 5219 5221 5224 5227 5229 5232 5235 5238 5241 5244 5246 5248 5251 5253 5256 5259 5262 5265 5268 5270 5273 5275 5277 5280 5283 5286 5289 5292 5295 5298 5301 5304 5307 5310 5313 5316 5319 5322 5325 5328 5331 5334 5337 5339 5342 5345 5348 5351 5354 5357 5360 5363 5365 5368 5371 5373 5376 5379 5382 5385 5388 5390 5392 5395 5398 5401 5404 5406 5408 5411 5413 5416 5419 5422 5425 5427 5430 5433 5436 5439 5442 5444 5447 5450 5453 5456 5458 5461 5464 5467 5470 5473 5476 5479 5482 5485 5488 5491 5493 5496 5499 5501 5504 5506 5509 5512 5515 5518 5521 5524 5527 5530 5533 5536 5539 5542 5545 5548 5551 5554 5556 5558 5560 5563 5566 5568 5571 5574 5577 5580 5583 5586 5589 5592 5595 5598 5601 5604 5607 5610 5613 5616 5619 5622 5625 5628 5631 5634 5637 5640 5643 5646 5649 5652 5655 5658 5661 5664 5667 5670 5673 5675 5678 5681 5684 5687 5690 5693 5696 5699 5701 5704 5707 5710 5713 5716 5719 5722 5725 5727 5730 5733 5736 5739 5742 5745 5748 5751 5753 5756 5759 5762 5765 5768 5771 5774 5777 5780 5783 5785 5788 5791 5794 5796 5799 5802 5805 5808 5811 5813 5816 5819 5822 5825 5827 5830 5833 5836 5839 5842 5845 5847 5850 5853 5856 5858 5861 5864 5866 5869 5872 5874 5876 5879 5882 5884 5886 5889 5892 5894 5897 5900 5903 5906 5908 5911 5913 5916 5919 5922 5924 5926 5929 5932 5935 5938 5941 5944 5947 5950 5953 5956 5959 5962 5965 5968 5971 5974 5977 5980 5983 5986 5989 5992 5995 5998 6001 6004 6007 6010 6013 6016 6019 6022 6025 6028 6031 6034 6037 6040 6043 6046 6049 6052 6055 6058 6061 6064 6067 6070 6072 6075 6078 6081 6084 6087 6090 6093 6096 6099 6102 6105 6108 6111 6114 6117 6120 6123 6126 6129 6132 6134 6137 6140 6143 6146 6149 6152 6155 6158 6161 6164 6166 6169 6172 6175 6178 6180 6183 6186 6189 6192 6195 6198 6201 6204 6207 6210 6213 6215 6218 6221 6224 6227 6229 6232 6234 6237 6240 6243 6245 6248 6250 6252 6255 6258 6260 6263 6266 6269 6272 6275 6277 6280 6283 6286 6289 6292 6295 6298 6301 6304 6307 6310 6313 6315 6318 6321 6323 6326 6329 6332 6335 6338 6341 6344 6346 6349 6352 6355 6357 6360 6363 6366 6369 6372 6375 6378 6380 6383 6386 6389 6392 6394 6397 6400 6402 6404 6407 6410 6413 6416 6418 6421 6424 6427 6430 6433 6436 6439 6442 6445 6448 6451 6454 6457 6460 6463 6466 6469 6472 6475 6478 6481 6484 6487 6490 6493 6495 6497 6500 6503 6506 6509 6512 6515 6518 6521 6524 6527 6530 6533 6536 6538 6540 6542 6545 6548 6550 6552 6555 6558 6561 6564 6567 6569 6572 6575 6578 6580 6583 6586 6589 6592 6595 6597 6600 6603 6606 6608 6611 6614 6617 6620 6623 6626 6629 6632 6635 6637 6640 6643 6646 6648 6651 6653 6656 6659 6661 6664 6666 6669 6672 6675 6678 6680 6683 6686 6688 6691 6694 6697 6700 6703 6705 6708 6711 6713 6716 6718 6721 6723 6726 6729 6732 6735 6738 6741 6744 6746 6749 6752 6755 6758 6761 6764 6767 6770 6773 6776 6779 6782 6785 6788 6790 6793 6795 6798 6801 6804 6807 6810 6812 6815 6817 6820 6823 6825 6828 6831 6834 6837 6840 6842 6845 6848 6851 6854 6856 6859 6861 6864 6866 6869 6872 6874 6877 6880 6883 6886 6888 6891 6893 6896 6899 6902 6905 6907 6909 6911 6914 6917 6919 6922 6925 6927 6929 6932 6935 6938 6940 6943 6946 6948 6950 6953 6956 6959 6962 6964 6967 6970 6973 6976 6979 6982 6985 6988 6991 6994 6997 7000 7002 7005 7008 7010 7013 7016 7019 7022 7025 7028 7031 7034 7037 7040 7043 7046 7049 7052 7055 7058 7061 7064 7067 7070 7073 7076 7079 7082 7085 7088 7091 7093 7096 7099 7102 7105 7108 7111 7114 7117 7120 7123 7126 7129 7132 7135 7138 7141 7144 7147 7150 7153 7156 7159 7162 7165 7168 7171 7174 7177 7180 7183 7186 7189 7192 7195 7198 7201 7203 7206 7209 7212 7215 7218 7220 7222 7225 7228 7231 7234 7237 7240 7242 7245 7248 7251 7254 7257 7260 7262 7265 7267 7270 7272 7275 7278 7281 7284 7287 7290 7293 7296 7299 7302 7305 7308 7311 7314 7317 7320 7323 7326 7329 7332 7335 7338 7340 7343 7346 7349 7352 7355 7358 7361 7364 7367 7370 7373 7376 7379 7381 7384 7387 7390 7393 7396 7399 7401 7404 7407 7410 7413 7416 7419 7422 7425 7428 7430 7433 7436 7438 7441 7444 7447 7450 7453 7456 7459 7461 7464 7467 7470 7473 7476 7478 7481 7484 7486 7489 7492 7494 7497 7499 7502 7505 7507 7510 7512 7515 7518 7520 7522 7525 7528 7530 7532 7535 7537 7540 7542 7545 7548 7551 7554 7556 7559 7561 7564 7567 7570 7573 7576 7579 7582 7585 7588 7591 7594 7597 7600 7602 7605 7608 7610 7612 7615 7618 7621 7623 7626 7629 7632 7635 7638 7640 7643 7645 7648 7651 7654 7657 7660 7663 7666 7669 7672 7675 7677 7680 7682 7685 7688 7690 7693 7696 7699 7701 7703 7705 7708 7711 7714 7716 7719 7722 7725 7728 7730 7733 7736 7739 7741 7744 7747 7750 7753 7756 7758 7761 7764 7767 7770 7773 7776 7779 7782 7785 7788 7791 7794 7797 7800 7803 7806 7808 7811 7814 7816 7819 7822 7825 7828 7831 7834 7837 7840 7843 7846 7849 7852 7855 7858 7861 7864 7867 7870 7873 7876 7878 7880 7883 7885 7888 7891 7894 7897 7900 7903 7906 7909 7912 7915 7918 7920 7923 7926 7929 7932 7935 7938 7941 7944 7947 7950 7953 7955 7958 7961 7964 7967 7970 7972 7974 7977 7980 7983 7985 7988 7991 7993 7996 7999 8001 8003 8005 8008 8011 8014 8017 8020 8022 8025 8028 8031 8034 8037 8039 8042 8045 8048 8051 8054 8057 8060 8062 8065 8068 8071 8074 8077 8079 8082 8085 8087 8090 8093 8096 8099 8102 8105 8107 8109 8112 8115 8118 8121 8124 8126 8129 8131 8134 8136 8139 8142 8145 8147 8150 8153 8156 8158 8161 8164 8166 8169 8172 8175 8178 8181 8184 8186 8189 8192 8195 8198 8201 8204 8207 8210 8213 8216 8219 8222 8225 8228 8231 8234 8237 8239 8242 8245 8248 8250 8253 8256 8259 8262 8265 8268 8270 8273 8276 8278 8281 8284 8287 8290 8292 8295 8298 8301 8304 8307 8310 8313 8316 8319 8322 8325 8328 8331 8334 8337 8340 8343 8346 8349 8351 8354 8357 8360 8362 8364 8367 8370 8373 8375 8378 8381 8384 8386 8389 8392 8394 8397 8400 8403 8406 8409 8412 8415 8418 8421 8424 8427 8430 8433 8436 8439 8442 8445 8448 8451 8454 8457 8460 8462 8465 8468 8471 8473 8476 8479 8482 8485 8488 8491 8494 8497 8500 8503 8506 8509 8512 8515 8518 8521 8524 8527 8530 8533 8536 8538 8541 8544 8547 8549 8552 8555 8558 8561 8564 8567 8570 8573 8576 8579 8582 8585 8588 8590 8592 8594 8597 8599 8601 8604 8607 8610 8613 8616 8619 8621 8624 8626 8628 8631 8634 8637 8640 8643 8646 8648 8651 8654 8656 8659 8661 8664 8666 8669 8672 8675 8678 8681 8684 8687 8690 8693 8695 8698 8701 8704 8707 8710 8713 8715 8717 8720 8723 8726 8729 8732 8735 8738 8741 8744 8747 8750 8753 8756 8759 8762 8765 8768 8771 8774 8777 8780 8783 8785 8788 8791 8794 8797 8799 8802 8804 8807 8810 8813 8816 8819 8821 8824 8827 8830 8833 8836 8839 8842 8844 8847 8850 8853 8855 8858 8861 8864 8867 8870 8873 8876 8879 8882 8885 8888 8891 8894 8897 8900 8903 8906 8909 8912 8915 8918 8921 8924 8927 8929 8932 8935 8938 8941 8943 8946 8949 8952 8955 8958 8961 8964 8967 8970 8973 8976 8979 8982 8985 8988 8991 8994 8997 9000 9003 9006 9009 9012 9015 9018 9021 9024 9027 9030 9032 9035 9038 9041 9044 9046 9049 9051 9054 9057 9060 9063 9066 9069 9072 9075 9077 9080 9083 9085 9088 9091 9094 9097 9100 9103 9106 9109 9112 9115 9118 9121 9124 9127 9130 9133 9136 9139 9142 9145 9148 9151 9154 9157 9160 9163 9166 9169 9172 9175 9178 9181 9184 9187 9190 9193 9196 9199 9202 9204 9207 9210 9213 9216 9219 9222 9225 9228 9231 9234 9237 9240 9243 9245 9248 9251 9254 9257 9260 9263 9266 9269 9272 9275 9277 9280 9283 9286 9288 9290 9293 9296 9299 9301 9304 9307 9310 9313 9316 9319 9322 9325 9328 9331 9334 9337 9340 9343 9346 9349 9351 9354 9357 9360 9363 9365 9368 9371 9374 9377 9380 9383 9386 9389 9392 9395 9398 9401 9404 9407 9410 9413 9415 9418 9421 9424 9427 9430 9433 9436 9439 9442 9445 9448 9451 9454 9457 9460 9463 9465 9468 9471 9474 9477 9480 9483 9486 9489 9492 9495 9498 9501 9503 9506 9509 9511 9514 9517 9520 9523 9526 9529 9532 9535 9537 9540 9542 9545 9548 9551 9554 9557 9560 9563 9566 9569 9572 9575 9578 9581 9583 9586 9589 9592 9595 9597 9600 9603 9606 9609 9612 9615 9618 9620 9623 9626 9628 9631 9634 9637 9640 9643 9646 9649 9652 9655 9657 9660 9663 9666 9669 9672 9675 9678 9681 9683 9686 9689 9692 9694 9697 9700 9703 9706 9709 9712 9715 9718 9721 9724 9727 9730 9733 9736 9739 9742 9745 9748 9750 9753 9756 9759 9762 9765 9768 9771 9773 9776 9779 9781 9784 9787 9790 9793 9796 9799 9802 9805 9808 9811 9814 9817 9820 9823 9826 9829 9832 9835 9838 9841 9844 9847 9850 9853 9856 9859 9862 9865 9868 9871 9874 9876 9879 9882 9885 9888 9890 9893 9896 9899 9901 9904 9907 9910 9913 9916 9918 9921 9924 9927 9930 9933 9936 9939 9942 9945 9948 9951 9954 9957 9960 9963 9966 9969 9972 9975 9977 9980 9983 9986 9989 9992 9995 9998 10001 10004 10007 10010 10013 10015 10018 10021 10024 10027 10030 10033 10036 10039 10042 10045 10048 10051 10054 10057 10060 10063 10066 10069 10072 10075 10078 10080 10083 10086 10089 10092 10095 10098 10101 10103 10106 10108 10111 10114 10117 10120 10123 10126 10129 10132 10135 10138 10141 10144 10147 10150 10153 10156 10159 10162 10165 10167 10170 10173 10176 10179 10182 10185 10188 10191 10194 10197 10200 10203 10206 10209 10212 10215 10218 10221 10224 10227 10230 10233 10235 10238 10241 10244 10247 10250 10253 10256 10259 10262 10265 10268 10271 10274 10277 10280 10282 10285 10288 10291 10294 10297 10300 10303 10306 10309 10312 10314 10317 10320 10323 10326 10329 10332 10334 10337 10340 10343 10346 10349 10351 10354 10357 10360 10363 10365 10368 10371 10374 10376 10379 10382 10384 10387 10390 10393 10396 10399 10402 10405 10408 10411 10414 10417 10420 10422 10425 10428 10431 10434 10437 10440 10442 10445 10448 10451 10453 10456 10458 10461 10463 10466 10469 10472 10475 10478 10481 10484 10486 10489 10491 10494 10497 10500 10503 10506 10509 10512 10515 10518 10521 10524 10527 10530 10533 10536 10539 10542 10545 10548 10551 10554 10557 10560 10563 10565 10568 10571 10574 10577 10580 10583 10586 10589 10592 10595 10598 10601 10604 10607 10610 10613 10616 10619 10622 10624 10626 10629 10632 10635 10638 10641 10644 10647 10650 10652 10654 10657 10660 10663 10666 10669 10672 10675 10678 10680 10683 10686 10688 10691 10694 10697 10700 10702 10705 10708 10711 10714 10716 10718 10721 10724 10727 10730 10733 10735 10737 10740 10743 10745 10748 10751 10754 10757 10760 10763 10766 10769 10772 10775 10778 10781 10784 10787 10790 10793 10796 10799 10802 10805 10808 10811 10814 10817 10820 10823 10826 10829 10832 10835 10838 10841 10843 10846 10849 10852 10854 10857 10860 10863 10866 10869 10871 10874 10876 10879 10882 10885 10888 10891 10894 10897 10900 10903 10905 10908 10911 10914 10917 10920 10923 10926 10929 10932 10935 10938 10941 10944 10947 10950 10953 10956 10959 10962 10965 10968 10971 10974 10977 10980 10982 10985 10987 10990 10992 10995 10998 11001 11003 11006 11009 11012 11015 11018 11021 11024 11027 11029 11032 11035 11038 11041 11044 11047 11050 11053 11056 11059 11062 11065 11067 11070 11073 11076 11079 11082 11085 11088 11091 11094 11097 11100 11102 11105 11108 11111 11114 11117 11120 11123 11126 11129 11132 11135 11138 11141 11144 11147 11150 11153 11156 11159 11162 11165 11168 11171 11174 11177 11180 11182 11185 11187 11190 11193 11195 11198 11201 11204 11207 11210 11212 11215 11218 11221 11224 11227 11230 11233 11236 11238 11241 11244 11247 11250 11253 11256 11259 11261 11264 11267 11269 11272 11275 11278 11281 11284 11287 11290 11293 11296 11298 11301 11304 11307 11310 11313 11316 11319 11321 11324 11327 11329 11332 11335 11338 11341 11344 11347 11349 11352 11354 11357 11360 11363 11366 11369 11372 11375 11378 11381 11384 11387 11390 11392 11395 11398 11401 11404 11406 11409 11412 11415 11418 11421 11424 11427 11429 11432 11435 11438 11441 11443 11446 11449 11451 11454 11457 11459 11462 11465 11468 11471 11474 11477 11480 11483 11486 11489 11492 11495 11498 11501 11504 11507 11510 11513 11516 11519 11522 11525 11528 11530 11533 11535 11538 11541 11544 11547 11550 11552 11555 11558 11561 11564 11567 11570 11572 11575 11578 11581 11584 11587 11589 11592 11595 11598 11600 11603 11606 11609 11612 11614 11617 11620 11622 11624 11626 11628 11631 11634 11637 11640 11642 11645 11648 11651 11654 11657 11660 11663 11666 11669 11672 11675 11677 11680 11683 11686 11689 11691 11694 11697 11700 11703 11706 11709 11712 11715 11718 11721 11724 11727 11730 11733 11736 11739 11742 11745 11747 11750 11753 11756 11759 11762 11765 11767 11770 11773 11775 11778 11781 11783 11786 11789 11792 11795 11798 11801 11804 11807 11809 11812 11815 11818 11821 11823 11826 11829 11832 11835 11838 11841 11844 11847 11850 11853 11856 11859 11862 11865 11868 11871 11874 11877 11879 11881 11883 11886 11889 11891 11894 11897 11900 11902 11905 11908 11911 11914 11917 11920 11923 11926 11929 11932 11935 11938 11941 11944 11946 11949 11951 11954 11957 11960 11962 11965 11968 11971 11974 11977 11980 11983 11986 11989 11992 11995 11998 12001 12004 12006 12009 12012 12015 12017 12019 12022 12025 12028 12031 12034 12037 12040 12043 12046 12049 12052 12055 12058 12061 12064 12067 12070 12073 12076 12079 12082 12085 12088 12091 12094 12097 12100 12102 12105 12107 12110 12113 12115 12118 12121 12123 12126 12129 12132 12135 12137 12139 12142 12145 12148 12151 12154 12157 12160 12163 12165 12168 12171 12174 12177 12180 12183 12186 12189 12192 12195 12198 12201 12204 12207 12210 12213 12216 12218 12221 12223 12226 12229 12232 12235 12238 12241 12244 12247 12250 12253 12256 12259 12262 12265 12268 12271 12274 12277 12280 12283 12286 12289 12291 12294 12297 12300 12303 12306 12309 12312 12315 12318 12321 12324 12327 12330 12333 12336 12339 12341 12344 12347 12350 12353 12356 12359 12361 12364 12366 12369 12372 12375 12378 12381 12384 12387 12389 12392 12394 12397 12399 12402 12405 12408 12411 12414 12417 12419 12422 12424 12427 12430 12433 12436 12439 12442 12445 12448 12451 12454 12457 12460 12463 12465 12468 12471 12474 12477 12480 12483 12485 12488 12491 12494 12497 12499 12502 12505 12507 12510 12512 12515 12518 12520 12522 12525 12528 12531 12534 12537 12539 12542 12545 12548 12550 12553 12556 12559 12562 12565 12568 12571 12574 12576 12579 12582 12585 12588 12591 12594 12597 12600 12603 12606 12609 12612 12615 12618 12621 12624 12627 12630 12633 12636 12639 12642 12645 12648 12651 12654 12656 12659 12661 12663 12666 12669 12672 12675 12678 12681 12684 12686 12689 12692 12695 12698 12700 12702 12704 12706 12709 12712 12715 12718 12720 12723 12725 12728 12731 12734 12736 12738 12741 12744 12747 12749 12752 12754 12757 12760 12763 12766 12769 12772 12775 12777 12780 12783 12786 12788 12791 12794 12797 12799 12802 12804 12807 12810 12813 12815 12817 12820 12823 12825 12828 12831 12833 12835 12838 12841 12843 12846 12849 12852 12855 12857 12859 12862 12865 12868 12871 12874 12876 12879 12881 12884 12887 12890 12893 12896 12899 12901 12904 12907 12910 12913 12916 12919 12921 12924 12927 12930 12932 12935 12938 12941 12944 12947 12950 12953 12956 12959 12962 12965 12968 12971 12974 12976 12978 12980 12983 12985 12988 12991 12994 12997 12999 13002 13005 13008 13011 13014 13017 13020 13023 13026 13029 13032 13035 13038 13041 13044 13047 13050 13053 13056 13059 13062 13064 13067 13070 13073 13075 13078 13080 13083 13085 13088 13091 13094 13096 13099 13102 13105 13108 13111 13114 13117 13120 13123 13126 13129 13131 13134 13137 13140 13142 13145 13148 13151 13154 13156 13159 13162 13165 13167 13170 13172 13174 13177 13179 13182 13185 13188 13191 13194 13197 13200 13203 13206 13209 13212 13215 13218 13221 13224 13227 13230 13233 13236 13239 13242 13244 13246 13249 13252 13255 13258 13260 13263 13266 13268 13271 13274 13277 13280 13283 13286 13289 13292 13295 13298 13300 13303 13306 13309 13311 13314 13316 13318 13321 13324 13327 13330 13333 13336 13339 13342 13345 13347 13350 13352 13355 13358 13360 13363 13365 13368 13370 13373 13376 13378 13381 13384 13387 13389 13392 13395 13398 13401 13404 13407 13410 13413 13415 13418 13421 13424 13427 13429 13432 13435 13438 13441 13444 13447 13449 13452 13455 13457 13460 13462 13465 13468 13471 13474 13476 13478 13481 13484 13487 13489 13492 13494 13497 13500 13503 13505 13508 13511 13514 13516 13519 13522 13525 13528 13531 13534 13537 13540 13543 13546 13549 13552 13555 13558 13561 13564 13567 13570 13573 13576 13579 13582 13585 13588 13591 13593 13595 13598 13601 13604 13607 13610 13613 13615 13618 13621 13624 13626 13629 13632 13635 13637 13640 13642 13644 13647 13650 13653 13656 13659 13662 13665 13668 13671 13674 13677 13680 13683 13685 13687 13690 13693 13696 13698 13701 13704 13707 13710 13713 13716 13719 13722 13725 13728 13731 13734 13737 13740 13742 13745 13748 13750 13753 13755 13758 13760 13763 13766 13769 13772 13775 13778 13781 13784 13787 13789 13792 13795 13798 13801 13804 13806 13809 13812 13815 13817 13820 13823 13826 13829 13832 13834 13837 13840 13842 13845 13848 13851 13854 13857 13860 13863 13866 13868 13871 13874 13876 13879 13881 13884 13887 13889 13891 13894 13896 13899 13901 13904 13907 13910 13913 13916 13918 13921 13923 13926 13928 13931 13934 13937 13940 13942 13944 13947 13949 13952 13954 13957 13960 13963 13966 13968 13970 13973 13976 13979 13982 13985 13987 13990 13993 13996 13998 14001 14003 14005 14008 14010 14013 14016 14019 14022 14025 14028 14030 14033 14036 14039 14042 14044 14047 14050 14053 14056 14058 14060 14063 14066 14069 14072 14075 14078 14081 14084 14087 14090 14093 14096 14098 14101 14104 14107 14110 14113 14116 14119 14122 14125 14128 14131 14134 14137 14140 14143 14146 14148 14151 14154 14157 14159 14162 14165 14168 14171 14173 14175 14178 14181 14184 14187 14190 14192 14195 14198 14200 14203 14206 14209 14211 14214 14216 14219 14221 14223 14226 14228 14231 14234 14237 14239 14242 14245 14247 14249 14252 14255 14258 14260 14262 14265 14267 14270 14273 14275 14278 14281 14284 14287 14289 14292 14295 14298 14301 14304 14307 14310 14313 14315 14317 14320 14323 14326 14329 14332 14334 14337 14339 14342 14345 14348 14351 14354 14357 14360 14363 14366 14369 14372 14374 14376 14379 14382 14385 14388 14391 14394 14397 14400 14402 14405 14408 14410 14413 14416 14419 14422 14424 14427 14429 14432 14435 14438 14441 14444 14447 14450 14453 14456 14458 14461 14464 14467 14470 14473 14476 14479 14482 14485 14488 14491 14494 14497 14500 14503 14506 14509 14512 14515 14518 14521 14524 14527 14530 14533 14536 14538 14541 14544 14547 14550 14553 14556 14559 14562 14565 14567 14570 14573 14575 14578 14581 14584 14587 14590 14593 14596 14599 14602 14605 14608 14611 14614 14617 14620 14623 14625 14628 14630 14633 14636 14639 14642 14645 14647 14650 14653 14656 14658 14661 14664 14666 14669 14672 14675 14678 14681 14684 14687 14690 14693 14696 14699 14702 14705 14708 14711 14714 14717 14719 14722 14725 14728 14731 14734 14737 14740 14743 14746 14749 14751 14754 14757 14760 14763 14766 14769 14772 14775 14778 14781 14784 14787 14790 14793 14796 14799 14802 14805 14808 14811 14814 14817 14820 14823 14826 14828 14831 14834 14837 14840 14843 14846 14849 14852 14855 14858 14861 14864 14867 14870 14873 14876 14879 14882 14885 14888 14891 14894 14897 14900 14903 14906 14908 14910 14913 14916 14919 14921 14924 14926 14929 14931 14933 14936 14939 14942 14945 14948 14951 14954 14957 14959 14962 14964 14967 14970 14972 14975 14978 14980 14983 14986 14989 14992 14995 14998 15001 15004 15007 15010 15013 15016 15019 15022 15025 15028 15031 15034 15037 15040 15043 15046 15049 15052 15055 15058 15061 15064 15067 15070 15073 15076 15079 15082 15085 15088 15091 15093 15095 15098 15101 15104 15107 15110 15113 15116 15119 15121 15123 15126 15129 15132 15135 15138 15141 15144 15147 15150 15153 15156 15159 15162 15165 15168 15171 15174 15177 15180 15183 15185 15187 15190 15193 15196 15198 15201 15204 15207 15210 15213 15216 15218 15221 15224 15227 15230 15233 15236 15239 15242 15245 15248 15251 15253 15256 15259 15261 15264 15267 15269 15272 15275 15278 15281 15284 15287 15290 15293 15296 15299 15302 15305 15308 15310 15313 15315 15318 15321 15324 15327 15329 15332 15335 15337 15340 15342 15345 15347 15350 15353 15355 15358 15361 15363 15366 15369 15372 15375 15378 15381 15384 15387 15390 15393 15396 15399 15402 15405 15408 15411 15414 15417 15420 15423 15426 15429 15432 15435 15438 15441 15443 15446 15449 15451 15454 15457 15460 15463 15466 15469 15471 15474 15477 15480 15483 15486 15489 15492 15495 15498 15501 15503 15506 15509 15512 15515 15518 15521 15524 15527 15530 15533 15536 15538 15541 15544 15547 15549 15551 15554 15557 15560 15563 15566 15569 15571 15574 15577 15580 15582 15585 15588 15590 15593 15596 15598 15601 15603 15606 15609 15612 15615 15618 15621 15624 15626 15629 15632 15634 15636 15639 15642 15645 15647 15649 15652 15654 15657 15659 15662 15665 15668 15670 15673 15676 15679 15681 15683 15686 15689 15692 15695 15697 15700 15703 15706 15709 15711 15713 15716 15719 15722 15724 15726 15729 15732 15735 15738 15741 15743 15746 15749 15752 15754 15756 15759 15762 15765 15768 15770 15773 15776 15779 15782 15785 15788 15791 15794 15797 15800 15803 15806 15809 15812 15815 15817 15819 15822 15825 15828 15831 15834 15836 15839 15842 15845 15848 15851 15853 15855 15858 15861 15864 15867 15870 15873 15875 15878 15881 15884 15887 15890 15893 15896 15899 15902 15905 15908 15911 15913 15916 15918 15921 15924 15927 15930 15933 15936 15939 15941 15944 15947 15949 15952 15954 15957 15960 15963 15966 15969 15971 15974 15977 15980 15982 15985 15988 15991 15994 15997 16000 16002 16005 16008 16011 16014 16017 16020 16023 16026 16029 16032 16035 16038 16041 16044 16047 16050 16053 16056 16059 16062 16065 16067 16070 16072 16075 16078 16080 16083 16086 16089 16092 16095 16098 16100 16103 16106 16109 16112 16115 16118 16121 16124 16127 16130 16133 16136 16139 16142 16145 16147 16150 16153 16156 16159 16162 16165 16168 16170 16173 16176 16178 16181 16184 16187 16190 16193 16196 16199 16202 16205 16208 16211 16214 16217 16220 16223 16226 16229 16232 16235 16238 16241 16244 16247 16250 16253 16256 16259 16262 16265 16268 16271 16274 16277 16280 16283 16286 16289 16292 16295 16298 16300 16302 16305 16308 16311 16314 16317 16320 16323 16326 16328 16331 16333 16336 16338 16340 16343 16345 16348 16351 16354 16357 16359 16362 16365 16368 16371 16374 16377 16380 16383 16386 16389 16392 16395 16398 16401 16404 16407 16410 16413 16416 16419 16422 16425 16428 16431 16434 16437 16440 16443 16446 16449 16452 16455 16457 16460 16463 16466 16469 16471 16473 16476 16479 16482 16485 16488 16491 16494 16497 16500 16503 16506 16509 16512 16515 16518 16521 16524 16527 16529 16532 16535 16538 16541 16544 16547 16549 16552 16554 16556 16559 16561 16563 16566 16569 16572 16575 16577 16579 16582 16585 16588 16591 16594 16597 16600 16603 16606 16609 16612 16615 16618 16621 16624 16627 16630 16633 16636 16639 16642 16645 16648 16651 16654 16657 16660 16663 16666 16669 16672 16675 16678 16681 16684 16687 16690 16693 16696 16699 16702 16704 16707 16709 16712 16715 16717 16720 16723 16726 16728 16730 16733 16735 16738 16741 16744 16747 16750 16753 16755 16758 16761 16764 16766 16769 16772 16775 16777 16780 16783 16785 16787 16789 16792 16795 16798 16800 16803 16806 16809 16811 16814 16817 16820 16823 16825 16828 16831 16834 16837 16840 16843 16845 16848 16851 16854 16857 16860 16863 16866 16869 16872 16875 16878 16880 16883 16886 16889 16892 16895 16897 16900 16903 16906 16909 16911 16914 16917 16920 16923 16926 16929 16932 16935 16938 16941 16944 16947 16950 16953 16956 16958 16961 16964 16967 16970 16973 16976 16979 16982 16985 16988 16991 16994 16997 17000 17003 17006 17009 17012 17015 17018 17021 17024 17027 17030 17033 17036 17038 17041 17044 17047 17050 17053 17056 17059 17062 17065 17068 17071 17074 17077 17080 17083 17086 17089 17091 17094 17097 17100 17103 17106 17109 17112 17115 17118 17121 17124 17127 17130 17132 17134 17137 17140 17142 17145 17147 17150 17153 17156 17159 17162 17165 17168 17171 17174 17177 17180 17183 17186 17188 17191 17194 17197 17200 17203 17205 17208 17211 17214 17217 17220 17223 17226 17229 17232 17235 17238 17241 17244 17247 17250 17253 17256 17259 17262 17265 17268 17271 17274 17277 17280 17283 17286 17289 17292 17294 17297 17300 17303 17306 17309 17312 17315 17318 17321 17324 17326 17329 17332 17335 17338 17341 17344 17347 17350 17353 17356 17359 17362 17365 17368 17371 17374 17377 17380 17383 17386 17389 17392 17395 17398 17401 17404 17407 17410 17413 17416 17419 17422 17425 17428 17431 17434 17437 17439 17442 17445 17448 17450 17453 17456 17459 17462 17465 17468 17471 17474 17476 17479 17482 17485 17488 17491 17494 17496 17499 17502 17504 17507 17510 17513 17516 17519 17522 17525 17528 17531 17534 17537 17540 17543 17546 17549 17552 17554 17557 17560 17563 17565 17568 17571 17574 17577 17580 17583 17586 17589 17592 17595 17598 17601 17604 17607 17610 17612 17615 17618 17620 17623 17626 17629 17632 17635 17638 17641 17644 17647 17650 17653 17656 17658 17661 17663 17666 17669 17672 17675 17677 17680 17683 17685 17688 17691 17693 17695 17697 17700 17703 17706 17709 17712 17715 17718 17720 17723 17726 17729 17732 17735 17738 17740 17743 17746 17749 17751 17754 17756 17759 17762 17765 17768 17771 17774 17777 17780 17783 17786 17789 17792 17795 17798 17801 17804 17807 17810 17812 17815 17817 17820 17823 17826 17828 17831 17833 17836 17839 17841 17844 17847 17850 17853 17856 17858 17861 17864 17867 17869 17872 17875 17878 17881 17884 17887 17890 17893 17896 17899 17902 17905 17908 17911 17914 17917 17920 17923 17926 17928 17931 17934 17936 17939 17941 17944 17947 17949 17952 17955 17958 17960 17963 17966 17969 17972 17974 17977 17980 17983 17986 17989 17992 17995 17997 18000 18003 18005 18008 18011 18013 18016 18019 18022 18024 18027 18030 18033 18036 18038 18041 18044 18047 18050 18053 18056 18059 18062 18064 18067 18070 18073 18076 18079 18082 18084 18087 18090 18093 18096 18099 18101 18104 18107 18110 18113 18116 18119 18121 18124 18127 18130 18133 18136 18139 18142 18145 18147 18150 18153 18156 18159 18162 18165 18168 18171 18174 18177 18180 18183 18186 18189 18192 18195 18198 18201 18204 18207 18210 18213 18216 18219 18222 18224 18227 18229 18231 18234 18237 18240 18243 18246 18249 18251 18254 18257 18260 18263 18266 18269 18272 18275 18278 18281 18284 18287 18289 18292 18295 18298 18301 18304 18307 18310 18313 18316 18318 18321 18324 18327 18329 18332 18335 18337 18339 18342 18345 18348 18351 18354 18357 18360 18363 18366 18369 18372 18375 18378 18381 18384 18387 18390 18393 18396 18399 18402 18404 18407 18410 18413 18416 18418 18421 18424 18427 18430 18432 18435 18437 18440 18443 18446 18449 18451 18454 18457 18460 18463 18466 18469 18471 18474 18477 18480 18483 18486 18489 18492 18495 18497 18500 18502 18505 18508 18511 18513 18516 18519 18522 18524 18527 18529 18532 18535 18537 18540 18543 18546 18548 18550 18553 18556 18559 18562 18564 18567 18570 18572 18575 18578 18581 18583 18586 18589 18592 18595 18598 18601 18603 18606 18609 18612 18615 18617 18620 18622 18624 18627 18630 18633 18636 18638 18641 18644 18646 18649 18652 18655 18657 18660 18663 18666 18669 18672 18675 18677 18680 18682 18684 18687 18690 18693 18696 18699 18702 18704 18707 18710 18713 18716 18719 18722 18725 18728 18731 18734 18737 18740 18743 18746 18749 18752 18755 18758 18761 18764 18767 18769 18772 18774 18777 18780 18783 18786 18789 18792 18795 18798 18801 18804 18807 18810 18813 18816 18819 18822 18825 18828 18831 18834 18837 18840 18843 18846 18849 18852 18855 18858 18861 18864 18867 18870 18873 18876 18879 18882 18885 18888 18891 18894 18897 18900 18903 18906 18909 18912 18915 18918 18921 18924 18927 18930 18933 18936 18939 18942 18945 18948 18950 18953 18956 18959 18962 18965 18967 18970 18973 18976 18979 18982 18985 18988 18991 18993 18996 18999 19002 19005 19008 19011 19014 19017 19020 19023 19025 19028 19031 19034 19037 19040 19043 19046 19049 19052 19055 19058 19061 19064 19067 19070 19073 19076 19079 19082 19085 19088 19091 19094 19097 19100 19103 19106 19109 19112 19115 19118 19121 19124 19127 19130 19133 19136 19139 19142 19145 19148 19151 19154 19157 19160 19163 19166 19169 19172 19175 19178 19181 19184 19187 19190 19193 19196 19199 19202 19205 19208 19211 19214 19217 19220 19223 19226 19229 19232 19235 19238 19241 19243 19246 19249 19251 19254 19256 19259 19262 19265 19268 19271 19274 19276 19279 19281 19284 19287 19290 19293 19296 19299 19302 19305 19307 19310 19313 19315 19318 19321 19324 19327 19330 19333 19336 19339 19341 19344 19347 19350 19353 19355 19358 19361 19363 19366 19369 19372 19375 19378 19381 19383 19385 19388 19391 19394 19397 19400 19403 19406 19409 19412 19415 19418 19421 19423 19426 19429 19431 19433 19436 19439 19442 19445 19448 19450 19453 19455 19458 19461 19464 19467 19470 19472 19474 19477 19480 19483 19485 19488 19491 19494 19497 19500 19503 19505 19508 19511 19514 19517 19520 19522 19525 19528 19530 19533 19536 19539 19542 19545 19547 19550 19553 19555 19557 19560 19562 19565 19567 19570 19573 19576 19579 19581 19584 19587 19590 19593 19596 19599 19602 19605 19607 19610 19613 19616 19618 19621 19624 19627 19630 19633 19635 19637 19639 19642 19645 19647 19650 19652 19655 19657 19659 19661 19663 19666 19669 19672 19675 19678 19681 19684 19687 19689 19692 19695 19698 19701 19704 19707 19710 19713 19716 19719 19722 19724 19727 19730 19733 19736 19739 19742 19745 19748 19751 19753 19755 19758 19761 19764 19767 19770 19773 19776 19779 19782 19785 19788 19791 19794 19797 19800 19803 19806 19809 19811 19814 19817 19820 19823 19826 19829 19832 19835 19838 19841 19844 19847 19850 19853 19855 19858 19861 19864 19867 19870 19872 19875 19877 19879 19882 19885 19887 19890 19893 19895 19898 19901 19904 19907 19910 19913 19916 19919 19922 19925 19928 19931 19934 19937 19940 19943 19946 19949 19952 19955 19958 19961 19963 19965 19968 19971 19974 19977 19980 19982 19985 19988 19990 19993 19996 19998 20001 20004 20007 20010 20013 20015 20018 20021 20024 20026 20029 20032 20035 20038 20040 20042 20045 20048 20051 20054 20056 20059 20061 20064 20067 20070 20072 20074 20077 20080 20083 20086 20089 20092 20095 20098 20101 20104 20106 20109 20112 20115 20118 20120 20123 20126 20129 20132 20135 20138 20141 20143 20146 20149 20152 20155 20158 20161 20164 20167 20170 20173 20176 20178 20181 20184 20186 20189 20192 20195 20198 20201 20204 20207 20210 20213 20216 20219 20221 20224 20227 20229 20232 20235 20238 20241 20244 20246 20249 20251 20254 20256 20259 20262 20265 20268 20271 20273 20276 20278 20281 20284 20287 20289 20292 20295 20298 20301 20304 20306 20309 20312 20314 20317 20319 20322 20325 20328 20331 20334 20337 20340 20343 20346 20349 20352 20355 20358 20361 20364 20367 20370 20373 20375 20378 20381 20384 20387 20390 20393 20395 20398 20401 20403 20406 20409 20412 20414 20417 20420 20423 20426 20428 20431 20434 20437 20440 20443 20446 20448 20451 20454 20456 20459 20462 20465 20468 20471 20474 20477 20480 20483 20486 20489 20492 20495 20498 20501 20504 20507 20510 20513 20516 20519 20522 20525 20527 20530 20533 20536 20539 20542 20544 20547 20550 20553 20555 20558 20560 20563 20565 20568 20571 20574 20577 20580 20582 20585 20588 20590 20593 20595 20598 20601 20604 20607 20610 20613 20616 20619 20622 20625 20627 20630 20633 20636 20639 20641 20643 20646 20649 20652 20654 20657 20660 20662 20665 20668 20671 20674 20677 20680 20683 20686 20689 20692 20695 20698 20701 20704 20706 20709 20712 20715 20718 20721 20724 20727 20729 20732 20735 20738 20741 20744 20747 20750 20753 20756 20759 20761 20763 20766 20768 20771 20773 20776 20779 20781 20784 20787 20790 20793 20796 20799 20802 20805 20808 20811 20813 20816 20819 20822 20824 20827 20830 20833 20836 20838 20841 20844 20847 20850 20853 20856 20859 20862 20865 20867 20870 20873 20876 20879 20882 20885 20888 20891 20894 20897 20900 20903 20906 20909 20912 20915 20918 20921 20924 20927 20930 20933 20936 20939 20942 20945 20948 20951 20954 20957 20960 20963 20966 20969 20972 20975 20978 20981 20984 20987 20990 20993 20996 20999 21002 21005 21008 21011 21014 21017 21019 21022 21025 21028 21031 21034 21037 21040 21043 21046 21049 21052 21055 21058 21061 21064 21067 21069 21072 21075 21078 21081 21083 21086 21089 21092 21095 21098 21100 21103 21105 21108 21110 21113 21116 21119 21121 21124 21127 21130 21133 21136 21139 21141 21144 21146 21149 21152 21155 21158 21161 21163 21166 21169 21172 21175 21178 21181 21184 21186 21189 21192 21195 21198 21201 21204 21207 21210 21213 21216 21219 21222 21225 21228 21230 21233 21235 21238 21241 21244 21247 21250 21253 21256 21259 21261 21264 21267 21269 21272 21275 21278 21281 21283 21286 21288 21291 21294 21297 21300 21303 21305 21308 21311 21314 21317 21320 21323 21325 21328 21331 21334 21337 21340 21342 21345 21348 21351 21353 21356 21359 21361 21364 21367 21369 21372 21375 21378 21380 21383 21385 21388 21391 21394 21397 21400 21403 21406 21409 21412 21415 21418 21421 21424 21427 21430 21433 21436 21439 21442 21444 21447 21450 21453 21456 21459 21462 21465 21468 21471 21474 21477 21480 21483 21486 21488 21491 21494 21497 21500 21502 21504 21507 21509 21512 21515 21517 21520 21522 21525 21527 21530 21532 21535 21538 21541 21544 21547 21550 21553 21555 21558 21561 21564 21567 21570 21573 21576 21578 21580 21583 21585 21588 21591 21593 21595 21598 21601 21604 21606 21609 21612 21614 21617 21620 21622 21625 21628 21631 21633 21635 21638 21641 21644 21647 21650 21653 21655 21658 21661 21664 21667 21670 21673 21676 21679 21682 21685 21688 21691 21694 21697 21700 21703 21706 21708 21711 21714 21717 21720 21722 21725 21728 21731 21734 21737 21740 21742 21745 21748 21751 21753 21756 21759 21762 21765 21767 21770 21772 21775 21778 21780 21783 21785 21787 21790 21793 21796 21798 21801 21804 21806 21809 21811 21814 21816 21818 21821 21824 21826 21829 21832 21835 21838 21841 21844 21847 21850 21853 21856 21859 21862 21865 21867 21870 21873 21876 21879 21882 21885 21888 21891 21894 21897 21900 21902 21905 21908 21911 21914 21917 21920 21923 21926 21929 21932 21935 21938 21940 21943 21946 21948 21951 21954 21956 21959 21962 21965 21967 21970 21973 21976 21979 21982 21985 21988 21991 21993 21996 21999 22002 22005 22008 22011 22014 22017 22020 22023 22025 22028 22031 22033 22036 22039 22041 22044 22047 22050 22053 22056 22059 22061 22064 22067 22070 22073 22076 22079 22082 22085 22088 22090 22093 22096 22099 22102 22105 22108 22111 22114 22116 22118 22121 22124 22127 22130 22133 22136 22139 22142 22145 22148 22151 22154 22157 22160 22163 22166 22169 22171 22174 22177 22180 22183 22186 22189 22192 22195 22198 22201 22203 22206 22209 22212 22215 22218 22221 22224 22227 22229 22232 22235 22238 22241 22244 22247 22249 22251 22254 22257 22259 22262 22265 22267 22270 22273 22276 22279 22281 22284 22287 22289 22292 22295 22298 22301 22304 22307 22310 22313 22316 22319 22322 22325 22328 22331 22334 22337 22340 22343 22346 22349 22352 22355 22358 22361 22363 22366 22369 22372 22375 22378 22381 22384 22387 22390 22393 22396 22399 22402 22405 22408 22410 22413 22416 22419 22422 22425 22428 22430 22433 22436 22439 22442 22445 22448 22451 22454 22457 22460 22463 22466 22469 22472 22475 22478 22481 22484 22487 22490 22493 22495 22498 22501 22504 22507 22509 22512 22515 22517 22519 22522 22525 22528 22531 22534 22537 22540 22543 22546 22549 22552 22555 22558 22561 22564 22567 22570 22573 22575 22578 22581 22584 22587 22590 22593 22596 22599 22602 22605 22608 22611 22614 22617 22620 22623 22626 22628 22631 22634 22637 22640 22642 22645 22648 22651 22654 22657 22660 22663 22666 22669 22671 22674 22676 22679 22682 22685 22688 22691 22693 22695 22698 22701 22704 22706 22709 22711 22714 22716 22719 22722 22724 22727 22729 22732 22735 22737 22739 22742 22745 22748 22750 22753 22756 22759 22762 22764 22767 22770 22773 22776 22779 22782 22785 22788 22790 22793 22795 22797 22799 22802 22805 22807 22810 22812 22815 22818 22821 22823 22825 22828 22830 22833 22835 22838 22841 22843 22846 22848 22850 22853 22855 22858 22860 22863 22866 22869 22871 22874 22876 22879 22882 22884 22887 22890 22893 22896 22899 22902 22904 22907 22910 22913 22916 22918 22921 22923 22926 22929 22931 22934 22936 22939 22941 22944 22946 22949 22952 22955 22957 22960 22963 22966 22969 22972 22974 22977 22979 22982 22985 22988 22990 22993 22996 22999 23002 23005 23008 23011 23014 23017 23020 23023 23026 23029 23032 23035 23037 23040 23042 23045 23048 23051 23054 23057 23060 23063 23066 23069 23072 23075 23078 23081 23084 23087 23090 23092 23095 23097 23100 23102 23105 23108 23110 23113 23116 23118 23121 23123 23126 23129 23132 23135 23138 23141 23144 23147 23150 23153 23156 23159 23162 23165 23168 23171 23174 23177 23180 23183 23185 23188 23191 23194 23197 23200 23203 23206 23209 23212 23215 23218 23221 23224 23227 23229 23232 23235 23238 23241 23244 23247 23250 23253 23256 23259 23262 23265 23268 23271 23274 23277 23280 23283 23286 23288 23291 23294 23297 23300 23303 23305 23308 23311 23314 23317 23319 23322 23325 23328 23331 23334 23337 23340 23343 23346 23349 23352 23355 23358 23361 23364 23367 23370 23373 23376 23379 23382 23385 23388 23391 23394 23397 23400 23402 23405 23408 23411 23414 23417 23420 23423 23426 23429 23432 23435 23437 23440 23443 23446 23449 23452 23455 23457 23460 23463 23466 23469 23472 23475 23478 23481 23484 23487 23490 23493 23496 23499 23502 23505 23507 23510 23513 23515 23518 23521 23524 23527 23529 23532 23535 23538 23541 23544 23547 23550 23553 23556 23559 23561 23564 23567 23570 23573 23576 23579 23582 23585 23588 23591 23593 23596 23599 23602 23605 23608 23610 23613 23616 23619 23622 23625 23627 23630 23633 23636 23639 23642 23645 23648 23651 23654 23657 23660 23662 23665 23668 23671 23673 23676 23678 23681 23684 23687 23690 23693 23695 23698 23701 23704 23707 23710 23713 23716 23719 23722 23725 23728 23731 23734 23736 23739 23742 23745 23748 23751 23754 23757 23760 23763 23766 23769 23772 23775 23777 23780 23783 23785 23788 23791 23794 23797 23800 23803 23806 23809 23812 23815 23818 23821 23823 23826 23829 23831 23834 23836 23838 23841 23844 23847 23850 23853 23855 23857 23860 23863 23865 23868 23870 23873 23876 23879 23882 23885 23888 23891 23894 23897 23900 23903 23906 23909 23912 23915 23918 23921 23924 23927 23929 23932 23935 23938 23941 23944 23947 23950 23953 23956 23959 23961 23964 23967 23970 23972 23975 23977 23980 23983 23986 23988 23991 23994 23997 24000 24003 24006 24008 24011 24014 24017 24020 24023 24026 24028 24031 24034 24037 24040 24042 24045 24048 24050 24053 24056 24059 24061 24064 24067 24070 24073 24076 24078 24081 24084 24086 24089 24091 24094 24097 24100 24103 24106 24109 24112 24115 24117 24120 24123 24126 24129 24132 24135 24138 24141 24143 24146 24149 24151 24154 24157 24160 24163 24166 24168 24171 24173 24176 24179 24182 24185 24188 24191 24193 24196 24199 24202 24205 24208 24210 24213 24216 24219 24222 24225 24227 24230 24232 24235 24238 24241 24244 24247 24250 24253 24256 24259 24262 24265 24268 24271 24274 24277 24280 24283 24286 24289 24292 24295 24298 24301 24304 24307 24310 24313 24315 24318 24321 24324 24327 24330 24333 24336 24339 24342 24345 24348 24351 24354 24357 24360 24363 24365 24368 24371 24373 24376 24379 24382 24384 24387 24389 24392 24395 24398 24401 24404 24407 24409 24411 24414 24417 24420 24423 24426 24429 24432 24435 24438 24441 24444 24447 24450 24452 24455 24457 24460 24462 24465 24467 24470 24473 24476 24479 24481 24484 24486 24489 24492 24495 24498 24501 24504 24507 24509 24512 24515 24517 24520 24523 24526 24529 24532 24535 24538 24541 24544 24547 24550 24553 24556 24559 24561 24564 24566 24569 24571 24574 24577 24579 24582 24585 24587 24590 24593 24596 24599 24602 24604 24607 24610 24613 24616 24619 24622 24624 24627 24630 24633 24636 24639 24642 24645 24648 24651 24654 24657 24660 24662 24664 24667 24669 24672 24675 24678 24681 24684 24687 24690 24693 24696 24699 24702 24704 24707 24710 24713 24716 24719 24722 24725 24728 24731 24734 24737 24740 24743 24746 24749 24752 24755 24758 24761 24764 24767 24770 24773 24775 24778 24781 24784 24787 24790 24792 24795 24798 24801 24804 24807 24809 24812 24815 24818 24820 24823 24826 24829 24832 24835 24838 24841 24844 24847 24850 24853 24856 24859 24862 24865 24868 24871 24874 24877 24880 24883 24886 24889 24892 24895 24897 24900 24903 24906 24909 24912 24915 24918 24921 24924 24927 24930 24933 24936 24939 24942 24945 24948 24951 24953 24956 24959 24962 24965 24968 24971 24974 24977 24980 24983 24986 24989 24992 24995 24998 25001 25004 25007 25009 25011 25014 25017 25020 25023 25026 25029 25031 25034 25037 25040 25043 25046 25049 25052 25055 25057 25060 25063 25065 25068 25071 25074 25077 25080 25083 25086 25089 25092 25095 25098 25101 25104 25107 25110 25113 25116 25119 25122 25125 25128 25131 25134 25137 25140 25143 25146 25149 25152 25155 25158 25161 25163 25166 25169 25172 25175 25178 25181 25184 25187 25190 25193 25195 25198 25201 25204 25207 25210 25213 25216 25219 25222 25225 25228 25231 25234 25237 25239 25242 25245 25248 25251 25254 25257 25259 25262 25265 25268 25271 25274 25277 25279 25282 25285 25288 25291 25294 25297 25300 25302 25305 25308 25311 25314 25317 25320 25323 25326 25329 25332 25335 25338 25341 25344 25347 25350 25352 25355 25357 25360 25363 25366 25369 25372 25375 25378 25381 25383 25386 25389 25392 25395 25398 25400 25403 25406 25409 25411 25414 25417 25420 25423 25426 25429 25432 25435 25438 25441 25444 25447 25449 25452 25454 25457 25460 25463 25465 25468 25471 25474 25476 25479 25482 25485 25488 25491 25494 25496 25499 25502 25505 25508 25510 25513 25516 25519 25521 25523 25525 25528 25531 25534 25537 25539 25542 25545 25548 25551 25554 25557 25560 25562 25565 25567 25570 25573 25576 25579 25582 25584 25587 25590 25593 25595 25598 25601 25603 25606 25609 25611 25614 25617 25619 25622 25625 25628 25630 25633 25636 25639 25642 25645 25648 25651 25653 25656 25659 25662 25665 25668 25671 25674 25677 25680 25682 25685 25688 25691 25694 25696 25699 25702 25704 25707 25710 25713 25716 25719 25722 25725 25727 25730 25733 25736 25738 25740 25743 25746 25749 25751 25754 25757 25760 25762 25765 25768 25770 25773 25775 25777 25780 25783 25786 25789 25791 25794 25797 25799 25802 25805 25807 25810 25812 25815 25818 25821 25824 25827 25830 25833 25836 25838 25841 25843 25846 25849 25852 25855 25858 25861 25864 25867 25870 25873 25876 25879 25882 25885 25888 25891 25894 25897 25900 25903 25906 25909 25912 25915 25918 25921 25924 25926 25929 25931 25934 25937 25940 25943 25946 25949 25951 25954 25957 25960 25962 25965 25967 25970 25973 25976 25979 25982 25985 25988 25991 25994 25997 26000 26003 26006 26009 26012 26015 26018 26021 26024 26027 26030 26033 26036 26039 26041 26044 26047 26050 26053 26056 26058 26061 26064 26067 26070 26073 26076 26079 26082 26085 26087 26090 26093 26096 26098 26101 26104 26107 26109 26112 26115 26118 26120 26123 26126 26129 26132 26135 26138 26141 26144 26147 26150 26153 26155 26158 26161 26164 26166 26169 26172 26175 26178 26181 26184 26187 26189 26192 26195 26198 26201 26204 26206 26209 26212 26215 26218 26221 26224 26227 26230 26233 26236 26239 26242 26245 26248 26251 26254 26257 26260 26263 26266 26269 26272 26275 26278 26281 26284 26287 26290 26293 26296 26299 26302 26305 26308 26311 26314 26317 26320 26323 26326 26329 26332 26335 26338 26341 26344 26347 26350 26353 26356 26359 26362 26365 26368 26371 26374 26377 26380 26383 26385 26388 26391 26394 26397 26399 26402 26405 26408 26411 26414 26416 26418 26421 26424 26427 26430 26432 26435 26438 26440 26443 26446 26449 26452 26454 26457 26460 26463 26465 26468 26470 26473 26476 26478 26481 26484 26487 26489 26492 26495 26498 26501 26504 26507 26509 26512 26515 26518 26520 26522 26525 26527 26530 26533 26536 26538 26540 26543 26546 26549 26551 26554 26556 26559 26561 26564 26567 26569 26572 26575 26577 26580 26583 26586 26589 26592 26595 26598 26601 26604 26607 26610 26612 26615 26617 26620 26623 26626 26629 26632 26635 26638 26641 26644 26647 26650 26653 26655 26658 26660 26663 26665 26668 26671 26674 26677 26680 26683 26686 26689 26692 26695 26697 26700 26703 26705 26708 26711 26714 26717 26720 26723 26726 26729 26732 26735 26738 26741 26744 26747 26750 26753 26756 26759 26762 26765 26768 26771 26774 26777 26780 26783 26786 26789 26792 26795 26798 26801 26804 26806 26809 26812 26814 26817 26820 26823 26826 26829 26832 26834 26836 26839 26842 26845 26848 26851 26853 26856 26859 26862 26865 26868 26871 26874 26877 26879 26882 26885 26888 26891 26893 26896 26899 26902 26905 26908 26911 26914 26916 26919 26922 26925 26928 26931 26934 26937 26939 26942 26944 26947 26950 26953 26955 26958 26961 26964 26967 26969 26972 26975 26978 26981 26983 26986 26989 26992 26995 26998 27001 27004 27007 27010 27012 27014 27017 27020 27023 27026 27029 27031 27034 27037 27039 27042 27044 27046 27049 27051 27053 27056 27059 27061 27063 27066 27069 27072 27075 27078 27080 27083 27086 27089 27092 27094 27096 27099 27102 27104 27107 27110 27112 27115 27118 27120 27122 27125 27128 27131 27134 27137 27140 27143 27146 27148 27151 27153 27156 27159 27162 27165 27168 27170 27173 27176 27179 27181 27184 27186 27189 27192 27195 27198 27201 27204 27207 27210 27213 27216 27219 27222 27224 27227 27230 27233 27236 27238 27240 27243 27246 27249 27252 27255 27258 27261 27264 27267 27270 27273 27276 27279 27282 27285 27287 27290 27293 27296 27299 27302 27305 27308 27311 27314 27316 27319 27322 27325 27328 27330 27333 27336 27339 27342 27345 27348 27351 27354 27357 27360 27363 27366 27368 27371 27374 27376 27379 27382 27385 27388 27391 27394 27397 27400 27403 27406 27409 27412 27415 27418 27421 27424 27427 27430 27433 27436 27439 27442 27445 27448 27450 27452 27455 27458 27461 27464 27467 27470 27473 27476 27479 27482 27485 27488 27490 27493 27496 27499 27502 27505 27507 27510 27513 27516 27518 27521 27524 27526 27528 27530 27533 27536 27538 27541 27544 27546 27549 27551 27554 27557 27560 27563 27566 27569 27572 27575 27578 27580 27583 27585 27588 27591 27594 27596 27599 27602 27604 27607 27609 27611 27614 27616 27619 27621 27624 27627 27629 27632 27635 27637 27640 27643 27646 27649 27652 27655 27658 27661 27664 27667 27670 27673 27676 27679 27682 27685 27688 27690 27693 27696 27699 27702 27704 27707 27709 27711 27713 27716 27719 27722 27725 27728 27730 27733 27735 27738 27741 27744 27746 27749 27752 27755 27758 27761 27763 27766 27769 27772 27775 27778 27780 27783 27786 27789 27792 27795 27797 27800 27803 27806 27809 27812 27815 27818 27821 27824 27827 27829 27832 27834 27837 27840 27843 27846 27849 27852 27855 27858 27861 27864 27867 27870 27873 27876 27879 27882 27885 27888 27891 27894 27897 27900 27903 27906 27909 27912 27915 27918 27921 27924 27927 27929 27931 27934 27937 27939 27942 27945 27948 27950 27953 27956 27958 27961 27964 27967 27969 27971 27974 27977 27979 27982 27985 27988 27991 27994 27996 27999 28001 28004 28007 28010 28013 28016 28018 28021 28024 28027 28030 28033 28036 28039 28042 28045 28047 28050 28053 28056 28059 28062 28064 28067 28070 28073 28076 28078 28081 28084 28087 28090 28093 28096 28098 28101 28104 28106 28109 28112 28115 28118 28120 28123 28125 28128 28131 28134 28137 28139 28142 28145 28147 28150 28152 28155 28157 28160 28163 28165 28168 28171 28173 28176 28179 28182 28185 28187 28190 28193 28195 28198 28201 28204 28207 28210 28213 28216 28219 28222 28225 28228 28231 28233 28236 28239 28242 28245 28248 28251 28254 28257 28260 28262 28265 28267 28270 28273 28275 28278 28280 28283 28286 28289 28292 28295 28297 28300 28303 28305 28308 28311 28313 28316 28319 28321 28324 28327 28330 28332 28335 28338 28340 28343 28346 28349 28351 28354 28357 28360 28363 28366 28369 28372 28375 28378 28381 28383 28386 28388 28391 28393 28396 28399 28402 28405 28408 28411 28414 28417 28419 28422 28425 28428 28430 28433 28436 28439 28442 28445 28448 28451 28454 28457 28460 28463 28466 28469 28472 28475 28477 28480 28483 28485 28488 28491 28493 28495 28498 28501 28504 28507 28510 28513 28516 28519 28522 28525 28528 28530 28533 28535 28538 28541 28543 28546 28548 28551 28553 28555 28558 28561 28564 28567 28570 28573 28576 28578 28581 28584 28586 28589 28591 28594 28597 28600 28603 28606 28609 28612 28615 28618 28621 28624 28627 28630 28632 28634 28637 28640 28643 28646 28649 28652 28654 28657 28660 28663 28666 28669 28672 28675 28678 28681 28683 28686 28689 28692 28695 28698 28701 28703 28706 28709 28712 28714 28717 28720 28723 28726 28728 28731 28734 28737 28740 28743 28745 28747 28750 28752 28755 28758 28760 28763 28766 28768 28771 28774 28776 28779 28782 28785 28787 28789 28792 28794 28797 28800 28802 28805 28808 28811 28814 28817 28820 28823 28826 28829 28832 28835 28838 28840 28842 28845 28848 28851 28854 28857 28859 28862 28865 28868 28871 28873 28876 28879 28881 28883 28886 28889 28891 28893 28896 28899 28902 28904 28907 28909 28912 28915 28918 28921 28924 28927 28930 28933 28936 28939 28942 28945 28947 28950 28953 28956 28958 28961 28964 28967 28970 28972 28974 28977 28980 28982 28985 28987 28989 28992 28995 28997 29000 29003 29005 29008 29011 29014 29016 29019 29022 29025 29028 29031 29034 29036 29039 29042 29045 29048 29051 29054 29057 29060 29063 29065 29068 29071 29073 29076 29079 29082 29085 29088 29091 29094 29097 29100 29103 29106 29109 29112 29115 29118 29120 29123 29126 29129 29131 29134 29137 29139 29142 29144 29146 29149 29151 29154 29157 29159 29162 29165 29168 29171 29174 29177 29180 29183 29186 29188 29191 29194 29196 29198 29201 29204 29206 29209 29212 29215 29218 29221 29223 29226 29229 29232 29235 29237 29239 29242 29245 29248 29250 29253 29256 29259 29262 29265 29268 29271 29273 29276 29279 29282 29285 29288 29291 29293 29296 29299 29302 29305 29308 29311 29314 29317 29320 29323 29326 29328 29331 29333 29336 29339 29342 29345 29347 29350 29353 29356 29359 29362 29365 29368 29371 29374 29377 29380 29383 29386 29389 29392 29394 29397 29400 29403 29406 29408 29411 29413 29416 29418 29421 29424 29427 29430 29433 29436 29439 29442 29444 29446 29449 29452 29454 29457 29460 29463 29465 29468 29470 29473 29476 29479 29482 29485 29488 29491 29494 29497 29499 29502 29504 29507 29510 29513 29516 29518 29521 29524 29527 29530 29533 29536 29539 29542 29545 29547 29550 29553 29556 29559 29561 29564 29567 29570 29572 29575 29578 29580 29583 29585 29588 29591 29594 29597 29600 29603 29606 29609 29612 29615 29618 29621 29624 29627 29629 29631 29634 29637 29640 29643 29646 29649 29651 29654 29657 29660 29663 29666 29668 29671 29674 29677 29680 29683 29686 29688 29691 29694 29696 29699 29702 29705 29708 29711 29714 29717 29720 29723 29726 29728 29731 29734 29737 29740 29742 29745 29748 29751 29753 29756 29759 29762 29765 29768 29771 29774 29777 29780 29783 29785 29788 29791 29794 29797 29800 29803 29806 29809 29812 29815 29817 29820 29823 29826 29829 29832 29835 29838 29841 29843 29846 29849 29852 29855 29858 29861 29864 29867 29869 29871 29874 29877 29880 29882 29885 29888 29891 29894 29897 29900 29903 29906 29909 29912 29915 29918 29921 29924 29927 29930 29933 29935 29938 29940 29943 29946 29949 29952 29955 29958 29961 29964 29966 29969 29972 29975 29978 29981 29984 29987 29990 29992 29994 29997 30000 30003 30006 30009 30012 30015 30018 30021 30024 30027 30030 30033 30035 30038 30041 30044 30047 30050 30053 30056 30058 30061 30064 30066 30069 30072 30075 30077 30080 30083 30086 30089 30092 30094 30097 30100 30102 30105 30107 30110 30113 30116 30119 30121 30124 30127 30130 30133 30136 30139 30142 30145 30148 30151 30153 30156 30159 30161 30164 30167 30170 30172 30175 30178 30181 30184 30186 30189 30192 30195 30198 30200 30203 30205 30208 30211 30214 30217 30220 30223 30226 30228 30230 30233 30236 30239 30242 30245 30248 30251 30254 30257 30259 30262 30265 30268 30271 30274 30276 30278 30281 30284 30287 30290 30292 30295 30297 30300 30303 30305 30308 30311 30314 30317 30319 30322 30325 30328 30331 30333 30335 30337 30340 30342 30345 30348 30350 30353 30356 30359 30362 30365 30368 30371 30374 30377 30379 30382 30385 30388 30391 30394 30397 30400 30403 30406 30409 30412 30415 30417 30420 30423 30426 30429 30432 30435 30438 30441 30444 30446 30448 30451 30453 30456 30458 30461 30463 30466 30469 
</DataArray>
<DataArray type="UInt32" Name="types" format="ascii">
5 5 5 5 5 5 5 5 5 3 5 5 3 5 5 5 5 5 5 3 5 3 5 5 3 5 5 5 3 5 5 5 3 5 3 3 5 5 5 3 5 5 5 5 3 3 5 3 5 5 5 5 5 3 5 3 5 5 5 5 3 5 5 5 5 5 5 5 5 5 5 5 5 5 3 5 5 5 3 5 5 5 5 5 5 5 5 5 5 5 5 5 5 3 5 5 5 5 5 3 5 5 3 5 5 5 5 3 5 5 3 5 5 5 5 5 5 3 5 5 5 5 5 5 5 3 5 5 3 5 5 5 5 5 5 5 5 5 5 5 5 5 5 5 5 3 5 5 5 3 5 5 5 3 5 3 5 5 3 5 3 5 5 3 5 5 5 5 5 5 5 5 3 5 5 3 5 5 5 5 5 5 5 5 5 5 3 5 5 5 3 5 5 5 5 5 5 5 5 5 5 5 5 5 3 5 5 5 3 3 5 5 5 5 5 5 5 5 3 5 5 5 5 5 3 5 5 5 5 5 5 5 5 5 5 5 5 5 5 5 5 3 5 5 5 5 5 5 5 5 5 3 5 5 5 5 5 5 5 5 5 3 3 5 5 5 5 5 5 5 5 5 5 5 5 5 5 5 5 5 5 5 5 5 5 5 5 5 5 5 5 5 5 5 5 5 5 5 5 3 5 5 5 5 5 5 5 3 5 5 5 5 5 3 5 5 5 5 5 5 5 5 5 5 5 5 5 5 5 5 5 5 5 5 5 5 5 5 3 5 5 3 3 5 5 5 5 5 5 5 3 3 5 5 5 5 5 5 5 5 5 5 5 5 5 5 5 5 3 5 5 5 5 5 5 5 5 3 5 3 5 5 5 5 3 3 5 5 5 5 5 5 5 3 5 5 5 5 5 5 5 3 5 5 5 3 5 5 5 5 5 5 5 5 5 5 5 5 5 5 5 5 5 5 5 5 5 5 5 3 5 5 5 5 5 5 5 3 3 5 5 5 3 5 5 5 5 5 5 5 5 5 5 5 5 5 5 5 3 5 5 5 5 3 5 5 5 3 5 5 5 5 3 5 5 5 5 5 5 5 5 5 5 5 5 3 5 5 5 5 3 5 5 5 5 3 5 5 3 5 5 5 5 5 3 5 3 3 5 5 3 5 5 5 5 5 5 5 3 5 5 5 3 3 5 5 5 5 3 5 5 5 5 5 5 5 3 5 3 3 5 5 5 5 5 5 5 5 5 5 5 5 5 5 5 5 5 5 5 5 5 5 5 5 5 5 5 3 5 5 5 5 5 3 5 5 5 5 5 5 3 5 3 5 5 3 5 5 3 5 5 3 3 5 5 5 3 5 3 5 5 5 5 5 5 5 3 5 5 3 5 5 5 3 5 5 3 5 5 5 5 3 5 5 5 5 5 3 5 5 5 5 5 5 5 5 5 5 3 5 5 3 5 5 5 3 5 5 5 5 3 5 5 3 5 5 5 5 5 5 5 5 5 5 5 5 5 5 5 5 3 5 5 5 5 3 5 5 5 3 5 5 5 5 5 5 5 3 5 5 5 5 5 5 5 5 5 5 5 5 5 5 5 5 5 5 5 5 3 5 5 5 5 5 5 5 3 5 5 5 3 5 5 5 5 5 3 3 5 5 5 5 5 5 5 5 5 3 5 5 3 5 5 5 5 5 3 5 5 5 5 5 5 5 3 5 5 5 5 3 5 3 5 5 5 3 5 5 5 5 5 5 5 5 5 5 5 3 5 5 5 5 5 5 5 5 5 3 5 5 5 5 5 5 5 5 5 3 5 5 5 5 5 5 3 5 5 5 5 5 5 3 5 5 3 3 5 5 5 3 5 5 5 5 3 5 5 5 5 5 5 5 3 5 5 5 5 5 5 5 5 5 5 5 5 5 3 5 5 5 5 5 5 5 5 5 5 5 5 5 5 5 5 5 3 5 5 5 5 5 5 5 5 5 5 5 5 3 5 5 5 5 5 5 3 5 5 3 3 5 3 5 5 5 5 5 5 5 5 5 5 5 5 5 5 5 5 5 5 3 5 5 5 5 5 5 5 5 5 5 5 5 5 5 3 3 3 5 5 5 5 3 5 5 5 5 5 5 5 5 5 5 5 3 5 5 5 5 3 3 5 5 3 5 5 5 3 5 5 3 5 5 5 5 5 5 5 5 5 5 5 5 5 5 5 5 5 5 5 5 5 5 5 5 5 5 5 5 5 5 5 5 5 5 5 5 5 5 5 5 5 5 5 3 5 5 5 3 5 5 5 3 5 5 5 5 5 5 5 3 5 5 5 5 3 5 3 5 5 3 5 3 5 5 5 5 5 5 5 5 5 5 5 5 5 5 5 5 3 5 5 5 5 5 3 5 5 3 5 3 5 5 5 5 5 3 5 5 5 5 5 5 5 5 5 5 5 5 5 5 5 5 3 5 5 5 5 5 3 5 5 5 5 5 5 5 5 5 5 5 3 3 5 5 5 5 5 3 5 5 5 5 5 5 5 5 5 5 5 5 3 5 5 5 5 5 5 5 5 3 5 5 3 5 5 3 5 5 5 5 5 3 5 5 5 5 3 5 3 3 5 5 5 5 3 5 5 5 3 5 5 5 3 5 5 5 5 5 3 5 5 5 3 5 5 5 5 5 5 5 5 5 5 5 5 5 5 5 5 5 5 5 5 5 5 5 5 5 5 5 5 5 5 5 3 5 5 5 5 5 5 3 5 5 5 5 5 5 5 5 5 5 5 5 5 5 3 5 3 5 5 5 5 5 3 5 5 3 5 5 5 5 5 5 5 5 5 3 3 5 3 5 5 5 3 5 5 5 3 5 5 5 5 5 5 5 3 5 5 5 5 5 3 5 3 5 5 5 3 5 5 5 3 5 3 5 5 5 3 5 5 5 5 5 3 3 5 3 5 3 3 5 3 5 5 3 3 5 3 3 5 5 3 5 5 3 3 5 5 3 5 5 5 5 5 5 5 5 5 5 5 5 5 5 3 5 5 3 5 3 5 5 5 5 5 3 5 5 3 5 5 5 5 5 3 5 5 3 5 5 5 3 3 3 5 3 5 3 5 3 5 5 3 3 5 3 3 5 5 3 5 3 3 5 5 5 3 5 5 5 3 3 5 5 5 3 5 5 3 5 5 5 5 3 5 3 3 5 5 5 3 5 5 5 5 5 5 5 5 3 5 5 3 5 3 5 5 5 5 3 5 5 3 5 5 3 5 5 5 3 5 3 5 5 3 5 5 3 5 5 5 5 5 5 5 5 5 5 3 5 5 5 5 5 5 3 5 5 5 3 5 3 5 3 5 5 5 5 5 5 5 5 5 5 3 5 5 5 5 5 5 3 5 5 5 5 5 5 5 5 5 5 5 5 5 5 5 5 5 5 5 3 5 5 5 5 5 5 5 5 5 5 5 5 5 5 5 5 5 5 5 5 5 5 5 5 5 5 3 5 5 5 3 5 5 5 5 5 5 5 5 5 5 5 5 5 5 5 5 5 5 5 5 5 3 5 5 5 5 5 5 5 5 5 5 3 5 5 3 5 5 5 5 3 5 5 5 5 3 5 5 5 5 5 5 5 5 5 5 5 5 5 5 5 3 5 5 5 5 5 5 5 5 5 5 5 5 3 5 5 5 5 3 5 5 5 5 5 5 5 3 5 5 5 5 3 5 5 5 5 3 5 5 5 5 5 5 5 5 5 3 5 5 5 3 5 3 5 5 5 5 5 5 5 5 5 5 5 5 5 5 5 5 5 5 5 5 5 5 5 5 5 5 3 5 5 5 5 5 5 5 3 5 5 5 5 3 5 5 5 5 5 5 5 5 5 5 5 5 5 5 5 3 5 5 5 5 3 5 5 5 5 5 5 5 3 5 5 5 5 5 5 5 5 5 5 5 5 5 5 5 5 5 5 5 5 5 5 5 5 5 5 5 5 5 5 5 5 5 5 5 5 5 5 5 5 5 5 5 5 5 5 5 5 5 5 5 5 5 5 5 5 5 5 5 5 5 5 3 5 5 5 5 5 3 5 5 5 5 5 5 5 5 5 5 5 5 3 5 5 5 5 3 5 5 5 3 5 5 5 5 5 3 5 5 5 5 3 3 3 5 5 5 5 5 5 3 3 5 5 3 5 5 5 5 5 3 3 5 3 5 5 5 5 5 3 5 3 3 5 5 5 5 5 5 5 5 5 5 5 5 5 5 5 5 5 5 5 5 3 5 5 5 5 5 5 5 5 3 5 5 3 5 5 5 5 5 3 3 5 5 5 5 3 3 5 3 5 5 5 5 3 5 5 5 5 5 3 5 5 5 5 3 5 5 5 5 5 5 5 5 5 5 5 3 5 5 3 5 3 5 5 5 5 5 5 5 5 5 5 5 5 5 5 5 5 3 3 3 5 5 3 5 5 5 5 5 5 5 5 5 5 5 5 5 5 5 5 5 5 5 5 5 5 5 5 5 5 5 5 5 5 5 5 5 5 5 3 5 5 5 5 5 5 5 5 3 5 5 5 5 5 5 5 5 3 5 5 5 5 5 5 5 5 3 5 5 5 5 5 5 5 5 5 5 3 5 5 5 3 5 5 5 5 5 3 5 5 5 5 3 5 5 5 5 5 5 3 5 5 5 3 5 5 3 5 5 3 3 5 5 3 3 5 5 3 5 5 5 5 3 5 3 5 5 5 3 3 5 5 5 5 5 5 5 5 5 5 5 5 5 5 5 5 5 5 5 5 5 5 5 5 5 5 5 5 5 5 5 5 5 5 5 5 5 5 5 5 5 5 5 5 5 5 5 5 3 5 5 5 5 5 5 5 5 5 5 5 5 5 5 5 5 5 5 5 5 3 5 5 5 5 5 5 5 5 5 5 3 5 5 5 5 3 5 5 5 5 5 5 5 5 5 5 5 3 5 5 5 5 3 5 3 5 5 5 3 5 3 3 5 5 3 5 5 5 5 5 3 5 5 5 5 5 5 5 5 5 5 5 5 3 5 5 3 5 5 5 5 5 5 5 3 5 5 5 3 5 5 5 5 5 5 5 3 5 5 5 5 3 5 5 3 3 5 5 5 5 3 5 5 5 5 5 5 5 5 5 5 5 5 5 5 5 5 5 5 5 5 5 5 5 5 5 3 3 5 5 5 5 5 5 5 5 5 5 5 5 5 3 3 3 5 5 3 3 5 5 5 5 5 3 5 5 5 3 5 5 5 5 5 3 5 5 5 3 5 5 5 5 5 5 5 5 5 3 5 5 5 3 5 3 5 5 3 5 3 5 5 5 5 3 5 5 3 5 5 5 5 5 3 5 5 3 5 3 5 3 5 5 5 5 5 5 5 3 5 5 5 5 5 5 5 5 5 5 5 5 5 5 3 5 3 5 5 5 5 5 3 5 3 5 5 3 5 5 5 5 5 3 5 5 5 5 3 5 3 5 3 5 5 3 5 5 5 5 3 5 3 5 5 5 5 3 3 3 5 5 3 5 5 3 3 5 5 5 3 5 5 3 3 5 5 5 5 3 5 5 5 5 5 5 5 5 5 5 5 5 3 5 5 3 5 5 5 5 5 5 5 5 5 5 5 5 5 5 5 5 5 5 5 5 5 5 5 5 5 5 5 3 5 5 5 5 5 5 5 5 5 5 5 5 5 5 5 5 5 5 5 5 5 5 5 5 5 5 5 5 5 5 5 5 5 5 5 5 3 5 5 5 5 5 3 3 5 5 5 5 5 5 3 5 5 5 5 5 5 3 5 3 5 3 5 5 5 5 5 5 5 5 5 5 5 5 5 5 5 5 5 5 5 5 5 5 3 5 5 5 5 5 5 5 5 5 5 5 5 5 3 5 5 5 5 5 5 3 5 5 5 5 5 5 5 5 5 3 5 5 3 5 5 5 5 5 5 5 3 5 5 5 5 5 3 5 5 3 5 5 3 5 3 5 5 3 5 3 5 5 3 3 5 5 3 3 5 3 5 3 5 5 5 5 3 5 3 5 5 5 5 5 5 5 5 5 5 5 5 5 3 5 5 3 3 5 5 5 3 5 5 5 5 5 3 5 3 5 5 5 5 5 5 5 5 5 5 3 5 3 5 5 3 5 5 5 3 3 3 5 5 5 3 5 5 5 5 3 5 5 5 3 5 5 5 5 5 3 5 5 5 5 5 5 5 5 5 5 5 5 5 5 5 5 3 5 5 3 5 5 5 5 5 5 5 5 5 5 5 5 5 5 5 5 5 5 5 5 3 3 5 3 5 5 5 5 5 5 5 5 5 5 5 3 5 5 5 5 5 5 5 5 5 5 5 3 5 5 5 5 5 3 3 5 5 5 3 5 5 3 5 5 3 3 3 5 5 5 5 5 3 5 5 5 5 5 3 5 5 5 5 5 5 5 3 5 5 5 5 5 3 5 5 3 5 5 5 5 5 5 3 3 5 5 5 5 5 3 5 3 5 3 5 5 5 3 5 5 5 3 5 5 3 5 5 5 5 5 5 3 5 5 5 5 5 5 5 5 5 5 5 5 5 5 5 5 5 3 5 5 5 3 5 5 5 5 5 5 3 5 5 3 5 5 5 5 3 5 5 5 5 5 5 5 5 5 5 5 5 5 5 5 5 5 5 5 3 5 5 5 3 3 5 5 5 3 5 5 5 3 5 5 3 5 5 5 5 5 5 5 5 5 5 5 5 5 5 5 5 5 5 5 5 5 5 3 5 5 5 3 5 5 5 5 5 5 5 5 5 5 5 5 5 5 5 5 5 5 5 5 5 3 5 5 5 3 5 5 5 5 5 5 5 5 5 5 5 5 5 3 3 3 5 3 3 5 5 5 5 5 5 3 5 3 3 5 5 5 5 5 5 3 5 5 3 5 3 5 3 5 5 5 5 5 5 5 5 5 3 5 5 5 5 5 5 3 3 5 5 5 5 5 5 5 5 5 5 5 5 5 5 5 5 5 5 5 5 5 5 3 5 5 5 5 3 5 3 5 5 5 5 5 3 5 5 5 5 5 5 5 3 5 5 5 3 5 5 5 5 5 5 5 5 5 5 5 5 5 5 5 5 5 5 5 5 5 5 5 5 3 5 5 5 5 3 5 5 5 5 5 5 5 5 5 5 5 5 5 5 5 5 5 5 5 5 5 5 5 5 5 5 5 5 5 3 5 5 5 5 3 5 3 5 5 5 5 5 5 5 5 3 5 5 3 5 5 5 5 5 5 5 5 5 5 5 5 5 5 5 5 5 5 5 5 5 5 5 5 5 5 5 5 5 5 5 5 5 5 5 5 5 5 5 3 5 5 5 5 5 5 5 5 5 5 5 5 5 3 5 5 5 5 5 5 5 5 5 5 3 5 5 5 3 3 5 5 5 3 5 5 5 5 5 5 5 5 5 5 5 5 5 5 5 5 3 5 5 5 5 3 5 5 5 5 5 5 5 5 5 5 5 5 5 5 5 5 3 5 5 5 5 5 5 5 5 5 5 5 5 5 5 5 5 3 5 5 5 5 5 5 5 5 5 5 5 5 3 5 5 3 5 5 5 5 5 5 5 5 3 5 3 5 5 5 5 5 5 5 5 5 5 5 5 5 3 5 5 5 5 3 5 5 5 5 5 5 5 3 5 5 3 5 5 5 5 5 5 5 5 5 3 5 5 5 5 5 5 5 5 3 5 5 5 3 5 5 5 5 5 5 5 5 5 5 5 5 5 5 5 5 5 5 3 5 5 5 5 5 5 5 3 5 5 3 5 5 5 5 5 5 5 5 5 5 5 5 5 5 5 5 5 5 5 5 5 5 5 5 5 5 5 5 5 5 5 3 5 5 5 5 3 5 5 5 3 5 5 5 5 5 3 5 5 5 5 5 5 5 5 5 5 5 5 5 5 5 5 5 5 5 3 5 5 5 5 5 5 5 5 5 5 5 5 3 5 5 5 5 5 5 5 5 5 5 5 5 5 5 5 5 5 5 5 5 5 3 5 5 5 5 5 5 5 3 5 3 5 5 5 5 5 5 5 5 5 5 5 5 5 5 5 5 5 5 5 3 5 5 5 5 5 5 5 5 5 5 5 5 5 5 5 5 5 5 5 5 5 5 3 5 5 5 5 5 5 5 5 5 5 5 5 5 5 5 3 5 5 5 5 5 5 5 5 5 5 3 5 5 5 5 5 5 3 5 5 5 5 5 3 5 5 5 5 3 5 5 5 3 5 5 3 5 5 5 5 5 5 5 5 5 5 5 5 3 5 5 5 5 5 5 3 5 5 5 3 5 3 5 3 5 5 5 5 5 5 5 3 5 3 5 5 5 5 5 5 5 5 5 5 5 5 5 5 5 5 5 5 5 5 5 5 5 5 3 5 5 5 5 5 5 5 5 5 5 5 5 5 5 5 5 5 5 5 3 3 5 5 5 5 5 5 5 5 3 3 5 5 5 5 5 5 5 5 3 5 5 3 5 5 5 5 3 5 5 5 5 3 3 5 5 5 5 5 3 3 5 5 3 5 5 5 5 5 5 5 5 5 5 5 5 5 5 5 5 5 5 5 5 5 5 5 5 5 5 5 5 5 5 5 5 3 5 5 5 3 5 5 5 5 5 3 5 3 5 5 5 5 5 5 5 5 5 3 5 5 5 5 5 5 5 5 5 5 5 5 5 5 5 5 5 5 5 5 5 5 5 5 5 3 5 3 5 3 5 5 5 3 5 5 5 5 5 5 5 5 3 5 5 5 5 5 5 5 5 5 5 5 5 3 5 5 5 5 5 5 5 5 5 5 5 3 5 5 5 5 5 5 5 5 5 5 5 5 5 5 5 5 5 5 5 5 5 5 5 5 5 5 3 5 3 5 5 3 5 5 5 5 5 3 5 5 5 5 5 5 5 5 3 5 5 5 5 5 5 5 3 5 5 3 5 5 5 5 5 5 5 5 5 3 5 5 5 5 5 5 5 3 5 5 3 5 5 5 5 5 5 3 5 3 5 5 5 5 5 5 5 5 5 5 5 5 3 5 5 5 5 3 5 5 5 5 5 5 5 3 5 5 5 5 3 5 5 3 5 5 3 5 5 5 5 5 5 5 5 5 5 5 5 5 5 5 5 5 5 5 5 5 5 5 3 5 3 5 5 5 5 5 3 5 5 5 5 5 5 3 5 5 5 5 5 3 5 5 5 3 5 5 5 5 3 5 5 3 3 3 3 5 5 5 5 3 5 5 5 5 5 5 5 5 5 5 5 3 5 5 5 5 3 5 5 5 5 5 5 5 5 5 5 5 5 5 5 5 5 5 5 3 5 5 5 5 5 5 3 5 5 3 5 5 3 5 5 5 5 5 5 5 5 3 5 5 5 5 3 5 5 5 5 5 5 5 5 5 5 5 5 5 5 5 5 5 5 3 3 3 5 5 3 5 5 5 3 5 5 5 5 5 5 5 5 5 5 5 5 5 5 3 5 3 5 5 5 3 5 5 5 5 5 5 5 5 5 5 5 5 5 5 3 5 5 5 3 3 5 5 5 5 5 5 5 5 5 5 5 5 5 5 5 5 5 5 5 5 5 5 5 5 5 5 5 3 5 3 5 5 3 5 5 3 5 5 5 5 3 3 5 5 5 5 5 5 5 5 3 5 5 5 5 5 5 5 5 5 5 5 5 5 5 5 5 5 3 5 3 5 5 5 5 5 5 5 5 5 5 5 5 5 5 5 5 5 5 5 5 5 5 3 5 5 5 5 5 5 5 5 5 5 5 5 5 5 5 5 3 5 5 5 5 5 5 3 5 3 5 5 5 5 5 5 5 3 5 3 5 3 5 5 5 5 5 5 3 5 3 5 5 5 5 5 5 5 5 5 5 5 5 5 3 5 5 5 5 5 5 3 5 5 5 5 3 5 5 3 5 3 5 5 3 3 5 5 5 5 5 3 5 5 5 3 5 5 5 5 5 5 5 5 3 5 5 5 5 5 5 5 5 5 5 5 5 5 5 5 5 5 5 5 5 5 5 5 5 5 5 3 5 3 3 5 5 5 5 5 5 5 3 5 5 5 5 3 3 3 3 5 5 5 5 3 5 3 5 5 5 3 3 5 5 5 3 5 3 5 5 5 5 5 5 5 3 5 5 5 3 5 5 5 3 5 3 5 5 5 3 3 5 5 3 5 5 3 3 5 5 3 5 5 5 5 3 3 5 5 5 5 5 3 5 3 5 5 5 5 5 5 3 5 5 5 5 5 5 3 5 5 5 3 5 5 5 5 5 5 5 5 5 5 5 5 5 5 3 3 3 5 3 5 5 5 5 3 5 5 5 5 5 5 5 5 5 5 5 5 5 5 5 5 5 5 5 5 5 3 5 5 5 3 5 3 5 3 5 5 5 3 5 5 5 5 5 5 5 5 5 5 5 3 5 5 5 3 5 5 5 5 3 5 5 5 3 5 3 3 5 3 5 5 5 5 5 5 5 5 5 5 5 5 5 5 5 5 5 5 5 5 5 3 3 5 5 5 5 3 5 5 3 5 5 5 5 5 5 5 5 5 5 3 5 5 5 3 5 3 3 5 5 5 5 5 5 5 5 5 3 5 3 5 5 3 5 3 5 3 5 5 3 5 5 5 3 5 5 5 5 5 5 5 5 3 5 5 5 5 3 5 5 5 5 5 5 3 5 5 3 5 3 5 5 5 5 3 3 5 5 5 3 5 3 5 5 5 3 5 5 5 3 5 5 5 5 5 5 5 5 5 5 5 5 5 5 5 5 5 5 5 5 5 5 5 5 5 3 3 5 5 5 5 5 5 3 5 5 5 3 5 5 5 3 5 3 3 5 5 5 5 5 5 5 5 5 5 5 5 5 3 3 5 5 5 3 5 5 5 5 5 5 5 5 5 5 5 5 5 5 3 5 5 3 5 3 5 3 5 5 5 5 5 5 5 5 5 3 5 5 5 5 5 3 5 5 5 3 5 5 5 5 5 3 5 5 3 5 5 5 5 5 5 5 5 3 5 5 3 5 3 5 5 3 3 5 3 5 3 5 5 5 5 5 3 5 3 5 3 5 5 5 5 3 3 5 3 5 3 5 5 5 5 3 3 5 5 5 5 5 3 5 5 5 3 5 3 3 5 3 5 5 5 5 5 5 3 5 5 5 5 3 5 5 5 5 3 3 5 5 5 5 5 5 5 5 5 5 5 5 3 5 5 5 5 5 5 5 5 5 5 5 5 5 5 5 5 3 5 5 5 3 5 5 5 5 3 3 5 5 5 5 5 3 5 5 3 5 5 5 3 5 3 5 3 3 5 3 5 5 5 3 5 5 3 3 5 5 5 3 3 5 3 5 5 3 5 5 5 5 3 5 5 5 5 5 5 5 5 3 3 5 5 5 5 5 3 5 3 5 5 5 5 5 5 5 5 5 5 5 3 3 5 5 5 5 5 5 5 5 3 5 5 3 5 5 5 5 3 5 3 5 5 5 5 5 5 5 5 5 3 5 5 5 5 5 5 5 5 5 5 5 5 5 5 5 5 5 5 5 5 5 5 5 5 5 5 3 5 5 5 5 5 5 5 5 5 3 5 5 3 5 5 5 5 5 5 5 5 5 5 5 5 5 5 5 5 3 5 3 5 5 5 5 5 3 5 5 5 3 5 5 3 5 5 5 5 5 5 5 5 5 5 5 5 5 5 5 5 5 3 5 5 5 5 5 5 5 5 5 5 3 5 5 5 5 5 5 5 5 5 5 5 5 5 5 5 5 5 5 5 5 5 5 5 5 5 3 5 5 5 5 5 5 5 5 5 5 5 5 5 5 5 5 5 5 5 5 5 5 5 5 5 5 3 3 5 5 5 3 5 3 5 3 3 5 5 5 5 5 5 5 5 3 5 3 5 5 3 5 5 3 5 5 5 5 5 5 5 5 5 5 5 5 5 5 5 5 5 5 5 5 5 5 5 5 5 5 5 5 5 5 5 5 5 5 5 5 5 3 3 5 5 5 5 5 5 5 5 3 3 5 5 5 5 5 5 5 5 5 5 5 5 5 5 5 5 5 5 5 5 3 3 5 5 5 3 5 5 5 5 5 5 3 5 5 5 5 5 5 5 5 5 5 5 3 5 5 3 5 5 3 5 5 5 5 5 5 5 5 5 5 5 5 5 3 5 3 5 5 5 5 3 5 5 3 5 3 5 3 5 5 3 5 5 3 5 5 5 5 5 5 5 5 5 5 5 5 5 5 5 5 5 5 5 5 5 5 5 5 5 5 3 5 5 3 5 5 5 5 5 5 3 5 5 5 5 5 5 5 5 5 5 3 5 5 5 5 5 5 5 5 5 5 5 3 5 5 5 3 3 5 5 5 5 5 5 3 5 5 5 3 5 5 3 5 5 3 5 3 5 5 5 5 5 5 5 3 5 5 3 3 5 5 5 3 3 5 3 5 3 5 5 5 3 5 5 5 3 3 5 5 5 5 3 5 5 5 5 3 3 5 5 5 3 3 5 5 5 5 5 3 5 5 5 3 3 5 5 5 5 3 5 5 5 5 5 5 5 5 5 5 5 5 5 5 5 3 3 5 5 5 5 5 3 5 5 5 5 5 3 3 5 5 5 5 5 5 3 5 5 5 5 5 5 5 5 5 5 5 5 3 5 3 5 5 5 5 5 5 5 3 5 5 3 5 3 5 5 5 5 5 3 5 5 5 3 5 5 5 5 5 5 3 5 5 5 5 5 5 5 5 5 5 5 5 5 5 5 5 5 5 5 5 5 3 5 3 5 5 3 5 5 5 5 5 5 3 5 5 5 5 5 5 5 5 5 5 5 5 5 5 5 3 5 5 5 5 5 5 5 3 5 5 3 5 5 5 5 5 5 5 5 5 5 5 5 5 5 5 5 5 5 5 5 5 5 5 5 5 5 5 5 5 5 5 5 5 5 5 5 5 5 5 5 3 3 5 5 5 5 5 5 5 5 3 5 3 5 3 3 5 3 5 5 5 5 3 5 5 5 5 5 5 5 5 5 5 5 5 5 5 5 5 5 5 5 5 5 5 5 5 5 5 5 5 5 5 5 5 3 5 5 5 5 3 3 5 5 5 5 5 5 5 5 5 5 5 5 5 5 5 5 5 5 3 5 5 5 5 5 5 3 5 3 3 5 3 3 5 5 5 5 3 3 5 5 5 5 5 5 5 5 5 5 5 5 5 5 5 5 5 5 5 5 5 5 5 5 5 5 5 5 5 5 5 5 5 5 5 5 5 5 5 5 5 3 5 3 5 5 3 5 5 5 3 3 5 3 5 5 5 5 5 5 3 5 5 5 3 5 5 5 3 5 5 3 3 3 5 5 5 3 5 5 5 3 5 5 5 5 3 5 5 5 5 5 5 3 5 5 5 5 5 5 5 5 5 5 5 3 5 5 5 5 5 3 5 5 5 5 3 5 5 5 5 5 5 5 5 5 5 5 5 5 5 5 3 5 5 5 5 5 5 5 5 5 5 5 5 5 5 5 5 5 5 5 5 5 5 5 5 5 5 3 5 5 5 5 5 5 5 5 5 5 5 5 5 5 5 5 5 3 5 5 5 5 5 5 5 5 5 5 5 5 5 3 3 5 5 3 5 3 5 5 5 5 5 5 5 5 5 5 5 5 5 3 5 5 5 5 5 3 5 5 5 5 5 5 5 5 5 5 5 5 5 5 5 5 5 5 5 5 5 5 5 5 5 5 5 5 5 3 5 5 5 5 5 5 5 5 5 5 3 5 5 5 5 5 5 5 5 5 5 5 5 5 5 5 5 5 5 5 5 5 5 5 5 5 5 5 5 5 5 5 5 5 5 5 5 5 3 5 5 5 3 5 5 5 5 5 5 5 5 3 5 5 5 5 5 5 3 5 5 3 5 5 5 5 5 5 5 5 5 5 5 5 5 5 5 5 3 5 5 5 3 5 5 5 5 5 5 5 5 5 5 5 5 5 5 5 3 5 5 3 5 5 5 5 5 5 5 5 5 5 5 5 3 5 3 5 5 5 5 3 5 5 3 5 5 3 3 3 5 5 5 5 5 5 5 3 5 5 5 5 5 5 3 5 5 5 3 5 3 5 5 5 5 5 5 5 5 5 5 5 5 5 5 5 5 5 5 3 5 3 5 5 5 3 5 3 5 5 3 5 5 5 5 5 3 5 5 5 3 5 5 5 5 5 5 5 5 5 5 5 5 5 5 5 5 5 5 5 3 5 5 3 5 3 5 5 3 5 5 5 3 5 5 5 5 3 5 5 5 5 5 5 5 3 5 5 3 5 5 3 5 5 5 3 5 5 5 5 3 5 5 5 5 5 5 5 5 3 5 5 5 5 5 5 3 5 5 5 5 5 3 5 5 5 5 5 5 3 5 5 5 5 5 5 5 5 3 5 5 5 5 5 5 5 5 5 5 5 5 5 5 5 5 5 5 5 5 5 5 5 5 5 3 5 3 3 5 5 5 5 5 5 3 5 5 5 5 5 5 5 5 5 5 5 5 3 5 5 5 5 5 5 5 5 5 3 5 5 5 3 5 5 3 3 5 5 5 5 5 5 5 5 5 5 5 5 5 5 5 5 5 5 5 5 5 3 5 5 5 5 3 5 5 5 5 3 5 3 5 5 5 5 3 5 5 5 5 5 5 3 5 5 5 5 5 5 5 5 3 5 3 5 5 5 3 5 5 5 3 5 3 5 5 3 5 5 5 3 3 5 5 5 5 3 5 5 3 5 5 5 3 5 5 5 5 5 5 3 5 5 5 5 3 5 3 3 5 5 5 5 3 5 5 3 5 5 5 3 5 5 5 5 5 5 3 5 3 3 5 5 5 5 5 5 3 5 5 5 5 5 5 5 5 5 5 5 5 5 5 5 5 5 5 5 5 5 3 5 3 5 5 5 5 5 5 5 5 5 5 5 5 5 5 5 5 5 5 5 5 5 5 5 5 5 5 5 5 5 5 5 5 5 5 5 5 5 5 5 5 5 5 5 5 5 5 5 5 5 5 5 5 5 5 5 5 5 5 3 5 5 5 5 5 3 5 5 5 5 5 5 5 5 3 5 5 5 5 5 5 5 5 5 5 3 5 5 5 5 5 5 5 5 5 5 5 5 5 5 5 5 5 5 5 5 5 5 5 5 5 5 5 5 5 5 5 5 5 5 5 5 5 5 5 5 5 5 5 5 5 5 5 5 5 5 5 5 5 5 5 5 5 5 5 5 5 5 5 5 5 5 5 5 5 5 5 5 3 5 5 3 5 3 5 5 5 5 5 5 3 5 3 5 5 5 5 5 5 5 5 3 5 5 3 5 5 5 5 5 5 5 5 3 5 5 5 5 3 5 5 3 5 5 5 5 5 5 3 3 5 5 5 5 5 5 5 5 5 5 5 5 3 5 5 3 3 5 5 5 5 5 3 5 3 5 5 5 5 5 3 3 5 5 5 3 5 5 5 5 5 5 3 5 5 5 5 5 3 5 5 3 5 5 5 5 5 3 5 5 3 3 5 3 5 3 5 5 5 5 3 5 5 5 5 5 5 5 5 3 5 5 5 3 5 5 5 5 5 3 3 3 5 5 3 5 3 5 3 3 3 3 5 5 5 5 5 5 5 5 3 5 5 5 5 5 5 5 5 5 5 5 3 5 5 5 5 5 5 5 5 5 3 3 5 5 5 5 5 5 5 5 5 5 5 5 5 5 5 5 5 5 3 5 5 5 5 5 5 5 5 5 5 5 5 5 5 3 5 5 5 5 5 3 5 3 3 5 5 3 5 5 3 5 5 5 5 5 5 5 5 5 5 5 5 5 5 5 5 5 5 5 5 5 5 3 3 5 5 5 5 5 3 5 5 3 5 5 3 5 5 5 5 5 3 5 5 5 3 5 5 5 5 3 3 5 5 5 5 3 5 3 5 5 5 3 3 5 5 5 5 5 5 5 5 5 5 3 5 5 5 5 3 5 5 5 5 5 5 5 3 5 5 5 5 5 5 5 5 5 5 5 3 5 5 3 5 5 5 5 5 5 5 5 5 5 5 3 5 5 3 5 5 5 5 5 3 5 3 5 3 5 5 5 5 5 3 5 3 5 5 5 3 5 5 5 5 5 3 5 5 3 5 3 5 5 5 5 5 5 5 5 5 5 5 5 5 5 5 5 5 5 3 5 5 5 5 5 5 3 5 5 3 5 5 5 3 5 5 5 5 3 5 5 5 5 5 5 3 5 5 3 5 5 5 5 5 5 5 5 5 5 5 5 5 5 5 5 5 5 5 5 5 5 5 3 5 5 5 5 5 3 5 5 5 3 5 3 5 3 5 5 5 5 5 3 5 5 3 5 3 5 5 5 5 5 5 5 5 5 5 3 5 5 5 5 3 3 5 5 5 3 5 5 3 5 5 5 5 5 5 5 5 5 5 5 5 5 5 3 5 5 5 5 5 5 5 3 5 5 5 5 5 5 5 5 5 5 3 3 5 3 5 3 5 5 3 5 5 5 5 5 5 5 5 5 5 3 5 5 5 3 5 5 5 5 3 5 5 5 5 5 5 5 5 5 3 5 5 5 5 5 5 5 5 5 5 5 5 5 5 5 5 5 5 5 5 5 5 5 5 5 5 5 5 5 5 5 5 5 5 5 5 5 5 5 5 5 5 5 5 5 5 5 5 5 5 3 5 5 5 5 5 5 5 5 5 5 5 5 5 5 5 5 3 5 5 5 5 3 5 5 5 5 5 3 5 3 5 3 5 5 5 3 5 5 5 5 5 5 3 5 3 5 5 5 5 5 3 5 5 5 5 5 5 5 3 5 5 5 5 5 5 5 5 5 5 5 5 5 5 3 5 3 5 5 5 5 5 5 5 5 3 5 5 3 5 5 5 5 3 5 3 5 5 5 5 5 3 5 5 5 5 5 5 3 5 5 5 5 5 3 5 5 5 3 5 5 3 5 5 3 5 5 5 3 5 3 5 5 5 5 5 5 5 5 5 5 5 5 5 5 5 5 5 5 5 3 5 5 5 5 5 5 5 5 5 5 5 5 5 5 3 5 5 5 5 3 3 5 3 5 5 3 5 3 5 3 5 3 5 5 5 5 5 5 5 3 5 5 5 5 5 5 5 3 3 5 3 5 5 3 3 5 5 5 3 5 5 3 5 5 3 5 5 5 3 3 5 5 5 5 5 5 3 5 5 5 5 5 5 5 5 5 5 5 5 5 5 5 5 5 3 5 5 5 5 3 5 5 5 5 5 5 3 5 5 5 3 5 5 5 5 3 5 3 5 5 3 5 3 3 5 5 5 3 5 5 3 5 3 5 3 3 5 5 3 5 5 5 5 5 5 5 5 5 5 5 5 5 3 5 5 5 5 5 5 5 5 5 5 5 3 5 5 5 5 5 5 5 5 5 5 5 5 3 5 5 3 5 5 3 5 5 5 3 5 5 5 5 5 5 5 5 3 5 5 5 5 5 5 5 5 5 5 3 5 5 3 5 5 3 5 5 5 5 5 5 3 5 5 5 5 5 5 5 5 5 3 5 5 5 5 5 5 5 5 3 3 5 5 5 5 5 5 5 5 5 5 5 5 5 5 5 5 5 3 5 5 5 5 5 5 5 5 5 5 3 5 5 5 5 5 5 5 5 3 5 5 5 5 5 5 3 3 5 5 3 5 5 3 5 5 5 5 3 5 5 3 5 5 5 5 5 5 5 5 5 5 5 5 5 5 5 5 5 5 5 5 5 5 5 5 3 5 5 5 5 5 5 5 5 5 5 5 5 5 5 5 3 5 5 5 5 5 5 3 5 5 5 5 5 5 5 5 5 5 5 5 5 5 5 5 5 5 5 5 5 3 5 5 5 5 3 5 5 3 3 5 5 5 5 5 5 5 5 5 5 5 5 5 5 5 5 5 5 3 5 5 5 5 5 5 5 5 5 5 5 5 5 5 5 5 5 3 5 5 5 5 3 5 5 5 5 5 5 5 5 5 3 5 3 5 5 5 5 5 3 3 5 5 5 3 5 3 5 3 5 5 3 5 3 5 5 3 3 5 5 5 3 5 5 5 5 3 5 5 5 5 5 5 5 5 3 5 3 3 3 5 5 3 5 3 5 5 5 3 3 5 3 5 3 5 5 3 5 3 3 5 3 5 3 5 5 5 3 5 3 5 5 3 5 5 5 5 5 5 3 5 5 5 5 3 5 3 5 5 3 5 3 5 3 5 3 5 5 5 3 5 5 5 5 5 3 5 3 5 5 5 3 5 5 5 5 5 5 5 5 5 5 5 5 5 5 5 3 5 3 5 5 5 5 5 5 5 5 5 5 5 5 5 5 5 5 3 5 3 5 3 5 5 3 5 5 3 5 3 5 5 5 5 5 5 5 5 5 5 5 5 5 5 5 5 5 5 5 5 3 5 5 5 5 5 5 5 5 5 5 5 5 5 5 3 5 5 5 5 5 5 5 5 5 5 5 5 5 5 5 5 5 5 5 3 5 5 5 5 5 3 5 5 5 5 3 5 5 5 5 5 5 5 5 5 5 5 5 5 5 5 5 5 5 5 5 5 5 5 5 5 5 5 3 5 5 5 5 5 5 5 5 5 5 5 3 5 5 5 5 5 5 3 5 5 5 5 5 5 5 5 5 5 5 5 5 5 5 5 3 5 5 3 5 5 5 5 3 5 5 5 5 5 5 5 5 5 5 3 5 5 5 5 5 5 5 5 5 5 3 5 5 5 5 5 3 5 5 5 5 5 3 5 5 5 5 5 5 5 5 5 5 5 3 5 5 5 3 5 3 5 5 5 5 5 3 5 5 5 5 5 5 5 5 5 5 5 5 5 3 5 5 5 5 5 5 5 5 5 5 5 5 5 3 5 5 3 5 5 5 5 5 5 5 5 5 5 5 5 3 5 5 3 5 3 3 5 5 5 5 5 3 3 5 5 3 5 3 5 5 5 5 5 5 5 5 5 5 5 5 5 5 5 5 5 5 5 3 5 5 5 5 5 5 5 5 5 5 3 5 5 5 3 5 3 5 5 5 3 5 5 5 5 5 5 3 5 5 5 5 5 5 3 5 5 5 5 3 5 5 3 5 5 5 3 5 5 5 5 5 3 5 5 3 5 3 5 5 5 5 5 5 5 5 3 5 5 5 5 5 5 5 5 3 5 5 3 5 5 5 5 5 3 5 3 5 5 5 5 5 5 3 5 5 5 5 5 3 5 5 5 5 5 3 5 3 5 5 5 5 5 5 5 5 5 5 5 5 5 5 5 5 5 5 5 5 5 5 5 5 5 5 5 3 5 5 5 5 5 5 5 5 5 5 5 5 5 5 5 5 3 5 5 3 5 5 5 3 5 3 5 5 5 5 5 5 3 3 5 5 5 5 5 5 5 5 5 5 5 5 5 3 5 3 5 3 5 3 5 5 5 5 3 5 3 5 5 5 5 5 5 5 3 5 5 3 5 5 5 5 5 5 5 5 5 5 5 5 5 5 3 5 3 5 3 5 5 3 5 5 3 5 5 5 5 5 3 5 5 5 5 5 5 3 5 5 5 5 5 5 5 5 5 5 5 5 3 3 5 3 5 5 5 5 5 5 5 5 5 5 5 3 5 5 5 5 5 5 5 5 5 5 5 5 5 5 5 5 5 5 5 5 5 5 5 3 5 5 5 5 5 3 5 5 5 5 5 3 5 5 5 3 5 5 5 5 5 5 5 5 5 5 5 5 5 5 5 5 5 5 5 5 5 5 5 5 5 3 5 5 5 5 5 5 5 5 5 5 5 5 5 5 5 5 5 5 3 5 5 5 5 5 5 5 5 5 5 5 5 5 5 5 5 5 5 3 3 5 5 5 5 5 5 3 5 5 5 5 5 5 5 5 3 5 5 3 5 5 5 5 5 5 5 5 5 5 5 5 5 5 5 5 5 5 5 5 5 5 5 5 5 5 5 5 5 5 5 5 3 5 5 5 5 5 5 5 5 5 5 3 5 5 5 5 5 5 5 5 5 5 5 5 5 5 3 5 5 5 5 5 5 3 5 5 5 5 5 5 3 5 5 5 5 5 5 5 3 5 5 5 5 5 5 5 5 5 5 5 5 5 5 5 5 3 5 3 5 5 5 5 5 5 5 5 3 5 5 5 5 5 3 5 5 5 3 5 5 5 5 5 5 5 5 5 5 5 5 3 5 3 5 5 5 3 5 5 5 3 5 5 5 5 5 5 3 5 5 5 5 3 5 5 5 3 3 3 5 5 5 5 3 5 5 5 5 5 5 5 3 5 3 5 5 5 5 5 3 5 5 5 3 5 5 3 5 5 3 5 5 3 5 5 5 3 5 5 5 5 5 5 5 3 5 5 5 5 5 5 5 5 5 3 5 5 5 5 3 5 5 3 5 5 5 5 5 5 5 3 5 5 5 3 3 5 5 5 3 5 5 5 3 5 5 3 5 3 3 5 5 5 5 3 5 5 3 5 5 3 5 3 5 5 5 5 5 5 5 5 3 5 3 5 5 5 5 5 5 5 5 5 5 5 5 5 5 5 5 5 5 5 5 5 5 5 5 5 5 5 3 5 3 5 5 5 5 5 5 3 5 5 5 3 5 3 5 5 5 5 5 5 5 5 5 5 5 5 5 5 5 5 5 5 5 5 5 5 5 5 3 5 5 5 5 5 3 5 5 5 5 5 5 5 5 5 3 5 5 5 3 5 5 5 3 5 5 5 3 5 5 5 5 5 5 5 5 5 5 5 3 5 5 5 3 5 5 5 5 5 5 5 3 5 5 5 5 5 3 5 5 5 5 5 5 5 5 5 5 5 5 5 5 5 5 5 5 5 5 5 5 5 5 5 5 5 5 5 5 5 5 5 5 5 5 5 5 5 5 5 5 5 5 5 5 5 5 5 5 5 5 5 5 5 5 5 5 5 3 5 5 5 5 3 5 5 5 5 5 3 3 5 5 5 5 3 5 5 3 5 5 5 5 3 5 5 5 3 5 3 5 5 3 5 5 5 3 5 5 5 5 5 5 3 5 5 5 3 3 5 3 5 5 5 3 3 5 5 5 3 5 3 5 3 5 5 3 5 5 3 5 5 5 5 5 5 5 5 5 5 5 3 5 3 5 5 5 5 5 5 5 5 5 5 5 5 3 5 3 5 3 5 5 5 5 5 5 5 5 5 5 3 5 5 3 5 5 5 5 5 5 5 5 5 5 5 5 5 5 5 5 5 5 5 5 5 5 5 5 5 5 5 5 5 5 5 5 5 3 5 5 3 5 5 5 5 5 5 3 3 5 5 5 5 5 3 5 5 5 5 5 5 5 5 3 5 5 5 5 3 5 5 5 5 5 5 5 3 5 5 5 5 5 5 5 3 5 3 5 5 5 3 5 5 5 5 3 5 5 5 5 3 5 5 5 5 5 5 5 5 5 3 3 5 5 5 5 5 3 5 5 3 5 3 3 5 3 3 5 5 3 3 5 5 5 5 5 3 5 5 5 5 3 3 5 5 3 5 5 3 5 5 3 3 5 5 5 5 5 5 5 5 3 5 3 5 5 5 5 5 3 5 5 5 3 5 3 5 5 5 5 5 5 5 5 5 5 5 5 3 5 5 5 5 3 3 5 5 5 5 5 5 5 5 5 5 5 5 5 5 5 3 5 5 5 5 5 5 5 5 5 3 5 5 5 5 3 5 5 5 5 5 5 5 5 5 5 5 5 3 5 5 3 5 5 5 5 5 5 5 5 5 5 5 5 5 5 5 5 5 5 5 5 5 5 5 5 3 3 5 5 5 5 5 5 5 5 5 5 5 5 3 5 5 5 5 5 3 5 5 5 3 5 5 3 3 3 5 5 3 5 5 3 5 3 5 5 5 5 5 5 5 5 5 3 5 3 5 5 5 3 5 5 3 5 3 3 5 3 5 3 5 5 3 5 5 3 5 5 5 5 5 5 5 5 5 5 5 5 5 5 5 5 5 3 5 5 5 5 3 5 3 3 3 5 5 5 5 5 3 5 3 5 5 5 3 5 5 5 5 5 3 5 5 5 5 5 3 5 5 5 5 5 3 5 5 5 5 5 5 5 5 5 5 3 5 3 5 5 5 5 5 5 5 5 5 5 5 5 5 5 5 5 5 5 5 5 5 5 5 5 5 5 5 5 5 5 5 3 3 5 5 3 5 5 5 3 5 5 3 5 5 5 3 3 5 5 3 5 5 5 5 5 3 5 3 5 5 5 5 5 3 5 5 5 5 5 5 5 5 5 3 5 5 5 5 5 3 5 5 5 5 3 5 5 5 5 5 5 3 5 5 3 5 5 5 5 3 5 3 5 5 5 5 3 5 5 3 5 3 5 3 5 5 3 5 5 3 5 5 5 5 3 5 5 3 5 5 5 5 5 5 5 5 5 5 5 5 3 5 5 5 5 5 5 5 5 5 3 5 3 5 5 3 5 3 5 5 5 5 5 3 5 5 3 5 5 3 5 5 3 5 5 5 3 5 5 3 5 5 5 3 5 5 5 5 5 5 5 5 5 5 3 5 3 5 3 5 5 5 5 5 5 5 5 3 5 5 5 3 5 5 5 5 5 5 5 5 5 5 5 5 5 5 5 3 5 5 3 5 5 3 3 5 5 5 5 5 5 5 5 5 5 5 3 5 3 5 5 3 5 3 5 3 3 5 5 5 5 5 5 5 3 5 5 3 5 3 5 5 5 5 5 5 5 5 5 5 5 5 5 3 3 5 5 5 5 5 5 3 5 5 5 5 5 5 5 5 5 3 5 5 5 5 5 5 3 5 5 5 3 5 5 5 5 3 5 5 5 5 5 3 3 5 3 5 5 3 5 5 3 5 5 3 5 5 5 3 3 5 3 5 5 3 5 5 5 5 5 5 5 5 5 5 5 5 3 3 5 5 5 5 5 3 5 5 5 5 3 5 5 3 3 5 5 3 3 5 5 5 3 5 3 5 5 5 5 5 5 5 5 5 5 5 5 3 5 5 5 3 5 5 5 5 3 3 5 5 3 5 3 3 5 5 3 5 5 3 5 5 5 3 5 5 5 5 5 5 3 5 5 5 5 5 5 5 5 5 3 5 5 3 5 5 5 5 5 5 5 5 5 5 5 5 5 5 5 3 5 5 5 3 5 5 3 5 3 3 5 3 5 5 3 5 5 5 5 5 5 5 5 5 3 5 5 3 3 5 5 3 5 5 5 5 5 3 5 5 5 5 3 3 5 5 5 3 5 5 5 5 5 5 5 3 5 5 5 5 5 5 3 5 5 5 5 5 5 5 5 5 5 5 3 5 3 5 5 5 5 3 5 5 5 5 5 5 5 5 5 5 5 5 5 5 5 3 5 5 5 5 3 5 3 5 3 5 5 5 5 5 5 5 5 3 3 5 5 3 5 5 5 3 5 3 5 5 5 5 5 5 5 5 5 3 5 3 5 5 5 5 3 5 5 5 5 5 5 5 5 5 3 5 5 5 5 3 5 5 5 3 5 5 3 5 3 5 5 5 5 5 5 5 5 5 5 5 5 5 5 3 3 5 5 5 5 5 5 3 5 5 5 5 5 3 5 5 5 5 5 5 3 5 5 3 5 5 5 5 5 5 5 5 5 5 3 5 5 5 5 3 5 5 5 3 5 5 5 5 5 5 5 5 5 5 3 5 5 5 5 5 5 5 5 5 5 3 5 5 5 5 5 5 5 5 3 5 5 5 5 5 5 5 5 3 3 5 5 5 3 5 5 5 5 5 5 5 5 5 5 5 5 5 5 5 5 5 3 5 3 5 5 5 5 5 5 5 5 3 5 5 5 5 5 5 5 5 3 3 5 5 5 5 5 5 5 5 5 5 5 5 5 3 5 5 5 5 5 5 5 3 5 5 3 5 5 5 3 5 5 5 5 5 3 5 5 3 5 3 5 5 5 5 3 5 5 5 5 5 5 5 5 5 5 3 5 5 3 5 5 5 3 5 5 5 5 3 5 5 5 5 3 5 3 5 5 5 5 5 5 5 3 3 5 5 5 5 5 5 5 5 5 3 5 5 5 5 5 3 3 5 5 5 5 3 5 3 5 5 3 5 5 5 5 3 5 5 5 5 3 3 3 5 3 5 5 3 5 5 5 5 5 5 5 5 5 3 5 5 5 5 5 5 5 5 5 5 5 5 3 5 5 5 5 5 5 5 5 5 3 3 5 3 5 3 5 3 5 5 
</DataArray>
</Cells>
<PointData Scalars="" Vectors="displacement," Tensors="">
<DataArray type="Float64" Name="displacement" NumberOfComponents="3" format="ascii">
-9.2802700534497679e-07 -0.034998028203403093 0 -6.6018196361975783e-05 -0.033523028521316126 0 1.7826240525488275e-06 -0.031766815831297521 0 -9.2802700534497679e-07 -0.034998028203403093 0 -8.8510340933599363e-05 -0.034599861468067532 0 6.9796478239318927e-08 -0.03499930649271718 0 -9.2802700534497679e-07 -0.034998028203403093 0 -6.6018196361975783e-05 -0.033523028521316126 0 -8.8510340933599363e-05 -0.034599861468067532 0 -6.6018196361975783e-05 -0.033523028521316126 0 -3.1063665769942266e-05 -0.03432623828949237 0 -8.8510340933599363e-05 -0.034599861468067532 0 -6.6018196361975783e-05 -0.033523028521316126 0 -3.1063665769942266e-05 -0.03432623828949237 0 0.00010435352027192618 -0.033969665770139053 0 -3.1063665769942266e-05 -0.03432623828949237 0 -7.0794630586509103e-05 -0.034706956157905693 0 3.6046386358430438e-05 -0.034806923268048982 0 -3.1063665769942266e-05 -0.03432623828949237 0 -8.8510340933599363e-05 -0.034599861468067532 0 -7.0794630586509103e-05 -0.034706956157905693 0 -3.1063665769942266e-05 -0.03432623828949237 0 3.6046386358430438e-05 -0.034806923268048982 0 0.00039541311150823651 -0.034460802485310499 0 -3.1063665769942266e-05 -0.03432623828949237 0 0.00015309143331423679 -0.034072472378654121 0 0.00010435352027192618 -0.033969665770139053 0 0.00012954435656255457 -0.034147648715630814 0 0.00017259203293540132 -0.033496790929918835 0 -8.8510340933599363e-05 -0.034599861468067532 0 -7.0794630586509103e-05 -0.034706956157905693 0 6.9796478239318927e-08 -0.03499930649271718 0 6.1533287613341962e-09 -0.034999992829447088 0 -2.5571426140946511e-06 -0.034995860292533945 0 -7.822468313281102e-09 -0.034999988671726004 0 0.00032389274987064826 -0.035078086048041274 0 -0.00027246065791633088 -0.033397553666721078 0 6.1533287613341962e-09 -0.034999992829447088 0 -2.5571426140946511e-06 -0.034995860292533945 0 -1.2644187477970893e-05 -0.034983067648006121 0 6.9796478239318927e-08 -0.03499930649271718 0 -4.2501824187960791e-05 -0.03485699679911488 0 -4.4469262373582337e-05 -0.034862379320206069 0 -4.2501824187960791e-05 -0.03485699679911488 0 3.6046386358430438e-05 -0.034806923268048982 0 -4.4469262373582337e-05 -0.034862379320206069 0 -7.0794630586509103e-05 -0.034706956157905693 0 -4.2501824187960791e-05 -0.03485699679911488 0 3.6046386358430438e-05 -0.034806923268048982 0 -7.0794630586509103e-05 -0.034706956157905693 0 6.9796478239318927e-08 -0.03499930649271718 0 -4.2501824187960791e-05 -0.03485699679911488 0 -0.00024369252046042722 -0.031267283369526021 0 -0.00033736924142087148 -0.031229258824733323 0 -0.00035935146192772838 -0.031429975385694843 0 -1.936787908106453e-05 -0.032993612932515105 0 0.00017259203293540132 -0.033496790929918835 0 -0.00024369252046042722 -0.031267283369526021 0 -0.0002645281368195625 -0.031207740826737444 0 -0.00033736924142087148 -0.031229258824733323 0 -1.936787908106453e-05 -0.032993612932515105 0 -0.00027246065791633088 -0.033397553666721078 0 -0.00024369252046042722 -0.031267283369526021 0 -0.0002645281368195625 -0.031207740826737444 0 -0.00020189966483148382 -0.03122060148589078 0 -0.0002645281368195625 -0.031207740826737444 0 -0.00020189966483148382 -0.03122060148589078 0 -0.00029935294552196987 -0.031139683679715185 0 -0.00027246065791633088 -0.033397553666721078 0 -0.00058484942530941423 -0.032291279502834891 0 -0.00072849171330388422 -0.033546267389511525 0 -0.0007715991223708644 -0.033389394986973651 0 -0.00085032043112955274 -0.033426610159506417 0 -0.0002645281368195625 -0.031207740826737444 0 -0.00031088796318181179 -0.031187099526061978 0 -0.00029935294552196987 -0.031139683679715185 0 -0.0002645281368195625 -0.031207740826737444 0 -0.00031088796318181179 -0.031187099526061978 0 -0.00033736924142087148 -0.031229258824733323 0 -0.00016670109150535475 -0.034375411520911128 0 -0.0004359227027855942 -0.034175482172430306 0 -4.4071763426385235e-08 -0.03500009419553389 0 -4.1820157467381055e-06 -0.035000178958004044 0 -3.7857952029416476e-05 -0.035022865088516819 0 -0.00070137162011965507 -0.033525664776744554 0 -0.00072849171330388422 -0.033546267389511525 0 -0.0007715991223708644 -0.033389394986973651 0 -2.5571426140946511e-06 -0.034995860292533945 0 -7.822468313281102e-09 -0.034999988671726004 0 -4.4961495572649201e-08 -0.034997241573975928 0 5.3669069146400517e-05 -0.03501928661207572 0 -0.00016670109150535475 -0.034375411520911128 0 -2.5571426140946511e-06 -0.034995860292533945 0 -6.6345944094548494e-06 -0.034975841990121929 0 -1.2644187477970893e-05 -0.034983067648006121 0 -3.2751456078174897e-07 -0.034999606676630129 0 -0.00016670109150535475 -0.034375411520911128 0 -0.00016670109150535475 -0.034375411520911128 0 -0.00027246065791633088 -0.033397553666721078 0 -0.00037871456157451209 -0.025994240024667221 0 -0.0004474817689340969 -0.025967296630297908 0 -0.00042761528784118042 -0.025948457076553043 0 -0.00037871456157451209 -0.025994240024667221 0 -0.00043468803571465868 -0.026042262920264535 0 -0.0004474817689340969 -0.025967296630297908 0 -0.0006410114571517567 -0.030798453209236507 0 -0.00048587614098282681 -0.030705640600282021 0 -0.00033736924142087148 -0.031229258824733323 0 -0.00041562363084442119 -0.030851063123758609 0 -0.000334407162127704 -0.031236383055903795 0 -0.00034475127591274059 -0.031154904875253589 0 -0.00031088796318181179 -0.031187099526061978 0 -0.00033736924142087148 -0.031229258824733323 0 -0.00034475127591274059 -0.031154904875253589 0 -0.00031088796318181179 -0.031187099526061978 0 -0.00029935294552196987 -0.031139683679715185 0 -0.0006410114571517567 -0.030798453209236507 0 -0.00033736924142087148 -0.031229258824733323 0 -0.00059670929419376468 -0.03137758088060448 0 -0.00033736924142087148 -0.031229258824733323 0 -0.00059670929419376468 -0.03137758088060448 0 -0.00035935146192772838 -0.031429975385694843 0 -0.00054642529784595278 -0.027529391206411007 0 3.7760101147178501e-05 -0.029898146203764485 0 3.7760101147178501e-05 -0.029898146203764485 0 -0.0001555070193858293 -0.026613636086651623 0 -0.00037871456157451209 -0.025994240024667221 0 -0.00035890054065879968 -0.026108505078067841 0 -0.00043468803571465868 -0.026042262920264535 0 3.7760101147178501e-05 -0.029898146203764485 0 0.00066831973937168921 -0.03167684016371132 0 0.001157757611977973 -0.028215400790151605 0 0.00026705431014143025 -0.029052933458580864 0 0.00025461984034215365 -0.027577368636121511 0 0.001157757611977973 -0.028215400790151605 0 0.00026705431014143025 -0.029052933458580864 0 0.0010399477177484757 -0.029495596441729832 0 -6.6018196361975783e-05 -0.033523028521316126 0 0.00059812222687377246 -0.033492516270687382 0 0.00021332716796354523 -0.033775480926350236 0 0.00064881593811046449 -0.034276350290567206 0 0.00019895137018908167 -0.034041745926355914 0 0.00059812222687377246 -0.033492516270687382 0 0.00015309143331423679 -0.034072472378654121 0 0.00019895137018908167 -0.034041745926355914 0 0.00010435352027192618 -0.033969665770139053 0 0.00017259203293540132 -0.033496790929918835 0 0.00012847886723095042 -0.033570015803284524 0 0.00064881593811046449 -0.034276350290567206 0 0.00011102570518618427 -0.034114434673190926 0 0.00019895137018908167 -0.034041745926355914 0 3.7760101147178501e-05 -0.029898146203764485 0 0.00017259203293540132 -0.033496790929918835 0 0.00019895137018908167 -0.034041745926355914 0 0.00059812222687377246 -0.033492516270687382 0 0.00021332716796354523 -0.033775480926350236 0 -6.6018196361975783e-05 -0.033523028521316126 0 0.00021332716796354523 -0.033775480926350236 0 0.00010435352027192618 -0.033969665770139053 0 0.00019895137018908167 -0.034041745926355914 0 0.00021332716796354523 -0.033775480926350236 0 0.00010435352027192618 -0.033969665770139053 0 -6.6018196361975783e-05 -0.033523028521316126 0 0.00059812222687377246 -0.033492516270687382 0 1.7826240525488275e-06 -0.031766815831297521 0 0.00066831973937168921 -0.03167684016371132 0 4.9269986653513879e-07 -0.031761918625293324 0 0.00026705431014143025 -0.029052933458580864 0 3.2893191071068261e-06 -0.031758820400467735 0 -8.768424889923571e-07 -0.029723204964008605 0 0.00026705431014143025 -0.029052933458580864 0 0.0010399477177484757 -0.029495596441729832 0 3.2893191071068261e-06 -0.031758820400467735 0 0.00026705431014143025 -0.029052933458580864 0 -8.768424889923571e-07 -0.029723204964008605 0 -0.00011682919415134781 -0.02791728203516362 0 -8.768424889923571e-07 -0.029723204964008605 0 -0.00011682919415134781 -0.02791728203516362 0 -3.8970175136841433e-07 -0.027684447385867637 0 0.00026705431014143025 -0.029052933458580864 0 -0.00011682919415134781 -0.02791728203516362 0 0.00025461984034215365 -0.027577368636121511 0 -3.8970175136841433e-07 -0.027684447385867637 0 -0.00037814027512019091 -0.02582350315017853 0 -0.00029489569212877957 -0.026694044217053414 0 -0.00011682919415134781 -0.02791728203516362 0 -3.8970175136841433e-07 -0.027684447385867637 0 -0.00029489569212877957 -0.026694044217053414 0 -3.8970175136841433e-07 -0.027684447385867637 0 -0.00037814027512019091 -0.02582350315017853 0 -5.5949340848557468e-07 -0.025646337832417956 0 -0.00037814027512019091 -0.02582350315017853 0 -0.00043749510945615842 -0.025986501338463412 0 -0.00051148948549567487 -0.025440820992384965 0 -0.00037814027512019091 -0.02582350315017853 0 -0.00043749510945615842 -0.025986501338463412 0 -0.00029489569212877957 -0.026694044217053414 0 -0.00043749510945615842 -0.025986501338463412 0 -0.0004309516963942842 -0.025908413864788822 0 -0.00051148948549567487 -0.025440820992384965 0 -0.00043749510945615842 -0.025986501338463412 0 -0.00029489569212877957 -0.026694044217053414 0 -0.0004309516963942842 -0.025908413864788822 0 -0.00029489569212877957 -0.026694044217053414 0 -0.0004309516963942842 -0.025908413864788822 0 -8.8355285796672369e-05 -0.026759022861779214 0 -0.00048305793585660359 -0.025996004304870812 0 -0.0003022013224003351 -0.026353768713263358 0 -0.0004309516963942842 -0.025908413864788822 0 -0.00047317053125570455 -0.025928128208122837 0 -0.00049272400648190024 -0.025871306313920546 0 -0.00049769297641913672 -0.025792514926035355 0 -0.00051148948549567487 -0.025440820992384965 0 -0.00046332671976180659 -0.025661931030581737 0 -0.0004309516963942842 -0.025908413864788822 0 -0.00049769297641913672 -0.025792514926035355 0 -0.00051148948549567487 -0.025440820992384965 0 -0.0001555070193858293 -0.026613636086651623 0 -0.0003022013224003351 -0.026353768713263358 0 -0.00011682919415134781 -0.02791728203516362 0 0.00025461984034215365 -0.027577368636121511 0 -8.8355285796672369e-05 -0.026759022861779214 0 -0.00011682919415134781 -0.02791728203516362 0 -0.00029489569212877957 -0.026694044217053414 0 -8.8355285796672369e-05 -0.026759022861779214 0 -0.00047258835644614151 -0.025960678410587083 0 -0.00047317053125570455 -0.025928128208122837 0 -0.0004474817689340969 -0.025967296630297908 0 -0.0004309516963942842 -0.025908413864788822 0 -0.00047258835644614151 -0.025960678410587083 0 -0.00047317053125570455 -0.025928128208122837 0 -0.00043468803571465868 -0.026042262920264535 0 -0.00047258835644614151 -0.025960678410587083 0 -0.0004474817689340969 -0.025967296630297908 0 -0.0004474817689340969 -0.025967296630297908 0 -0.0004733658462596818 -0.025920085708671593 0 -0.00042761528784118042 -0.025948457076553043 0 -0.00047317053125570455 -0.025928128208122837 0 -0.0004474817689340969 -0.025967296630297908 0 -0.0004733658462596818 -0.025920085708671593 0 -0.0004733658462596818 -0.025920085708671593 0 -0.000446355334760226 -0.025917981984041605 0 -0.00042761528784118042 -0.025948457076553043 0 -0.00047317053125570455 -0.025928128208122837 0 -0.0004733658462596818 -0.025920085708671593 0 -0.00049272400648190024 -0.025871306313920546 0 -0.0004733658462596818 -0.025920085708671593 0 -0.00051495508800918522 -0.02588258837225553 0 -0.00049272400648190024 -0.025871306313920546 0 -0.00051495508800918522 -0.02588258837225553 0 -0.00049662057774826907 -0.025886693942364904 0 -0.00056683866859356285 -0.025844815553595996 0 -0.0004733658462596818 -0.025920085708671593 0 -0.00051495508800918522 -0.02588258837225553 0 -0.00049662057774826907 -0.025886693942364904 0 -0.00049662057774826907 -0.025886693942364904 0 -0.000446355334760226 -0.025917981984041605 0 -0.00045640006351764398 -0.025871419745981453 0 -0.0004733658462596818 -0.025920085708671593 0 -0.00049662057774826907 -0.025886693942364904 0 -0.000446355334760226 -0.025917981984041605 0 -0.00060342896746046681 -0.025796517551868028 0 -0.00060794813751991524 -0.025502162584246865 0 -0.00049769297641913672 -0.025792514926035355 0 -0.00050336967176120703 -0.025871071347864708 0 -0.00046332671976180659 -0.025661931030581737 0 -0.00071470544834285909 -0.025743767001976687 0 -0.0007058757989874706 -0.02543714608493999 0 -0.00062524202112769598 -0.025719650677223687 0 -0.0004309516963942842 -0.025908413864788822 0 -0.00049769297641913672 -0.025792514926035355 0 -0.00049272400648190024 -0.025871306313920546 0 -0.00049769297641913672 -0.025792514926035355 0 -0.00049272400648190024 -0.025871306313920546 0 -0.00050336967176120703 -0.025871071347864708 0 -0.00051495508800918522 -0.02588258837225553 0 -0.00049272400648190024 -0.025871306313920546 0 -0.00050336967176120703 -0.025871071347864708 0 -0.00060342896746046681 -0.025796517551868028 0 -0.00056464359020430945 -0.025830586609619285 0 -0.00051495508800918522 -0.02588258837225553 0 -0.00050336967176120703 -0.025871071347864708 0 -0.00056683866859356285 -0.025844815553595996 0 -0.00071470544834285909 -0.025743767001976687 0 -0.00065698176153150881 -0.02580316045873908 0 -0.00062524202112769598 -0.025719650677223687 0 -0.0021058556062322764 -0.024165048210866562 0 -0.0016595161744067343 -0.024364616795139699 0 -0.00071470544834285909 -0.025743767001976687 0 -0.0006300252083810612 -0.025811375805243977 0 -0.00056683866859356285 -0.025844815553595996 0 -0.00071470544834285909 -0.025743767001976687 0 -0.00065698176153150881 -0.02580316045873908 0 -0.0006300252083810612 -0.025811375805243977 0 -0.00065698176153150881 -0.02580316045873908 0 -0.0006300252083810612 -0.025811375805243977 0 -0.00064353870753769578 -0.025792240969939574 0 -0.0006300252083810612 -0.025811375805243977 0 -0.00056447407524831661 -0.025808924632456334 0 -0.00064353870753769578 -0.025792240969939574 0 -0.0021058556062322764 -0.024165048210866562 0 -0.0023392497091623654 -0.028204751979045796 0 -0.0037342237256123797 -0.023618460325480563 0 -0.0036273228972578055 -0.024538612080976373 0 -0.0045844554847907729 -0.024794195531294951 0 -0.00045640006351764398 -0.025871419745981453 0 -0.00052097285174816253 -0.025852127478606116 0 -0.00056447407524831661 -0.025808924632456334 0 -0.00086654081477244846 -0.029530738060378359 0 -0.001028196553188447 -0.029820233708181345 0 -0.0010900853487348561 -0.033628275270073928 0 -0.0017137362624910211 -0.033456897849675538 0 -0.0012037591811151385 -0.033388172257907335 0 -0.0010900853487348561 -0.033628275270073928 0 -0.0012037591811151385 -0.033388172257907335 0 -0.00093674640522872744 -0.033320917019815759 0 -0.00049662057774826907 -0.025886693942364904 0 -0.00045640006351764398 -0.025871419745981453 0 -0.00052097285174816253 -0.025852127478606116 0 -0.0006300252083810612 -0.025811375805243977 0 -0.00056683866859356285 -0.025844815553595996 0 -0.00056447407524831661 -0.025808924632456334 0 -0.00049662057774826907 -0.025886693942364904 0 -0.00052097285174816253 -0.025852127478606116 0 -0.00056683866859356285 -0.025844815553595996 0 -0.00052097285174816253 -0.025852127478606116 0 -0.00056683866859356285 -0.025844815553595996 0 -0.00056447407524831661 -0.025808924632456334 0 -0.001028196553188447 -0.029820233708181345 0 -0.0023392497091623654 -0.028204751979045796 0 -0.0017137362624910211 -0.033456897849675538 0 -0.0011573622322722484 -0.033121329203977382 0 -0.0016274385068280311 -0.032824228584234914 0 -0.0017137362624910211 -0.033456897849675538 0 -0.0012037591811151385 -0.033388172257907335 0 -0.0011573622322722484 -0.033121329203977382 0 -0.0012037591811151385 -0.033388172257907335 0 -0.0011573622322722484 -0.033121329203977382 0 -0.00093674640522872744 -0.033320917019815759 0 -0.0011573622322722484 -0.033121329203977382 0 -0.00092474028157051914 -0.033164304774184854 0 -0.00093674640522872744 -0.033320917019815759 0 -0.00092474028157051914 -0.033164304774184854 0 -0.00088353039481851435 -0.033265287093958949 0 -0.00093674640522872744 -0.033320917019815759 0 -0.00092474028157051914 -0.033164304774184854 0 -0.00085531962077488647 -0.03325538496778345 0 -0.00088353039481851435 -0.033265287093958949 0 -0.00088353039481851435 -0.033265287093958949 0 -0.00091032272864898965 -0.033271178954827278 0 -0.00093674640522872744 -0.033320917019815759 0 -0.00096464526034002632 -0.033208374401017531 0 -0.00077294354393308553 -0.033743446715918508 0 -0.0010900853487348561 -0.033628275270073928 0 -0.00093674640522872744 -0.033320917019815759 0 -0.00089569867811258779 -0.033605135243937108 0 -0.00091032272864898965 -0.033271178954827278 0 -0.0008821683431579527 -0.033188461450620189 0 -0.00093305214804530895 -0.033042730436133011 0 -0.00094312672062740808 -0.034147187401549976 0 -0.00074543100947150795 -0.03110862321796664 0 -0.00091032272864898965 -0.033271178954827278 0 -0.00090906531574123093 -0.033298678768299748 0 -0.00092753478138826837 -0.033324178926303502 0 -0.00091032272864898965 -0.033271178954827278 0 -0.00093674640522872744 -0.033320917019815759 0 -0.0008821683431579527 -0.033188461450620189 0 -0.00089444312470545286 -0.033270357747475159 0 -0.00090194354278756456 -0.033233141474333094 0 -0.00083789581729647037 -0.033299969260754694 0 -0.00089772309996918637 -0.03328911504385676 0 -0.00089444312470545286 -0.033270357747475159 0 -0.00083789581729647037 -0.033299969260754694 0 -0.00091032272864898965 -0.033271178954827278 0 -0.00090906531574123093 -0.033298678768299748 0 -0.00089772309996918637 -0.03328911504385676 0 -0.00091032272864898965 -0.033271178954827278 0 -0.00089772309996918637 -0.03328911504385676 0 -0.00089444312470545286 -0.033270357747475159 0 -0.00088353039481851435 -0.033265287093958949 0 -0.00091032272864898965 -0.033271178954827278 0 -0.00090194354278756456 -0.033233141474333094 0 -0.00085531962077488647 -0.03325538496778345 0 -0.00088353039481851435 -0.033265287093958949 0 -0.00090194354278756456 -0.033233141474333094 0 -0.00091032272864898965 -0.033271178954827278 0 -0.00089444312470545286 -0.033270357747475159 0 -0.00090194354278756456 -0.033233141474333094 0 -0.00051020439936303146 -0.034744225126966274 0 -9.9199734545741625e-05 -0.034858239257577701 0 -0.0002003956995438074 -0.034480381092526241 0 -0.00051020439936303146 -0.034744225126966274 0 -0.0002003956995438074 -0.034480381092526241 0 -0.00043462395859137726 -0.033999620221149766 0 -9.9199734545741625e-05 -0.034858239257577701 0 7.5752207971002007e-07 -0.034997524495255464 0 -0.0002003956995438074 -0.034480381092526241 0 -9.9199734545741625e-05 -0.034858239257577701 0 -2.5289900742908777e-07 -0.035000417322014719 0 7.5752207971002007e-07 -0.034997524495255464 0 -2.5289900742908777e-07 -0.035000417322014719 0 -5.1999789835253416e-05 -0.035005251217984791 0 1.1578940951704309e-08 -0.034999919995858518 0 -9.9199734545741625e-05 -0.034858239257577701 0 -2.5289900742908777e-07 -0.035000417322014719 0 -5.1999789835253416e-05 -0.035005251217984791 0 -9.9199734545741625e-05 -0.034858239257577701 0 -0.00018119081307253198 -0.035025582487704258 0 -5.1999789835253416e-05 -0.035005251217984791 0 -0.00069203521267630378 -0.033961160994606297 0 -0.00051453676529458433 -0.034161611928243837 0 -0.00051020439936303146 -0.034744225126966274 0 -9.9199734545741625e-05 -0.034858239257577701 0 -0.00018119081307253198 -0.035025582487704258 0 -0.00018119081307253198 -0.035025582487704258 0 -5.1999789835253416e-05 -0.035005251217984791 0 -3.7857952029416476e-05 -0.035022865088516819 0 -0.00083789581729647037 -0.033299969260754694 0 -0.0007715991223708644 -0.033389394986973651 0 -0.00085886355726162559 -0.033350840214940593 0 -0.00051453676529458433 -0.034161611928243837 0 -0.0004359227027855942 -0.034175482172430306 0 -5.1999789835253416e-05 -0.035005251217984791 0 1.1578940951704309e-08 -0.034999919995858518 0 -3.7857952029416476e-05 -0.035022865088516819 0 -4.4071763426385235e-08 -0.03500009419553389 0 1.1578940951704309e-08 -0.034999919995858518 0 -3.7857952029416476e-05 -0.035022865088516819 0 -0.0007715991223708644 -0.033389394986973651 0 -0.00085032043112955274 -0.033426610159506417 0 -0.00085886355726162559 -0.033350840214940593 0 -0.00041562363084442119 -0.030851063123758609 0 -0.00074543100947150795 -0.03110862321796664 0 -0.0006410114571517567 -0.030798453209236507 0 -0.00048587614098282681 -0.030705640600282021 0 -0.00065841579225055051 -0.030204698706899333 0 -0.00058484942530941423 -0.032291279502834891 0 -0.00074543100947150795 -0.03110862321796664 0 -0.00085032043112955274 -0.033426610159506417 0 -0.00092753478138826837 -0.033324178926303502 0 -0.00085886355726162559 -0.033350840214940593 0 -0.00034475127591274059 -0.031154904875253589 0 -0.00029935294552196987 -0.031139683679715185 0 -0.00037783508626681127 -0.03107749005542821 0 -0.00054642529784595278 -0.027529391206411007 0 -0.00074543100947150795 -0.03110862321796664 0 -0.00037871456157451209 -0.025994240024667221 0 -0.00042761528784118042 -0.025948457076553043 0 -0.00039132622146802556 -0.025944627526158469 0 -0.00086654081477244846 -0.029530738060378359 0 -0.00074543100947150795 -0.03110862321796664 0 -0.000446355334760226 -0.025917981984041605 0 -0.00042761528784118042 -0.025948457076553043 0 -0.00039132622146802556 -0.025944627526158469 0 -0.000446355334760226 -0.025917981984041605 0 -0.00045640006351764398 -0.025871419745981453 0 -0.00039132622146802556 -0.025944627526158469 0 -0.00077294354393308553 -0.033743446715918508 0 -0.00074543100947150795 -0.03110862321796664 0 -0.0010900853487348561 -0.033628275270073928 0 -0.00089569867811258779 -0.033605135243937108 0 -0.00082046129297137045 -0.033748553133997432 0 -0.00090906531574123093 -0.033298678768299748 0 -0.00089772309996918637 -0.03328911504385676 0 -0.00089126140828724729 -0.03332030066761886 0 -0.00090906531574123093 -0.033298678768299748 0 -0.00092753478138826837 -0.033324178926303502 0 -0.00089126140828724729 -0.03332030066761886 0 -0.00092753478138826837 -0.033324178926303502 0 -0.00089126140828724729 -0.03332030066761886 0 -0.00085886355726162559 -0.033350840214940593 0 -0.00089772309996918637 -0.03328911504385676 0 -0.00083789581729647037 -0.033299969260754694 0 -0.00089126140828724729 -0.03332030066761886 0 -0.00083789581729647037 -0.033299969260754694 0 -0.00089126140828724729 -0.03332030066761886 0 -0.00085886355726162559 -0.033350840214940593 0 -0.00076923907407021081 -0.020745078105143405 0 -0.00018433615473387172 -0.021339560855328857 0 -0.00019118477744859132 -0.020157216748952336 0 -0.00076923907407021081 -0.020745078105143405 0 -0.00094752768772337899 -0.019338917118933364 0 -0.0012938519764349877 -0.020536259485999055 0 -0.00042546268922455936 -0.019795162324846769 0 -0.00076113291888361631 -0.021272317524957052 0 -0.00076923907407021081 -0.020745078105143405 0 -0.00094752768772337899 -0.019338917118933364 0 -0.00019118477744859132 -0.020157216748952336 0 -0.00094752768772337899 -0.019338917118933364 0 -0.00011615536014747986 -0.019019411892483983 0 -0.00019118477744859132 -0.020157216748952336 0 -0.00042546268922455936 -0.019795162324846769 0 -0.00020832188863183668 -0.017912029977298564 0 8.9265623291368259e-05 -0.018969654786089814 0 0.00017178669618716667 -0.020261513293377251 0 0.00022643268506792547 -0.018065848691794645 0 -0.00094752768772337899 -0.019338917118933364 0 -0.00054155173425504894 -0.01780836296030151 0 -0.00011615536014747986 -0.019019411892483983 0 8.9265623291368259e-05 -0.018969654786089814 0 0.00022643268506792547 -0.018065848691794645 0 3.8398907374527789e-07 -0.017493010066698633 0 8.9265623291368259e-05 -0.018969654786089814 0 -1.3117018411163646e-07 -0.019531136496566501 0 3.8398907374527789e-07 -0.017493010066698633 0 8.9265623291368259e-05 -0.018969654786089814 0 -1.3117018411163646e-07 -0.019531136496566501 0 0.00017178669618716667 -0.020261513293377251 0 -1.3117018411163646e-07 -0.019531136496566501 0 0.00017178669618716667 -0.020261513293377251 0 -0.00015220706274681877 -0.021153786744120419 0 0.00017178669618716667 -0.020261513293377251 0 -0.00015220706274681877 -0.021153786744120419 0 -0.00017406788824982309 -0.022052440511941766 0 -1.3117018411163646e-07 -0.019531136496566501 0 -0.00015220706274681877 -0.021153786744120419 0 -6.1395849284838445e-07 -0.021569597826968004 0 -0.00015220706274681877 -0.021153786744120419 0 -6.1395849284838445e-07 -0.021569597826968004 0 -0.00048400488889627138 -0.022645280347656997 0 -0.00015220706274681877 -0.021153786744120419 0 -0.00017406788824982309 -0.022052440511941766 0 -0.00048400488889627138 -0.022645280347656997 0 -0.00076113291888361631 -0.021272317524957052 0 -0.0011711072853705935 -0.022255182139747278 0 -0.00017406788824982309 -0.022052440511941766 0 -0.00080144482217584304 -0.023048641017536915 0 -0.00048400488889627138 -0.022645280347656997 0 -0.00076923907407021081 -0.020745078105143405 0 -0.0012938519764349877 -0.020536259485999055 0 -0.0012248483364449901 -0.021703156478680485 0 -0.0012938519764349877 -0.020536259485999055 0 -0.0016010531857566066 -0.021587015640073939 0 -0.0012248483364449901 -0.021703156478680485 0 -0.0011711072853705935 -0.022255182139747278 0 -0.001343994651022976 -0.022534114811195823 0 -0.00080144482217584304 -0.023048641017536915 0 -0.00066039209129265094 -0.023741665097178788 0 -0.0014269687609603427 -0.022594861864021799 0 -0.00080144482217584304 -0.023048641017536915 0 -0.00066039209129265094 -0.023741665097178788 0 -0.00048400488889627138 -0.022645280347656997 0 -6.1395849284838445e-07 -0.021569597826968004 0 -0.00048400488889627138 -0.022645280347656997 0 -6.3894030413688107e-07 -0.023607852751827738 0 -0.00048400488889627138 -0.022645280347656997 0 -6.3894030413688107e-07 -0.023607852751827738 0 -0.0003515843755742722 -0.023889645593586705 0 -0.00066039209129265094 -0.023741665097178788 0 -0.00048400488889627138 -0.022645280347656997 0 -0.0003515843755742722 -0.023889645593586705 0 -0.00066039209129265094 -0.023741665097178788 0 -0.0003515843755742722 -0.023889645593586705 0 -0.00041224768626882749 -0.024777420664725578 0 -0.0003515843755742722 -0.023889645593586705 0 -0.00041224768626882749 -0.024777420664725578 0 -5.5949340848557468e-07 -0.025646337832417956 0 -6.3894030413688107e-07 -0.023607852751827738 0 -0.0003515843755742722 -0.023889645593586705 0 -5.5949340848557468e-07 -0.025646337832417956 0 -0.00037814027512019091 -0.02582350315017853 0 -0.00041224768626882749 -0.024777420664725578 0 -5.5949340848557468e-07 -0.025646337832417956 0 -0.00041224768626882749 -0.024777420664725578 0 -0.00051504813269812337 -0.024703970504106179 0 -0.00051148948549567487 -0.025440820992384965 0 -0.00037814027512019091 -0.02582350315017853 0 -0.00041224768626882749 -0.024777420664725578 0 -0.00051148948549567487 -0.025440820992384965 0 -0.00066039209129265094 -0.023741665097178788 0 -0.00041224768626882749 -0.024777420664725578 0 -0.00051504813269812337 -0.024703970504106179 0 -0.00066039209129265094 -0.023741665097178788 0 -0.00051504813269812337 -0.024703970504106179 0 -0.00037524848651218569 -0.025296709664533755 0 -0.00074719500875394752 -0.0238599040721795 0 -0.00097291393538723647 -0.023963447065318295 0 -0.00066039209129265094 -0.023741665097178788 0 -0.0014592286583284758 -0.022577336090013115 0 -0.0014269687609603427 -0.022594861864021799 0 -0.00051504813269812337 -0.024703970504106179 0 -0.00051148948549567487 -0.025440820992384965 0 -0.00046332671976180659 -0.025661931030581737 0 -0.00051504813269812337 -0.024703970504106179 0 -0.0007058757989874706 -0.02543714608493999 0 -0.00037524848651218569 -0.025296709664533755 0 -0.00048176663997995728 -0.024834754641216244 0 -0.00060794813751991524 -0.025502162584246865 0 -0.00097291393538723647 -0.023963447065318295 0 -0.0016595161744067343 -0.024364616795139699 0 -0.0007058757989874706 -0.02543714608493999 0 -0.00037524848651218569 -0.025296709664533755 0 -0.00062524202112769598 -0.025719650677223687 0 -0.0014592286583284758 -0.022577336090013115 0 -0.001780409752675299 -0.022625986907326735 0 -0.0014269687609603427 -0.022594861864021799 0 -0.0014592286583284758 -0.022577336090013115 0 -0.001780409752675299 -0.022625986907326735 0 -0.0026229446746201235 -0.022707714869163904 0 -0.001780409752675299 -0.022625986907326735 0 -0.0026229446746201235 -0.022707714869163904 0 -0.0018823954614073791 -0.022946833700235137 0 -0.0037342237256123797 -0.023618460325480563 0 -0.0026229446746201235 -0.022707714869163904 0 -0.002581698643553669 -0.023477237039985274 0 -0.002581698643553669 -0.023477237039985274 0 -0.0027540218331277878 -0.024477625983874231 0 -0.0036273228972578055 -0.024538612080976373 0 -0.0037342237256123797 -0.023618460325480563 0 -0.002581698643553669 -0.023477237039985274 0 -0.0036273228972578055 -0.024538612080976373 0 -0.002581698643553669 -0.023477237039985274 0 -0.0016506188198901588 -0.023742117807975225 0 -0.0027540218331277878 -0.024477625983874231 0 -0.0018046380830560589 -0.023993927411637372 0 -0.0027227368325990959 -0.024433516785471957 0 -0.002581698643553669 -0.023477237039985274 0 -0.0018823954614073791 -0.022946833700235137 0 -0.0016506188198901588 -0.023742117807975225 0 -0.0026229446746201235 -0.022707714869163904 0 -0.002581698643553669 -0.023477237039985274 0 -0.0018823954614073791 -0.022946833700235137 0 -0.0018823954614073791 -0.022946833700235137 0 -0.0016506188198901588 -0.023742117807975225 0 -0.0015348423493923295 -0.022993498397905821 0 -0.0018842849153809134 -0.024229790953461425 0 -0.00106665417194343 -0.023732946511618239 0 -0.0013782301946441487 -0.024637471706712863 0 -0.0016506188198901588 -0.023742117807975225 0 -0.0015348423493923295 -0.022993498397905821 0 -0.0011930509251122984 -0.023294257940999166 0 -0.0018046380830560589 -0.023993927411637372 0 -0.0011040956065631259 -0.023507518684512254 0 -0.0015348423493923295 -0.022993498397905821 0 -0.0013769976091240301 -0.022524140562287267 0 -0.0011930509251122984 -0.023294257940999166 0 -0.0015348423493923295 -0.022993498397905821 0 -0.0013769976091240301 -0.022524140562287267 0 -0.0016090929497922374 -0.022563262456681499 0 -0.0013769976091240301 -0.022524140562287267 0 -0.0016090929497922374 -0.022563262456681499 0 -0.0015378188275995892 -0.022185484307077792 0 -0.001780409752675299 -0.022625986907326735 0 -0.0018823954614073791 -0.022946833700235137 0 -0.0016090929497922374 -0.022563262456681499 0 -0.0018823954614073791 -0.022946833700235137 0 -0.0015348423493923295 -0.022993498397905821 0 -0.0016090929497922374 -0.022563262456681499 0 -0.0016090929497922374 -0.022563262456681499 0 -0.0014269687609603427 -0.022594861864021799 0 -0.0015378188275995892 -0.022185484307077792 0 -0.001780409752675299 -0.022625986907326735 0 -0.0016090929497922374 -0.022563262456681499 0 -0.0014269687609603427 -0.022594861864021799 0 -0.0016010531857566066 -0.021587015640073939 0 -0.0014269687609603427 -0.022594861864021799 0 -0.0015378188275995892 -0.022185484307077792 0 -0.0013769976091240301 -0.022524140562287267 0 -0.0015378188275995892 -0.022185484307077792 0 -0.0012248483364449901 -0.021703156478680485 0 -0.0016010531857566066 -0.021587015640073939 0 -0.0015378188275995892 -0.022185484307077792 0 -0.0012248483364449901 -0.021703156478680485 0 -0.00076923907407021081 -0.020745078105143405 0 -0.0012248483364449901 -0.021703156478680485 0 -0.00058850737241686552 -0.021916198237970815 0 -0.0012248483364449901 -0.021703156478680485 0 -0.00095538335766682603 -0.022430231589366457 0 -0.00058850737241686552 -0.021916198237970815 0 -0.00095538335766682603 -0.022430231589366457 0 -0.00043881990996620174 -0.023091822016482032 0 -0.00058850737241686552 -0.021916198237970815 0 -0.0013769976091240301 -0.022524140562287267 0 -0.0012248483364449901 -0.021703156478680485 0 -0.00095538335766682603 -0.022430231589366457 0 -0.0013769976091240301 -0.022524140562287267 0 -0.00095538335766682603 -0.022430231589366457 0 -0.0011930509251122984 -0.023294257940999166 0 -0.00106665417194343 -0.023732946511618239 0 -0.00043881990996620174 -0.023091822016482032 0 -0.00010367273049363882 -0.024111816763766759 0 -0.0011040956065631259 -0.023507518684512254 0 -0.00044724636358332647 -0.023132152236639125 0 -0.00095538335766682603 -0.022430231589366457 0 -0.0011930509251122984 -0.023294257940999166 0 -0.00043881990996620174 -0.023091822016482032 0 -0.00043881990996620174 -0.023091822016482032 0 0.00045259802097737437 -0.023500219532289198 0 -0.00010367273049363882 -0.024111816763766759 0 0.00045259802097737437 -0.023500219532289198 0 0.00023185933615341419 -0.022332045116687672 0 0.00084663175125918489 -0.02291230993661366 0 -0.00043881990996620174 -0.023091822016482032 0 0.00045259802097737437 -0.023500219532289198 0 0.00023185933615341419 -0.022332045116687672 0 0.00023185933615341419 -0.022332045116687672 0 -0.00058850737241686552 -0.021916198237970815 0 -0.00018433615473387172 -0.021339560855328857 0 -0.00043881990996620174 -0.023091822016482032 0 0.00023185933615341419 -0.022332045116687672 0 -0.00058850737241686552 -0.021916198237970815 0 -0.00076923907407021081 -0.020745078105143405 0 -0.00058850737241686552 -0.021916198237970815 0 -0.00018433615473387172 -0.021339560855328857 0 0.00023185933615341419 -0.022332045116687672 0 -0.00018433615473387172 -0.021339560855328857 0 0.00052344897454417597 -0.021467576610616126 0 -0.00018191874606552909 -0.016491496804910348 0 -0.00020146965456938314 -0.016866911054912656 0 -0.00041631312488455677 -0.016437403341829401 0 0.00083213490648751992 -0.021753148275581474 0 0.0016560849500999158 -0.022543782443660378 0 -0.00018191874606552909 -0.016491496804910348 0 3.6057328791821511e-05 -0.016544744952265596 0 -0.00020146965456938314 -0.016866911054912656 0 -0.00018191874606552909 -0.016491496804910348 0 -0.00013461125862934535 -0.016276815504796545 0 -0.00032621755041537122 -0.016285500721945196 0 -0.00018191874606552909 -0.016491496804910348 0 -3.2254626744055173e-05 -0.016427243627691854 0 -0.00013461125862934535 -0.016276815504796545 0 -3.2254626744055173e-05 -0.016427243627691854 0 0.00015670514640967801 -0.016398075526951713 0 -0.00013461125862934535 -0.016276815504796545 0 -0.00018191874606552909 -0.016491496804910348 0 -3.2254626744055173e-05 -0.016427243627691854 0 3.6057328791821511e-05 -0.016544744952265596 0 -3.2254626744055173e-05 -0.016427243627691854 0 3.6057328791821511e-05 -0.016544744952265596 0 0.00015670514640967801 -0.016398075526951713 0 0.0003677954188011876 -0.026719881526874052 0 4.6107290362142259e-05 -0.027334871845132988 0 0.00059862372500039355 -0.027555276481002228 0 0.00091427986942193792 -0.027198333272830333 0 0.0003677954188011876 -0.026719881526874052 0 0.00059862372500039355 -0.027555276481002228 0 0.0012352819455903887 -0.026842954568203944 0 0.00091427986942193792 -0.027198333272830333 0 0.0003677954188011876 -0.026719881526874052 0 0.00083213490648751992 -0.021753148275581474 0 0.00081657043851724885 -0.022628724709061951 0 0.0016560849500999158 -0.022543782443660378 0 0.00024335734801816564 -0.026159235917320608 0 0.0012352819455903887 -0.026842954568203944 0 0.0003677954188011876 -0.026719881526874052 0 0.0001232655717949845 -0.025227276585807513 0 0.0012352819455903887 -0.026842954568203944 0 0.0019070937072895749 -0.025973512660184744 0 0.0001232655717949845 -0.025227276585807513 0 0.00078498942943303496 -0.025302308883374133 0 0.00060128308389047831 -0.024471823455562699 0 0.0001232655717949845 -0.025227276585807513 0 0.00045259802097737437 -0.023500219532289198 0 0.00060128308389047831 -0.024471823455562699 0 0.0011002817558103698 -0.023572866340624127 0 0.00045259802097737437 -0.023500219532289198 0 0.00060128308389047831 -0.024471823455562699 0 -0.00010367273049363882 -0.024111816763766759 0 0.00060128308389047831 -0.024471823455562699 0 -0.00010367273049363882 -0.024111816763766759 0 0.0001232655717949845 -0.025227276585807513 0 0.0001232655717949845 -0.025227276585807513 0 -0.0006931972245942141 -0.024777552812328157 0 -0.00062374514071440366 -0.025693069117712877 0 -0.00106665417194343 -0.023732946511618239 0 -0.00010367273049363882 -0.024111816763766759 0 -0.0006931972245942141 -0.024777552812328157 0 -0.00010367273049363882 -0.024111816763766759 0 0.0001232655717949845 -0.025227276585807513 0 -0.0006931972245942141 -0.024777552812328157 0 -0.00106665417194343 -0.023732946511618239 0 -0.0006931972245942141 -0.024777552812328157 0 -0.0013782301946441487 -0.024637471706712863 0 -0.0006931972245942141 -0.024777552812328157 0 -0.00062374514071440366 -0.025693069117712877 0 -0.0013469114645738142 -0.025564503975150279 0 -0.00090167591401247432 -0.026511299269831565 0 -0.00062374514071440366 -0.025693069117712877 0 -0.0013469114645738142 -0.025564503975150279 0 -0.00090167591401247432 -0.026511299269831565 0 -0.00062374514071440366 -0.025693069117712877 0 -0.00024310257186289455 -0.026454618918508598 0 0.0001232655717949845 -0.025227276585807513 0 -0.00062374514071440366 -0.025693069117712877 0 -0.00024310257186289455 -0.026454618918508598 0 0.0003677954188011876 -0.026719881526874052 0 0.0001232655717949845 -0.025227276585807513 0 -0.00024310257186289455 -0.026454618918508598 0 0.0003677954188011876 -0.026719881526874052 0 -0.00024310257186289455 -0.026454618918508598 0 4.6107290362142259e-05 -0.027334871845132988 0 -0.00024310257186289455 -0.026454618918508598 0 -0.00053294973725817878 -0.027237375551198085 0 4.6107290362142259e-05 -0.027334871845132988 0 -0.00090167591401247432 -0.026511299269831565 0 -0.00024310257186289455 -0.026454618918508598 0 -0.00053294973725817878 -0.027237375551198085 0 -0.00090167591401247432 -0.026511299269831565 0 -0.00053294973725817878 -0.027237375551198085 0 -0.0010769494639534013 -0.027388349505739148 0 -0.0010769494639534013 -0.027388349505739148 0 -0.0016531854874350029 -0.026714243158537924 0 -0.0018605992168297543 -0.027661454319605951 0 -0.00090167591401247432 -0.026511299269831565 0 -0.0010769494639534013 -0.027388349505739148 0 -0.0016531854874350029 -0.026714243158537924 0 -0.0016531854874350029 -0.026714243158537924 0 -0.0026978992525124772 -0.027437366054635662 0 -0.0018605992168297543 -0.027661454319605951 0 -0.0016531854874350029 -0.026714243158537924 0 -0.0013469114645738142 -0.025564503975150279 0 -0.0023901077299335145 -0.025760462789410982 0 -0.0016531854874350029 -0.026714243158537924 0 -0.0023901077299335145 -0.025760462789410982 0 -0.0026978992525124772 -0.027437366054635662 0 -0.00090167591401247432 -0.026511299269831565 0 -0.0016531854874350029 -0.026714243158537924 0 -0.0013469114645738142 -0.025564503975150279 0 -0.0013469114645738142 -0.025564503975150279 0 -0.0013782301946441487 -0.024637471706712863 0 -0.0019070101712699409 -0.024996186131545337 0 -0.0006931972245942141 -0.024777552812328157 0 -0.0013469114645738142 -0.025564503975150279 0 -0.0013782301946441487 -0.024637471706712863 0 -0.0018842849153809134 -0.024229790953461425 0 -0.0019070101712699409 -0.024996186131545337 0 -0.0027540218331277878 -0.024477625983874231 0 -0.0018842849153809134 -0.024229790953461425 0 -0.0013782301946441487 -0.024637471706712863 0 -0.0019070101712699409 -0.024996186131545337 0 -0.0013469114645738142 -0.025564503975150279 0 -0.0019070101712699409 -0.024996186131545337 0 -0.0023901077299335145 -0.025760462789410982 0 -0.0023901077299335145 -0.025760462789410982 0 -0.0027540218331277878 -0.024477625983874231 0 -0.0032331378519989775 -0.025293659015702252 0 -0.0019070101712699409 -0.024996186131545337 0 -0.0023901077299335145 -0.025760462789410982 0 -0.0027540218331277878 -0.024477625983874231 0 -0.0027540218331277878 -0.024477625983874231 0 -0.0032331378519989775 -0.025293659015702252 0 -0.0036273228972578055 -0.024538612080976373 0 -0.0023901077299335145 -0.025760462789410982 0 -0.0032331378519989775 -0.025293659015702252 0 -0.0034234849100186035 -0.026257263587633233 0 -0.0032331378519989775 -0.025293659015702252 0 -0.0034234849100186035 -0.026257263587633233 0 -0.003924612841825971 -0.025468272950602996 0 -0.0029689453777688906 -0.02861794869920669 0 -0.0026978992525124772 -0.027437366054635662 0 -0.0028239071494673635 -0.028102015083260146 0 -0.0030652125513622968 -0.027521139927466048 0 -0.0027360950512183434 -0.027526538430984349 0 -0.0023901077299335145 -0.025760462789410982 0 -0.0034234849100186035 -0.026257263587633233 0 -0.0026978992525124772 -0.027437366054635662 0 -0.0026978992525124772 -0.027437366054635662 0 -0.0025015854317029986 -0.028036858744154614 0 -0.0018605992168297543 -0.027661454319605951 0 -0.0026978992525124772 -0.027437366054635662 0 -0.0028239071494673635 -0.028102015083260146 0 -0.0025015854317029986 -0.028036858744154614 0 -0.0028239071494673635 -0.028102015083260146 0 -0.00269370292835848 -0.028202180580822918 0 -0.0025015854317029986 -0.028036858744154614 0 -0.0025015854317029986 -0.028036858744154614 0 -0.0024996763870512632 -0.02869875966645484 0 -0.001845114286875136 -0.028319977610022428 0 -0.00269370292835848 -0.028202180580822918 0 -0.0025015854317029986 -0.028036858744154614 0 -0.0024996763870512632 -0.02869875966645484 0 -0.00269370292835848 -0.028202180580822918 0 -0.0024996763870512632 -0.02869875966645484 0 -0.0026582471193157668 -0.028252325277788336 0 -0.0017588927530178763 -0.029222585763600106 0 -0.0018672195964136433 -0.029026552852796747 0 -0.0010589664147037314 -0.030064649193350227 0 -0.0011366417584154529 -0.029750628637631636 0 -0.001106532872170783 -0.029938499706286353 0 -0.0011366417584154529 -0.029750628637631636 0 -0.001029670974152452 -0.029719026938421451 0 -0.0010626438535239094 -0.029940022325819136 0 -0.0010589664147037314 -0.030064649193350227 0 -0.0011366417584154529 -0.029750628637631636 0 -0.0010626438535239094 -0.029940022325819136 0 -0.0011366417584154529 -0.029750628637631636 0 -0.001029670974152452 -0.029719026938421451 0 -0.0012033732594109098 -0.029217356480976481 0 -0.0024996763870512632 -0.02869875966645484 0 -0.0012033732594109098 -0.029217356480976481 0 -0.001845114286875136 -0.028319977610022428 0 -0.0017588927530178763 -0.029222585763600106 0 -0.0011945917651143558 -0.02922533591767576 0 -0.001029670974152452 -0.029719026938421451 0 -0.00072246783213379435 -0.029068401044685898 0 -0.00047801218510577662 -0.029488087771542219 0 -0.001029670974152452 -0.029719026938421451 0 -0.00047801218510577662 -0.029488087771542219 0 -0.00063212872869175649 -0.029923745543222132 0 -0.001029670974152452 -0.029719026938421451 0 -0.0012033732594109098 -0.029217356480976481 0 -0.00072246783213379435 -0.029068401044685898 0 -0.0012033732594109098 -0.029217356480976481 0 -0.0010802943807305264 -0.028275747749716688 0 -0.00072246783213379435 -0.029068401044685898 0 -0.0012033732594109098 -0.029217356480976481 0 -0.0010802943807305264 -0.028275747749716688 0 -0.001845114286875136 -0.028319977610022428 0 -0.0025015854317029986 -0.028036858744154614 0 -0.001845114286875136 -0.028319977610022428 0 -0.0018605992168297543 -0.027661454319605951 0 -0.0010802943807305264 -0.028275747749716688 0 -0.001845114286875136 -0.028319977610022428 0 -0.0018605992168297543 -0.027661454319605951 0 -0.0010769494639534013 -0.027388349505739148 0 -0.0010802943807305264 -0.028275747749716688 0 -0.0018605992168297543 -0.027661454319605951 0 -0.0010769494639534013 -0.027388349505739148 0 -0.0010802943807305264 -0.028275747749716688 0 -0.00070624059902067878 -0.027861370270783715 0 -0.00070624059902067878 -0.027861370270783715 0 -0.00026292740320255482 -0.027813814747986165 0 -0.00036534755812404397 -0.028433514080556777 0 -0.00053294973725817878 -0.027237375551198085 0 -0.0010769494639534013 -0.027388349505739148 0 -0.00070624059902067878 -0.027861370270783715 0 -0.00053294973725817878 -0.027237375551198085 0 -0.00070624059902067878 -0.027861370270783715 0 -0.00026292740320255482 -0.027813814747986165 0 4.6107290362142259e-05 -0.027334871845132988 0 0.00019046767685240335 -0.028137492978565957 0 0.00059862372500039355 -0.027555276481002228 0 -0.00053294973725817878 -0.027237375551198085 0 4.6107290362142259e-05 -0.027334871845132988 0 -0.00026292740320255482 -0.027813814747986165 0 4.6107290362142259e-05 -0.027334871845132988 0 -0.00026292740320255482 -0.027813814747986165 0 0.00019046767685240335 -0.028137492978565957 0 -0.00026292740320255482 -0.027813814747986165 0 0.00019046767685240335 -0.028137492978565957 0 -0.00036534755812404397 -0.028433514080556777 0 0.00019046767685240335 -0.028137492978565957 0 -0.00036534755812404397 -0.028433514080556777 0 0.00012610121329179996 -0.029098035588100268 0 -0.0010802943807305264 -0.028275747749716688 0 -0.00036534755812404397 -0.028433514080556777 0 -0.00072246783213379435 -0.029068401044685898 0 -0.0010802943807305264 -0.028275747749716688 0 -0.00070624059902067878 -0.027861370270783715 0 -0.00036534755812404397 -0.028433514080556777 0 -0.00072246783213379435 -0.029068401044685898 0 -0.00047801218510577662 -0.029488087771542219 0 0.00012610121329179996 -0.029098035588100268 0 -0.00036534755812404397 -0.028433514080556777 0 -0.00072246783213379435 -0.029068401044685898 0 0.00012610121329179996 -0.029098035588100268 0 -0.00047801218510577662 -0.029488087771542219 0 0.00012610121329179996 -0.029098035588100268 0 -0.00022652670046943276 -0.029775054262590969 0 0.00012610121329179996 -0.029098035588100268 0 0.00024957039410443378 -0.029814619452214742 0 -0.00022652670046943276 -0.029775054262590969 0 0.00012610121329179996 -0.029098035588100268 0 0.00091913325302269832 -0.029332062570671974 0 0.00088451702963768047 -0.028375035091835532 0 -0.00011128464734458539 -0.02257303298904758 0 -0.00035850511858915419 -0.030622619024893841 0 0.00012610121329179996 -0.029098035588100268 0 0.00091913325302269832 -0.029332062570671974 0 0.00024957039410443378 -0.029814619452214742 0 -0.00074112988574006277 -0.015290298498289241 0 -0.00076770210921277933 -0.015330192162546726 0 -0.00090454653704567084 -0.015163698346282352 0 -0.00011128464734458539 -0.02257303298904758 0 6.2365269504581172e-05 -0.015020651411901627 0 -0.00011128464734458539 -0.02257303298904758 0 0.00046468031947620317 -0.021842998338488372 0 -9.4269195433107389e-05 -0.015254333366573851 0 2.2919850139480201e-05 -0.015763331796186834 0 -0.00034847725242571583 -0.015390292394521523 0 2.2919850139480201e-05 -0.015763331796186834 0 -0.00013548060170149085 -0.016047968897958509 0 -0.00035244844832615051 -0.015759123194077702 0 2.2919850139480201e-05 -0.015763331796186834 0 -0.00035244844832615051 -0.015759123194077702 0 -0.00034847725242571583 -0.015390292394521523 0 -0.00013548060170149085 -0.016047968897958509 0 -0.00036228462005435372 -0.016049181808572541 0 -0.00035244844832615051 -0.015759123194077702 0 0.00019046767685240335 -0.028137492978565957 0 0.00088451702963768047 -0.028375035091835532 0 0.00059862372500039355 -0.027555276481002228 0 0.00019046767685240335 -0.028137492978565957 0 0.00012610121329179996 -0.029098035588100268 0 0.00088451702963768047 -0.028375035091835532 0 0.00083342834569318923 -0.027256606268155702 0 0.00088451702963768047 -0.028375035091835532 0 0.00059862372500039355 -0.027555276481002228 0 0.00081657043851724885 -0.022628724709061951 0 0.00046468031947620317 -0.021842998338488372 0 0.00081657043851724885 -0.022628724709061951 0 -0.00044258674925363008 -0.026530196269184906 0 0.00015670514640967801 -0.016398075526951713 0 2.2919850139480201e-05 -0.015763331796186834 0 -0.00013548060170149085 -0.016047968897958509 0 0.00015670514640967801 -0.016398075526951713 0 -0.00013461125862934535 -0.016276815504796545 0 -0.00013548060170149085 -0.016047968897958509 0 -0.00013461125862934535 -0.016276815504796545 0 -0.00036228462005435372 -0.016049181808572541 0 -0.00032621755041537122 -0.016285500721945196 0 -0.00013461125862934535 -0.016276815504796545 0 -0.00013548060170149085 -0.016047968897958509 0 -0.00036228462005435372 -0.016049181808572541 0 -0.00045020064588426756 -0.032239001408189277 0 -0.00083926649764569752 -0.0323448910815511 0 -0.00085607288924056295 -0.032887983777064797 0 -0.00045020064588426756 -0.032239001408189277 0 -0.00083926649764569752 -0.0323448910815511 0 -0.00076840551141388737 -0.032145203333001311 0 -0.0010774263694236046 -0.032431831528621016 0 -0.0009571587799899839 -0.032126082713679706 0 -0.0011606042879012681 -0.032243077920053986 0 -0.0010774263694236046 -0.032431831528621016 0 -0.00083926649764569752 -0.0323448910815511 0 -0.0009571587799899839 -0.032126082713679706 0 -0.0010774263694236046 -0.032431831528621016 0 -0.00083926649764569752 -0.0323448910815511 0 -0.00085607288924056295 -0.032887983777064797 0 -0.00083926649764569752 -0.0323448910815511 0 -0.0009571587799899839 -0.032126082713679706 0 -0.00076840551141388737 -0.032145203333001311 0 -0.0009571587799899839 -0.032126082713679706 0 -0.00095941838713918309 -0.031958098137282759 0 -0.00117478480011714 -0.032011391374564671 0 -0.0009571587799899839 -0.032126082713679706 0 -0.00083277080409429303 -0.032003873212656804 0 -0.00076840551141388737 -0.032145203333001311 0 -0.00095941838713918309 -0.031958098137282759 0 -0.00117478480011714 -0.032011391374564671 0 -0.0009504373100799134 -0.031822106924035656 0 -0.0009571587799899839 -0.032126082713679706 0 -0.00095941838713918309 -0.031958098137282759 0 -0.00083277080409429303 -0.032003873212656804 0 -0.00095941838713918309 -0.031958098137282759 0 -0.00083277080409429303 -0.032003873212656804 0 -0.00084934076621324169 -0.031866653330572245 0 -0.00083277080409429303 -0.032003873212656804 0 -0.000763080885604906 -0.031919462040002775 0 -0.00084934076621324169 -0.031866653330572245 0 -0.0004418381485085297 -0.032823847328730817 0 -0.00044151822773632346 -0.03304626598985224 0 -0.00045020064588426756 -0.032239001408189277 0 -0.00069212156209310532 -0.032042461277026556 0 -0.00064395118903466404 -0.031945849654699147 0 -0.00040075509820835468 -0.033576218831889777 0 -0.00039709698906401975 -0.033353304423845348 0 -0.0003779643313501389 -0.033374012453898483 0 -0.00045020064588426756 -0.032239001408189277 0 -0.00064395118903466404 -0.031945849654699147 0 -0.00057896411289693199 -0.031808350179619874 0 -0.000763080885604906 -0.031919462040002775 0 -0.00064395118903466404 -0.031945849654699147 0 -0.00069306871786562634 -0.031858956407503705 0 -0.000763080885604906 -0.031919462040002775 0 -0.00069212156209310532 -0.032042461277026556 0 -0.00064395118903466404 -0.031945849654699147 0 -0.00083277080409429303 -0.032003873212656804 0 -0.000763080885604906 -0.031919462040002775 0 -0.00069212156209310532 -0.032042461277026556 0 -0.00083277080409429303 -0.032003873212656804 0 -0.00076840551141388737 -0.032145203333001311 0 -0.00069212156209310532 -0.032042461277026556 0 -0.00045020064588426756 -0.032239001408189277 0 -0.00076840551141388737 -0.032145203333001311 0 -0.00069212156209310532 -0.032042461277026556 0 1.0601398210962849e-05 -0.035053114873644091 0 -0.00014754332474750293 -0.034029474975506568 0 -6.7017050251740851e-05 -0.034870640492834545 0 -0.00011031416298627427 -0.034889802081864048 0 -0.00021471012136990654 -0.034678797101261899 0 -0.00021148978525362092 -0.034195482927206713 0 -0.00014754332474750293 -0.034029474975506568 0 -5.9645015949680137e-06 -0.035002551531342151 0 -8.3358256958992072e-06 -0.034996287283336071 0 -2.4880578222281402e-05 -0.034994856054349446 0 -0.00040075509820835468 -0.033576218831889777 0 -0.00030089714182370182 -0.033516580540215404 0 -0.0003779643313501389 -0.033374012453898483 0 -5.9645015949680137e-06 -0.035002551531342151 0 -6.2023592521315297e-09 -0.034999997472629413 0 3.5804772999266962e-10 -0.035000008367460082 0 -5.9645015949680137e-06 -0.035002551531342151 0 -6.2023592521315297e-09 -0.034999997472629413 0 -8.3358256958992072e-06 -0.034996287283336071 0 1.0601398210962849e-05 -0.035053114873644091 0 -1.0527736052597849e-07 -0.034999853743175657 0 -0.00021148978525362092 -0.034195482927206713 0 -9.0030575519070081e-05 -0.034397920676515689 0 -6.7017050251740851e-05 -0.034870640492834545 0 1.1191487444563483e-08 -0.034999894983549537 0 -2.9838180066012547e-05 -0.035007279572660178 0 -6.7017050251740851e-05 -0.034870640492834545 0 -0.00011031416298627427 -0.034889802081864048 0 -2.9838180066012547e-05 -0.035007279572660178 0 -0.00040075509820835468 -0.033576218831889777 0 -0.00030089714182370182 -0.033516580540215404 0 -0.00036123765451908659 -0.033658460682438336 0 -0.00030089714182370182 -0.033516580540215404 0 -0.00036123765451908659 -0.033658460682438336 0 -8.8364167735838832e-05 -0.033766432403894465 0 -0.00040075509820835468 -0.033576218831889777 0 -0.00036123765451908659 -0.033658460682438336 0 -0.00049569115727099964 -0.033546311767710821 0 -0.00036123765451908659 -0.033658460682438336 0 -0.00031193637403048748 -0.033962917184034436 0 -8.8364167735838832e-05 -0.033766432403894465 0 -0.00036123765451908659 -0.033658460682438336 0 -0.00031193637403048748 -0.033962917184034436 0 -0.00049569115727099964 -0.033546311767710821 0 -9.0030575519070081e-05 -0.034397920676515689 0 -1.7118525882302182e-08 -0.034999718000823292 0 1.1191487444563483e-08 -0.034999894983549537 0 -2.9838180066012547e-05 -0.035007279572660178 0 -1.7194629152791959e-08 -0.035000077742439149 0 -0.00031193637403048748 -0.033962917184034436 0 -8.8364167735838832e-05 -0.033766432403894465 0 7.5752207971002007e-07 -0.034997524495255464 0 -0.00031193637403048748 -0.033962917184034436 0 7.5752207971002007e-07 -0.034997524495255464 0 -0.0002003956995438074 -0.034480381092526241 0 -0.00031193637403048748 -0.033962917184034436 0 -0.00043462395859137726 -0.033999620221149766 0 -0.00049569115727099964 -0.033546311767710821 0 -0.00031193637403048748 -0.033962917184034436 0 -0.0002003956995438074 -0.034480381092526241 0 -0.00043462395859137726 -0.033999620221149766 0 -0.00085531962077488647 -0.03325538496778345 0 -0.00090194354278756456 -0.033233141474333094 0 -0.00085488707447970303 -0.033433642700366382 0 -0.00051020439936303146 -0.034744225126966274 0 -0.00043462395859137726 -0.033999620221149766 0 -0.00085488707447970303 -0.033433642700366382 0 -0.00069203521267630378 -0.033961160994606297 0 -0.00085034646497979098 -0.033501542142508625 0 -0.00085488707447970303 -0.033433642700366382 0 -0.00049569115727099964 -0.033546311767710821 0 -0.00078447770492492291 -0.033248051931743891 0 -0.00085488707447970303 -0.033433642700366382 0 -0.00078447770492492291 -0.033248051931743891 0 -0.00089251784328963691 -0.033108298390813362 0 -0.00043462395859137726 -0.033999620221149766 0 -0.00085488707447970303 -0.033433642700366382 0 -0.00049569115727099964 -0.033546311767710821 0 -0.0004418381485085297 -0.032823847328730817 0 -0.00048356726243044593 -0.033555584333252078 0 -0.00045020064588426756 -0.032239001408189277 0 -0.00049569115727099964 -0.033546311767710821 0 -0.00085607288924056295 -0.032887983777064797 0 -0.00078447770492492291 -0.033248051931743891 0 -0.00085607288924056295 -0.032887983777064797 0 -0.00089251784328963691 -0.033108298390813362 0 -0.00049569115727099964 -0.033546311767710821 0 -0.00078447770492492291 -0.033248051931743891 0 -0.00085607288924056295 -0.032887983777064797 0 -0.0010774263694236046 -0.032431831528621016 0 -0.0010366756051711082 -0.032749262148351999 0 -0.0011617358974540836 -0.032470594796005781 0 -0.0010774263694236046 -0.032431831528621016 0 -0.00085607288924056295 -0.032887983777064797 0 -0.0010366756051711082 -0.032749262148351999 0 -0.00085607288924056295 -0.032887983777064797 0 -0.00089251784328963691 -0.033108298390813362 0 -0.0010366756051711082 -0.032749262148351999 0 -0.0010366756051711082 -0.032749262148351999 0 -0.00090676390395014899 -0.033125996266510215 0 -0.0010205957624317588 -0.032902169149060752 0 -0.00089251784328963691 -0.033108298390813362 0 -0.0010366756051711082 -0.032749262148351999 0 -0.00090676390395014899 -0.033125996266510215 0 -0.00085488707447970303 -0.033433642700366382 0 -0.00089251784328963691 -0.033108298390813362 0 -0.00090676390395014899 -0.033125996266510215 0 -0.00092474028157051914 -0.033164304774184854 0 -0.00085531962077488647 -0.03325538496778345 0 -0.00090676390395014899 -0.033125996266510215 0 -0.00085531962077488647 -0.03325538496778345 0 -0.00085488707447970303 -0.033433642700366382 0 -0.00090676390395014899 -0.033125996266510215 0 -0.00092474028157051914 -0.033164304774184854 0 -0.00090676390395014899 -0.033125996266510215 0 -0.0010205957624317588 -0.032902169149060752 0 -0.0011573622322722484 -0.033121329203977382 0 -0.00092474028157051914 -0.033164304774184854 0 -0.0010205957624317588 -0.032902169149060752 0 -0.0011573622322722484 -0.033121329203977382 0 -0.0010205957624317588 -0.032902169149060752 0 -0.0011938747461575183 -0.032650656584158902 0 -0.0010366756051711082 -0.032749262148351999 0 -0.0010205957624317588 -0.032902169149060752 0 -0.0011632327678988536 -0.032431647844924666 0 -0.0010205957624317588 -0.032902169149060752 0 -0.0011938747461575183 -0.032650656584158902 0 -0.0011632327678988536 -0.032431647844924666 0 -0.0011938747461575183 -0.032650656584158902 0 -0.0012519665062163774 -0.03195754852146096 0 -0.0011632327678988536 -0.032431647844924666 0 -0.0011938747461575183 -0.032650656584158902 0 -0.0016274385068280311 -0.032824228584234914 0 -0.0012519665062163774 -0.03195754852146096 0 -0.0011573622322722484 -0.033121329203977382 0 -0.0011938747461575183 -0.032650656584158902 0 -0.0016274385068280311 -0.032824228584234914 0 -0.0016274385068280311 -0.032824228584234914 0 -0.0012519665062163774 -0.03195754852146096 0 -0.003215268235107181 -0.032655801053260519 0 -0.0017137362624910211 -0.033456897849675538 0 -0.0016274385068280311 -0.032824228584234914 0 -0.003215268235107181 -0.032655801053260519 0 -0.0012519665062163774 -0.03195754852146096 0 -0.002109850766170335 -0.030181534791125245 0 -0.003215268235107181 -0.032655801053260519 0 -0.0012519665062163774 -0.03195754852146096 0 -0.002109850766170335 -0.030181534791125245 0 -0.0016330413723249313 -0.028861956453845046 0 -0.0012727815782317535 -0.031853193592570613 0 -0.0015055427332027285 -0.030643551567620466 0 -0.0012519665062163774 -0.03195754852146096 0 -0.001272354959824045 -0.032290086683092557 0 -0.0013541967204804995 -0.032301395551337139 0 -0.0010774263694236046 -0.032431831528621016 0 -0.001272354959824045 -0.032290086683092557 0 -0.0011617358974540836 -0.032470594796005781 0 -0.001272354959824045 -0.032290086683092557 0 -0.0011617358974540836 -0.032470594796005781 0 -0.0011632327678988536 -0.032431647844924666 0 -0.0010366756051711082 -0.032749262148351999 0 -0.0011617358974540836 -0.032470594796005781 0 -0.0011632327678988536 -0.032431647844924666 0 -0.0012519665062163774 -0.03195754852146096 0 -0.001272354959824045 -0.032290086683092557 0 -0.0011632327678988536 -0.032431647844924666 0 -0.0032331378519989775 -0.025293659015702252 0 -0.0036273228972578055 -0.024538612080976373 0 -0.003924612841825971 -0.025468272950602996 0 -0.0036273228972578055 -0.024538612080976373 0 -0.0045844554847907729 -0.024794195531294951 0 -0.003924612841825971 -0.025468272950602996 0 -0.0023392497091623654 -0.028204751979045796 0 -0.0035221519110118717 -0.027342576414650939 0 -0.0025237778848637323 -0.03137246819068705 0 -0.0023392497091623654 -0.028204751979045796 0 -0.0024467157309512799 -0.02991417066540817 0 -0.0024668433645203235 -0.029649941086846762 0 -0.0027340891982106834 -0.029603771014858817 0 -0.002109850766170335 -0.030181534791125245 0 -0.0024467157309512799 -0.02991417066540817 0 -0.0024668433645203235 -0.029649941086846762 0 -0.0024668433645203235 -0.029649941086846762 0 -0.0027340891982106834 -0.029603771014858817 0 -0.0026829196713065166 -0.028919787963098426 0 -0.0030652125513622968 -0.027521139927466048 0 -0.0035221519110118717 -0.027342576414650939 0 -0.0029689453777688906 -0.02861794869920669 0 -0.0028239071494673635 -0.028102015083260146 0 -0.0026829196713065166 -0.028919787963098426 0 -0.0029689453777688906 -0.02861794869920669 0 -0.0027340891982106834 -0.029603771014858817 0 -0.0026829196713065166 -0.028919787963098426 0 -0.0026829196713065166 -0.028919787963098426 0 -0.0024233241255538483 -0.029094535415529948 0 -0.0025754673442165764 -0.028484940948712269 0 -0.002109850766170335 -0.030181534791125245 0 -0.0024668433645203235 -0.029649941086846762 0 -0.0024233241255538483 -0.029094535415529948 0 -0.0024668433645203235 -0.029649941086846762 0 -0.0026829196713065166 -0.028919787963098426 0 -0.0024233241255538483 -0.029094535415529948 0 -0.0024233241255538483 -0.029094535415529948 0 -0.0022370741071624039 -0.028529181473659175 0 -0.0025754673442165764 -0.028484940948712269 0 -0.0022370741071624039 -0.028529181473659175 0 -0.0025754673442165764 -0.028484940948712269 0 -0.0024040658646842829 -0.028285274210534419 0 -0.0028239071494673635 -0.028102015083260146 0 -0.0026829196713065166 -0.028919787963098426 0 -0.0025754673442165764 -0.028484940948712269 0 -0.0028239071494673635 -0.028102015083260146 0 -0.0025754673442165764 -0.028484940948712269 0 -0.0026612359126258183 -0.02821628304017813 0 -0.001272354959824045 -0.032290086683092557 0 -0.0011606042879012681 -0.032243077920053986 0 -0.0013541967204804995 -0.032301395551337139 0 -0.0011606042879012681 -0.032243077920053986 0 -0.0013541967204804995 -0.032301395551337139 0 -0.00117478480011714 -0.032011391374564671 0 -0.0010774263694236046 -0.032431831528621016 0 -0.001272354959824045 -0.032290086683092557 0 -0.0011606042879012681 -0.032243077920053986 0 -0.002109850766170335 -0.030181534791125245 0 -0.0024233241255538483 -0.029094535415529948 0 -0.0016330413723249313 -0.028861956453845046 0 -0.0024233241255538483 -0.029094535415529948 0 -0.0022370741071624039 -0.028529181473659175 0 -0.0016330413723249313 -0.028861956453845046 0 -0.0013541967204804995 -0.032301395551337139 0 -0.00117478480011714 -0.032011391374564671 0 -0.0016295348203318933 -0.031451434090399626 0 -0.0015055427332027285 -0.030643551567620466 0 -0.0019138924332890216 -0.029770548966585247 0 -0.0022370741071624039 -0.028529181473659175 0 -0.0016330413723249313 -0.028861956453845046 0 -0.0021650699247416226 -0.028248441130671792 0 -0.0009571587799899839 -0.032126082713679706 0 -0.0011606042879012681 -0.032243077920053986 0 -0.00117478480011714 -0.032011391374564671 0 -0.00117478480011714 -0.032011391374564671 0 -0.00099112320758707275 -0.031677253350301422 0 -0.0009504373100799134 -0.031822106924035656 0 -0.0016295348203318933 -0.031451434090399626 0 -0.0015227902306377511 -0.031122850908864304 0 -0.00082795267546852786 -0.031088540410411009 0 -0.0011858995807379781 -0.032100414430483885 0 -0.00088668283087195031 -0.031102254158462992 0 -0.00117478480011714 -0.032011391374564671 0 -0.0016295348203318933 -0.031451434090399626 0 -0.00082795267546852786 -0.031088540410411009 0 -0.0022370741071624039 -0.028529181473659175 0 -0.0021650699247416226 -0.028248441130671792 0 -0.0024040658646842829 -0.028285274210534419 0 -0.0021650699247416226 -0.028248441130671792 0 -0.0023471254851912008 -0.028203201457461195 0 -0.0024040658646842829 -0.028285274210534419 0 -0.0019138924332890216 -0.029770548966585247 0 -0.0018445763178100932 -0.029579676723151812 0 -0.0023471254851912008 -0.028203201457461195 0 -0.0024687369275803914 -0.028163977157240512 0 -0.0023747332799168375 -0.02807887673785036 0 -0.0015227902306377511 -0.031122850908864304 0 -0.0014432734321360773 -0.030358259666613253 0 -0.0018356360288985993 -0.030340638829152975 0 -0.0016295348203318933 -0.031451434090399626 0 -0.0015227902306377511 -0.031122850908864304 0 -0.0018356360288985993 -0.030340638829152975 0 -0.0021650699247416226 -0.028248441130671792 0 -0.0023471254851912008 -0.028203201457461195 0 -0.0023747332799168375 -0.02807887673785036 0 -0.0015320400484344374 -0.031115100988615491 0 -0.0011629287534524607 -0.030342990539931874 0 -0.0015227902306377511 -0.031122850908864304 0 -0.0010990297526164983 -0.030555692376241162 0 -0.00082795267546852786 -0.031088540410411009 0 -0.0015227902306377511 -0.031122850908864304 0 -0.0012564402233082395 -0.030273109004720963 0 -0.0014432734321360773 -0.030358259666613253 0 -0.0028239071494673635 -0.028102015083260146 0 -0.00269370292835848 -0.028202180580822918 0 -0.0026612359126258183 -0.02821628304017813 0 -0.0026612359126258183 -0.02821628304017813 0 -0.0024040658646842829 -0.028285274210534419 0 -0.0025165627518798309 -0.02819959730162034 0 -0.0025754673442165764 -0.028484940948712269 0 -0.0026612359126258183 -0.02821628304017813 0 -0.0024040658646842829 -0.028285274210534419 0 -0.0023471254851912008 -0.028203201457461195 0 -0.0024040658646842829 -0.028285274210534419 0 -0.0025165627518798309 -0.02819959730162034 0 -0.0024687369275803914 -0.028163977157240512 0 -0.0025165627518798309 -0.02819959730162034 0 -0.0026582471193157668 -0.028252325277788336 0 -0.0023471254851912008 -0.028203201457461195 0 -0.0024687369275803914 -0.028163977157240512 0 -0.0025165627518798309 -0.02819959730162034 0 -0.0026612359126258183 -0.02821628304017813 0 -0.0025165627518798309 -0.02819959730162034 0 -0.0026582471193157668 -0.028252325277788336 0 -0.00269370292835848 -0.028202180580822918 0 -0.0026612359126258183 -0.02821628304017813 0 -0.0026582471193157668 -0.028252325277788336 0 -0.001106532872170783 -0.029938499706286353 0 -0.001187107592473831 -0.030056508865770715 0 -0.0012996511570261637 -0.029947277155150165 0 -0.0024687369275803914 -0.028163977157240512 0 -0.0026582471193157668 -0.028252325277788336 0 -0.0023747332799168375 -0.02807887673785036 0 -0.0018672195964136433 -0.029026552852796747 0 -0.0018445763178100932 -0.029579676723151812 0 -0.001106532872170783 -0.029938499706286353 0 -0.001187107592473831 -0.030056508865770715 0 -0.0010819005693398916 -0.030218407799470388 0 -0.001187107592473831 -0.030056508865770715 0 -0.0012709994904776319 -0.030182551851194391 0 -0.0010819005693398916 -0.030218407799470388 0 -0.0010589664147037314 -0.030064649193350227 0 -0.001106532872170783 -0.029938499706286353 0 -0.0010819005693398916 -0.030218407799470388 0 -0.0013367069725378144 -0.030229514608643732 0 -0.0012564402233082395 -0.030273109004720963 0 -0.0014796626279729565 -0.030222218917139242 0 -0.0011629287534524607 -0.030342990539931874 0 -0.0011664303712720376 -0.030705781072258471 0 -0.0013367069725378144 -0.030229514608643732 0 -0.0014432734321360773 -0.030358259666613253 0 -0.0013877828575144155 -0.03024881470561238 0 -0.0013367069725378144 -0.030229514608643732 0 -0.0013877828575144155 -0.03024881470561238 0 -0.0013580183042740655 -0.030218304636688176 0 -0.0013367069725378144 -0.030229514608643732 0 -0.0012564402233082395 -0.030273109004720963 0 -0.0014432734321360773 -0.030358259666613253 0 -0.0014432734321360773 -0.030358259666613253 0 -0.0014484754097985092 -0.030298972066088663 0 -0.0013877828575144155 -0.03024881470561238 0 -0.00146133064715201 -0.030023093879925987 0 -0.0018445763178100932 -0.029579676723151812 0 -0.0014484754097985092 -0.030298972066088663 0 -0.0013877828575144155 -0.03024881470561238 0 -0.0012709994904776319 -0.030182551851194391 0 -0.001187107592473831 -0.030056508865770715 0 -0.0012996511570261637 -0.029947277155150165 0 -0.0012709994904776319 -0.030182551851194391 0 -0.0018445763178100932 -0.029579676723151812 0 -0.0011988453506301538 -0.030422620781721699 0 -0.0013877828575144155 -0.03024881470561238 0 -0.0012709994904776319 -0.030182551851194391 0 -0.0013580183042740655 -0.030218304636688176 0 -0.0012709994904776319 -0.030182551851194391 0 -0.0013771427819990682 -0.03026369842745508 0 -0.0013580183042740655 -0.030218304636688176 0 -0.0013771427819990682 -0.03026369842745508 0 -0.0014796626279729565 -0.030222218917139242 0 -0.0015454161204563868 -0.030335985958921886 0 -0.0013367069725378144 -0.030229514608643732 0 -0.0013580183042740655 -0.030218304636688176 0 -0.0014796626279729565 -0.030222218917139242 0 -0.0013771427819990682 -0.03026369842745508 0 -0.0013580183042740655 -0.030218304636688176 0 -0.0014796626279729565 -0.030222218917139242 0 -0.00064435590078359159 -0.033862062688754926 0 -0.0005637859710723326 -0.032203029652960055 0 -0.00064311489142642462 -0.032321792265185188 0 -0.0011266190713117897 -0.032465825965381209 0 -0.00088271468699452978 -0.031864042878525241 0 -0.0011664303712720376 -0.030705781072258471 0 -0.001617019405128354 -0.030130493494474716 0 -0.0011664303712720376 -0.030705781072258471 0 -0.0005637859710723326 -0.032203029652960055 0 -3.8393520557467408e-05 -0.03494086903614551 0 -3.0699238244465035e-05 -0.034949471676119427 0 -2.8792557961441245e-05 -0.034954165659623102 0 -3.8393520557467408e-05 -0.03494086903614551 0 -3.0699238244465035e-05 -0.034949471676119427 0 -2.4678664175877284e-05 -0.034937220574549989 0 -0.0005637859710723326 -0.032203029652960055 0 -0.00030752811058582408 -0.033337587458348229 0 -3.0699238244465035e-05 -0.034949471676119427 0 -3.6989798587860521e-05 -0.03495612658694084 0 -2.8792557961441245e-05 -0.034954165659623102 0 -3.0699238244465035e-05 -0.034949471676119427 0 -3.6989798587860521e-05 -0.03495612658694084 0 -1.0039477086633264e-05 -0.034912906227752151 0 -3.0699238244465035e-05 -0.034949471676119427 0 -2.4678664175877284e-05 -0.034937220574549989 0 -1.0039477086633264e-05 -0.034912906227752151 0 -0.0010990297526164983 -0.030555692376241162 0 -0.00075751452286539555 -0.030029190680034908 0 -0.00057152258016443525 -0.030370228760712173 0 -0.0010990297526164983 -0.030555692376241162 0 -0.00057152258016443525 -0.030370228760712173 0 -0.00082795267546852786 -0.031088540410411009 0 -0.00083960726831412854 -0.031336708152857634 0 -0.000836572547865065 -0.031581657855465003 0 -0.00069884903294915792 -0.031565266765351527 0 -0.00083960726831412854 -0.031336708152857634 0 -0.00099112320758707275 -0.031677253350301422 0 -0.000836572547865065 -0.031581657855465003 0 -0.0005637859710723326 -0.032203029652960055 0 -0.00088668283087195031 -0.031102254158462992 0 -0.00099112320758707275 -0.031677253350301422 0 -0.00086940438182518621 -0.031677479177816353 0 -0.000836572547865065 -0.031581657855465003 0 -0.00086940438182518621 -0.031677479177816353 0 -0.00076919737995885377 -0.031658279530687596 0 -0.00077919267861300862 -0.031722759115468693 0 -0.00086940438182518621 -0.031677479177816353 0 -0.000836572547865065 -0.031581657855465003 0 -0.00076919737995885377 -0.031658279530687596 0 -0.00030752811058582408 -0.033337587458348229 0 -0.00034370835407310208 -0.03377234932714808 0 1.6187773419254059e-05 -0.03541754623198299 0 -0.00034370835407310208 -0.03377234932714808 0 -0.00069884903294915792 -0.031565266765351527 0 -0.00076919737995885377 -0.031658279530687596 0 -0.00047003860171094245 -0.03196396748402823 0 -3.6989798587860521e-05 -0.03495612658694084 0 -1.0039477086633264e-05 -0.034912906227752151 0 -6.1728703588493554e-05 -0.034808104430636234 0 -0.000836572547865065 -0.031581657855465003 0 -0.00069884903294915792 -0.031565266765351527 0 -0.00076919737995885377 -0.031658279530687596 0 -0.00076919737995885377 -0.031658279530687596 0 -0.00077919267861300862 -0.031722759115468693 0 -0.00069135052458207241 -0.031746947517336359 0 -0.00092817269524607361 -0.031419861311523141 0 -0.00044151822773632346 -0.03304626598985224 0 -0.00076919737995885377 -0.031658279530687596 0 -0.00069135052458207241 -0.031746947517336359 0 -0.00057896411289693199 -0.031808350179619874 0 -0.00069135052458207241 -0.031746947517336359 0 -0.00075759568005517234 -0.031802774400879155 0 -0.00068357525780146731 -0.031805312087855364 0 -0.00069135052458207241 -0.031746947517336359 0 -0.00064874181123559681 -0.031798967446166164 0 -0.00068357525780146731 -0.031805312087855364 0 -0.00077919267861300862 -0.031722759115468693 0 -0.00069135052458207241 -0.031746947517336359 0 -0.00075759568005517234 -0.031802774400879155 0 -0.00076919737995885377 -0.031658279530687596 0 -0.00047003860171094245 -0.03196396748402823 0 -0.0004720191146030675 -0.032004065031171362 0 -0.00069135052458207241 -0.031746947517336359 0 -0.00057896411289693199 -0.031808350179619874 0 -0.00064874181123559681 -0.031798967446166164 0 -0.00064395118903466404 -0.031945849654699147 0 -0.00057896411289693199 -0.031808350179619874 0 -0.00064164619232653832 -0.031837575948149559 0 -0.00034370835407310208 -0.03377234932714808 0 -0.00014754332474750293 -0.034029474975506568 0 -0.00051170014637711 -0.03327426051388626 0 -0.00051989002062136406 -0.033503165441158674 0 -0.00021135851568252777 -0.033837102202238796 0 -0.00044151822773632346 -0.03304626598985224 0 -0.00014754332474750293 -0.034029474975506568 0 -0.00034370835407310208 -0.03377234932714808 0 -0.00044151822773632346 -0.03304626598985224 0 -0.00057896411289693199 -0.031808350179619874 0 -0.00064874181123559681 -0.031798967446166164 0 -0.00064164619232653832 -0.031837575948149559 0 -0.00064874181123559681 -0.031798967446166164 0 -0.00064164619232653832 -0.031837575948149559 0 -0.00068357525780146731 -0.031805312087855364 0 -0.000763080885604906 -0.031919462040002775 0 -0.00075759568005517234 -0.031802774400879155 0 -0.00069306871786562634 -0.031858956407503705 0 -0.00064164619232653832 -0.031837575948149559 0 -0.00068357525780146731 -0.031805312087855364 0 -0.00069306871786562634 -0.031858956407503705 0 -0.00075759568005517234 -0.031802774400879155 0 -0.00068357525780146731 -0.031805312087855364 0 -0.00069306871786562634 -0.031858956407503705 0 -0.00064395118903466404 -0.031945849654699147 0 -0.00064164619232653832 -0.031837575948149559 0 -0.00069306871786562634 -0.031858956407503705 0 -0.000763080885604906 -0.031919462040002775 0 -0.00075759568005517234 -0.031802774400879155 0 -0.00084934076621324169 -0.031866653330572245 0 -0.00075759568005517234 -0.031802774400879155 0 -0.00084934076621324169 -0.031866653330572245 0 -0.00084105432889119026 -0.031767138597352647 0 -0.00084934076621324169 -0.031866653330572245 0 -0.0009504373100799134 -0.031822106924035656 0 -0.00084105432889119026 -0.031767138597352647 0 -0.00095941838713918309 -0.031958098137282759 0 -0.00084934076621324169 -0.031866653330572245 0 -0.0009504373100799134 -0.031822106924035656 0 -0.00099112320758707275 -0.031677253350301422 0 -0.00086940438182518621 -0.031677479177816353 0 -0.0009504373100799134 -0.031822106924035656 0 -0.00086940438182518621 -0.031677479177816353 0 -0.0009504373100799134 -0.031822106924035656 0 -0.00084105432889119026 -0.031767138597352647 0 -0.00086940438182518621 -0.031677479177816353 0 -0.00077919267861300862 -0.031722759115468693 0 -0.00084105432889119026 -0.031767138597352647 0 -0.00077919267861300862 -0.031722759115468693 0 -0.00075759568005517234 -0.031802774400879155 0 -0.00084105432889119026 -0.031767138597352647 0 -8.3358256958992072e-06 -0.034996287283336071 0 -1.4253560601675486e-05 -0.034985929154487581 0 -4.9168681131278191e-09 -0.034999996877570515 0 -6.2023592521315297e-09 -0.034999997472629413 0 -8.3358256958992072e-06 -0.034996287283336071 0 -4.9168681131278191e-09 -0.034999996877570515 0 -8.3358256958992072e-06 -0.034996287283336071 0 -2.4880578222281402e-05 -0.034994856054349446 0 -1.7945288057464846e-05 -0.034991866648388756 0 -2.9132139243351273e-05 -0.034992261291006903 0 -2.4880578222281402e-05 -0.034994856054349446 0 -1.7945288057464846e-05 -0.034991866648388756 0 -2.9132139243351273e-05 -0.034992261291006903 0 -1.7945288057464846e-05 -0.034991866648388756 0 -1.4253560601675486e-05 -0.034985929154487581 0 -8.3358256958992072e-06 -0.034996287283336071 0 -1.7945288057464846e-05 -0.034991866648388756 0 -1.4253560601675486e-05 -0.034985929154487581 0 -3.6989798587860521e-05 -0.03495612658694084 0 -2.9132139243351273e-05 -0.034992261291006903 0 -1.4253560601675486e-05 -0.034985929154487581 0 -3.6989798587860521e-05 -0.03495612658694084 0 -1.4253560601675486e-05 -0.034985929154487581 0 -1.4377119118776791e-05 -0.034976636138051916 0 -1.4253560601675486e-05 -0.034985929154487581 0 -4.9168681131278191e-09 -0.034999996877570515 0 -1.4377119118776791e-05 -0.034976636138051916 0 -4.9168681131278191e-09 -0.034999996877570515 0 -1.4377119118776791e-05 -0.034976636138051916 0 -5.2839974455179686e-09 -0.03499988860155475 0 -3.6989798587860521e-05 -0.03495612658694084 0 -1.4377119118776791e-05 -0.034976636138051916 0 -2.8792557961441245e-05 -0.034954165659623102 0 -3.8393520557467408e-05 -0.03494086903614551 0 -1.7296371894759554e-05 -0.0349489743680498 0 -2.8792557961441245e-05 -0.034954165659623102 0 -1.4377119118776791e-05 -0.034976636138051916 0 -1.7296371894759554e-05 -0.0349489743680498 0 -2.8792557961441245e-05 -0.034954165659623102 0 4.7068565391168153e-05 -0.035081652810976791 0 -1.3893793482877785e-07 -0.034999889577059511 0 -1.4377119118776791e-05 -0.034976636138051916 0 -1.7296371894759554e-05 -0.0349489743680498 0 -5.2839974455179686e-09 -0.03499988860155475 0 -3.7048351036260933e-05 -0.035016049527177864 0 3.4021044707044414e-09 -0.035000021247869578 0 -1.9078183149761271e-08 -0.035000024961644109 0 -1.8561273456663039e-05 -0.034989247693282911 0 -1.9078183149761271e-08 -0.035000024961644109 0 1.2170163390287177e-08 -0.034999880049137476 0 -3.7048351036260933e-05 -0.035016049527177864 0 -1.8561273456663039e-05 -0.034989247693282911 0 -1.9078183149761271e-08 -0.035000024961644109 0 -3.7048351036260933e-05 -0.035016049527177864 0 -6.3465078059440073e-05 -0.034966123477727894 0 -0.00013011423881096817 -0.034976182594772441 0 4.7068565391168153e-05 -0.035081652810976791 0 -0.00031911762413784574 -0.034215059480392905 0 -3.7048351036260933e-05 -0.035016049527177864 0 -1.8561273456663039e-05 -0.034989247693282911 0 -6.3465078059440073e-05 -0.034966123477727894 0 -6.3465078059440073e-05 -0.034966123477727894 0 -3.8193482785642022e-05 -0.034923455293222203 0 -0.00011170744415601013 -0.034905629560755866 0 -1.8561273456663039e-05 -0.034989247693282911 0 -6.3465078059440073e-05 -0.034966123477727894 0 -3.8193482785642022e-05 -0.034923455293222203 0 -3.8193482785642022e-05 -0.034923455293222203 0 -0.00011170744415601013 -0.034905629560755866 0 -0.00010734904171616763 -0.034878597001241393 0 -6.3465078059440073e-05 -0.034966123477727894 0 -0.00013011423881096817 -0.034976182594772441 0 -0.00011170744415601013 -0.034905629560755866 0 -1.8561273456663039e-05 -0.034989247693282911 0 -3.8193482785642022e-05 -0.034923455293222203 0 1.2170163390287177e-08 -0.034999880049137476 0 0.00019474063022415929 -0.035073783837681421 0 -1.9802058125619394e-07 -0.034999882077663434 0 -0.0016926726320535433 -0.030059088673012019 0 -0.0020204586388540163 -0.030552130964962398 0 -0.0015454161204563868 -0.030335985958921886 0 -0.0011664303712720376 -0.030705781072258471 0 -0.0019673560591374076 -0.0322839663410543 0 -0.00064311489142642462 -0.032321792265185188 0 -0.0011266190713117897 -0.032465825965381209 0 -0.0011781162135914912 -0.033199985594599905 0 -0.0020204586388540163 -0.030552130964962398 0 -0.0015045219939858853 -0.030559832325456417 0 -0.0015454161204563868 -0.030335985958921886 0 -0.00064435590078359159 -0.033862062688754926 0 -0.00031911762413784574 -0.034215059480392905 0 -0.0011266190713117897 -0.032465825965381209 0 -0.0013694206930127243 -0.033070911391678996 0 -0.0011781162135914912 -0.033199985594599905 0 -3.8393520557467408e-05 -0.03494086903614551 0 -1.7296371894759554e-05 -0.0349489743680498 0 -3.5503290492841623e-05 -0.034922896903911593 0 -0.00031911762413784574 -0.034215059480392905 0 -0.0019673560591374076 -0.0322839663410543 0 -0.0031406054809167386 -0.030735542973259179 0 -0.0029257544633839684 -0.031527884748699608 0 -0.0037038423120437486 -0.03171475083125639 0 -0.00011170744415601013 -0.034905629560755866 0 -0.00014645748251807387 -0.034912907759971142 0 -0.00010734904171616763 -0.034878597001241393 0 -0.0019673560591374076 -0.0322839663410543 0 -0.0011697890828014658 -0.033813994715396645 0 -0.00031911762413784574 -0.034215059480392905 0 -0.0002177511172942144 -0.035058060128169567 0 -0.00013651115405871608 -0.034916965833393328 0 -0.00011170744415601013 -0.034905629560755866 0 -0.00014645748251807387 -0.034912907759971142 0 -0.0020204586388540163 -0.030552130964962398 0 -0.001689645222695566 -0.03084789156854054 0 -0.0015045219939858853 -0.030559832325456417 0 -0.0031406054809167386 -0.030735542973259179 0 -0.0029257544633839684 -0.031527884748699608 0 -0.0020459034537189595 -0.031403472929906216 0 -0.0019673560591374076 -0.0322839663410543 0 -0.0020414856494482296 -0.030859647012863735 0 -0.0029257544633839684 -0.031527884748699608 0 -0.0027546339875788623 -0.032241738518470807 0 -0.0020459034537189595 -0.031403472929906216 0 -0.002109572360198229 -0.033031070004180388 0 -0.0011697890828014658 -0.033813994715396645 0 -0.0029257544633839684 -0.031527884748699608 0 -0.0027546339875788623 -0.032241738518470807 0 -0.0037038423120437486 -0.03171475083125639 0 -0.00083751348602663356 -0.034187958615687374 0 -0.0010393684045111008 -0.034122834776169952 0 -0.00077470347611856792 -0.034389496566800806 0 -0.00083751348602663356 -0.034187958615687374 0 -0.0010393684045111008 -0.034122834776169952 0 -0.0011245688529727218 -0.033848593352372856 0 -0.0010393684045111008 -0.034122834776169952 0 -0.0011245688529727218 -0.033848593352372856 0 -0.0013857574811518224 -0.033244813038123058 0 -4.6087097289815648e-06 -0.034999185841731416 0 -9.6064219708706629e-10 -0.035000006869954664 0 -3.383322152819985e-09 -0.034999992042328461 0 -4.6087097289815648e-06 -0.034999185841731416 0 -5.330574849165506e-06 -0.0349960867055574 0 -3.383322152819985e-09 -0.034999992042328461 0 -4.6087097289815648e-06 -0.034999185841731416 0 -5.330574849165506e-06 -0.0349960867055574 0 -1.4997030218139667e-05 -0.034990890152275467 0 0.00019474063022415929 -0.035073783837681421 0 -0.0011697890828014658 -0.033813994715396645 0 -0.00083751348602663356 -0.034187958615687374 0 -0.00077470347611856792 -0.034389496566800806 0 -0.00054467794887480298 -0.034403210444258855 0 -5.330574849165506e-06 -0.0349960867055574 0 -1.4997030218139667e-05 -0.034990890152275467 0 -3.2143347661764776e-06 -0.034996420527103257 0 -0.0011697890828014658 -0.033813994715396645 0 -0.0001501774966428042 -0.034832901195250392 0 -5.330574849165506e-06 -0.0349960867055574 0 -3.383322152819985e-09 -0.034999992042328461 0 -3.2143347661764776e-06 -0.034996420527103257 0 -3.383322152819985e-09 -0.034999992042328461 0 -3.2143347661764776e-06 -0.034996420527103257 0 -2.9990504918107681e-09 -0.034999994072339578 0 -3.2143347661764776e-06 -0.034996420527103257 0 -2.9990504918107681e-09 -0.034999994072339578 0 1.569380149525686e-09 -0.035000000951518402 0 -0.0001501774966428042 -0.034832901195250392 0 -5.275561413287721e-08 -0.034999617201343085 0 -0.00054467794887480298 -0.034403210444258855 0 -8.2839660616690811e-07 -0.034999005812881887 0 -0.00055688322922249622 -0.034274921598721426 0 3.0745765875739791e-07 -0.034999840544008183 0 -8.2839660616690811e-07 -0.034999005812881887 0 -0.00055688322922249622 -0.034274921598721426 0 -2.3616986130021339e-07 -0.034999877984307655 0 -0.00043636253835627474 -0.034753288162410141 0 -0.00083751348602663356 -0.034187958615687374 0 -0.00054467794887480298 -0.034403210444258855 0 -0.00079226151996380416 -0.034140472384873735 0 -0.00054467794887480298 -0.034403210444258855 0 -0.00055688322922249622 -0.034274921598721426 0 -0.00079226151996380416 -0.034140472384873735 0 -0.00083751348602663356 -0.034187958615687374 0 -0.00079226151996380416 -0.034140472384873735 0 -0.0011245688529727218 -0.033848593352372856 0 -0.0011245688529727218 -0.033848593352372856 0 -0.00099068954690682289 -0.033923662063645034 0 -0.0010915499432306961 -0.033958000178316294 0 -0.00043636253835627474 -0.034753288162410141 0 -0.00082784673008454374 -0.034613165462664991 0 -0.00055688322922249622 -0.034274921598721426 0 -0.00079226151996380416 -0.034140472384873735 0 -0.00099068954690682289 -0.033923662063645034 0 -0.00079226151996380416 -0.034140472384873735 0 -0.0011245688529727218 -0.033848593352372856 0 -0.00099068954690682289 -0.033923662063645034 0 -0.0002176774016271807 -0.035214125345015508 0 -0.0006335857912251004 -0.035305966921195649 0 -0.00048567844592516319 -0.035047571465758834 0 -0.0006335857912251004 -0.035305966921195649 0 -0.00048567844592516319 -0.035047571465758834 0 -0.00083692386709752968 -0.034911879937927902 0 -0.0006335857912251004 -0.035305966921195649 0 -0.00083692386709752968 -0.034911879937927902 0 -0.0011341824897538606 -0.035300917644807063 0 -0.00082784673008454374 -0.034613165462664991 0 -0.0010635064159924268 -0.034783095397520711 0 -0.00048567844592516319 -0.035047571465758834 0 -0.00083692386709752968 -0.034911879937927902 0 -0.00050864618214992727 -0.034784227788904609 0 -0.00048567844592516319 -0.035047571465758834 0 -0.00023150651078206335 -0.034986937080316645 0 -0.00050864618214992727 -0.034784227788904609 0 -0.00023150651078206335 -0.034986937080316645 0 -0.00019782255991442993 -0.034862347084284061 0 -0.00050864618214992727 -0.034784227788904609 0 -0.00023150651078206335 -0.034986937080316645 0 -7.9168894413751757e-08 -0.034999956868641137 0 -9.0355296159310846e-05 -0.035047508017028273 0 -0.00023150651078206335 -0.034986937080316645 0 -7.9168894413751757e-08 -0.034999956868641137 0 -0.00019782255991442993 -0.034862347084284061 0 -7.060782734973424e-08 -0.035000396307062809 0 -0.0002176774016271807 -0.035214125345015508 0 -9.0355296159310846e-05 -0.035047508017028273 0 -7.060782734973424e-08 -0.035000396307062809 0 -7.9168894413751757e-08 -0.034999956868641137 0 -9.0355296159310846e-05 -0.035047508017028273 0 -0.0002176774016271807 -0.035214125345015508 0 -0.00048567844592516319 -0.035047571465758834 0 -0.00023150651078206335 -0.034986937080316645 0 -0.0002176774016271807 -0.035214125345015508 0 -0.00023150651078206335 -0.034986937080316645 0 -9.0355296159310846e-05 -0.035047508017028273 0 -0.0011700538459019263 -0.031621373808256865 0 -0.0020365479219202364 -0.032661664661678518 0 -0.0020969274770992474 -0.031570444332019734 0 -0.0010332867901364979 -0.031263593556990155 0 -0.001307762175760444 -0.032978520462082585 0 -0.00083148183413462597 -0.031091522304587952 0 -0.00096301897519853971 -0.031005439679020967 0 -0.00079697694937889431 -0.030816776412410034 0 -0.00083148183413462597 -0.031091522304587952 0 -0.00062433509289829957 -0.030840482226886238 0 -0.00029329957416753991 -0.03149186889076503 0 -0.0010332867901364979 -0.031263593556990155 0 -0.00028709138121581543 -0.03148788519799875 0 -0.0011700538459019263 -0.031621373808256865 0 -0.00029329957416753991 -0.03149186889076503 0 -0.0005898397384496211 -0.032195276156431495 0 -0.0011700538459019263 -0.031621373808256865 0 -0.0005898397384496211 -0.032195276156431495 0 -0.0011558449476191512 -0.032876204251541467 0 -0.0011700538459019263 -0.031621373808256865 0 -0.0020365479219202364 -0.032661664661678518 0 -0.0011558449476191512 -0.032876204251541467 0 -0.0019145625312820777 -0.033778178400250332 0 -0.001307762175760444 -0.032978520462082585 0 -0.0017414682043676191 -0.034730469334681872 0 -0.0012611979922390751 -0.034850168146937532 0 -0.0014266840857626365 -0.034417424543479937 0 -0.0017414682043676191 -0.034730469334681872 0 -0.0012611979922390751 -0.034850168146937532 0 -0.0016947754499296427 -0.035251700351294962 0 -0.00083692386709752968 -0.034911879937927902 0 -0.0012611979922390751 -0.034850168146937532 0 -0.0011276343547447093 -0.034496598152725252 0 -0.00083692386709752968 -0.034911879937927902 0 -0.0012611979922390751 -0.034850168146937532 0 -0.0011341824897538606 -0.035300917644807063 0 -0.0010635064159924268 -0.034783095397520711 0 -0.001307762175760444 -0.032978520462082585 0 -0.0012611979922390751 -0.034850168146937532 0 -0.0011341824897538606 -0.035300917644807063 0 -0.0016947754499296427 -0.035251700351294962 0 -0.0010915499432306961 -0.033958000178316294 0 -0.00076086383800455222 -0.034099786062130419 0 -0.0010822416487950412 -0.033795646096246426 0 -0.001307762175760444 -0.032978520462082585 0 -0.00065860731581499998 -0.03206355363942847 0 -0.00076086383800455222 -0.034099786062130419 0 -0.0010822416487950412 -0.033795646096246426 0 -0.00059379652919311875 -0.033610061330425794 0 -0.0011245688529727218 -0.033848593352372856 0 -0.0010915499432306961 -0.033958000178316294 0 -0.0010822416487950412 -0.033795646096246426 0 -0.0011245688529727218 -0.033848593352372856 0 -0.0010822416487950412 -0.033795646096246426 0 -0.0013857574811518224 -0.033244813038123058 0 -0.0010822416487950412 -0.033795646096246426 0 -0.00059379652919311875 -0.033610061330425794 0 -0.0013857574811518224 -0.033244813038123058 0 -0.00082856477449941778 -0.030765207594677935 0 -0.00079697694937889431 -0.030816776412410034 0 -0.00082085204316501839 -0.030798501508467 0 -0.00096301897519853971 -0.031005439679020967 0 -0.00082856477449941778 -0.030765207594677935 0 -0.00079697694937889431 -0.030816776412410034 0 -0.00079697694937889431 -0.030816776412410034 0 -0.00062433509289829957 -0.030840482226886238 0 -0.00065991020629889289 -0.030688233501884779 0 -0.00083148183413462597 -0.031091522304587952 0 -0.00079697694937889431 -0.030816776412410034 0 -0.00062433509289829957 -0.030840482226886238 0 -0.00079697694937889431 -0.030816776412410034 0 -0.00082085204316501839 -0.030798501508467 0 -0.00065991020629889289 -0.030688233501884779 0 -0.00082085204316501839 -0.030798501508467 0 -0.00084997612868284358 -0.030749704490395179 0 -0.0008018746403989917 -0.030697939497177244 0 -0.00082856477449941778 -0.030765207594677935 0 -0.00082085204316501839 -0.030798501508467 0 -0.00081770512247743017 -0.030915657229731799 0 -0.00081770512247743017 -0.030915657229731799 0 -0.00079396509978132642 -0.031039664551153891 0 -0.00073309041311676718 -0.031201255101683947 0 -0.00081770512247743017 -0.030915657229731799 0 -0.00082378287414036622 -0.030921093122169375 0 -0.00079396509978132642 -0.031039664551153891 0 -0.00082085204316501839 -0.030798501508467 0 -0.00081770512247743017 -0.030915657229731799 0 -0.00082378287414036622 -0.030921093122169375 0 -0.00082378287414036622 -0.030921093122169375 0 -0.00084997612868284358 -0.030749704490395179 0 -0.00077380143429281554 -0.031118967503971969 0 -0.00094261117251749052 -0.030464851058216034 0 -0.00077380143429281554 -0.031118967503971969 0 -0.00091858753061128278 -0.030607786263326896 0 -0.00089522604112182832 -0.030646591173347646 0 -0.00081642257496334139 -0.031026574132232487 0 -0.00082378287414036622 -0.030921093122169375 0 -0.00079396509978132642 -0.031039664551153891 0 -0.00077380143429281554 -0.031118967503971969 0 -0.00077380143429281554 -0.031118967503971969 0 -0.00091858753061128278 -0.030607786263326896 0 -0.00092792739874124981 -0.030765451324962712 0 -0.00082085204316501839 -0.030798501508467 0 -0.00082378287414036622 -0.030921093122169375 0 -0.00084997612868284358 -0.030749704490395179 0 -0.0027546339875788623 -0.032241738518470807 0 -0.0013857574811518224 -0.033244813038123058 0 -0.0017666179949552792 -0.032129693959131352 0 -0.002109572360198229 -0.033031070004180388 0 -0.0012784051478835782 -0.033347749880705831 0 -0.0013857574811518224 -0.033244813038123058 0 -0.00090826422893701777 -0.031802056330036882 0 -0.0017666179949552792 -0.032129693959131352 0 -0.00059379652919311875 -0.033610061330425794 0 -0.0013857574811518224 -0.033244813038123058 0 -0.00090826422893701777 -0.031802056330036882 0 -0.00082856477449941778 -0.030765207594677935 0 -0.00081770512247743017 -0.030915657229731799 0 -0.00073309041311676718 -0.031201255101683947 0 -0.00065860731581499998 -0.03206355363942847 0 -0.00074652916788235147 -0.031305650954824828 0 -0.00059379652919311875 -0.033610061330425794 0 -0.00090826422893701777 -0.031802056330036882 0 -0.00073309041311676718 -0.031201255101683947 0 -0.00090826422893701777 -0.031802056330036882 0 -0.00095258357546548582 -0.030919809988193405 0 -0.0012454756903275905 -0.030836994327281077 0 -0.00090826422893701777 -0.031802056330036882 0 -0.00073309041311676718 -0.031201255101683947 0 -0.00095258357546548582 -0.030919809988193405 0 -0.00079396509978132642 -0.031039664551153891 0 -0.00073309041311676718 -0.031201255101683947 0 -0.00077380143429281554 -0.031118967503971969 0 -0.00073309041311676718 -0.031201255101683947 0 -0.00095258357546548582 -0.030919809988193405 0 -0.00092792739874124981 -0.030765451324962712 0 -0.00073309041311676718 -0.031201255101683947 0 -0.00077380143429281554 -0.031118967503971969 0 -0.00092792739874124981 -0.030765451324962712 0 -0.0027546339875788623 -0.032241738518470807 0 -0.0017666179949552792 -0.032129693959131352 0 -0.0020459034537189595 -0.031403472929906216 0 -0.00083212940925682214 -0.03188562141750375 0 -0.0020414856494482296 -0.030859647012863735 0 -0.00090826422893701777 -0.031802056330036882 0 -0.001689645222695566 -0.03084789156854054 0 -0.0012454756903275905 -0.030836994327281077 0 -0.00090826422893701777 -0.031802056330036882 0 -0.0017666179949552792 -0.032129693959131352 0 -0.0020459034537189595 -0.031403472929906216 0 -0.001689645222695566 -0.03084789156854054 0 -0.0015045219939858853 -0.030559832325456417 0 -0.0012454756903275905 -0.030836994327281077 0 -0.0015045219939858853 -0.030559832325456417 0 -0.0011124313220433175 -0.030606890620390237 0 -0.0012783354552599671 -0.030410878876473757 0 -0.0011124313220433175 -0.030606890620390237 0 -0.0012783354552599671 -0.030410878876473757 0 -0.0010466561498513514 -0.03043555994562077 0 -0.0015045219939858853 -0.030559832325456417 0 -0.0012454756903275905 -0.030836994327281077 0 -0.0011124313220433175 -0.030606890620390237 0 -0.00095258357546548582 -0.030919809988193405 0 -0.0012454756903275905 -0.030836994327281077 0 -0.0011124313220433175 -0.030606890620390237 0 -0.00095258357546548582 -0.030919809988193405 0 -0.0011124313220433175 -0.030606890620390237 0 -0.00092792739874124981 -0.030765451324962712 0 -0.0011124313220433175 -0.030606890620390237 0 -0.00092792739874124981 -0.030765451324962712 0 -0.0010466561498513514 -0.03043555994562077 0 -0.0012709994904776319 -0.030182551851194391 0 -0.0012783354552599671 -0.030410878876473757 0 -0.0010466561498513514 -0.03043555994562077 0 -0.0012709994904776319 -0.030182551851194391 0 -0.0013771427819990682 -0.03026369842745508 0 -0.0012783354552599671 -0.030410878876473757 0 -0.0015045219939858853 -0.030559832325456417 0 -0.0012783354552599671 -0.030410878876473757 0 -0.0015454161204563868 -0.030335985958921886 0 -0.0013771427819990682 -0.03026369842745508 0 -0.0012783354552599671 -0.030410878876473757 0 -0.0015454161204563868 -0.030335985958921886 0 -0.00094261117251749052 -0.030464851058216034 0 -0.00099040717956348973 -0.030344056432969172 0 -0.00091858753061128278 -0.030607786263326896 0 -0.00099040717956348973 -0.030344056432969172 0 -0.00091858753061128278 -0.030607786263326896 0 -0.0010466561498513514 -0.03043555994562077 0 -0.00091858753061128278 -0.030607786263326896 0 -0.00092792739874124981 -0.030765451324962712 0 -0.0010466561498513514 -0.03043555994562077 0 -0.00099040717956348973 -0.030344056432969172 0 -0.0010819005693398916 -0.030218407799470388 0 -0.0010466561498513514 -0.03043555994562077 0 -0.0012709994904776319 -0.030182551851194391 0 -0.0010819005693398916 -0.030218407799470388 0 -0.0010466561498513514 -0.03043555994562077 0 -0.0010589664147037314 -0.030064649193350227 0 -0.00099040717956348973 -0.030344056432969172 0 -0.0010819005693398916 -0.030218407799470388 0 -0.0010589664147037314 -0.030064649193350227 0 -0.00099040717956348973 -0.030344056432969172 0 -0.0010151376648935449 -0.030237915269974353 0 -0.00089522604112182832 -0.030646591173347646 0 -0.00093575524908421314 -0.030366908019573771 0 -0.00094261117251749052 -0.030464851058216034 0 -0.00099040717956348973 -0.030344056432969172 0 -0.0010151376648935449 -0.030237915269974353 0 -0.0010589664147037314 -0.030064649193350227 0 -0.0010151376648935449 -0.030237915269974353 0 -0.0010626438535239094 -0.029940022325819136 0 -0.0010151376648935449 -0.030237915269974353 0 -0.0010626438535239094 -0.029940022325819136 0 -0.00087696757933850467 -0.030146329788054524 0 -0.001029670974152452 -0.029719026938421451 0 -0.0010626438535239094 -0.029940022325819136 0 -0.00087696757933850467 -0.030146329788054524 0 -0.001029670974152452 -0.029719026938421451 0 -0.00063212872869175649 -0.029923745543222132 0 -0.00087696757933850467 -0.030146329788054524 0 -0.00063212872869175649 -0.029923745543222132 0 -0.00062895312134801261 -0.030181399111448466 0 -0.00087696757933850467 -0.030146329788054524 0 -0.00062895312134801261 -0.030181399111448466 0 -0.00087696757933850467 -0.030146329788054524 0 -0.00073954501438979652 -0.030372671054677388 0 -0.00093575524908421314 -0.030366908019573771 0 -0.0008588794515536121 -0.030178747895239791 0 -0.00087696757933850467 -0.030146329788054524 0 -0.00084743516346168213 -0.030535680310946039 0 -0.00073954501438979652 -0.030372671054677388 0 -0.00087877062720383993 -0.030514552302703075 0 -0.00087696757933850467 -0.030146329788054524 0 -0.00084743516346168213 -0.030535680310946039 0 -0.00084743516346168213 -0.030535680310946039 0 -0.00073954501438979652 -0.030372671054677388 0 -0.00076685979840090544 -0.030566066202441986 0 -0.00073059360218659028 -0.030482226654339015 0 -0.000491280111257627 -0.030253934368432947 0 -0.00073954501438979652 -0.030372671054677388 0 -0.00076685979840090544 -0.030566066202441986 0 -0.00052786084140161061 -0.030387614934062411 0 -0.00062895312134801261 -0.030181399111448466 0 -0.00073954501438979652 -0.030372671054677388 0 -0.00052786084140161061 -0.030387614934062411 0 -0.00072851218050811763 -0.030402437357410987 0 -0.000447812150986357 -0.030116372891922993 0 -0.00049928421493042709 -0.030290437633133074 0 -0.00060726737320097358 -0.03046162134168285 0 -0.00072851218050811763 -0.030402437357410987 0 -0.00075198884018912182 -0.030579102183206908 0 -0.00060726737320097358 -0.03046162134168285 0 -0.00072851218050811763 -0.030402437357410987 0 -0.00049928421493042709 -0.030290437633133074 0 -0.00079509266755619723 -0.030516095689034354 0 -0.00079431943373065364 -0.030573480964679357 0 -0.00073059360218659028 -0.030482226654339015 0 -0.00076628774416359299 -0.030642946788045813 0 -0.00084743516346168213 -0.030535680310946039 0 -0.00076685979840090544 -0.030566066202441986 0 -0.00082625490377258423 -0.030651535529874218 0 -0.00072851218050811763 -0.030402437357410987 0 -0.00075198884018912182 -0.030579102183206908 0 -0.00072023658552276457 -0.030651658463970572 0 -0.00084743516346168213 -0.030535680310946039 0 -0.00082625490377258423 -0.030651535529874218 0 -0.00083744224229030564 -0.030603061418354276 0 -0.00082625490377258423 -0.030651535529874218 0 -0.0008018746403989917 -0.030697939497177244 0 -0.00083744224229030564 -0.030603061418354276 0 -0.00082085204316501839 -0.030798501508467 0 -0.0008018746403989917 -0.030697939497177244 0 -0.00065991020629889289 -0.030688233501884779 0 -0.00082625490377258423 -0.030651535529874218 0 -0.0008018746403989917 -0.030697939497177244 0 -0.00065991020629889289 -0.030688233501884779 0 -0.00084997612868284358 -0.030749704490395179 0 -0.00087877062720383993 -0.030514552302703075 0 -0.0008018746403989917 -0.030697939497177244 0 -0.00087877062720383993 -0.030514552302703075 0 -0.00084743516346168213 -0.030535680310946039 0 -0.00083744224229030564 -0.030603061418354276 0 -0.00087877062720383993 -0.030514552302703075 0 -0.0008018746403989917 -0.030697939497177244 0 -0.00083744224229030564 -0.030603061418354276 0 -0.00049151120741595901 -0.022427941654264077 0 -0.00039078142797069749 -0.022514020025399518 0 -3.8032170871953527e-05 -0.029827600036450172 0 -0.00020407999969655305 -0.030052257434926417 0 -0.00010597766173632903 -0.030011452363489635 0 -0.00074112988574006277 -0.015290298498289241 0 -0.00084362087099941582 -0.015130374220744744 0 -0.00090454653704567084 -0.015163698346282352 0 -0.00011128464734458539 -0.02257303298904758 0 -0.00049151120741595901 -0.022427941654264077 0 -3.6814781516127065e-05 -0.029435044942829027 0 -3.8032170871953527e-05 -0.029827600036450172 0 -0.00025713560950915633 -0.029729907361647923 0 -3.8032170871953527e-05 -0.029827600036450172 0 -0.00025713560950915633 -0.029729907361647923 0 -0.00022055642085383757 -0.029946114993660452 0 -3.8032170871953527e-05 -0.029827600036450172 0 -0.00022055642085383757 -0.029946114993660452 0 -0.00020407999969655305 -0.030052257434926417 0 -0.00022055642085383757 -0.029946114993660452 0 -0.00028107254905708695 -0.030067322159507897 0 -0.00020407999969655305 -0.030052257434926417 0 -0.00022055642085383757 -0.029946114993660452 0 -0.00028107254905708695 -0.030067322159507897 0 -0.00034825798269578015 -0.030042212974817826 0 -0.00035850511858915419 -0.030622619024893841 0 -9.3687117682856216e-05 -0.02975144273316806 0 0.00024957039410443378 -0.029814619452214742 0 -0.00034825798269578015 -0.030042212974817826 0 -0.00022652670046943276 -0.029775054262590969 0 -0.00025713560950915633 -0.029729907361647923 0 -0.00022055642085383757 -0.029946114993660452 0 -0.00034825798269578015 -0.030042212974817826 0 -0.00063212872869175649 -0.029923745543222132 0 -0.00034825798269578015 -0.030042212974817826 0 -0.00022652670046943276 -0.029775054262590969 0 -0.00047801218510577662 -0.029488087771542219 0 -0.00063212872869175649 -0.029923745543222132 0 -0.00022652670046943276 -0.029775054262590969 0 -0.00063212872869175649 -0.029923745543222132 0 -0.00062895312134801261 -0.030181399111448466 0 -0.00034825798269578015 -0.030042212974817826 0 -0.00062895312134801261 -0.030181399111448466 0 -0.00034825798269578015 -0.030042212974817826 0 -0.00052786084140161061 -0.030387614934062411 0 -0.00028107254905708695 -0.030067322159507897 0 -0.00034825798269578015 -0.030042212974817826 0 -0.00052786084140161061 -0.030387614934062411 0 -0.00030185949441814355 -0.030094367780240404 0 -0.000491280111257627 -0.030253934368432947 0 -0.000447812150986357 -0.030116372891922993 0 -0.00036045333417966641 -0.030184337370159364 0 -0.00030215499167623783 -0.0301167859351208 0 -0.000447812150986357 -0.030116372891922993 0 -0.00036045333417966641 -0.030184337370159364 0 -0.00049928421493042709 -0.030290437633133074 0 -0.00060726737320097358 -0.03046162134168285 0 -0.00049928421493042709 -0.030290437633133074 0 -0.00039678259731353315 -0.030300219882604361 0 -0.00060726737320097358 -0.03046162134168285 0 -0.00039531969179486449 -0.030368934146216598 0 -0.00039678259731353315 -0.030300219882604361 0 -0.00079509266755619723 -0.030516095689034354 0 -0.0009096163137614357 -0.028162952756038487 0 -0.00039436332091735774 -0.030303894300618306 0 -0.00039678259731353315 -0.030300219882604361 0 -0.00032802175161712488 -0.030222427832036446 0 -0.0009096163137614357 -0.028162952756038487 0 -0.00079910972957825154 -0.029335996651631377 0 -0.00036045333417966641 -0.030184337370159364 0 -0.00049928421493042709 -0.030290437633133074 0 -0.00039678259731353315 -0.030300219882604361 0 -0.00036045333417966641 -0.030184337370159364 0 -0.00039678259731353315 -0.030300219882604361 0 -0.00032802175161712488 -0.030222427832036446 0 -0.00039436332091735774 -0.030303894300618306 0 -0.00032802175161712488 -0.030222427832036446 0 -0.00022979332004023398 -0.03017265368900893 0 -0.0009096163137614357 -0.028162952756038487 0 -0.0010211717270169243 -0.026858982029084232 0 -0.00032802175161712488 -0.030222427832036446 0 -0.00026938477538256166 -0.030142951718637526 0 -0.00022979332004023398 -0.03017265368900893 0 -0.00036045333417966641 -0.030184337370159364 0 -0.00032802175161712488 -0.030222427832036446 0 -0.00026938477538256166 -0.030142951718637526 0 -0.00028107254905708695 -0.030067322159507897 0 -0.000447812150986357 -0.030116372891922993 0 -0.00030215499167623783 -0.0301167859351208 0 -0.00026938477538256166 -0.030142951718637526 0 -0.00030215499167623783 -0.0301167859351208 0 -0.00020407999969655305 -0.030052257434926417 0 -0.00028107254905708695 -0.030067322159507897 0 -0.00030215499167623783 -0.0301167859351208 0 -0.00020407999969655305 -0.030052257434926417 0 -0.00036045333417966641 -0.030184337370159364 0 -0.00026938477538256166 -0.030142951718637526 0 -0.00030215499167623783 -0.0301167859351208 0 -0.00020407999969655305 -0.030052257434926417 0 -0.00021752799820034781 -0.030108681306926052 0 -0.00016960745346940098 -0.030089714608208997 0 -0.00026938477538256166 -0.030142951718637526 0 -0.00020407999969655305 -0.030052257434926417 0 -0.00021752799820034781 -0.030108681306926052 0 -0.00026938477538256166 -0.030142951718637526 0 -0.00021752799820034781 -0.030108681306926052 0 -0.00022979332004023398 -0.03017265368900893 0 -0.00021752799820034781 -0.030108681306926052 0 -0.00016960745346940098 -0.030089714608208997 0 -0.00022979332004023398 -0.03017265368900893 0 -0.00016960745346940098 -0.030089714608208997 0 -0.00014333963275833632 -0.030070969576630344 0 -0.00022979332004023398 -0.03017265368900893 0 -0.00039078142797069749 -0.022514020025399518 0 -0.0017426444664362154 -0.02260159259713182 0 -0.00016960745346940098 -0.030089714608208997 0 -0.00010597766173632903 -0.030011452363489635 0 -0.00014333963275833632 -0.030070969576630344 0 -0.00020407999969655305 -0.030052257434926417 0 -0.00016960745346940098 -0.030089714608208997 0 -0.00010597766173632903 -0.030011452363489635 0 -0.0014808481027988245 -0.023366633738880368 0 -0.0016506396988934804 -0.023515387685814838 0 -0.0016729657142335404 -0.023326328416659412 0 -0.0014808481027988245 -0.023366633738880368 0 -0.0016506396988934804 -0.023515387685814838 0 -0.0014535704156527617 -0.023597211057134568 0 -0.0016506396988934804 -0.023515387685814838 0 -0.0016729657142335404 -0.023326328416659412 0 -0.0018980738579876979 -0.023483527750181823 0 -0.0014808481027988245 -0.023366633738880368 0 -0.0016729657142335404 -0.023326328416659412 0 -0.0015106558683986649 -0.023219640643433292 0 -0.0016729657142335404 -0.023326328416659412 0 -0.0015106558683986649 -0.023219640643433292 0 -0.0016298915968720148 -0.023109218453826637 0 -0.00149841734401782 -0.022930564035334784 0 -0.0016298915968720148 -0.023109218453826637 0 -0.001988510175964766 -0.023006802755468677 0 -0.0015456442352590014 -0.023032629575198124 0 -0.0016298915968720148 -0.023109218453826637 0 -0.0014578614755334496 -0.023088811706494791 0 -0.0017426444664362154 -0.02260159259713182 0 -0.0010211717270169243 -0.026858982029084232 0 -0.0015106558683986649 -0.023219640643433292 0 -0.0016298915968720148 -0.023109218453826637 0 -0.0014578614755334496 -0.023088811706494791 0 -0.0015456442352590014 -0.023032629575198124 0 -0.00149841734401782 -0.022930564035334784 0 -0.0014578614755334496 -0.023088811706494791 0 -0.0015456442352590014 -0.023032629575198124 0 -0.00149841734401782 -0.022930564035334784 0 -0.0016298915968720148 -0.023109218453826637 0 -0.0016729657142335404 -0.023326328416659412 0 -0.0016298915968720148 -0.023109218453826637 0 -0.0018480476602614644 -0.023262849574316017 0 -0.0016298915968720148 -0.023109218453826637 0 -0.0018480476602614644 -0.023262849574316017 0 -0.001988510175964766 -0.023006802755468677 0 -0.0018480476602614644 -0.023262849574316017 0 -0.001988510175964766 -0.023006802755468677 0 -0.0020812641965750971 -0.023403420726037415 0 -0.0018980738579876979 -0.023483527750181823 0 -0.0020812641965750971 -0.023403420726037415 0 -0.0021790339331870024 -0.023663238459056265 0 -0.0018480476602614644 -0.023262849574316017 0 -0.0018980738579876979 -0.023483527750181823 0 -0.0020812641965750971 -0.023403420726037415 0 -0.0016729657142335404 -0.023326328416659412 0 -0.0018480476602614644 -0.023262849574316017 0 -0.0018980738579876979 -0.023483527750181823 0 -0.0020986730667747447 -0.023494121248764755 0 -0.00213456489183457 -0.023678458867453456 0 -0.0020812641965750971 -0.023403420726037415 0 -0.0025834663681492068 -0.023592800799494197 0 -0.0021447989001567172 -0.023914797157998029 0 -0.0020812641965750971 -0.023403420726037415 0 -0.0023141063273132774 -0.02325202006708205 0 -0.0025834663681492068 -0.023592800799494197 0 -0.0025314019951139569 -0.023010258731293892 0 -0.001988510175964766 -0.023006802755468677 0 -0.0023141063273132774 -0.02325202006708205 0 -0.001988510175964766 -0.023006802755468677 0 -0.0020812641965750971 -0.023403420726037415 0 -0.0023141063273132774 -0.02325202006708205 0 -0.0013060844920148433 -0.030664492293914096 0 -0.0011807098370957537 -0.030479993302874462 0 -0.0013552096568947374 -0.03027728994184168 0 -0.0025314019951139569 -0.023010258731293892 0 -0.0023141063273132774 -0.02325202006708205 0 -0.0025834663681492068 -0.023592800799494197 0 -0.0009096163137614357 -0.028162952756038487 0 -0.0020457117224203371 -0.02658517862181289 0 -0.0010422142169332763 -0.030685376256756571 0 -0.0013060844920148433 -0.030664492293914096 0 -0.0011763260402355424 -0.030611870196090841 0 -0.0013060844920148433 -0.030664492293914096 0 -0.0011763260402355424 -0.030611870196090841 0 -0.0011807098370957537 -0.030479993302874462 0 -0.0011807098370957537 -0.030479993302874462 0 -0.0013552096568947374 -0.03027728994184168 0 -0.0011256579498804527 -0.030195760347423876 0 -0.0025834663681492068 -0.023592800799494197 0 -0.0026072962506911075 -0.024402687429608196 0 -0.0023983333451695547 -0.024082904196687124 0 -0.0013552096568947374 -0.03027728994184168 0 -0.0012668802734214727 -0.030076095883431495 0 -0.0011256579498804527 -0.030195760347423876 0 -0.0013552096568947374 -0.03027728994184168 0 -0.0012668802734214727 -0.030076095883431495 0 -0.0014062201426226653 -0.029893973520827927 0 -0.0020457117224203371 -0.02658517862181289 0 -0.0023693632176388073 -0.02749237708474514 0 -0.0027157460116429151 -0.029715224399895292 0 -0.0018796537944691368 -0.029816768320802139 0 -0.0020180622047843893 -0.029104375733971077 0 -0.0012668802734214727 -0.030076095883431495 0 -0.0014062201426226653 -0.029893973520827927 0 -0.0011711546469653537 -0.029929745691481657 0 -0.0023693632176388073 -0.02749237708474514 0 -0.0014172146219449402 -0.029834838281573572 0 -0.0023693632176388073 -0.02749237708474514 0 -0.002299449571756638 -0.024880672840663771 0 -0.0024581279925482251 -0.024066351617086115 0 -0.0020448700508217247 -0.024102241662754639 0 -0.0021906389633373326 -0.024477161205301891 0 -0.0025660343435550221 -0.026293558929004673 0 -0.0024814277754142793 -0.026296564801105024 0 -0.0025258632666313773 -0.026459026447973013 0 -0.0022675418782084154 -0.023979533011675758 0 -0.0020942995381062839 -0.023854500911679767 0 -0.001960957395287434 -0.024020375228735059 0 -0.002299449571756638 -0.024880672840663771 0 -0.0020196895693408547 -0.024069485834625527 0 -0.0026072962506911075 -0.024402687429608196 0 -0.0022465181349514084 -0.024437717482634763 0 -0.0023983333451695547 -0.024082904196687124 0 -0.0022675418782084154 -0.023979533011675758 0 -0.0020942995381062839 -0.023854500911679767 0 -0.0021790339331870024 -0.023663238459056265 0 -0.0022465181349514084 -0.024437717482634763 0 -0.0023983333451695547 -0.024082904196687124 0 -0.0021447989001567172 -0.023914797157998029 0 -0.0025834663681492068 -0.023592800799494197 0 -0.0023983333451695547 -0.024082904196687124 0 -0.0021447989001567172 -0.023914797157998029 0 -0.002299449571756638 -0.024880672840663771 0 -0.00213456489183457 -0.023678458867453456 0 -0.0018980738579876979 -0.023483527750181823 0 -0.0021790339331870024 -0.023663238459056265 0 -0.0019083754821216641 -0.023708516242581513 0 -0.0016506396988934804 -0.023515387685814838 0 -0.0018980738579876979 -0.023483527750181823 0 -0.0019083754821216641 -0.023708516242581513 0 -0.0019083754821216641 -0.023708516242581513 0 -0.001960957395287434 -0.024020375228735059 0 -0.0016856735019160234 -0.023775405673487897 0 -0.0020942995381062839 -0.023854500911679767 0 -0.0019083754821216641 -0.023708516242581513 0 -0.001960957395287434 -0.024020375228735059 0 -0.0020942995381062839 -0.023854500911679767 0 -0.0021790339331870024 -0.023663238459056265 0 -0.0019083754821216641 -0.023708516242581513 0 -0.0020448700508217247 -0.024102241662754639 0 -0.001646476830621212 -0.024095944579962978 0 -0.0018546815681980795 -0.024399709716035858 0 -0.001960957395287434 -0.024020375228735059 0 -0.001646476830621212 -0.024095944579962978 0 -0.0016856735019160234 -0.023775405673487897 0 -0.0020196895693408547 -0.024069485834625527 0 -0.0016749482003566101 -0.024094793579244142 0 -0.001646476830621212 -0.024095944579962978 0 -0.0016856735019160234 -0.023775405673487897 0 -0.0014427804574690462 -0.023842536090503633 0 -0.0016856735019160234 -0.023775405673487897 0 -0.0014535704156527617 -0.023597211057134568 0 -0.0014427804574690462 -0.023842536090503633 0 -0.0016506396988934804 -0.023515387685814838 0 -0.0019083754821216641 -0.023708516242581513 0 -0.0016856735019160234 -0.023775405673487897 0 -0.0016506396988934804 -0.023515387685814838 0 -0.0016856735019160234 -0.023775405673487897 0 -0.0014535704156527617 -0.023597211057134568 0 -0.00055472407527712723 -0.030652134795182112 0 -0.00070594719547276174 -0.030552654903493338 0 -0.00057349867572153621 -0.03048815337454501 0 -0.00055472407527712723 -0.030652134795182112 0 -0.00070594719547276174 -0.030552654903493338 0 -0.00064725424336854439 -0.030645394496999597 0 -0.00070594719547276174 -0.030552654903493338 0 -0.00057349867572153621 -0.03048815337454501 0 -0.00085375603064357633 -0.030300472349034161 0 -0.00055472407527712723 -0.030652134795182112 0 -0.00057349867572153621 -0.03048815337454501 0 -0.00034958255502170641 -0.03069826180980301 0 -0.00057349867572153621 -0.03048815337454501 0 -0.00034958255502170641 -0.03069826180980301 0 -0.00040217506658431288 -0.030257483179326146 0 -0.00034958255502170641 -0.03069826180980301 0 -0.00062433509289829957 -0.030840482226886238 0 -0.00065991020629889289 -0.030688233501884779 0 -0.00055472407527712723 -0.030652134795182112 0 -0.00034958255502170641 -0.03069826180980301 0 -0.00065991020629889289 -0.030688233501884779 0 -0.00072023658552276457 -0.030651658463970572 0 -0.00065991020629889289 -0.030688233501884779 0 -0.00064725424336854439 -0.030645394496999597 0 -0.00055472407527712723 -0.030652134795182112 0 -0.00065991020629889289 -0.030688233501884779 0 -0.00064725424336854439 -0.030645394496999597 0 -0.00076628774416359299 -0.030642946788045813 0 -0.00068033680631454456 -0.030678657639199889 0 -0.00070594719547276174 -0.030552654903493338 0 -0.00064725424336854439 -0.030645394496999597 0 -0.00075973621920476827 -0.030602239994694757 0 -0.00072023658552276457 -0.030651658463970572 0 -0.00064725424336854439 -0.030645394496999597 0 -0.00075973621920476827 -0.030602239994694757 0 -0.00075198884018912182 -0.030579102183206908 0 -0.00072023658552276457 -0.030651658463970572 0 -0.00075973621920476827 -0.030602239994694757 0 -0.00075198884018912182 -0.030579102183206908 0 -0.00075973621920476827 -0.030602239994694757 0 -0.00095424968117602596 -0.030569800789838526 0 -0.00075973621920476827 -0.030602239994694757 0 -0.00095424968117602596 -0.030569800789838526 0 -0.00093367896699440497 -0.030430477682829776 0 -0.0011807098370957537 -0.030479993302874462 0 -0.00095424968117602596 -0.030569800789838526 0 -0.00093367896699440497 -0.030430477682829776 0 -0.0010422142169332763 -0.030685376256756571 0 -0.00075198884018912182 -0.030579102183206908 0 -0.00095424968117602596 -0.030569800789838526 0 -0.0011763260402355424 -0.030611870196090841 0 -0.0011807098370957537 -0.030479993302874462 0 -0.00095424968117602596 -0.030569800789838526 0 -0.0010422142169332763 -0.030685376256756571 0 -0.0011763260402355424 -0.030611870196090841 0 -0.00095424968117602596 -0.030569800789838526 0 -0.0011807098370957537 -0.030479993302874462 0 -0.00093367896699440497 -0.030430477682829776 0 -0.0011256579498804527 -0.030195760347423876 0 -0.00093367896699440497 -0.030430477682829776 0 -0.00085375603064357633 -0.030300472349034161 0 -0.0011256579498804527 -0.030195760347423876 0 -0.00070594719547276174 -0.030552654903493338 0 -0.00075973621920476827 -0.030602239994694757 0 -0.00093367896699440497 -0.030430477682829776 0 -0.00070594719547276174 -0.030552654903493338 0 -0.00093367896699440497 -0.030430477682829776 0 -0.00085375603064357633 -0.030300472349034161 0 -0.00085375603064357633 -0.030300472349034161 0 -0.0011256579498804527 -0.030195760347423876 0 -0.00101234612051192 -0.029907945889991721 0 -0.00085375603064357633 -0.030300472349034161 0 -0.00101234612051192 -0.029907945889991721 0 -0.00059360659130329159 -0.030222661749365089 0 -0.0011256579498804527 -0.030195760347423876 0 -0.0011711546469653537 -0.029929745691481657 0 -0.00101234612051192 -0.029907945889991721 0 -0.0012668802734214727 -0.030076095883431495 0 -0.0011256579498804527 -0.030195760347423876 0 -0.0011711546469653537 -0.029929745691481657 0 -0.0014172146219449402 -0.029834838281573572 0 -0.0011048541564238395 -0.029903724960491321 0 -0.0018796537944691368 -0.029816768320802139 0 -0.00101234612051192 -0.029907945889991721 0 -0.0012230265635475182 -0.029302797421880435 0 -0.0018796537944691368 -0.029816768320802139 0 -0.0012230265635475182 -0.029302797421880435 0 -0.0020180622047843893 -0.029104375733971077 0 -0.00101234612051192 -0.029907945889991721 0 -0.0012230265635475182 -0.029302797421880435 0 -0.00050207062110418389 -0.029398719571768154 0 -0.0012230265635475182 -0.029302797421880435 0 -0.00050207062110418389 -0.029398719571768154 0 -0.00077482242829897516 -0.028900201381114776 0 -0.00050207062110418389 -0.029398719571768154 0 4.6522990744455319e-06 -0.029855383898964277 0 0.00015951289617034917 -0.02891095976191688 0 -0.00101234612051192 -0.029907945889991721 0 -0.00050207062110418389 -0.029398719571768154 0 -0.00043285541714560978 -0.029852943234165114 0 -0.00050207062110418389 -0.029398719571768154 0 -0.00043285541714560978 -0.029852943234165114 0 4.6522990744455319e-06 -0.029855383898964277 0 -0.00101234612051192 -0.029907945889991721 0 -0.00043285541714560978 -0.029852943234165114 0 -0.00059360659130329159 -0.030222661749365089 0 -0.00043285541714560978 -0.029852943234165114 0 -0.00040217506658431288 -0.030257483179326146 0 -0.00059360659130329159 -0.030222661749365089 0 -0.00043285541714560978 -0.029852943234165114 0 -0.00040217506658431288 -0.030257483179326146 0 4.6522990744455319e-06 -0.029855383898964277 0 -0.00057349867572153621 -0.03048815337454501 0 -0.00040217506658431288 -0.030257483179326146 0 -0.00059360659130329159 -0.030222661749365089 0 -0.00057349867572153621 -0.03048815337454501 0 -0.00085375603064357633 -0.030300472349034161 0 -0.00059360659130329159 -0.030222661749365089 0 -0.00026413736384632488 -0.030713040102893916 0 -7.041183193036928e-05 -0.030840027797913696 0 -0.00034958255502170641 -0.03069826180980301 0 -0.00029329957416753991 -0.03149186889076503 0 -6.7157050502626882e-05 -0.031866251239644414 0 -0.00034958255502170641 -0.03069826180980301 0 -0.00040217506658431288 -0.030257483179326146 0 4.6522990744455319e-06 -0.029855383898964277 0 -0.00034958255502170641 -0.03069826180980301 0 -0.00062433509289829957 -0.030840482226886238 0 -0.00029329957416753991 -0.03149186889076503 0 -0.0005898397384496211 -0.032195276156431495 0 -8.7540263720097618e-05 -0.033007021481824265 0 -0.0011558449476191512 -0.032876204251541467 0 -0.00029329957416753991 -0.03149186889076503 0 -0.0005898397384496211 -0.032195276156431495 0 -6.7157050502626882e-05 -0.031866251239644414 0 -0.0005898397384496211 -0.032195276156431495 0 -6.7157050502626882e-05 -0.031866251239644414 0 -8.7540263720097618e-05 -0.033007021481824265 0 -7.041183193036928e-05 -0.030840027797913696 0 7.2894442364109451e-05 -0.030986591408539661 0 -8.7540263720097618e-05 -0.033007021481824265 0 -0.00010510017129543124 -0.033981865761465509 0 -0.0011198077922873878 -0.033791750826693764 0 -0.00091024901784985996 -0.033816438708595714 0 -0.0010443292652075773 -0.033921332143055233 0 -0.0011198077922873878 -0.033791750826693764 0 -0.00065341013619973237 -0.030754338392830493 0 -0.00085751804826321302 -0.034273474059594473 0 7.2894442364109451e-05 -0.030986591408539661 0 -0.00065341013619973237 -0.030754338392830493 0 0.00015951289617034917 -0.02891095976191688 0 0.00019787513401107269 -0.027917375451090198 0 -0.00058648703888764669 -0.028309506595205418 0 -0.00065341013619973237 -0.030754338392830493 0 -0.0016208478701644961 -0.026702449058111258 0 0.00019787513401107269 -0.027917375451090198 0 -0.00058648703888764669 -0.028309506595205418 0 -0.0011142453798377169 -0.027506333586210473 0 0.00015951289617034917 -0.02891095976191688 0 -0.00058648703888764669 -0.028309506595205418 0 -0.00077482242829897516 -0.028900201381114776 0 -0.00050207062110418389 -0.029398719571768154 0 0.00015951289617034917 -0.02891095976191688 0 -0.00077482242829897516 -0.028900201381114776 0 -0.00058648703888764669 -0.028309506595205418 0 -0.00077482242829897516 -0.028900201381114776 0 -0.0013628610045697185 -0.028734799651175164 0 -0.0012230265635475182 -0.029302797421880435 0 -0.00077482242829897516 -0.028900201381114776 0 -0.0013628610045697185 -0.028734799651175164 0 -0.0012230265635475182 -0.029302797421880435 0 -0.0013628610045697185 -0.028734799651175164 0 -0.0020180622047843893 -0.029104375733971077 0 -0.0013628610045697185 -0.028734799651175164 0 -0.0020180622047843893 -0.029104375733971077 0 -0.0018915098671687118 -0.02831543985098595 0 -0.0013628610045697185 -0.028734799651175164 0 -0.0018915098671687118 -0.02831543985098595 0 -0.0013197038536725166 -0.028136584775381224 0 -0.0016937602965565218 -0.027828354445983285 0 -0.0011142453798377169 -0.027506333586210473 0 -0.0022086005674665093 -0.027549621545650708 0 -0.0018915098671687118 -0.02831543985098595 0 -0.0016937602965565218 -0.027828354445983285 0 -0.0013197038536725166 -0.028136584775381224 0 -0.0018915098671687118 -0.02831543985098595 0 -0.0016937602965565218 -0.027828354445983285 0 -0.0022086005674665093 -0.027549621545650708 0 -0.00058648703888764669 -0.028309506595205418 0 -0.0013628610045697185 -0.028734799651175164 0 -0.0013197038536725166 -0.028136584775381224 0 -0.00058648703888764669 -0.028309506595205418 0 -0.0013197038536725166 -0.028136584775381224 0 -0.0011142453798377169 -0.027506333586210473 0 -0.0016937602965565218 -0.027828354445983285 0 -0.0013197038536725166 -0.028136584775381224 0 -0.0011142453798377169 -0.027506333586210473 0 -0.0019441210324977495 -0.026915469509709779 0 -0.0021076315449438878 -0.026626032011726839 0 -0.001925869047657622 -0.026672314122972718 0 -0.0019441210324977495 -0.026915469509709779 0 -0.001925869047657622 -0.026672314122972718 0 -0.0017733390256734916 -0.026802150062722005 0 -0.0011142453798377169 -0.027506333586210473 0 -0.0022086005674665093 -0.027549621545650708 0 -0.0025446839720031584 -0.026887263272071277 0 -0.0019441210324977495 -0.026915469509709779 0 -0.0023412906661011202 -0.026697336645052139 0 -0.0025446839720031584 -0.026887263272071277 0 -0.0016208478701644961 -0.026702449058111258 0 -0.002474339531114771 -0.027057436500308861 0 -0.0019441210324977495 -0.026915469509709779 0 -0.0023412906661011202 -0.026697336645052139 0 -0.0021076315449438878 -0.026626032011726839 0 -0.0021076315449438878 -0.026626032011726839 0 -0.0023081526477381044 -0.026343042884102497 0 -0.0020632712904010767 -0.026455963251780665 0 -0.0023081526477381044 -0.026343042884102497 0 -0.0020632712904010767 -0.026455963251780665 0 -0.0022164931797014962 -0.026284688116431126 0 -0.0023412906661011202 -0.026697336645052139 0 -0.0021076315449438878 -0.026626032011726839 0 -0.0023081526477381044 -0.026343042884102497 0 -0.0021076315449438878 -0.026626032011726839 0 -0.001925869047657622 -0.026672314122972718 0 -0.0020632712904010767 -0.026455963251780665 0 -0.001925869047657622 -0.026672314122972718 0 -0.0020632712904010767 -0.026455963251780665 0 -0.0018977905809697652 -0.026507693318458075 0 -0.001925869047657622 -0.026672314122972718 0 -0.0017371436414053301 -0.026724460856866705 0 -0.0018977905809697652 -0.026507693318458075 0 -0.0017371436414053301 -0.026724460856866705 0 -0.0017472344067849407 -0.026557747948185592 0 -0.0018977905809697652 -0.026507693318458075 0 -0.001925869047657622 -0.026672314122972718 0 -0.0017371436414053301 -0.026724460856866705 0 -0.0017733390256734916 -0.026802150062722005 0 -0.0017371436414053301 -0.026724460856866705 0 -0.0016262576889716199 -0.026851039772771697 0 -0.0017733390256734916 -0.026802150062722005 0 -0.0017371436414053301 -0.026724460856866705 0 -0.0016082267922688704 -0.026794002326914701 0 -0.0017472344067849407 -0.026557747948185592 0 -0.0016082267922688704 -0.026794002326914701 0 -0.0015702625963899958 -0.026343764008686776 0 -0.0013813276866272808 -0.027040259539155682 0 -0.0016082267922688704 -0.026794002326914701 0 -0.0015030573955599892 -0.027058507305918474 0 -0.0013813276866272808 -0.027040259539155682 0 -0.0017371436414053301 -0.026724460856866705 0 -0.0016082267922688704 -0.026794002326914701 0 -0.0016262576889716199 -0.026851039772771697 0 -0.0016507648466871387 -0.02647374812666714 0 -0.0018012196681506981 -0.028798975148282044 0 -0.00065341013619973237 -0.030754338392830493 0 -0.0018012196681506981 -0.028798975148282044 0 -0.0018012196681506981 -0.028798975148282044 0 -0.001209594352650384 -0.030723196763953121 0 -0.000889324626342466 -0.034015528210971258 0 -0.0010443292652075773 -0.033921332143055233 0 -0.0012563891121029416 -0.034081341893406593 0 -0.00091024901784985996 -0.033816438708595714 0 -0.000889324626342466 -0.034015528210971258 0 -0.0010443292652075773 -0.033921332143055233 0 -0.0015563881646582475 -0.027069259470995331 0 -0.0019441210324977495 -0.026915469509709779 0 -0.0017733390256734916 -0.026802150062722005 0 -0.0015563881646582475 -0.027069259470995331 0 -0.0015551569458193255 -0.026824529506549139 0 -0.0017733390256734916 -0.026802150062722005 0 -0.0018012196681506981 -0.028798975148282044 0 -0.0016854804515191487 -0.0270027262968703 0 -0.0019090353929835373 -0.024774351722659148 0 -0.0016451146709400837 -0.025211509125540297 0 -0.0014896287477135005 -0.024549656314501133 0 -0.0018546815681980795 -0.024399709716035858 0 -0.0019090353929835373 -0.024774351722659148 0 -0.0014896287477135005 -0.024549656314501133 0 -0.001646476830621212 -0.024095944579962978 0 -0.0018546815681980795 -0.024399709716035858 0 -0.0014896287477135005 -0.024549656314501133 0 -0.0018546815681980795 -0.024399709716035858 0 -0.0021906389633373326 -0.024477161205301891 0 -0.0019090353929835373 -0.024774351722659148 0 -0.0020448700508217247 -0.024102241662754639 0 -0.0018546815681980795 -0.024399709716035858 0 -0.0021906389633373326 -0.024477161205301891 0 -0.0019090353929835373 -0.024774351722659148 0 -0.002043149002845631 -0.025239934540014785 0 -0.0016451146709400837 -0.025211509125540297 0 -0.0021906389633373326 -0.024477161205301891 0 -0.0019090353929835373 -0.024774351722659148 0 -0.0022861297804496333 -0.024953742472127706 0 -0.0019090353929835373 -0.024774351722659148 0 -0.0022861297804496333 -0.024953742472127706 0 -0.002043149002845631 -0.025239934540014785 0 -0.0022861297804496333 -0.024953742472127706 0 -0.0027181633051505706 -0.025248990766941641 0 -0.0023046740719433302 -0.025331175608153393 0 -0.0022861297804496333 -0.024953742472127706 0 -0.0025902749875964209 -0.024630546687148199 0 -0.0027181633051505706 -0.025248990766941641 0 -0.0021906389633373326 -0.024477161205301891 0 -0.0022861297804496333 -0.024953742472127706 0 -0.0025902749875964209 -0.024630546687148199 0 -0.002299449571756638 -0.024880672840663771 0 -0.002564038316574372 -0.025504918821959429 0 -0.0024581279925482251 -0.024066351617086115 0 -0.0021906389633373326 -0.024477161205301891 0 -0.0025902749875964209 -0.024630546687148199 0 -0.0025660343435550221 -0.026293558929004673 0 -0.0025258632666313773 -0.026459026447973013 0 -0.0025668044511038433 -0.026456640902100544 0 -0.0027157460116429151 -0.029715224399895292 0 -0.0020180622047843893 -0.029104375733971077 0 -0.002753044868797782 -0.028573616960599946 0 -0.0020180622047843893 -0.029104375733971077 0 -0.0018915098671687118 -0.02831543985098595 0 -0.002753044868797782 -0.028573616960599946 0 -0.0023693632176388073 -0.02749237708474514 0 -0.002679156147718193 -0.027711136484106749 0 -0.002564038316574372 -0.025504918821959429 0 -0.0026573556520587609 -0.026457064793507786 0 -0.0025258632666313773 -0.026459026447973013 0 -0.0025668044511038433 -0.026456640902100544 0 -0.0025728603781451508 -0.026607787507970156 0 -0.002753044868797782 -0.028573616960599946 0 -0.0022086005674665093 -0.027549621545650708 0 -0.0027763218203566749 -0.027300203373515915 0 -0.002679156147718193 -0.027711136484106749 0 -0.0026573556520587609 -0.026457064793507786 0 -0.0018915098671687118 -0.02831543985098595 0 -0.002753044868797782 -0.028573616960599946 0 -0.0022086005674665093 -0.027549621545650708 0 -0.0027181633051505706 -0.025248990766941641 0 -0.0025192736044715013 -0.02612359256152921 0 -0.0023795199267963993 -0.0256512274869834 0 -0.0028115249543698862 -0.027151950861560498 0 -0.0025890566000166594 -0.026721346858091338 0 -0.0025192736044715013 -0.02612359256152921 0 -0.0026573556520587609 -0.026457064793507786 0 -0.0025938442173725753 -0.026038211964806903 0 -0.0022086005674665093 -0.027549621545650708 0 -0.0027763218203566749 -0.027300203373515915 0 -0.0025446839720031584 -0.026887263272071277 0 -0.0027763218203566749 -0.027300203373515915 0 -0.0025890566000166594 -0.026721346858091338 0 -0.0025446839720031584 -0.026887263272071277 0 -0.0026573556520587609 -0.026457064793507786 0 -0.0027045889246462246 -0.026898098193929996 0 -0.0025890566000166594 -0.026721346858091338 0 -0.002473350515396714 -0.026685438276672975 0 -0.0024268191001799956 -0.026457291798931283 0 -0.0023412906661011202 -0.026697336645052139 0 -0.0025446839720031584 -0.026887263272071277 0 -0.002473350515396714 -0.026685438276672975 0 -0.0025890566000166594 -0.026721346858091338 0 -0.0025446839720031584 -0.026887263272071277 0 -0.002473350515396714 -0.026685438276672975 0 -0.0023412906661011202 -0.026697336645052139 0 -0.002473350515396714 -0.026685438276672975 0 -0.0024268191001799956 -0.026457291798931283 0 -0.0023081526477381044 -0.026343042884102497 0 -0.0025192736044715013 -0.02612359256152921 0 -0.0023324980756156601 -0.026168305938122121 0 -0.0023412906661011202 -0.026697336645052139 0 -0.0023081526477381044 -0.026343042884102497 0 -0.0024268191001799956 -0.026457291798931283 0 -0.0023081526477381044 -0.026343042884102497 0 -0.0024268191001799956 -0.026457291798931283 0 -0.0025192736044715013 -0.02612359256152921 0 -0.0025890566000166594 -0.026721346858091338 0 -0.0024268191001799956 -0.026457291798931283 0 -0.0025192736044715013 -0.02612359256152921 0 -0.0025192736044715013 -0.02612359256152921 0 -0.0022254000462744866 -0.025902386715654702 0 -0.0023795199267963993 -0.0256512274869834 0 -0.0025192736044715013 -0.02612359256152921 0 -0.0022254000462744866 -0.025902386715654702 0 -0.0022388057380823222 -0.026079908027680201 0 -0.0022254000462744866 -0.025902386715654702 0 -0.002178842777849578 -0.025551819060137388 0 -0.0023795199267963993 -0.0256512274869834 0 -0.002178842777849578 -0.025551819060137388 0 -0.0023795199267963993 -0.0256512274869834 0 -0.0023046740719433302 -0.025331175608153393 0 -0.0027181633051505706 -0.025248990766941641 0 -0.0023795199267963993 -0.0256512274869834 0 -0.0023046740719433302 -0.025331175608153393 0 -0.002178842777849578 -0.025551819060137388 0 -0.0023046740719433302 -0.025331175608153393 0 -0.002043149002845631 -0.025239934540014785 0 -0.0022861297804496333 -0.024953742472127706 0 -0.0023046740719433302 -0.025331175608153393 0 -0.002043149002845631 -0.025239934540014785 0 -0.002043149002845631 -0.025239934540014785 0 -0.0019366600034058314 -0.025589108490667402 0 -0.0016451146709400837 -0.025211509125540297 0 -0.002178842777849578 -0.025551819060137388 0 -0.002043149002845631 -0.025239934540014785 0 -0.0019366600034058314 -0.025589108490667402 0 -0.0022254000462744866 -0.025902386715654702 0 -0.002178842777849578 -0.025551819060137388 0 -0.0019366600034058314 -0.025589108490667402 0 -0.0022254000462744866 -0.025902386715654702 0 -0.0019366600034058314 -0.025589108490667402 0 -0.0019713191229156859 -0.025870326423533027 0 -0.0019366600034058314 -0.025589108490667402 0 -0.0016806855591452493 -0.02565950505706269 0 -0.0019713191229156859 -0.025870326423533027 0 -0.0016806855591452493 -0.02565950505706269 0 -0.0016451146709400837 -0.025211509125540297 0 -0.001330094403466698 -0.02554272494408277 0 -0.0019366600034058314 -0.025589108490667402 0 -0.0016806855591452493 -0.02565950505706269 0 -0.0016451146709400837 -0.025211509125540297 0 -0.0019918457616167808 -0.026179536778179986 0 -0.001640635392510532 -0.026247366300333006 0 -0.001598170016277994 -0.026007277650082251 0 -0.0019713191229156859 -0.025870326423533027 0 -0.0020117518661295027 -0.026058827667246473 0 -0.001598170016277994 -0.026007277650082251 0 -0.0016806855591452493 -0.02565950505706269 0 -0.0019713191229156859 -0.025870326423533027 0 -0.001598170016277994 -0.026007277650082251 0 -0.0019713191229156859 -0.025870326423533027 0 -0.0020117518661295027 -0.026058827667246473 0 -0.0022388057380823222 -0.026079908027680201 0 -0.0020117518661295027 -0.026058827667246473 0 -0.0019918457616167808 -0.026179536778179986 0 -0.001598170016277994 -0.026007277650082251 0 -0.0020117518661295027 -0.026058827667246473 0 -0.0019918457616167808 -0.026179536778179986 0 -0.0022020718271941598 -0.026142730236807441 0 -0.0019918457616167808 -0.026179536778179986 0 -0.0022020718271941598 -0.026142730236807441 0 -0.0021777919358625386 -0.026201939573125263 0 -0.0022020718271941598 -0.026142730236807441 0 -0.0022563131220561953 -0.026178020076206211 0 -0.0021777919358625386 -0.026201939573125263 0 -0.0020117518661295027 -0.026058827667246473 0 -0.0022020718271941598 -0.026142730236807441 0 -0.0022388057380823222 -0.026079908027680201 0 -0.0022254000462744866 -0.025902386715654702 0 -0.0019713191229156859 -0.025870326423533027 0 -0.0022388057380823222 -0.026079908027680201 0 -0.0022020718271941598 -0.026142730236807441 0 -0.0022388057380823222 -0.026079908027680201 0 -0.0023324980756156601 -0.026168305938122121 0 -0.0025192736044715013 -0.02612359256152921 0 -0.0022388057380823222 -0.026079908027680201 0 -0.0023324980756156601 -0.026168305938122121 0 -0.0023081526477381044 -0.026343042884102497 0 -0.0023324980756156601 -0.026168305938122121 0 -0.0022164931797014962 -0.026284688116431126 0 -0.0022563131220561953 -0.026178020076206211 0 -0.0022178759877252369 -0.026184261990157442 0 -0.0022188496789316741 -0.026200854013478825 0 -0.0023324980756156601 -0.026168305938122121 0 -0.0022563131220561953 -0.026178020076206211 0 -0.0022159538658026666 -0.026210163505218029 0 -0.0022020718271941598 -0.026142730236807441 0 -0.0023324980756156601 -0.026168305938122121 0 -0.0022563131220561953 -0.026178020076206211 0 -0.0022563131220561953 -0.026178020076206211 0 -0.0022178759877252369 -0.026184261990157442 0 -0.0022159538658026666 -0.026210163505218029 0 -0.0022563131220561953 -0.026178020076206211 0 -0.0022188496789316741 -0.026200854013478825 0 -0.0021777919358625386 -0.026201939573125263 0 -0.0022178759877252369 -0.026184261990157442 0 -0.0022188496789316741 -0.026200854013478825 0 -0.0022082912547644272 -0.026159989124181882 0 -0.0022188496789316741 -0.026200854013478825 0 -0.0021950240542717371 -0.026279323849116538 0 -0.0022082912547644272 -0.026159989124181882 0 -0.0022188496789316741 -0.026200854013478825 0 -0.0021950240542717371 -0.026279323849116538 0 -0.0021811229937004411 -0.026235397581518511 0 -0.0018316004790814152 -0.027066041349080437 0 -0.0019444554057128094 -0.02745171117634879 0 -0.0021950240542717371 -0.026279323849116538 0 -0.0021911053971799847 -0.026312351324633783 0 -0.0022082912547644272 -0.026159989124181882 0 -0.0016835010533000994 -0.028667127307757129 0 -0.0017301671216696807 -0.028657541090136206 0 -0.0017003527392944859 -0.028653433768762573 0 -0.0016835010533000994 -0.028667127307757129 0 -0.0017301671216696807 -0.028657541090136206 0 -0.0017208315120486573 -0.028587276664243235 0 -0.0018316004790814152 -0.027066041349080437 0 -0.0012433975679358546 -0.026556962019262352 0 -0.0021590761371016376 -0.026348470759327721 0 -0.0021131796864531562 -0.026267966607456908 0 -0.001968838102704774 -0.026307050263640733 0 -0.0017301671216696807 -0.028657541090136206 0 -0.0017208315120486573 -0.028587276664243235 0 -0.001842789494524032 -0.028559061961041635 0 -0.0021950240542717371 -0.026279323849116538 0 -0.0021590761371016376 -0.026348470759327721 0 -0.0021131796864531562 -0.026267966607456908 0 -0.0021617668297735254 -0.026674762613667108 0 -0.0018316004790814152 -0.027066041349080437 0 -0.0019918457616167808 -0.026179536778179986 0 -0.0021131796864531562 -0.026267966607456908 0 -0.0021777919358625386 -0.026201939573125263 0 -0.0021950240542717371 -0.026279323849116538 0 -0.0021131796864531562 -0.026267966607456908 0 -0.0021811229937004411 -0.026235397581518511 0 -0.0021131796864531562 -0.026267966607456908 0 -0.0021811229937004411 -0.026235397581518511 0 -0.0021777919358625386 -0.026201939573125263 0 -0.0022188496789316741 -0.026200854013478825 0 -0.0021811229937004411 -0.026235397581518511 0 -0.0021777919358625386 -0.026201939573125263 0 -0.0019918457616167808 -0.026179536778179986 0 -0.001968838102704774 -0.026307050263640733 0 -0.001640635392510532 -0.026247366300333006 0 -0.0019918457616167808 -0.026179536778179986 0 -0.0021131796864531562 -0.026267966607456908 0 -0.001968838102704774 -0.026307050263640733 0 -0.0021590761371016376 -0.026348470759327721 0 -0.001968838102704774 -0.026307050263640733 0 -0.0018646814444867764 -0.026461516036250618 0 -0.0018316004790814152 -0.027066041349080437 0 -0.0015809723906103741 -0.026220754322792122 0 -0.0016341257532718212 -0.026520145083995129 0 -0.0013940145773142557 -0.026550801589743486 0 -0.0014765183713122828 -0.026644589181467657 0 -0.0013940145773142557 -0.026550801589743486 0 -0.0013500720656181068 -0.026556801669943224 0 -0.0014765183713122828 -0.026644589181467657 0 -0.0017959274796291655 -0.026473422901734586 0 -0.001640635392510532 -0.026247366300333006 0 -0.0015040905761590801 -0.026508612846861686 0 -0.0018646814444867764 -0.026461516036250618 0 -0.0017959274796291655 -0.026473422901734586 0 -0.001640635392510532 -0.026247366300333006 0 -0.0011899542748426016 -0.026055288045410643 0 -0.0010757473676161612 -0.025814670826580538 0 -0.001968838102704774 -0.026307050263640733 0 -0.0018646814444867764 -0.026461516036250618 0 -0.001640635392510532 -0.026247366300333006 0 -0.0015809723906103741 -0.026220754322792122 0 -0.0011899542748426016 -0.026055288045410643 0 -0.0018339307385232238 -0.02623399303673779 0 -0.0015702625963899958 -0.026343764008686776 0 -0.0017802674162730968 -0.026048999402087394 0 -0.0018339307385232238 -0.02623399303673779 0 -0.0015702625963899958 -0.026343764008686776 0 -0.0018592037964376721 -0.026380927463173286 0 -0.0012910483968337017 -0.02668332308573541 0 -0.0016850655425090706 -0.029128862998639322 0 -0.0016082267922688704 -0.026794002326914701 0 -0.0015702625963899958 -0.026343764008686776 0 -0.0017472344067849407 -0.026557747948185592 0 -0.0012910483968337017 -0.02668332308573541 0 -0.0013506798191717699 -0.027211133226998654 0 -0.0015702625963899958 -0.026343764008686776 0 -0.0017472344067849407 -0.026557747948185592 0 -0.0018592037964376721 -0.026380927463173286 0 -0.0017472344067849407 -0.026557747948185592 0 -0.0018592037964376721 -0.026380927463173286 0 -0.0018977905809697652 -0.026507693318458075 0 -0.0020632712904010767 -0.026455963251780665 0 -0.0018977905809697652 -0.026507693318458075 0 -0.0020410245113204146 -0.026301095777577964 0 -0.0018592037964376721 -0.026380927463173286 0 -0.0018977905809697652 -0.026507693318458075 0 -0.0020410245113204146 -0.026301095777577964 0 -0.0020632712904010767 -0.026455963251780665 0 -0.0020410245113204146 -0.026301095777577964 0 -0.0022164931797014962 -0.026284688116431126 0 -0.0020410245113204146 -0.026301095777577964 0 -0.0022164931797014962 -0.026284688116431126 0 -0.0022159538658026666 -0.026210163505218029 0 -0.0023324980756156601 -0.026168305938122121 0 -0.0022164931797014962 -0.026284688116431126 0 -0.0022159538658026666 -0.026210163505218029 0 -0.0020410245113204146 -0.026301095777577964 0 -0.0022159538658026666 -0.026210163505218029 0 -0.0021425570607178585 -0.026169984666682314 0 -0.0022178759877252369 -0.026184261990157442 0 -0.0022159538658026666 -0.026210163505218029 0 -0.0021425570607178585 -0.026169984666682314 0 -0.0020410245113204146 -0.026301095777577964 0 -0.0019738572176661402 -0.026165587580133605 0 -0.0021425570607178585 -0.026169984666682314 0 -0.0018339307385232238 -0.02623399303673779 0 -0.0018592037964376721 -0.026380927463173286 0 -0.0020410245113204146 -0.026301095777577964 0 -0.0018339307385232238 -0.02623399303673779 0 -0.0020410245113204146 -0.026301095777577964 0 -0.0019738572176661402 -0.026165587580133605 0 -0.0019738572176661402 -0.026165587580133605 0 -0.0020438918891908147 -0.026062385058979565 0 -0.0017802674162730968 -0.026048999402087394 0 -0.0019738572176661402 -0.026165587580133605 0 -0.0020438918891908147 -0.026062385058979565 0 -0.0021425570607178585 -0.026169984666682314 0 -0.0020438918891908147 -0.026062385058979565 0 -0.0021425570607178585 -0.026169984666682314 0 -0.0022082912547644272 -0.026159989124181882 0 -0.0022178759877252369 -0.026184261990157442 0 -0.0021425570607178585 -0.026169984666682314 0 -0.0022082912547644272 -0.026159989124181882 0 -0.0020611666374443856 -0.027200992201405771 0 -0.0019444554057128094 -0.02745171117634879 0 -0.0019185635059546494 -0.028619610102950187 0 -0.0017003527392944859 -0.028653433768762573 0 -0.0017702345367488304 -0.028746810889095632 0 -0.0016835010533000994 -0.028667127307757129 0 -0.0017003527392944859 -0.028653433768762573 0 -0.0017702345367488304 -0.028746810889095632 0 -0.0019185635059546494 -0.028619610102950187 0 -0.0017702345367488304 -0.028746810889095632 0 -0.0018945563730498919 -0.028784783554558914 0 -0.0019185635059546494 -0.028619610102950187 0 -0.0020326564842072918 -0.028869259327634227 0 -0.0018945563730498919 -0.028784783554558914 0 -0.0019185635059546494 -0.028619610102950187 0 -0.0021253801291271071 -0.028595470546004167 0 -0.0020326564842072918 -0.028869259327634227 0 -0.0016850655425090706 -0.029128862998639322 0 -0.0021790223436065647 -0.030411770722620662 0 -0.002417961589637739 -0.033099361737769332 0 -0.0025929590051600071 -0.032600765132064675 0 -0.0021935714205606129 -0.032667620884848397 0 -0.0018339307385232238 -0.02623399303673779 0 -0.0019738572176661402 -0.026165587580133605 0 -0.0017802674162730968 -0.026048999402087394 0 -0.0020611666374443856 -0.027200992201405771 0 -0.0016850655425090706 -0.029128862998639322 0 -0.0010128460010480002 -0.027832344975386423 0 -0.00077176383734338177 -0.028540056636359223 0 -0.001425705985682507 -0.028433222310044422 0 -0.0016850655425090706 -0.029128862998639322 0 -0.0016506295440215178 -0.031036887182193114 0 -0.002417961589637739 -0.033099361737769332 0 -0.0019595602919534778 -0.033217809708201491 0 -0.0021935714205606129 -0.032667620884848397 0 -0.0019595602919534778 -0.033217809708201491 0 -0.0018057888332884192 -0.032750139097149716 0 -0.0021935714205606129 -0.032667620884848397 0 -0.0016294570427726059 -0.033065295506071575 0 -0.0018057888332884192 -0.032750139097149716 0 -0.0014196454088212841 -0.032822575622872927 0 -0.0016294570427726059 -0.033065295506071575 0 -0.0019595602919534778 -0.033217809708201491 0 -0.0018057888332884192 -0.032750139097149716 0 -0.001425705985682507 -0.028433222310044422 0 -0.0015947682680530399 -0.028020192980374448 0 -0.0020306389383342224 -0.028325366388832762 0 -0.0016506295440215178 -0.031036887182193114 0 -0.001747117300168218 -0.030814797652322475 0 -0.0016294570427726059 -0.033065295506071575 0 -0.0019595602919534778 -0.033217809708201491 0 -0.0015071316352039666 -0.033321710103585638 0 -0.0010128460010480002 -0.027832344975386423 0 -0.001425705985682507 -0.028433222310044422 0 -0.0015947682680530399 -0.028020192980374448 0 -0.0015947682680530399 -0.028020192980374448 0 -0.002098982393283141 -0.027888150075474395 0 -0.0020306389383342224 -0.028325366388832762 0 -0.0015947682680530399 -0.028020192980374448 0 -0.0017008096577818277 -0.027680600364050574 0 -0.002098982393283141 -0.027888150075474395 0 -0.0017008096577818277 -0.027680600364050574 0 -0.0015567966936502638 -0.027352592521219635 0 -0.001902326925197539 -0.027422952206049053 0 -0.0017008096577818277 -0.027680600364050574 0 -0.002098982393283141 -0.027888150075474395 0 -0.001902326925197539 -0.027422952206049053 0 -0.0010128460010480002 -0.027832344975386423 0 -0.0014308513034873673 -0.027616876865030813 0 -0.0013813276866272808 -0.027040259539155682 0 -0.0010128460010480002 -0.027832344975386423 0 -0.0015947682680530399 -0.028020192980374448 0 -0.0014308513034873673 -0.027616876865030813 0 -0.0017008096577818277 -0.027680600364050574 0 -0.0014308513034873673 -0.027616876865030813 0 -0.0015567966936502638 -0.027352592521219635 0 -0.0015947682680530399 -0.028020192980374448 0 -0.0017008096577818277 -0.027680600364050574 0 -0.0014308513034873673 -0.027616876865030813 0 -0.002530102105598096 -0.027832677040401994 0 -0.0022761501860093058 -0.027618691396830663 0 -0.002098982393283141 -0.027888150075474395 0 -0.002530102105598096 -0.027832677040401994 0 -0.0022761501860093058 -0.027618691396830663 0 -0.002496087671885605 -0.027531274728471219 0 -0.0022761501860093058 -0.027618691396830663 0 -0.002098982393283141 -0.027888150075474395 0 -0.001902326925197539 -0.027422952206049053 0 -0.002098982393283141 -0.027888150075474395 0 -0.0025965889871153291 -0.028254713673291462 0 -0.0020306389383342224 -0.028325366388832762 0 -0.002530102105598096 -0.027832677040401994 0 -0.002098982393283141 -0.027888150075474395 0 -0.0025965889871153291 -0.028254713673291462 0 -0.0013042668235979736 -0.03334396354701074 0 -0.0013262280481067983 -0.033291981359704459 0 -0.0015071316352039666 -0.033321710103585638 0 -0.0021099927910846594 -0.030665346830170678 0 -0.001747117300168218 -0.030814797652322475 0 -0.0013042668235979736 -0.03334396354701074 0 -0.0013262280481067983 -0.033291981359704459 0 -0.0012813466265122182 -0.033323074277623529 0 -0.0016294570427726059 -0.033065295506071575 0 -0.0015071316352039666 -0.033321710103585638 0 -0.0013926815267596556 -0.033226977904886011 0 -0.0013262280481067983 -0.033291981359704459 0 -0.0015071316352039666 -0.033321710103585638 0 -0.0013926815267596556 -0.033226977904886011 0 -0.0016294570427726059 -0.033065295506071575 0 -0.0013926815267596556 -0.033226977904886011 0 -0.0014196454088212841 -0.032822575622872927 0 -0.0013926815267596556 -0.033226977904886011 0 -0.0013858429150260276 -0.033264770176241701 0 -0.0014181322589919517 -0.033255080986481472 0 -0.0013599672663813529 -0.033580476696429308 0 -0.0010983056148319856 -0.031923425266163853 0 -0.0013858429150260276 -0.033264770176241701 0 -0.0014203423927128837 -0.033254908610561962 0 -0.0014181322589919517 -0.033255080986481472 0 -0.0013262280481067983 -0.033291981359704459 0 -0.0013168596114697252 -0.033314292841742116 0 -0.0013858429150260276 -0.033264770176241701 0 -0.0013262280481067983 -0.033291981359704459 0 -0.0013926815267596556 -0.033226977904886011 0 -0.0013858429150260276 -0.033264770176241701 0 -0.0013858429150260276 -0.033264770176241701 0 -0.0014203423927128837 -0.033254908610561962 0 -0.0013618472642671115 -0.033292880065101983 0 -0.0013168596114697252 -0.033314292841742116 0 -0.0013858429150260276 -0.033264770176241701 0 -0.0013618472642671115 -0.033292880065101983 0 -0.0013168596114697252 -0.033314292841742116 0 -0.001249349384979312 -0.033351730845421187 0 -0.0013618472642671115 -0.033292880065101983 0 -0.001249349384979312 -0.033351730845421187 0 -0.0012814485700017111 -0.033335154282090808 0 -0.001141250046230338 -0.03342320007953254 0 -0.0013168596114697252 -0.033314292841742116 0 -0.001249349384979312 -0.033351730845421187 0 -0.0012813466265122182 -0.033323074277623529 0 -0.0013262280481067983 -0.033291981359704459 0 -0.0013168596114697252 -0.033314292841742116 0 -0.0012813466265122182 -0.033323074277623529 0 -0.001249349384979312 -0.033351730845421187 0 -0.0012814485700017111 -0.033335154282090808 0 -0.0012813466265122182 -0.033323074277623529 0 -0.00054823856323447733 -0.034117736086035848 0 -0.00017536858020857082 -0.034715750450564242 0 -0.00013652261401224652 -0.033488917280891345 0 -0.00016476162284429212 -0.034652338673593665 0 -0.00013379965408750718 -0.034148477238338394 0 -0.00095456750550601142 -0.034132719286167991 0 -0.0011592817013751284 -0.033470677071571323 0 -0.00054823856323447733 -0.034117736086035848 0 -0.00071911868447506575 -0.034839271257742235 0 -0.001141250046230338 -0.03342320007953254 0 -0.00054823856323447733 -0.034117736086035848 0 -0.00017536858020857082 -0.034715750450564242 0 -0.00071911868447506575 -0.034839271257742235 0 -0.00017536858020857082 -0.034715750450564242 0 -0.00071911868447506575 -0.034839271257742235 0 -0.00039198333271489621 -0.03498422225572085 0 -0.0012814485700017111 -0.033335154282090808 0 -0.0012803945055043491 -0.033331638794953412 0 -0.0012745597956535257 -0.033333615010449708 0 -0.00071911868447506575 -0.034839271257742235 0 -0.00039198333271489621 -0.03498422225572085 0 -0.00030141741315826032 -0.035453614724156104 0 -0.00095456750550601142 -0.034132719286167991 0 -0.0008935707880745531 -0.033959032723704791 0 -0.00017536858020857082 -0.034715750450564242 0 -0.00039198333271489621 -0.03498422225572085 0 -0.00024231961078528705 -0.035057576355636402 0 -0.00039198333271489621 -0.03498422225572085 0 -0.00024231961078528705 -0.035057576355636402 0 -0.00030141741315826032 -0.035453614724156104 0 -0.0013042668235979736 -0.03334396354701074 0 -0.0012803945055043491 -0.033331638794953412 0 -0.0012813466265122182 -0.033323074277623529 0 -0.0012814485700017111 -0.033335154282090808 0 -0.0012803945055043491 -0.033331638794953412 0 -0.0012813466265122182 -0.033323074277623529 0 3.075023966078377e-08 -0.034997903591183398 0 -2.5545120820374732e-05 -0.034926067902529091 0 3.5146959673554638e-09 -0.034999995100484141 0 3.075023966078377e-08 -0.034997903591183398 0 -2.5545120820374732e-05 -0.034926067902529091 0 -5.6673957792634664e-05 -0.03478918531018093 0 -2.5545120820374732e-05 -0.034926067902529091 0 -9.9290554303274335e-05 -0.034805980743868696 0 -5.6673957792634664e-05 -0.03478918531018093 0 -0.00017536858020857082 -0.034715750450564242 0 -9.9290554303274335e-05 -0.034805980743868696 0 -0.00011255771680692217 -0.034791106835109976 0 -2.5545120820374732e-05 -0.034926067902529091 0 -4.5921598053394083e-05 -0.034887428289438839 0 -2.2976154673968351e-05 -0.034957911736250243 0 -2.5545120820374732e-05 -0.034926067902529091 0 -4.5921598053394083e-05 -0.034887428289438839 0 -9.9290554303274335e-05 -0.034805980743868696 0 -0.00017536858020857082 -0.034715750450564242 0 -4.5921598053394083e-05 -0.034887428289438839 0 -0.00024231961078528705 -0.035057576355636402 0 -0.00017536858020857082 -0.034715750450564242 0 -4.5921598053394083e-05 -0.034887428289438839 0 -9.9290554303274335e-05 -0.034805980743868696 0 -4.9356245177130998e-05 -0.035239587951582059 0 -0.0008935707880745531 -0.033959032723704791 0 -4.7085212029167072e-05 -0.034963217458964926 0 -2.2976154673968351e-05 -0.034957911736250243 0 -2.3639934485261418e-05 -0.035000462489668607 0 -4.5921598053394083e-05 -0.034887428289438839 0 -0.00024231961078528705 -0.035057576355636402 0 -0.00030141741315826032 -0.035453614724156104 0 -4.5921598053394083e-05 -0.034887428289438839 0 -4.7085212029167072e-05 -0.034963217458964926 0 -0.00010925963068433616 -0.034979818732495692 0 -4.7085212029167072e-05 -0.034963217458964926 0 -7.2080619133274787e-05 -0.034981532428400047 0 -0.00010925963068433616 -0.034979818732495692 0 -4.5921598053394083e-05 -0.034887428289438839 0 -4.7085212029167072e-05 -0.034963217458964926 0 -2.2976154673968351e-05 -0.034957911736250243 0 -2.2976154673968351e-05 -0.034957911736250243 0 3.5146959673554638e-09 -0.034999995100484141 0 -2.3639934485261418e-05 -0.035000462489668607 0 -2.5545120820374732e-05 -0.034926067902529091 0 -2.2976154673968351e-05 -0.034957911736250243 0 3.5146959673554638e-09 -0.034999995100484141 0 3.5146959673554638e-09 -0.034999995100484141 0 -1.9704470808741483e-08 -0.03500002096183371 0 -2.3639934485261418e-05 -0.035000462489668607 0 -7.7218282206420845e-08 -0.034999983882962563 0 8.2052926784312129e-05 -0.034986975613796205 0 2.3655926448933755e-08 -0.034999909095505509 0 2.706781481176861e-06 -0.034987668672024082 0 4.8608247812087277e-06 -0.034997153618955175 0 2.706781481176861e-06 -0.034987668672024082 0 4.4186425993942477e-06 -0.034992967090187302 0 -1.1043994776665655e-05 -0.034974770839350924 0 8.2052926784312129e-05 -0.034986975613796205 0 -0.00045287909508165278 -0.033692240548276173 0 -2.3639934485261418e-05 -0.035000462489668607 0 -7.2080619133274787e-05 -0.034981532428400047 0 -9.7739643707274584e-05 -0.034999233856301729 0 -4.7085212029167072e-05 -0.034963217458964926 0 -2.3639934485261418e-05 -0.035000462489668607 0 -7.2080619133274787e-05 -0.034981532428400047 0 -8.7809233288879411e-05 -0.034297952183033942 0 -0.00045287909508165278 -0.033692240548276173 0 2.706781481176861e-06 -0.034987668672024082 0 4.4186425993942477e-06 -0.034992967090187302 0 4.8608247812087277e-06 -0.034997153618955175 0 -0.00024871517680196466 -0.033481740649371136 0 -0.00046203312276543577 -0.032967684205950261 0 -0.00057009247536996118 -0.033308710721624266 0 2.3655926448933755e-08 -0.034999909095505509 0 4.8608247812087277e-06 -0.034997153618955175 0 -2.0893017873356097e-08 -0.035000142989455904 0 -0.0025965889871153291 -0.028254713673291462 0 -0.0027847135920976351 -0.027991172701135061 0 -0.00316050652463427 -0.028201409925958244 0 -0.002530102105598096 -0.027832677040401994 0 -0.0025965889871153291 -0.028254713673291462 0 -0.0027847135920976351 -0.027991172701135061 0 -0.0021099927910846594 -0.030665346830170678 0 -0.0015720308595329642 -0.031778610448171797 0 -0.0027847135920976351 -0.027991172701135061 0 -0.00316050652463427 -0.028201409925958244 0 -0.0028503180179428782 -0.027674082700632152 0 -0.0013042668235979736 -0.03334396354701074 0 -0.0012803945055043491 -0.033331638794953412 0 -0.0012744521139657406 -0.033332809045536663 0 -0.0012803945055043491 -0.033331638794953412 0 -0.0012745597956535257 -0.033333615010449708 0 -0.0012744521139657406 -0.033332809045536663 0 -0.0011240877526178194 -0.032834617111286879 0 -0.0010933466965969431 -0.032785187508585528 0 -0.0011452098167955855 -0.032778668658284965 0 -0.0008935707880745531 -0.033959032723704791 0 -0.00045287909508165278 -0.033692240548276173 0 -7.2080619133274787e-05 -0.034981532428400047 0 -0.00010925963068433616 -0.034979818732495692 0 -9.7739643707274584e-05 -0.034999233856301729 0 -0.0008935707880745531 -0.033959032723704791 0 -0.0015720308595329642 -0.031778610448171797 0 -0.0015720308595329642 -0.031778610448171797 0 -0.00045287909508165278 -0.033692240548276173 0 -0.0005746859407560743 -0.032948792592967652 0 -0.00046203312276543577 -0.032967684205950261 0 -0.00057009247536996118 -0.033308710721624266 0 -0.0005746859407560743 -0.032948792592967652 0 -0.00057009247536996118 -0.033308710721624266 0 -0.00091755323711459498 -0.03348731895577322 0 -0.00024871517680196466 -0.033481740649371136 0 -0.00057009247536996118 -0.033308710721624266 0 -0.0005391610268502935 -0.033726974738562149 0 -0.00057009247536996118 -0.033308710721624266 0 -0.00091755323711459498 -0.03348731895577322 0 -0.0005391610268502935 -0.033726974738562149 0 -0.0015720308595329642 -0.031778610448171797 0 -0.0018945841914429753 -0.030084260467842325 0 -0.002530102105598096 -0.027832677040401994 0 -0.0028503180179428782 -0.027674082700632152 0 -0.002496087671885605 -0.027531274728471219 0 -0.002530102105598096 -0.027832677040401994 0 -0.0027847135920976351 -0.027991172701135061 0 -0.0028503180179428782 -0.027674082700632152 0 -0.00091755323711459498 -0.03348731895577322 0 -0.00075282971175443154 -0.034015520022009006 0 -0.0012491692564452971 -0.03399092301302982 0 -0.0018945841914429753 -0.030084260467842325 0 -0.0013102971398587437 -0.032232884826605586 0 -0.0005391610268502935 -0.033726974738562149 0 -0.00075282971175443154 -0.034015520022009006 0 -0.00040341016574513831 -0.034142583990910774 0 -0.00091755323711459498 -0.03348731895577322 0 -0.0005391610268502935 -0.033726974738562149 0 -0.00075282971175443154 -0.034015520022009006 0 -0.00075282971175443154 -0.034015520022009006 0 -0.00040341016574513831 -0.034142583990910774 0 -0.00038760170708255836 -0.034464336776561542 0 -0.00075842141480010671 -0.034225824907820009 0 -0.0013102971398587437 -0.032232884826605586 0 -0.00075282971175443154 -0.034015520022009006 0 -0.00097081208061441005 -0.034169103350502668 0 -0.00066673078325324789 -0.034449105457242821 0 -0.00075282971175443154 -0.034015520022009006 0 -0.00097081208061441005 -0.034169103350502668 0 -0.0011814322587130601 -0.033880483125269902 0 4.8608247812087277e-06 -0.034997153618955175 0 -2.0893017873356097e-08 -0.035000142989455904 0 2.5124530592923739e-05 -0.034977129206256848 0 4.4186425993942477e-06 -0.034992967090187302 0 4.8608247812087277e-06 -0.034997153618955175 0 2.5124530592923739e-05 -0.034977129206256848 0 -0.0005391610268502935 -0.033726974738562149 0 -0.00040341016574513831 -0.034142583990910774 0 -4.3985902868177492e-05 -0.034038530198876482 0 -8.7809233288879411e-05 -0.034297952183033942 0 -3.2414117055143524e-05 -0.034500096454056134 0 -0.00024871517680196466 -0.033481740649371136 0 -0.0005391610268502935 -0.033726974738562149 0 -4.3985902868177492e-05 -0.034038530198876482 0 -0.00040341016574513831 -0.034142583990910774 0 -0.00019749244855089902 -0.034483171076287469 0 -0.00038760170708255836 -0.034464336776561542 0 -0.00040341016574513831 -0.034142583990910774 0 -0.00019749244855089902 -0.034483171076287469 0 -4.3985902868177492e-05 -0.034038530198876482 0 -3.2414117055143524e-05 -0.034500096454056134 0 2.4504738476137281e-05 -0.034851657223133527 0 -2.0893017873356097e-08 -0.035000142989455904 0 2.5068436365154649e-08 -0.034999364659861198 0 1.0040690576577172e-05 -0.034902170506931431 0 -0.00019749244855089902 -0.034483171076287469 0 -4.3985902868177492e-05 -0.034038530198876482 0 1.0040690576577172e-05 -0.034902170506931431 0 -2.0893017873356097e-08 -0.035000142989455904 0 2.5124530592923739e-05 -0.034977129206256848 0 1.0040690576577172e-05 -0.034902170506931431 0 2.5068436365154649e-08 -0.034999364659861198 0 1.0040690576577172e-05 -0.034902170506931431 0 -5.4782315653755323e-05 -0.034905558604509022 0 -0.00019749244855089902 -0.034483171076287469 0 1.0040690576577172e-05 -0.034902170506931431 0 -0.00018919319711527079 -0.034732117605346474 0 1.0040690576577172e-05 -0.034902170506931431 0 -0.00018919319711527079 -0.034732117605346474 0 -5.4782315653755323e-05 -0.034905558604509022 0 -0.00019749244855089902 -0.034483171076287469 0 -0.00018919319711527079 -0.034732117605346474 0 -0.00038760170708255836 -0.034464336776561542 0 -0.00018919319711527079 -0.034732117605346474 0 -0.00038760170708255836 -0.034464336776561542 0 -0.00039207415715632643 -0.034663469379871754 0 -0.00039207415715632643 -0.034663469379871754 0 -0.00019782255991442993 -0.034862347084284061 0 -0.00050864618214992727 -0.034784227788904609 0 -0.00018919319711527079 -0.034732117605346474 0 -0.00039207415715632643 -0.034663469379871754 0 -0.00019782255991442993 -0.034862347084284061 0 -0.00018919319711527079 -0.034732117605346474 0 -0.00019782255991442993 -0.034862347084284061 0 -5.4782315653755323e-05 -0.034905558604509022 0 -7.9168894413751757e-08 -0.034999956868641137 0 2.5068436365154649e-08 -0.034999364659861198 0 -5.4782315653755323e-05 -0.034905558604509022 0 -7.9168894413751757e-08 -0.034999956868641137 0 -0.00019782255991442993 -0.034862347084284061 0 -5.4782315653755323e-05 -0.034905558604509022 0 -0.00097081208061441005 -0.034169103350502668 0 -0.00084365009437310237 -0.034537030854537736 0 -0.0011154268981221726 -0.034257645116293638 0 -0.00097081208061441005 -0.034169103350502668 0 -0.00066673078325324789 -0.034449105457242821 0 -0.00084365009437310237 -0.034537030854537736 0 -0.00075282971175443154 -0.034015520022009006 0 -0.00038760170708255836 -0.034464336776561542 0 -0.00066673078325324789 -0.034449105457242821 0 -0.00038760170708255836 -0.034464336776561542 0 -0.00039207415715632643 -0.034663469379871754 0 -0.00066673078325324789 -0.034449105457242821 0 -0.00066673078325324789 -0.034449105457242821 0 -0.00050864618214992727 -0.034784227788904609 0 -0.00084365009437310237 -0.034537030854537736 0 -0.00039207415715632643 -0.034663469379871754 0 -0.00066673078325324789 -0.034449105457242821 0 -0.00050864618214992727 -0.034784227788904609 0 -0.00083692386709752968 -0.034911879937927902 0 -0.00050864618214992727 -0.034784227788904609 0 -0.00084365009437310237 -0.034537030854537736 0 -0.00083692386709752968 -0.034911879937927902 0 -0.00084365009437310237 -0.034537030854537736 0 -0.0011276343547447093 -0.034496598152725252 0 -0.00084365009437310237 -0.034537030854537736 0 -0.0011276343547447093 -0.034496598152725252 0 -0.0011154268981221726 -0.034257645116293638 0 -0.0012611979922390751 -0.034850168146937532 0 -0.0011276343547447093 -0.034496598152725252 0 -0.0014266840857626365 -0.034417424543479937 0 -0.0011276343547447093 -0.034496598152725252 0 -0.0013758823912781697 -0.034135249207872989 0 -0.0014266840857626365 -0.034417424543479937 0 -0.0011276343547447093 -0.034496598152725252 0 -0.0011154268981221726 -0.034257645116293638 0 -0.0013758823912781697 -0.034135249207872989 0 -0.0011154268981221726 -0.034257645116293638 0 -0.0013758823912781697 -0.034135249207872989 0 -0.0012811256832387975 -0.033974768560723685 0 -0.00097081208061441005 -0.034169103350502668 0 -0.0011154268981221726 -0.034257645116293638 0 -0.0012811256832387975 -0.033974768560723685 0 -0.0013758823912781697 -0.034135249207872989 0 -0.0015483280920381309 -0.033986032233782791 0 -0.0012811256832387975 -0.033974768560723685 0 -0.0013758823912781697 -0.034135249207872989 0 -0.0017383828593190021 -0.033912088614987908 0 -0.0014266840857626365 -0.034417424543479937 0 -0.0013758823912781697 -0.034135249207872989 0 -0.0015483280920381309 -0.033986032233782791 0 -0.0017383828593190021 -0.033912088614987908 0 -0.0017414682043676191 -0.034730469334681872 0 -0.0017383828593190021 -0.033912088614987908 0 -0.0014266840857626365 -0.034417424543479937 0 -0.0019145625312820777 -0.033778178400250332 0 -0.001769118631064312 -0.033846046713699389 0 -0.0017383828593190021 -0.033912088614987908 0 -0.0011558449476191512 -0.032876204251541467 0 -0.0011198077922873878 -0.033791750826693764 0 -0.0020365479219202364 -0.032661664661678518 0 -0.0017383828593190021 -0.033912088614987908 0 -0.0011558449476191512 -0.032876204251541467 0 -8.7540263720097618e-05 -0.033007021481824265 0 -0.0011558449476191512 -0.032876204251541467 0 -0.0011198077922873878 -0.033791750826693764 0 -0.0017383828593190021 -0.033912088614987908 0 -0.0011198077922873878 -0.033791750826693764 0 -0.0014757623700042777 -0.033975762897220936 0 -0.0015483280920381309 -0.033986032233782791 0 -0.0017383828593190021 -0.033912088614987908 0 -0.0014757623700042777 -0.033975762897220936 0 -0.0014757623700042777 -0.033975762897220936 0 -0.0012563891121029416 -0.034081341893406593 0 -0.0015558601020231027 -0.033963073084414243 0 -0.001209594352650384 -0.030723196763953121 0 -0.001905712442734028 -0.030375117949250199 0 -0.0015030573955599892 -0.027058507305918474 0 -0.0014447548211200094 -0.0270450535535329 0 -0.0013813276866272808 -0.027040259539155682 0 -0.0010443292652075773 -0.033921332143055233 0 -0.0011198077922873878 -0.033791750826693764 0 -0.0012563891121029416 -0.034081341893406593 0 -0.0011198077922873878 -0.033791750826693764 0 -0.0014757623700042777 -0.033975762897220936 0 -0.0012563891121029416 -0.034081341893406593 0 -0.0014308513034873673 -0.027616876865030813 0 -0.0013813276866272808 -0.027040259539155682 0 -0.0015567966936502638 -0.027352592521219635 0 -0.0014447548211200094 -0.0270450535535329 0 -0.0013813276866272808 -0.027040259539155682 0 -0.0015567966936502638 -0.027352592521219635 0 -0.0014447548211200094 -0.0270450535535329 0 -0.001902326925197539 -0.027422952206049053 0 -0.0020176954353226485 -0.027110300698998422 0 -0.0014447548211200094 -0.0270450535535329 0 -0.0015567966936502638 -0.027352592521219635 0 -0.001902326925197539 -0.027422952206049053 0 -0.0022615588069318372 -0.02734889906666027 0 -0.002524579992943447 -0.027167818901764819 0 -0.0020176954353226485 -0.027110300698998422 0 -0.001902326925197539 -0.027422952206049053 0 -0.0022615588069318372 -0.02734889906666027 0 -0.0020176954353226485 -0.027110300698998422 0 -0.0022761501860093058 -0.027618691396830663 0 -0.001902326925197539 -0.027422952206049053 0 -0.0022615588069318372 -0.02734889906666027 0 -0.0028503180179428782 -0.027674082700632152 0 -0.002496087671885605 -0.027531274728471219 0 -0.002524579992943447 -0.027167818901764819 0 -0.0022615588069318372 -0.02734889906666027 0 -0.002496087671885605 -0.027531274728471219 0 -0.002524579992943447 -0.027167818901764819 0 -0.0022761501860093058 -0.027618691396830663 0 -0.0022615588069318372 -0.02734889906666027 0 -0.002496087671885605 -0.027531274728471219 0 -0.0012256551787230526 -0.033879646794468983 0 -0.0012811256832387975 -0.033974768560723685 0 -0.0015558601020231027 -0.033963073084414243 0 -0.0013102971398587437 -0.032232884826605586 0 -0.0016670241140115494 -0.033468738403468583 0 -0.00097081208061441005 -0.034169103350502668 0 -0.0011814322587130601 -0.033880483125269902 0 -0.0012811256832387975 -0.033974768560723685 0 -0.0013102971398587437 -0.032232884826605586 0 -0.001905712442734028 -0.030375117949250199 0 -0.0015483280920381309 -0.033986032233782791 0 -0.0012811256832387975 -0.033974768560723685 0 -0.0015558601020231027 -0.033963073084414243 0 -0.0015483280920381309 -0.033986032233782791 0 -0.0014757623700042777 -0.033975762897220936 0 -0.0015558601020231027 -0.033963073084414243 0 -0.00073599102191226082 -0.019598781406117503 0 -0.00089448789931138428 -0.019169561524423426 0 -0.00058637779998677844 -0.019045176759322484 0 -0.00073599102191226082 -0.019598781406117503 0 -0.0013393382004499143 -0.019232577040463935 0 -0.00089448789931138428 -0.019169561524423426 0 0.00032892658275332937 -0.011272139632481937 0 0.00059660913892283158 -0.012137028845381124 0 -0.00020576232203568562 -0.011729988840268013 0 -0.00048512354517676334 -0.015128842026621243 0 -0.00030800050226379637 -0.016186882483296902 0 -0.00073599102191226082 -0.019598781406117503 0 -0.0013393382004499143 -0.019232577040463935 0 -0.0011788634061950755 -0.020070349778151888 0 -0.0013393382004499143 -0.019232577040463935 0 -0.00092912642099469229 -0.01882125845943055 0 -0.00089448789931138428 -0.019169561524423426 0 -0.00048512354517676334 -0.015128842026621243 0 -0.0010237917304128873 -0.015011517931819891 0 -0.0013393382004499143 -0.019232577040463935 0 -0.00092912642099469229 -0.01882125845943055 0 -0.0015623861915142292 -0.018388374303377662 0 -0.00092912642099469229 -0.01882125845943055 0 -0.00058637779998677844 -0.019045176759322484 0 -0.0007713541108009083 -0.018636840022133502 0 -0.00092912642099469229 -0.01882125845943055 0 -0.00089448789931138428 -0.019169561524423426 0 -0.00058637779998677844 -0.019045176759322484 0 -0.00058637779998677844 -0.019045176759322484 0 -0.00012249614182662335 -0.018949393593262077 0 -9.2873842331945625e-05 -0.019644887907844331 0 -9.9256965602585113e-05 -0.022532352688531109 0 -4.0811617189916341e-05 -0.02259510008541641 0 -9.515532195765725e-05 -0.022813954436802522 0 -0.00058637779998677844 -0.019045176759322484 0 -0.00012249614182662335 -0.018949393593262077 0 -0.00046635892199988068 -0.018680710612852258 0 0.00030917098441605881 -0.01986141132543625 0 0.00039116876279108762 -0.01952072978850054 0 0.00063675813161988293 -0.020450261139910442 0 0.00030917098441605881 -0.01986141132543625 0 7.1588328681817487e-05 -0.01991098513809381 0 -0.00024481756235509341 -0.018756864880994605 0 0.00030917098441605881 -0.01986141132543625 0 7.1588328681817487e-05 -0.01991098513809381 0 0.00063675813161988293 -0.020450261139910442 0 0.00035627275243756091 -0.021247639743618717 0 0.0004343110384601913 -0.022627673240519432 0 -0.0003199306612083755 -0.020251846116466448 0 -2.1773849037733907e-05 -0.020934612211919758 0 -4.0811617189916341e-05 -0.02259510008541641 0 -9.2200916494334459e-06 -0.02278280220565581 0 -9.515532195765725e-05 -0.022813954436802522 0 -2.1773849037733907e-05 -0.020934612211919758 0 0.0004343110384601913 -0.022627673240519432 0 -4.0811617189916341e-05 -0.02259510008541641 0 -9.2200916494334459e-06 -0.02278280220565581 0 9.14726942912693e-05 -0.022789518495051446 0 -9.2200916494334459e-06 -0.02278280220565581 0 -9.515532195765725e-05 -0.022813954436802522 0 3.5418910746733805e-06 -0.022906962598894891 0 -9.2200916494334459e-06 -0.02278280220565581 0 3.5418910746733805e-06 -0.022906962598894891 0 9.14726942912693e-05 -0.022789518495051446 0 -0.0003199306612083755 -0.020251846116466448 0 -7.6791136460748006e-05 -0.021336584593699248 0 -0.00073599102191226082 -0.019598781406117503 0 -0.00058637779998677844 -0.019045176759322484 0 -9.2873842331945625e-05 -0.019644887907844331 0 -9.2873842331945625e-05 -0.019644887907844331 0 -2.8974627337636795e-05 -0.020473882895082642 0 -0.00052910742437147352 -0.020069460908192577 0 -9.515532195765725e-05 -0.022813954436802522 0 3.5418910746733805e-06 -0.022906962598894891 0 -3.1155508762879877e-05 -0.022965897776675171 0 -7.6791136460748006e-05 -0.021336584593699248 0 -2.9929548488274995e-05 -0.021698856041778278 0 -0.00073599102191226082 -0.019598781406117503 0 -9.2873842331945625e-05 -0.019644887907844331 0 -0.00052910742437147352 -0.020069460908192577 0 3.5418910746733805e-06 -0.022906962598894891 0 3.1609230179394982e-05 -0.022989289858204056 0 6.4792960417570233e-05 -0.022952907002252672 0 3.5418910746733805e-06 -0.022906962598894891 0 9.14726942912693e-05 -0.022789518495051446 0 6.4792960417570233e-05 -0.022952907002252672 0 3.5418910746733805e-06 -0.022906962598894891 0 3.1609230179394982e-05 -0.022989289858204056 0 -3.1155508762879877e-05 -0.022965897776675171 0 3.1609230179394982e-05 -0.022989289858204056 0 -3.1155508762879877e-05 -0.022965897776675171 0 6.4533691662304591e-06 -0.022974687476682635 0 3.1609230179394982e-05 -0.022989289858204056 0 6.4533691662304591e-06 -0.022974687476682635 0 3.4213905441319061e-05 -0.023003225494506774 0 -2.8974627337636795e-05 -0.020473882895082642 0 -0.00061388493038355436 -0.020636830838093794 0 -0.00019732761814547623 -0.021436307448527182 0 -2.9929548488274995e-05 -0.021698856041778278 0 -1.5960834686042292e-05 -0.022273556178558404 0 -2.8974627337636795e-05 -0.020473882895082642 0 -0.00061388493038355436 -0.020636830838093794 0 -0.00052910742437147352 -0.020069460908192577 0 -0.00061388493038355436 -0.020636830838093794 0 -0.0011788634061950755 -0.020070349778151888 0 -0.00096995676502963698 -0.021141432306159808 0 -0.00073599102191226082 -0.019598781406117503 0 -0.00052910742437147352 -0.020069460908192577 0 -0.0011788634061950755 -0.020070349778151888 0 -0.00061388493038355436 -0.020636830838093794 0 -0.00052910742437147352 -0.020069460908192577 0 -0.0011788634061950755 -0.020070349778151888 0 0.00059660913892283158 -0.012137028845381124 0 2.6368110044724973e-05 -0.012777455961621409 0 0.00085407010049064495 -0.013060335573449473 0 -0.00030800050226379637 -0.016186882483296902 0 0.0001363270677352999 -0.01684285000719065 0 0.00059660913892283158 -0.012137028845381124 0 2.6368110044724973e-05 -0.012777455961621409 0 -0.00027943578337698055 -0.012282811753817863 0 0.00040026597721678364 -0.012287837122068612 0 -0.00017668018444052351 -0.0077268340514934294 0 2.6368110044724973e-05 -0.012777455961621409 0 -0.00077508587215911458 -0.012496414657957089 0 -0.00027943578337698055 -0.012282811753817863 0 0.00053367096319760596 -0.011773148850609082 0 3.5095807080513195e-05 -0.011860637809022518 0 -0.00079794832310624568 -0.011331674433185134 0 3.5095807080513195e-05 -0.011860637809022518 0 -0.00079794832310624568 -0.011331674433185134 0 -0.00062817660002999925 -0.011995233216621038 0 -0.00017668018444052351 -0.0077268340514934294 0 0.0009039557510978725 -0.0078918245146115656 0 -0.00077508587215911458 -0.012496414657957089 0 -0.00027943578337698055 -0.012282811753817863 0 -0.00091160210386640318 -0.01192684848205946 0 -0.00027943578337698055 -0.012282811753817863 0 -0.00091160210386640318 -0.01192684848205946 0 -0.00020576232203568562 -0.011729988840268013 0 0.00059660913892283158 -0.012137028845381124 0 -0.00027943578337698055 -0.012282811753817863 0 -0.00020576232203568562 -0.011729988840268013 0 0.0010253892689815311 -0.0010748276662090122 0 0.0012181159179157652 -0.001798166568132369 0 0.00088409198314063459 -0.0013688948654911064 0 0.0010252638263988539 -0.0011526158679116352 0 0.0011631728020575383 -0.0016619462496962794 0 0.00090314462791760836 -0.0013104154467414983 0 0.0010253892689815311 -0.0010748276662090122 0 0.00088409198314063459 -0.0013688948654911064 0 0.0010226535121466982 -0.0011557009195689214 0 0.00086224596952381809 -0.0011117974222590212 0 0.0012416757059555109 -0.001867655715442424 0 0.001102351859806871 -0.0017381636594958122 0 0.0011631728020575383 -0.0016619462496962794 0 6.6080091040082337e-05 -0.0048105748095623162 0 0.00028216893739895323 -0.0048209284513006413 0 0.00018744224612170127 -0.0048861554422192557 0 -0.00017668018444052351 -0.0077268340514934294 0 0.0010253892689815311 -0.0010748276662090122 0 0.0010204320457568752 -0.0018276479545413884 0 0.0012416757059555109 -0.001867655715442424 0 0.001102351859806871 -0.0017381636594958122 0 0.0010204320457568752 -0.0018276479545413884 0 0.001102351859806871 -0.0017381636594958122 0 0.0010147947810627887 -0.0017425994029534454 0 6.6080091040082337e-05 -0.0048105748095623162 0 9.4738542340743468e-05 -0.0049442464698150109 0 0.00018744224612170127 -0.0048861554422192557 0 0.00018744224612170127 -0.0048861554422192557 0 0.00028101993107682103 -0.0048555461621382946 0 0.00012363876023227199 -0.0051077880430252685 0 9.4738542340743468e-05 -0.0049442464698150109 0 0.00018744224612170127 -0.0048861554422192557 0 0.00012363876023227199 -0.0051077880430252685 0 -0.00017668018444052351 -0.0077268340514934294 0 -0.00022424039059429991 -0.0091434012156827379 0 0.00042062008331848077 -0.0013548008951475505 0 -0.0010997877259885207 -0.0047192305369614142 0 -0.0002502547205898604 0.0015121056177244039 0 0.0007492132778786683 7.1411615477523007e-06 0 -0.0020978702627967669 -0.0015252338206260521 0 -0.0001434230359268943 -0.0033201216101800776 0 0.00042062008331848077 -0.0013548008951475505 0 0.00028216893739895323 -0.0048209284513006413 0 0.00018744224612170127 -0.0048861554422192557 0 0.00026596425888951322 -0.004854556022090146 0 0.0010253892689815311 -0.0010748276662090122 0 0.00042062008331848077 -0.0013548008951475505 0 0.00042062008331848077 -0.0013548008951475505 0 0.00063493840868697579 0.00049000975203227219 0 0.0012539490259645418 -0.00027893923423720344 0 0.0010553375307979925 -0.0006591401231091378 0 0.0013729986843820819 -0.00059068057933563828 0 -0.0012649065816761678 0.0065797169416783874 0 0.00063493840868697579 0.00049000975203227219 0 -0.00033874577474647113 0.0059005560206484868 0 -7.52073429039522e-06 0.0050339482335723038 0 -0.00038623626939693389 0.004961249785074391 0 -0.0002502547205898604 0.0015121056177244039 0 0.0007492132778786683 7.1411615477523007e-06 0 0.0001378951272852221 0.0015968261038775784 0 0.0010253892689815311 -0.0010748276662090122 0 0.00025844106621946225 0.001727409445972775 0 0.00063493840868697579 0.00049000975203227219 0 0.00025844106621946225 0.001727409445972775 0 0.0004443722653775124 0.00053478882552439376 0 0.00045013426073578646 0.00052052887616298594 0 0.00047970199340869902 0.00053153185224810468 0 0.0010253892689815311 -0.0010748276662090122 0 0.00063493840868697579 0.00049000975203227219 0 -0.0012649065816761678 0.0065797169416783874 0 -0.0010997877259885207 -0.0047192305369614142 0 -0.0021278514181258795 0.0024645109066476099 0 -0.001552856942683862 0.0027021639994940765 0 -0.0019396680618251286 0.0030158239573102995 0 -0.0021278514181258795 0.0024645109066476099 0 -0.0019396680618251286 0.0030158239573102995 0 -0.0023843516930145406 0.003110737096643305 0 -0.00022424039059429991 -0.0091434012156827379 0 -0.0010997877259885207 -0.0047192305369614142 0 -0.00091160210386640318 -0.01192684848205946 0 -0.0010525455539467164 -0.01134091179850481 0 -0.00069240860421966588 -0.011543023518329164 0 -0.0010525455539467164 -0.01134091179850481 0 -0.00069240860421966588 -0.011543023518329164 0 -0.00075013243859815945 -0.011209289902582313 0 -0.0010997877259885207 -0.0047192305369614142 0 -0.0021721346401197498 -0.0090899455301701633 0 -0.0010997877259885207 -0.0047192305369614142 0 -0.0018431787148609779 -0.00076019284529517991 0 -0.00099539851630556686 -0.011309221370037478 0 -0.00075013243859815945 -0.011209289902582313 0 -0.00065046017403047227 -0.010800522049489253 0 -0.0011760923917266972 -0.0043712748653918802 0 -0.0017939333115751478 -0.0053852207102361143 0 -0.0013531761738781725 -0.0054964665298650765 0 -0.0010997877259885207 -0.0047192305369614142 0 -0.0013230919025179 -0.0083930472697059961 0 -0.0011760923917266972 -0.0043712748653918802 0 -0.00084246441924196939 -0.0056697380822461488 0 -0.0013531761738781725 -0.0054964665298650765 0 -0.001552856942683862 0.0027021639994940765 0 -0.0019396680618251286 0.0030158239573102995 0 -0.0017234828258213084 0.0033768717159999933 0 -0.0019396680618251286 0.0030158239573102995 0 -0.0021350598411383022 0.003392220895721713 0 -0.0023843516930145406 0.003110737096643305 0 -0.00020576232203568562 -0.011729988840268013 0 -0.00043000379500887555 -0.011416177768845704 0 -0.00023497812678990141 -0.011116686498880006 0 0.00032892658275332937 -0.011272139632481937 0 -0.00020576232203568562 -0.011729988840268013 0 -0.00023497812678990141 -0.011116686498880006 0 -0.00091160210386640318 -0.01192684848205946 0 -0.00020576232203568562 -0.011729988840268013 0 -0.00069240860421966588 -0.011543023518329164 0 -0.00020576232203568562 -0.011729988840268013 0 -0.00069240860421966588 -0.011543023518329164 0 -0.00043000379500887555 -0.011416177768845704 0 -0.00075013243859815945 -0.011209289902582313 0 -0.00043000379500887555 -0.011416177768845704 0 -0.00023497812678990141 -0.011116686498880006 0 -0.00069240860421966588 -0.011543023518329164 0 -0.00075013243859815945 -0.011209289902582313 0 -0.00043000379500887555 -0.011416177768845704 0 -0.00075013243859815945 -0.011209289902582313 0 -0.00065046017403047227 -0.010800522049489253 0 -0.00023497812678990141 -0.011116686498880006 0 -0.00065046017403047227 -0.010800522049489253 0 -0.00023497812678990141 -0.011116686498880006 0 -0.00028408180087339537 -0.010644256946401922 0 0.00032892658275332937 -0.011272139632481937 0 -0.00023497812678990141 -0.011116686498880006 0 7.5032256646627286e-05 -0.010474397986446211 0 -0.00023497812678990141 -0.011116686498880006 0 7.5032256646627286e-05 -0.010474397986446211 0 -0.00028408180087339537 -0.010644256946401922 0 7.5032256646627286e-05 -0.010474397986446211 0 -0.00028408180087339537 -0.010644256946401922 0 -0.00029752808911984028 -0.010248727036915001 0 -0.0010237917304128873 -0.015011517931819891 0 -0.0013363905079987093 -0.0096244987900606233 0 -0.0017939333115751478 -0.0053852207102361143 0 -0.0015679148009118749 -0.006037154748682598 0 -0.0024085536577394826 -0.0064106652818439252 0 -0.00065046017403047227 -0.010800522049489253 0 -0.00028408180087339537 -0.010644256946401922 0 -0.00029752808911984028 -0.010248727036915001 0 -0.0013230919025179 -0.0083930472697059961 0 -0.0013363905079987093 -0.0096244987900606233 0 -0.0017939333115751478 -0.0053852207102361143 0 -0.0015679148009118749 -0.006037154748682598 0 -0.0013531761738781725 -0.0054964665298650765 0 -0.0013363905079987093 -0.0096244987900606233 0 -0.0017663896534394652 -0.0071091725994820616 0 -0.0014545203566372843 -0.012033979416681353 0 -0.0014584931569997927 -0.012026014336259912 0 -0.0014326305439442738 -0.012008114616542748 0 -0.0015679148009118749 -0.006037154748682598 0 -0.0024085536577394826 -0.0064106652818439252 0 -0.0015251871720015648 -0.0069165587124049837 0 -0.0014545203566372843 -0.012033979416681353 0 -0.0014596254397696144 -0.012043106689687532 0 -0.0014688460215857549 -0.012046582576198889 0 -0.0012448103589183654 -0.018610048005015766 0 -0.0013513996294180325 -0.018223325323621208 0 -0.0010357149422031856 -0.018493681398815725 0 -0.0014341045247674314 -0.012071959607711015 0 -0.0014596254397696144 -0.012043106689687532 0 -0.0014688460215857549 -0.012046582576198889 0 -0.0010237917304128873 -0.015011517931819891 0 -0.0013353829084304042 -0.015515939107250978 0 -0.0014545203566372843 -0.012033979416681353 0 -0.0014584931569997927 -0.012026014336259912 0 -0.0014596254397696144 -0.012043106689687532 0 -0.0014341045247674314 -0.012071959607711015 0 -0.0014643079679397396 -0.012050256651791066 0 -0.0014596254397696144 -0.012043106689687532 0 -0.0013363905079987093 -0.0096244987900606233 0 -0.0018151674159054304 -0.010929266720840531 0 -0.0019396680618251286 0.0030158239573102995 0 -0.0017384304393236929 0.0034315553966803689 0 -0.0017234828258213084 0.0033768717159999933 0 -0.0021350598411383022 0.003392220895721713 0 -0.0017384304393236929 0.0034315553966803689 0 -0.0022587734458482354 0.0037528180879275652 0 -0.0019396680618251286 0.0030158239573102995 0 -0.0021350598411383022 0.003392220895721713 0 -0.0017384304393236929 0.0034315553966803689 0 -0.0015679148009118749 -0.006037154748682598 0 -0.00084246441924196939 -0.0056697380822461488 0 -0.0015251871720015648 -0.0069165587124049837 0 -0.0017966583999352167 -0.0015384620148911731 0 -0.0018129557315620473 -0.0014750218524177917 0 -0.0022182040152615452 -0.0022198087023092626 0 -0.0019420357216518404 0.00023361257436634256 0 -0.0018431787148609779 -0.00076019284529517991 0 -0.0015679148009118749 -0.006037154748682598 0 -0.00084246441924196939 -0.0056697380822461488 0 -0.0013531761738781725 -0.0054964665298650765 0 -0.0017966583999352167 -0.0015384620148911731 0 -0.0022182040152615452 -0.0022198087023092626 0 -0.0016517466439586728 -0.0023542048915691136 0 -0.0018431787148609779 -0.00076019284529517991 0 -0.0017663896534394652 -0.0071091725994820616 0 -0.001832048357556142 0.0042175048673526094 0 -0.0022587734458482354 0.0037528180879275652 0 -0.0022207959527094224 0.0042899993300881062 0 -0.0017384304393236929 0.0034315553966803689 0 -0.0019223658384085957 0.0040950647247810779 0 -0.0022587734458482354 0.0037528180879275652 0 -0.0017966583999352167 -0.0015384620148911731 0 -0.001587071304789146 -0.0023714442731305159 0 -0.0016517466439586728 -0.0023542048915691136 0 -0.0019420357216518404 0.00023361257436634256 0 -0.0016570475087073879 0.0011707737903548226 0 -0.0016570475087073879 0.0011707737903548226 0 -0.0018705645364434876 0.0045298490829590258 0 -0.0023145743473248072 0.0012123342609161398 0 -0.0024185800684899355 3.8222188900593553e-05 0 -0.001832048357556142 0.0042175048673526094 0 -0.0018897994671126721 0.0044414725854306772 0 -0.0022207959527094224 0.0042899993300881062 0 -0.0021394448889535352 -0.00065258718319546904 0 -0.0019159284183809359 -0.00090327985310205449 0 -0.0018453599761778163 0.00027653245446697508 0 -0.0018539068559168287 -0.00026790015087551055 0 -0.0020277094537890423 0.0003839031049137487 0 -0.0016570475087073879 0.0011707737903548226 0 -0.0023145743473248072 0.0012123342609161398 0 -0.0018453599761778163 0.00027653245446697508 0 -0.0018539068559168287 -0.00026790015087551055 0 -0.0017270156601383924 -0.00012057922671696469 0 -0.0016570475087073879 0.0011707737903548226 0 -0.0019159284183809359 -0.00090327985310205449 0 -0.0016517466439586728 -0.0023542048915691136 0 -0.0016311246557796004 -0.0024260473626132504 0 -0.0017177961675807116 -0.0024931314615017183 0 -0.001587071304789146 -0.0023714442731305159 0 -0.0016517466439586728 -0.0023542048915691136 0 -0.0016316318444635561 -0.0024166955166957582 0 -0.0018421782731496397 -0.0011868445053719433 0 -0.0019159284183809359 -0.00090327985310205449 0 -0.0021394448889535352 -0.00065258718319546904 0 -0.0020971961674437598 -0.0032720138050390583 0 -0.0022580244027156169 -0.0017406884678737916 0 -0.0020712615173580809 -0.0023807345777683109 0 -0.0016723076750368012 -0.0020884113438063489 0 -0.0019159284183809359 -0.00090327985310205449 0 -0.0020971961674437598 -0.0032720138050390583 0 -0.0020971961674437598 -0.0032720138050390583 0 -0.0022049593549469592 -0.0021525712920105106 0 -0.0024161318193883772 -0.00015592801822885479 0 -0.0024216798771002149 -0.0004420927919853852 0 -0.002306335146181236 -0.00062967774645814761 0 -0.002395983923010059 -0.0022362272208201021 0 -0.0022296260475094688 -0.002333248145835369 0 -0.0024815908807426673 -0.0019544264293423117 0 -0.0021394448889535352 -0.00065258718319546904 0 -0.0022049593549469592 -0.0021525712920105106 0 -0.0025122457253023067 -9.7791990689069205e-05 0 -0.0024161318193883772 -0.00015592801822885479 0 -0.0024216798771002149 -0.0004420927919853852 0 -0.0021394448889535352 -0.00065258718319546904 0 -0.0023145743473248072 0.0012123342609161398 0 -0.0020971961674437598 -0.0032720138050390583 0 -0.0027377987121620473 -0.0071544994722856185 0 -0.0027989237485480925 -0.0045974254926728951 0 -0.0026220490628309895 -0.0048802118885065355 0 -0.0032039188412688185 -0.0051309342988916564 0 -0.0022182040152615452 -0.0022198087023092626 0 -0.0016517466439586728 -0.0023542048915691136 0 -0.0017177961675807116 -0.0024931314615017183 0 -0.0022596541725335459 -0.0063670507218181426 0 -0.00082286700704508524 -0.0071965953152192622 0 -0.0017799789511450152 -0.0074525851180939698 0 -0.0017663896534394652 -0.0071091725994820616 0 -0.0020971961674437598 -0.0032720138050390583 0 -0.00082286700704508524 -0.0071965953152192622 0 -0.0017799789511450152 -0.0074525851180939698 0 -0.0020575899947549597 -0.008769799449913589 0 -0.0017799789511450152 -0.0074525851180939698 0 -0.0020575899947549597 -0.008769799449913589 0 -0.002976795705845569 -0.0076755030574785716 0 -0.0026220490628309895 -0.0048802118885065355 0 -0.0032039188412688185 -0.0051309342988916564 0 -0.0028268295746654618 -0.0053309478242188641 0 -0.0022049593549469592 -0.0021525712920105106 0 -0.0023578844767360189 -0.0045520590853523491 0 -0.0024185800684899355 3.8222188900593553e-05 0 -0.0024002433532159875 -0.0012586542813362949 0 -0.0026220490628309895 -0.0048802118885065355 0 -0.0028268295746654618 -0.0053309478242188641 0 -0.0024419485285107584 -0.0055701240919708191 0 -0.0025552069665970094 -0.0014864804504643627 0 -0.0024636162197075573 -0.0016563260415890357 0 -0.0023481370500910144 -0.0025332174770568839 0 -0.0013870312662413033 0.0024171027893036441 0 -0.0014536128620673773 0.0026988774354792357 0 -0.0019953987348638293 0.0028139625519751784 0 -0.0022049593549469592 -0.0021525712920105106 0 -0.0024185800684899355 3.8222188900593553e-05 0 -0.0013513996294180325 -0.018223325323621208 0 -0.001189350857583511 -0.017954842631187285 0 -0.0010338654053480617 -0.018175201820373084 0 -0.0013513996294180325 -0.018223325323621208 0 -0.0014756402960241144 -0.017833604587808999 0 -0.001189350857583511 -0.017954842631187285 0 -0.0013353829084304042 -0.015515939107250978 0 -0.0019897817999369395 -0.013397508841581125 0 -0.0014545203566372843 -0.012033979416681353 0 -0.0014688460215857549 -0.012046582576198889 0 -0.0014419140028935136 -0.012060375135583296 0 -0.0014688460215857549 -0.012046582576198889 0 -0.0014419140028935136 -0.012060375135583296 0 -0.0014724143381602561 -0.012121326256582181 0 -0.0014545203566372843 -0.012033979416681353 0 -0.0014326305439442738 -0.012008114616542748 0 -0.0014419140028935136 -0.012060375135583296 0 -0.0022596541725335459 -0.0063670507218181426 0 -0.0017799789511450152 -0.0074525851180939698 0 -0.002976795705845569 -0.0076755030574785716 0 -0.0017663896534394652 -0.0071091725994820616 0 -0.0021695436290082516 -0.0098289194163212624 0 -0.0020575899947549597 -0.008769799449913589 0 -0.002976795705845569 -0.0076755030574785716 0 -0.0036924730789852467 -0.0089906878123992909 0 -0.0021695436290082516 -0.0098289194163212624 0 -0.0019897817999369395 -0.013397508841581125 0 -0.0027377987121620473 -0.0071544994722856185 0 -0.0030367309955766919 -0.0093059879923450932 0 -0.0020575899947549597 -0.008769799449913589 0 -0.0036924730789852467 -0.0089906878123992909 0 -0.0033364503388929739 -0.010270285647000985 0 -0.001189350857583511 -0.017954842631187285 0 -0.00092665184538953704 -0.01785341668146433 0 -0.0010338654053480617 -0.018175201820373084 0 -0.00092665184538953704 -0.01785341668146433 0 -0.0005998556188983508 -0.018500645540045657 0 -0.0002070095736704107 -0.018147194688671528 0 -0.00090923516326327539 -0.017885546615806311 0 -0.00063878690979802795 -0.01832337827565015 0 -0.00068474959962854941 -0.018150898618034889 0 -0.0010338654053480617 -0.018175201820373084 0 -0.00086668619327975199 -0.018477111064137942 0 -0.00092665184538953704 -0.01785341668146433 0 -0.00068474959962854941 -0.018150898618034889 0 -0.0010338654053480617 -0.018175201820373084 0 -0.0013513996294180325 -0.018223325323621208 0 -0.0010338654053480617 -0.018175201820373084 0 -0.0010357149422031856 -0.018493681398815725 0 -0.0010338654053480617 -0.018175201820373084 0 -0.0010357149422031856 -0.018493681398815725 0 -0.00086668619327975199 -0.018477111064137942 0 -0.00068474959962854941 -0.018150898618034889 0 -0.00086668619327975199 -0.018477111064137942 0 -0.00024481756235509341 -0.018756864880994605 0 -0.0010357149422031856 -0.018493681398815725 0 -0.00086668619327975199 -0.018477111064137942 0 -0.0007713541108009083 -0.018636840022133502 0 -0.00092912642099469229 -0.01882125845943055 0 -0.0010357149422031856 -0.018493681398815725 0 -0.0007713541108009083 -0.018636840022133502 0 -0.00058637779998677844 -0.019045176759322484 0 -0.0007713541108009083 -0.018636840022133502 0 -0.00046635892199988068 -0.018680710612852258 0 -0.00080369246855458473 -0.018539966867992048 0 -0.00055532406866170181 -0.018890611687889879 0 -0.00086668619327975199 -0.018477111064137942 0 -0.0007713541108009083 -0.018636840022133502 0 -0.00046635892199988068 -0.018680710612852258 0 -0.00092912642099469229 -0.01882125845943055 0 -0.0012448103589183654 -0.018610048005015766 0 -0.0010357149422031856 -0.018493681398815725 0 -0.00071949245255098417 -0.019506776038127862 0 -0.0010237917304128873 -0.015011517931819891 0 0.00037356353916391066 -0.02361124423588392 0 0.00047082961765150701 -0.02339088226274498 0 0.00020074604082197302 -0.022848645321776637 0 0.00027626485377564385 -0.019796099121427636 0 -0.00020603666195697444 -0.018987314920937234 0 0.00039116876279108762 -0.01952072978850054 0 -0.00017571381114216006 -0.019179795084432981 0 0.00012347497868655643 -0.019119496270391098 0 0.00030917098441605881 -0.01986141132543625 0 0.00039116876279108762 -0.01952072978850054 0 -0.00017571381114216006 -0.019179795084432981 0 -0.00012341970037462558 -0.019668552198258686 0 -0.00050779880599310619 -0.019105975832336058 0 -0.00024481756235509341 -0.018756864880994605 0 -0.00012341970037462558 -0.019668552198258686 0 7.1588328681817487e-05 -0.01991098513809381 0 -0.00024481756235509341 -0.018756864880994605 0 -0.0003199306612083755 -0.020251846116466448 0 -0.00055532406866170181 -0.018890611687889879 0 -0.00086668619327975199 -0.018477111064137942 0 -0.00050779880599310619 -0.019105975832336058 0 -0.00024481756235509341 -0.018756864880994605 0 -0.00017571381114216006 -0.019179795084432981 0 4.9929719962924135e-06 -0.018898188239207154 0 0.00012347497868655643 -0.019119496270391098 0 -0.00063878690979802795 -0.01832337827565015 0 -0.00020603666195697444 -0.018987314920937234 0 -0.00017571381114216006 -0.019179795084432981 0 -0.00027317524388077664 -0.018772169855822307 0 4.9929719962924135e-06 -0.018898188239207154 0 -0.0005998556188983508 -0.018500645540045657 0 -0.00017571381114216006 -0.019179795084432981 0 -0.00027317524388077664 -0.018772169855822307 0 9.4727310253048787e-05 -0.018799177887139033 0 -0.00011620281295063361 -0.020383952744547192 0 -0.00027317524388077664 -0.018772169855822307 0 4.9929719962924135e-06 -0.018898188239207154 0 0.00014202687276766523 -0.018601975298737059 0 4.9929719962924135e-06 -0.018898188239207154 0 0.00016241909646815336 -0.018704505576694761 0 0.00012347497868655643 -0.019119496270391098 0 0.00039116876279108762 -0.01952072978850054 0 0.00016241909646815336 -0.018704505576694761 0 0.00012347497868655643 -0.019119496270391098 0 0.00082892881819295104 -0.024444692455785639 0 0.00036343740811038607 -0.021940145750298908 0 0.00093045626503349935 -0.024777214570472082 0 0.0010475303564190788 -0.025014166663661699 0 0.00090326698691676425 -0.024939281526238793 0 0.00035627275243756091 -0.021247639743618717 0 0.00036343740811038607 -0.021940145750298908 0 4.9929719962924135e-06 -0.018898188239207154 0 0.00016241909646815336 -0.018704505576694761 0 0.00014202687276766523 -0.018601975298737059 0 0.0010475303564190788 -0.025014166663661699 0 0.00091730715071959589 -0.02504635400975375 0 0.00090326698691676425 -0.024939281526238793 0 -0.00011620281295063361 -0.020383952744547192 0 -0.00040441516086207473 -0.017691881770947184 0 -2.5125634312957666e-05 -0.01850352340120362 0 -0.0002070095736704107 -0.018147194688671528 0 0.00011112219806608413 -0.018138763148618356 0 0.0010475303564190788 -0.025014166663661699 0 0.0010586369752571599 -0.025055229840217644 0 0.00091730715071959589 -0.02504635400975375 0 0.00036343740811038607 -0.021940145750298908 0 -0.00011620281295063361 -0.020383952744547192 0 6.7624015598431863e-05 -0.018597507133105588 0 -0.00025055132192202415 -0.018490685361437473 0 -0.0002070095736704107 -0.018147194688671528 0 -0.0005998556188983508 -0.018500645540045657 0 -0.00027317524388077664 -0.018772169855822307 0 -0.00025055132192202415 -0.018490685361437473 0 -0.00027317524388077664 -0.018772169855822307 0 6.7624015598431863e-05 -0.018597507133105588 0 -0.00025055132192202415 -0.018490685361437473 0 -0.0005998556188983508 -0.018500645540045657 0 -0.00025055132192202415 -0.018490685361437473 0 -0.0002070095736704107 -0.018147194688671528 0 -0.0002070095736704107 -0.018147194688671528 0 5.3984324642483398e-05 -0.017839868435160822 0 -0.00034612821472997969 -0.017722187582222635 0 -0.00092665184538953704 -0.01785341668146433 0 -0.0002070095736704107 -0.018147194688671528 0 -0.00034612821472997969 -0.017722187582222635 0 0.00011112219806608413 -0.018138763148618356 0 0.0003708765501493483 -0.017965224540944975 0 5.3984324642483398e-05 -0.017839868435160822 0 -0.0002070095736704107 -0.018147194688671528 0 0.00011112219806608413 -0.018138763148618356 0 5.3984324642483398e-05 -0.017839868435160822 0 0.00011112219806608413 -0.018138763148618356 0 0.0003708765501493483 -0.017965224540944975 0 0.00045857711440780593 -0.018265886571996619 0 0.00072596320383431199 -0.025247096633222024 0 0.00091730715071959589 -0.02504635400975375 0 0.00079611625672506767 -0.025004434138158105 0 -0.00011620281295063361 -0.020383952744547192 0 0.00063586836450776419 -0.021967045611075771 0 0.0010586369752571599 -0.025055229840217644 0 0.00072596320383431199 -0.025247096633222024 0 0.00091730715071959589 -0.02504635400975375 0 -2.5125634312957666e-05 -0.01850352340120362 0 0.00011112219806608413 -0.018138763148618356 0 0.00045857711440780593 -0.018265886571996619 0 0.00072596320383431199 -0.025247096633222024 0 0.00052597868666949923 -0.025132538039149849 0 0.0003816336344513642 -0.025399691329341702 0 0.00072596320383431199 -0.025247096633222024 0 0.00052597868666949923 -0.025132538039149849 0 0.00079611625672506767 -0.025004434138158105 0 0.00045857711440780593 -0.018265886571996619 0 0.00060044195790245869 -0.018033521072429084 0 0.0008364249257386897 -0.018069848373041306 0 0.00060044195790245869 -0.018033521072429084 0 0.0008364249257386897 -0.018069848373041306 0 0.00073512924471981576 -0.01797511100111792 0 0.00063586836450776419 -0.021967045611075771 0 0.00070302169639590347 -0.021460243348963938 0 0.0003708765501493483 -0.017965224540944975 0 0.00060044195790245869 -0.018033521072429084 0 0.00057259943171385577 -0.017889893078759947 0 0.0003708765501493483 -0.017965224540944975 0 0.00045857711440780593 -0.018265886571996619 0 0.00060044195790245869 -0.018033521072429084 0 0.00060044195790245869 -0.018033521072429084 0 0.00073512924471981576 -0.01797511100111792 0 0.00057259943171385577 -0.017889893078759947 0 6.0741576315900173e-06 -0.026164360002650836 0 0.00047954756349156855 -0.023471021939338949 0 0.0003816336344513642 -0.025399691329341702 0 0.00021086824544761421 -0.025345170705000204 0 0.00018371531082601872 -0.025448889219389797 0 0.00070302169639590347 -0.021460243348963938 0 0.00047954756349156855 -0.023471021939338949 0 0.0003816336344513642 -0.025399691329341702 0 0.00021086824544761421 -0.025345170705000204 0 0.00032244021860001868 -0.025266274813725221 0 6.0741576315900173e-06 -0.026164360002650836 0 0.00024013379529743605 -0.025160866975128069 0 0.00021086824544761421 -0.025345170705000204 0 0.00019295056326187288 -0.025256349045605822 0 0.00032244021860001868 -0.025266274813725221 0 0.00019295056326187288 -0.025256349045605822 0 0.00032244021860001868 -0.025266274813725221 0 0.00028170344495146728 -0.0250630634601487 0 6.43577239045162e-05 -0.026090407565745544 0 0.00019295056326187288 -0.025256349045605822 0 -0.00012527139683327274 -0.025446371275590639 0 0.00019295056326187288 -0.025256349045605822 0 1.5251843344000152e-05 -0.025159909267327026 0 -0.00012527139683327274 -0.025446371275590639 0 0.00052597868666949923 -0.025132538039149849 0 0.00032244021860001868 -0.025266274813725221 0 0.00028170344495146728 -0.0250630634601487 0 0.00052597868666949923 -0.025132538039149849 0 0.0003816336344513642 -0.025399691329341702 0 0.00032244021860001868 -0.025266274813725221 0 0.00052597868666949923 -0.025132538039149849 0 0.00028170344495146728 -0.0250630634601487 0 0.00047045788876761476 -0.024944499136141836 0 0.00028170344495146728 -0.0250630634601487 0 0.0003366774945257595 -0.024873487485671957 0 0.00047045788876761476 -0.024944499136141836 0 0.00028170344495146728 -0.0250630634601487 0 0.0003366774945257595 -0.024873487485671957 0 0.00021864222554475926 -0.024864762357277859 0 5.6574270802645584e-05 -0.02498311452610763 0 0.00014097554677991168 -0.024687357339004335 0 -0.00034465567619766869 -0.025160859277405866 0 -0.00013050646175142278 -0.025094073155533685 0 -0.00053530906236106985 -0.025600003291442699 0 1.5251843344000152e-05 -0.025159909267327026 0 5.6574270802645584e-05 -0.02498311452610763 0 -0.00034465567619766869 -0.025160859277405866 0 0.00019295056326187288 -0.025256349045605822 0 0.00028170344495146728 -0.0250630634601487 0 1.5251843344000152e-05 -0.025159909267327026 0 0.00028170344495146728 -0.0250630634601487 0 1.5251843344000152e-05 -0.025159909267327026 0 5.6574270802645584e-05 -0.02498311452610763 0 0.00028170344495146728 -0.0250630634601487 0 0.00021864222554475926 -0.024864762357277859 0 5.6574270802645584e-05 -0.02498311452610763 0 -0.00054554783086331149 -0.0255678565902464 0 -0.00037677188578085543 -0.025500502028163639 0 -0.00012703034252695719 -0.025078317606555003 0 -0.00054554783086331149 -0.0255678565902464 0 -0.00037677188578085543 -0.025500502028163639 0 -0.00072743063366386286 -0.026006824539546874 0 -0.00049246628452850275 -0.025600603291803508 0 -8.0452709681509649e-08 -0.024997735487396065 0 0.00021864222554475926 -0.024864762357277859 0 5.6574270802645584e-05 -0.02498311452610763 0 0.00014097554677991168 -0.024687357339004335 0 0.00021864222554475926 -0.024864762357277859 0 0.00014097554677991168 -0.024687357339004335 0 0.00030110986614771608 -0.024758211911493411 0 -0.00043818148445034919 -0.025636565108785016 0 -0.00039866892378957172 -0.02522080611661176 0 -0.00022863218930092383 -0.025114621073350083 0 0.00042922660229740704 -0.024761647658520399 0 0.00050380051457162619 -0.024658889434450128 0 0.00055380594785562297 -0.024808779900496899 0 0.00047045788876761476 -0.024944499136141836 0 0.00042922660229740704 -0.024761647658520399 0 0.00055380594785562297 -0.024808779900496899 0 0.0003366774945257595 -0.024873487485671957 0 0.00047045788876761476 -0.024944499136141836 0 0.00042922660229740704 -0.024761647658520399 0 0.0003366774945257595 -0.024873487485671957 0 0.00042922660229740704 -0.024761647658520399 0 0.00030110986614771608 -0.024758211911493411 0 0.0003366774945257595 -0.024873487485671957 0 0.00021864222554475926 -0.024864762357277859 0 0.00030110986614771608 -0.024758211911493411 0 0.00014097554677991168 -0.024687357339004335 0 0.00030110986614771608 -0.024758211911493411 0 0.00036667813817264921 -0.024617769615415001 0 0.00042922660229740704 -0.024761647658520399 0 0.00030110986614771608 -0.024758211911493411 0 0.00036667813817264921 -0.024617769615415001 0 0.00042922660229740704 -0.024761647658520399 0 0.00036667813817264921 -0.024617769615415001 0 0.00050380051457162619 -0.024658889434450128 0 0.00050380051457162619 -0.024658889434450128 0 0.00055380594785562297 -0.024808779900496899 0 0.0006280840108228308 -0.024712160091397449 0 0.00050380051457162619 -0.024658889434450128 0 0.0006280840108228308 -0.024712160091397449 0 0.00058426800381876332 -0.024569130429882364 0 0.00055380594785562297 -0.024808779900496899 0 0.0006280840108228308 -0.024712160091397449 0 0.00065288688919508734 -0.02488351910675185 0 0.0006280840108228308 -0.024712160091397449 0 0.0007639730422070762 -0.024725774033350696 0 0.00065288688919508734 -0.02488351910675185 0 0.0006280840108228308 -0.024712160091397449 0 0.0007639730422070762 -0.024725774033350696 0 0.00069014600968390785 -0.024599426210989057 0 0.0006280840108228308 -0.024712160091397449 0 0.00069014600968390785 -0.024599426210989057 0 0.00058426800381876332 -0.024569130429882364 0 0.00037356353916391066 -0.02361124423588392 0 0.00047082961765150701 -0.02339088226274498 0 0.00065160367248673552 -0.023862107977117783 0 0.00093045626503349935 -0.024777214570472082 0 0.0007639730422070762 -0.024725774033350696 0 0.00081216877417404924 -0.024502306107960767 0 0.00082892881819295104 -0.024444692455785639 0 0.00068848281489465102 -0.02410155167391341 0 0.00093045626503349935 -0.024777214570472082 0 0.0007639730422070762 -0.024725774033350696 0 0.00081670602682940062 -0.02485660533443694 0 0.0007639730422070762 -0.024725774033350696 0 0.00081670602682940062 -0.02485660533443694 0 0.00065288688919508734 -0.02488351910675185 0 0.00081670602682940062 -0.02485660533443694 0 0.00079611625672506767 -0.025004434138158105 0 0.00065288688919508734 -0.02488351910675185 0 0.00093045626503349935 -0.024777214570472082 0 0.00081670602682940062 -0.02485660533443694 0 0.00090326698691676425 -0.024939281526238793 0 0.00081670602682940062 -0.02485660533443694 0 0.00090326698691676425 -0.024939281526238793 0 0.00079611625672506767 -0.025004434138158105 0 0.00091730715071959589 -0.02504635400975375 0 0.00090326698691676425 -0.024939281526238793 0 0.00079611625672506767 -0.025004434138158105 0 0.00052597868666949923 -0.025132538039149849 0 0.00047045788876761476 -0.024944499136141836 0 0.00065288688919508734 -0.02488351910675185 0 0.00052597868666949923 -0.025132538039149849 0 0.00079611625672506767 -0.025004434138158105 0 0.00065288688919508734 -0.02488351910675185 0 0.00047045788876761476 -0.024944499136141836 0 0.00055380594785562297 -0.024808779900496899 0 0.00065288688919508734 -0.02488351910675185 0 -0.001640635392510532 -0.026247366300333006 0 -0.0012651160601966467 -0.026319819820896616 0 -0.0013085088656227511 -0.026106465284014946 0 -0.001640635392510532 -0.026247366300333006 0 -0.0015040905761590801 -0.026508612846861686 0 -0.0012651160601966467 -0.026319819820896616 0 -0.0015040905761590801 -0.026508612846861686 0 -0.0012651160601966467 -0.026319819820896616 0 -0.0011089039520892126 -0.02660292395022781 0 -0.0013085088656227511 -0.026106465284014946 0 -0.0010750533305056581 -0.026129694197684284 0 -0.001039824966981847 -0.026003741268517157 0 -0.0012651160601966467 -0.026319819820896616 0 -0.0013085088656227511 -0.026106465284014946 0 -0.0010750533305056581 -0.026129694197684284 0 -0.0010750533305056581 -0.026129694197684284 0 -0.00096635184068275405 -0.026253214512040959 0 -0.00088371725813057823 -0.026013793827347542 0 -0.0010750533305056581 -0.026129694197684284 0 -0.00088371725813057823 -0.026013793827347542 0 -0.001039824966981847 -0.026003741268517157 0 -0.0012651160601966467 -0.026319819820896616 0 -0.0010750533305056581 -0.026129694197684284 0 -0.00096635184068275405 -0.026253214512040959 0 -0.00096635184068275405 -0.026253214512040959 0 -0.00040065504963567814 -0.026356269761817049 0 -0.0011089039520892126 -0.02660292395022781 0 -0.0012651160601966467 -0.026319819820896616 0 -0.00096635184068275405 -0.026253214512040959 0 -0.0011089039520892126 -0.02660292395022781 0 6.43577239045162e-05 -0.026090407565745544 0 -0.00040065504963567814 -0.026356269761817049 0 -0.00015516087522494606 -0.026737470252385931 0 -0.00096635184068275405 -0.026253214512040959 0 -0.00040065504963567814 -0.026356269761817049 0 -0.00035903388424631959 -0.025864083558742791 0 6.43577239045162e-05 -0.026090407565745544 0 -0.00040065504963567814 -0.026356269761817049 0 -0.00035903388424631959 -0.025864083558742791 0 -0.00096635184068275405 -0.026253214512040959 0 -0.00035903388424631959 -0.025864083558742791 0 -0.00034465567619766869 -0.025160859277405866 0 6.43577239045162e-05 -0.026090407565745544 0 -0.00035903388424631959 -0.025864083558742791 0 -0.00012527139683327274 -0.025446371275590639 0 -0.00035903388424631959 -0.025864083558742791 0 -0.00012527139683327274 -0.025446371275590639 0 -0.00034465567619766869 -0.025160859277405866 0 -0.00096635184068275405 -0.026253214512040959 0 -0.00072743063366386286 -0.026006824539546874 0 -0.00088371725813057823 -0.026013793827347542 0 -0.0009404589520189368 -0.026204722420671026 0 -0.00053530906236106985 -0.025600003291442699 0 1.5251843344000152e-05 -0.025159909267327026 0 -0.00012527139683327274 -0.025446371275590639 0 -0.00034465567619766869 -0.025160859277405866 0 -0.00043818148445034919 -0.025636565108785016 0 -0.00082359942109360882 -0.02571196615901369 0 -0.00088371725813057823 -0.026013793827347542 0 -0.00054554783086331149 -0.0255678565902464 0 -0.00072743063366386286 -0.026006824539546874 0 -0.00088371725813057823 -0.026013793827347542 0 -0.00049246628452850275 -0.025600603291803508 0 -0.00085538271056285 -0.025988679882979641 0 -0.00043818148445034919 -0.025636565108785016 0 -0.00067360762726508525 -0.0255652590282264 0 -0.00082359942109360882 -0.02571196615901369 0 -0.00043818148445034919 -0.025636565108785016 0 -0.0005702574092060098 -0.025384690952502637 0 -0.00067360762726508525 -0.0255652590282264 0 -0.00043818148445034919 -0.025636565108785016 0 -0.0005702574092060098 -0.025384690952502637 0 -0.00039866892378957172 -0.02522080611661176 0 -0.0005702574092060098 -0.025384690952502637 0 -0.00073129766899457502 -0.025432870711544858 0 -0.00067360762726508525 -0.0255652590282264 0 -0.00073129766899457502 -0.025432870711544858 0 -0.00089972816896688923 -0.02548140392111696 0 -0.00075943686338953472 -0.025295302860136808 0 -0.00073129766899457502 -0.025432870711544858 0 -0.00067360762726508525 -0.0255652590282264 0 -0.00089972816896688923 -0.02548140392111696 0 -0.0005702574092060098 -0.025384690952502637 0 -0.00073129766899457502 -0.025432870711544858 0 -0.00075943686338953472 -0.025295302860136808 0 -0.00067360762726508525 -0.0255652590282264 0 -0.00082359942109360882 -0.02571196615901369 0 -0.00089972816896688923 -0.02548140392111696 0 -0.00082359942109360882 -0.02571196615901369 0 -0.00089972816896688923 -0.02548140392111696 0 -0.0010372759808795634 -0.025681247467955737 0 -0.00089972816896688923 -0.02548140392111696 0 -0.0010372759808795634 -0.025681247467955737 0 -0.0012317254889005246 -0.025561189783821749 0 -0.00082359942109360882 -0.02571196615901369 0 -0.0010372759808795634 -0.025681247467955737 0 -0.00098829827002508007 -0.025859444952465459 0 -0.0010372759808795634 -0.025681247467955737 0 -0.0011408399293840242 -0.025867947980036669 0 -0.0012317254889005246 -0.025561189783821749 0 -0.0010372759808795634 -0.025681247467955737 0 -0.0011408399293840242 -0.025867947980036669 0 -0.00098829827002508007 -0.025859444952465459 0 -0.00082359942109360882 -0.02571196615901369 0 -0.00098829827002508007 -0.025859444952465459 0 -0.00088371725813057823 -0.026013793827347542 0 -0.00098829827002508007 -0.025859444952465459 0 -0.00088371725813057823 -0.026013793827347542 0 -0.001039824966981847 -0.026003741268517157 0 -0.0011408399293840242 -0.025867947980036669 0 -0.00098829827002508007 -0.025859444952465459 0 -0.001039824966981847 -0.026003741268517157 0 -0.0013085088656227511 -0.026106465284014946 0 -0.0011408399293840242 -0.025867947980036669 0 -0.001598170016277994 -0.026007277650082251 0 -0.0013085088656227511 -0.026106465284014946 0 -0.0011408399293840242 -0.025867947980036669 0 -0.001039824966981847 -0.026003741268517157 0 -0.0011408399293840242 -0.025867947980036669 0 -0.0012317254889005246 -0.025561189783821749 0 -0.001598170016277994 -0.026007277650082251 0 -0.0016806855591452493 -0.02565950505706269 0 -0.001598170016277994 -0.026007277650082251 0 -0.001330094403466698 -0.02554272494408277 0 -0.00096228053544185615 -0.025837219424150393 0 -0.001598170016277994 -0.026007277650082251 0 -0.001330094403466698 -0.02554272494408277 0 -0.0010889642245188536 -0.025733715855216225 0 -0.0015595874315772499 -0.025970769010051725 0 -0.001640635392510532 -0.026247366300333006 0 -0.0013085088656227511 -0.026106465284014946 0 -0.001598170016277994 -0.026007277650082251 0 -0.0016451146709400837 -0.025211509125540297 0 -0.001330094403466698 -0.02554272494408277 0 -0.0012112707511145707 -0.025035483093815848 0 -0.00096228053544185615 -0.025837219424150393 0 -0.001330094403466698 -0.02554272494408277 0 -0.00089924673230375651 -0.025344674427143613 0 -0.00096228053544185615 -0.025837219424150393 0 -0.00089924673230375651 -0.025344674427143613 0 -0.00067625267812624755 -0.025485073957619182 0 -0.001330094403466698 -0.02554272494408277 0 -0.00089924673230375651 -0.025344674427143613 0 -0.0012112707511145707 -0.025035483093815848 0 -0.00089924673230375651 -0.025344674427143613 0 -0.00069808864801201734 -0.024813943196772256 0 -0.0012112707511145707 -0.025035483093815848 0 -0.00089924673230375651 -0.025344674427143613 0 -0.00055082164465626647 -0.025226760653263305 0 -0.00069808864801201734 -0.024813943196772256 0 -0.00089924673230375651 -0.025344674427143613 0 -0.00055082164465626647 -0.025226760653263305 0 -0.00067625267812624755 -0.025485073957619182 0 -0.00089972816896688923 -0.02548140392111696 0 -0.0012317254889005246 -0.025561189783821749 0 -0.00075100125138127544 -0.025124245128051528 0 -0.00096228053544185615 -0.025837219424150393 0 -0.00067625267812624755 -0.025485073957619182 0 -0.00028304460689673386 -0.025524831365660517 0 -0.0010889642245188536 -0.025733715855216225 0 -0.00056213553558789821 -0.02507239838514801 0 -0.00055082164465626647 -0.025226760653263305 0 -0.00067625267812624755 -0.025485073957619182 0 -0.00028304460689673386 -0.025524831365660517 0 -0.00089972816896688923 -0.02548140392111696 0 -0.00075100125138127544 -0.025124245128051528 0 -0.00075943686338953472 -0.025295302860136808 0 -0.00056213553558789821 -0.02507239838514801 0 -0.00065381621748987397 -0.025208121681682953 0 -0.00077443966192098756 -0.024991826559301877 0 -0.00075943686338953472 -0.025295302860136808 0 -0.00057785963980767094 -0.025168842966963388 0 -0.0005702574092060098 -0.025384690952502637 0 -0.00057785963980767094 -0.025168842966963388 0 -0.00039866892378957172 -0.02522080611661176 0 -0.0005702574092060098 -0.025384690952502637 0 -0.00075943686338953472 -0.025295302860136808 0 -0.00057785963980767094 -0.025168842966963388 0 -0.00077443966192098756 -0.024991826559301877 0 -0.00057785963980767094 -0.025168842966963388 0 -0.00033280339525084183 -0.024962289001945789 0 -0.00056213553558789821 -0.02507239838514801 0 -0.00026430088142580997 -0.024500131803750578 0 -0.00041113271067549028 -0.024617300117327514 0 -0.00036797141273418551 -0.024104076941969005 0 0.00010245543641307075 -0.024323234276998614 0 -0.00055082164465626647 -0.025226760653263305 0 -0.00028304460689673386 -0.025524831365660517 0 -0.00020717291213613224 -0.024902019356126747 0 -0.00020717291213613224 -0.024902019356126747 0 -0.00014899043512293364 -0.024227643926620922 0 -0.00069808864801201734 -0.024813943196772256 0 -0.00036797141273418551 -0.024104076941969005 0 -0.00028815212206565843 -0.023588696142092237 0 -6.1747872657488728e-05 -0.023987477217302666 0 -0.00026430088142580997 -0.024500131803750578 0 -0.00022461498943762028 -0.023910458005692595 0 -0.00014899043512293364 -0.024227643926620922 0 -0.00069808864801201734 -0.024813943196772256 0 -0.00079162804157820209 -0.024169188629522907 0 -0.00055082164465626647 -0.025226760653263305 0 -0.00020717291213613224 -0.024902019356126747 0 -0.00069808864801201734 -0.024813943196772256 0 -0.00069808864801201734 -0.024813943196772256 0 -0.001067350369338142 -0.02457229129203831 0 -0.0012112707511145707 -0.025035483093815848 0 -0.00069808864801201734 -0.024813943196772256 0 -0.001067350369338142 -0.02457229129203831 0 -0.00079162804157820209 -0.024169188629522907 0 -0.001067350369338142 -0.02457229129203831 0 -0.001218899500675409 -0.024078426888701397 0 -0.00079162804157820209 -0.024169188629522907 0 -0.001067350369338142 -0.02457229129203831 0 -0.0014896287477135005 -0.024549656314501133 0 -0.001218899500675409 -0.024078426888701397 0 -0.0016451146709400837 -0.025211509125540297 0 -0.0014896287477135005 -0.024549656314501133 0 -0.0012112707511145707 -0.025035483093815848 0 -0.001067350369338142 -0.02457229129203831 0 -0.0014896287477135005 -0.024549656314501133 0 -0.0012112707511145707 -0.025035483093815848 0 0.00066571328025863733 -0.024180367842542964 0 0.00081216877417404924 -0.024502306107960767 0 0.00063268701232980097 -0.024435301178917488 0 0.00057353881775434727 -0.024295064687358606 0 0.00066571328025863733 -0.024180367842542964 0 0.00063268701232980097 -0.024435301178917488 0 0.00051142054399852012 -0.024367691871987566 0 0.00057353881775434727 -0.024295064687358606 0 0.00053733955680715774 -0.024232290543949032 0 0.00057353881775434727 -0.024295064687358606 0 0.00063268701232980097 -0.024435301178917488 0 0.00056312697504379554 -0.024401033286046328 0 0.00051142054399852012 -0.024367691871987566 0 0.00057353881775434727 -0.024295064687358606 0 0.00056312697504379554 -0.024401033286046328 0 0.00057353881775434727 -0.024295064687358606 0 0.00053733955680715774 -0.024232290543949032 0 0.00066571328025863733 -0.024180367842542964 0 0.00053733955680715774 -0.024232290543949032 0 0.00066571328025863733 -0.024180367842542964 0 0.00066528525210946367 -0.024123073194034207 0 0.00069083116973017613 -0.024197665747194654 0 0.00068848281489465102 -0.02410155167391341 0 0.00066571328025863733 -0.024180367842542964 0 0.00055515713059495675 -0.024146128760630475 0 0.00065160367248673552 -0.023862107977117783 0 0.00066571328025863733 -0.024180367842542964 0 0.00055515713059495675 -0.024146128760630475 0 0.00066528525210946367 -0.024123073194034207 0 0.00037356353916391066 -0.02361124423588392 0 0.00055515713059495675 -0.024146128760630475 0 0.00065160367248673552 -0.023862107977117783 0 0.0007639730422070762 -0.024725774033350696 0 0.00081216877417404924 -0.024502306107960767 0 0.00069014600968390785 -0.024599426210989057 0 0.00069014600968390785 -0.024599426210989057 0 0.00063268701232980097 -0.024435301178917488 0 0.00058426800381876332 -0.024569130429882364 0 0.00081216877417404924 -0.024502306107960767 0 0.00069014600968390785 -0.024599426210989057 0 0.00063268701232980097 -0.024435301178917488 0 0.00051142054399852012 -0.024367691871987566 0 0.0005514419326218908 -0.024460417746468181 0 0.00046859933673492292 -0.024507595368245361 0 0.00063268701232980097 -0.024435301178917488 0 0.0005514419326218908 -0.024460417746468181 0 0.00058426800381876332 -0.024569130429882364 0 0.00051142054399852012 -0.024367691871987566 0 0.00056312697504379554 -0.024401033286046328 0 0.0005514419326218908 -0.024460417746468181 0 0.00063268701232980097 -0.024435301178917488 0 0.00056312697504379554 -0.024401033286046328 0 0.0005514419326218908 -0.024460417746468181 0 0.00050380051457162619 -0.024658889434450128 0 0.00058426800381876332 -0.024569130429882364 0 0.00046859933673492292 -0.024507595368245361 0 0.0005514419326218908 -0.024460417746468181 0 0.00058426800381876332 -0.024569130429882364 0 0.00046859933673492292 -0.024507595368245361 0 -0.00013050646175142278 -0.025094073155533685 0 0.00022007795631432528 -0.024676566054554417 0 -0.00037677188578085543 -0.025500502028163639 0 -0.00012703034252695719 -0.025078317606555003 0 -6.7534984034908522e-06 -0.024939093082039145 0 0.00014097554677991168 -0.024687357339004335 0 0.00036667813817264921 -0.024617769615415001 0 0.0003834405123981856 -0.024383953457087527 0 0.00036667813817264921 -0.024617769615415001 0 0.00046859933673492292 -0.024507595368245361 0 0.0003834405123981856 -0.024383953457087527 0 0.00036667813817264921 -0.024617769615415001 0 0.00050380051457162619 -0.024658889434450128 0 0.00046859933673492292 -0.024507595368245361 0 -8.0452709681509649e-08 -0.024997735487396065 0 0.00022007795631432528 -0.024676566054554417 0 0.00051142054399852012 -0.024367691871987566 0 0.00046859933673492292 -0.024507595368245361 0 0.0003834405123981856 -0.024383953457087527 0 -0.00077443966192098756 -0.024991826559301877 0 -0.00033280339525084183 -0.024962289001945789 0 5.0657608195965019e-05 -0.024436141302683834 0 -0.00043818148445034919 -0.025636565108785016 0 0.00014914109029759664 -0.024945658561973907 0 -0.00022863218930092383 -0.025114621073350083 0 -0.00057785963980767094 -0.025168842966963388 0 -0.00039866892378957172 -0.02522080611661176 0 -0.00033280339525084183 -0.024962289001945789 0 -0.00039866892378957172 -0.02522080611661176 0 -0.00022863218930092383 -0.025114621073350083 0 -0.00033280339525084183 -0.024962289001945789 0 0.00014914109029759664 -0.024945658561973907 0 -0.00022863218930092383 -0.025114621073350083 0 -7.0783232039049748e-05 -0.024829950457859355 0 -0.00022863218930092383 -0.025114621073350083 0 -7.0783232039049748e-05 -0.024829950457859355 0 -0.00033280339525084183 -0.024962289001945789 0 -0.00056213553558789821 -0.02507239838514801 0 8.8406866754728029e-05 -0.024335540978472424 0 -7.0783232039049748e-05 -0.024829950457859355 0 -0.00033280339525084183 -0.024962289001945789 0 5.0657608195965019e-05 -0.024436141302683834 0 0.00014914109029759664 -0.024945658561973907 0 -7.0783232039049748e-05 -0.024829950457859355 0 5.0657608195965019e-05 -0.024436141302683834 0 0.00053733955680715774 -0.024232290543949032 0 0.0002858308541013285 -0.024721600304093445 0 5.0657608195965019e-05 -0.024436141302683834 0 0.00053733955680715774 -0.024232290543949032 0 5.0657608195965019e-05 -0.024436141302683834 0 0.0006224749023546266 -0.024055084477830509 0 0.0005575610739719034 -0.024235561224100411 0 0.00022007795631432528 -0.024676566054554417 0 0.00051142054399852012 -0.024367691871987566 0 0.00053733955680715774 -0.024232290543949032 0 0.0003834405123981856 -0.024383953457087527 0 0.00014914109029759664 -0.024945658561973907 0 0.0002858308541013285 -0.024721600304093445 0 5.0657608195965019e-05 -0.024436141302683834 0 0.00010245543641307075 -0.024323234276998614 0 0.0002088080822455176 -0.023955140850577903 0 0.0006224749023546266 -0.024055084477830509 0 0.0002088080822455176 -0.023955140850577903 0 0.00037829833639152824 -0.02364876643460484 0 0.0006224749023546266 -0.024055084477830509 0 8.8406866754728029e-05 -0.024335540978472424 0 0.00059566547662469999 -0.024083056905230753 0 -0.00036797141273418551 -0.024104076941969005 0 0.00010245543641307075 -0.024323234276998614 0 -6.1747872657488728e-05 -0.023987477217302666 0 0.00010245543641307075 -0.024323234276998614 0 0.0002088080822455176 -0.023955140850577903 0 -6.1747872657488728e-05 -0.023987477217302666 0 0.0002088080822455176 -0.023955140850577903 0 -6.1747872657488728e-05 -0.023987477217302666 0 3.797630653057246e-05 -0.023707908093934808 0 -0.00028815212206565843 -0.023588696142092237 0 3.797630653057246e-05 -0.023707908093934808 0 -5.5046670719717692e-06 -0.023320256228161588 0 -0.00028815212206565843 -0.023588696142092237 0 -6.1747872657488728e-05 -0.023987477217302666 0 3.797630653057246e-05 -0.023707908093934808 0 3.797630653057246e-05 -0.023707908093934808 0 0.00037829833639152824 -0.02364876643460484 0 -5.5046670719717692e-06 -0.023320256228161588 0 0.0002088080822455176 -0.023955140850577903 0 3.797630653057246e-05 -0.023707908093934808 0 0.00037829833639152824 -0.02364876643460484 0 7.5163663636288472e-05 -0.023087676072225422 0 5.4346462301900989e-05 -0.023051347265217473 0 7.1540015760480956e-05 -0.022969980094418748 0 5.4346462301900989e-05 -0.023051347265217473 0 7.1540015760480956e-05 -0.022969980094418748 0 5.9126592162596365e-05 -0.022989047308052207 0 0.00019617184470024053 -0.023350684439591724 0 0.00040433021187949735 -0.023626543362526134 0 0.00037829833639152824 -0.02364876643460484 0 0.00069687508859144365 -0.02404040886518554 0 0.0006224749023546266 -0.024055084477830509 0 0.00069687508859144365 -0.02404040886518554 0 0.0006224749023546266 -0.024055084477830509 0 0.00066528525210946367 -0.024123073194034207 0 0.00053733955680715774 -0.024232290543949032 0 0.0006224749023546266 -0.024055084477830509 0 0.00066528525210946367 -0.024123073194034207 0 0.0004343110384601913 -0.022627673240519432 0 8.0934151711557076e-05 -0.022990596843328458 0 6.7149583765297309e-05 -0.022942124191339657 0 7.1540015760480956e-05 -0.022969980094418748 0 6.4792960417570233e-05 -0.022952907002252672 0 0.0004343110384601913 -0.022627673240519432 0 0.00040433021187949735 -0.023626543362526134 0 0.00055515713059495675 -0.024146128760630475 0 0.00069687508859144365 -0.02404040886518554 0 0.00066528525210946367 -0.024123073194034207 0 7.1540015760480956e-05 -0.022969980094418748 0 6.4792960417570233e-05 -0.022952907002252672 0 5.9126592162596365e-05 -0.022989047308052207 0 3.1609230179394982e-05 -0.022989289858204056 0 5.9126592162596365e-05 -0.022989047308052207 0 4.9873879016624559e-05 -0.023018786739936799 0 3.1609230179394982e-05 -0.022989289858204056 0 6.4792960417570233e-05 -0.022952907002252672 0 5.9126592162596365e-05 -0.022989047308052207 0 5.4346462301900989e-05 -0.023051347265217473 0 5.9126592162596365e-05 -0.022989047308052207 0 4.9873879016624559e-05 -0.023018786739936799 0 5.4346462301900989e-05 -0.023051347265217473 0 4.9873879016624559e-05 -0.023018786739936799 0 4.4395235318708771e-05 -0.023029240462207414 0 3.1609230179394982e-05 -0.022989289858204056 0 4.9873879016624559e-05 -0.023018786739936799 0 4.4395235318708771e-05 -0.023029240462207414 0 3.1609230179394982e-05 -0.022989289858204056 0 4.4395235318708771e-05 -0.023029240462207414 0 3.4213905441319061e-05 -0.023003225494506774 0 4.4395235318708771e-05 -0.023029240462207414 0 4.5766877501745957e-05 -0.023034351413523103 0 3.4213905441319061e-05 -0.023003225494506774 0 4.5766877501745957e-05 -0.023034351413523103 0 5.1265394731636203e-05 -0.023053451954271845 0 5.0755430849480839e-05 -0.023080750222206618 0 4.4395235318708771e-05 -0.023029240462207414 0 4.5766877501745957e-05 -0.023034351413523103 0 5.0755430849480839e-05 -0.023080750222206618 0 4.5766877501745957e-05 -0.023034351413523103 0 3.4213905441319061e-05 -0.023003225494506774 0 4.3916049651590752e-05 -0.02300460190211449 0 4.5766877501745957e-05 -0.023034351413523103 0 4.8401747575596282e-05 -0.023011165978455695 0 4.3916049651590752e-05 -0.02300460190211449 0 4.8401747575596282e-05 -0.023011165978455695 0 4.3916049651590752e-05 -0.02300460190211449 0 5.233884668680726e-05 -0.022984367110399532 0 4.8401747575596282e-05 -0.023011165978455695 0 4.9813587459277105e-05 -0.022973999149418761 0 5.233884668680726e-05 -0.022984367110399532 0 4.5766877501745957e-05 -0.023034351413523103 0 4.8401747575596282e-05 -0.023011165978455695 0 5.1265394731636203e-05 -0.023053451954271845 0 4.8401747575596282e-05 -0.023011165978455695 0 5.1265394731636203e-05 -0.023053451954271845 0 5.979237006849403e-05 -0.023002391472119091 0 4.8401747575596282e-05 -0.023011165978455695 0 4.9813587459277105e-05 -0.022973999149418761 0 5.979237006849403e-05 -0.023002391472119091 0 5.3077335069371432e-05 -0.023079924084873613 0 8.8792190324550075e-06 -0.02315244987389176 0 5.4720538209646228e-05 -0.023026737816101723 0 5.1265394731636203e-05 -0.023053451954271845 0 5.3077335069371432e-05 -0.023079924084873613 0 5.979237006849403e-05 -0.023002391472119091 0 5.1265394731636203e-05 -0.023053451954271845 0 5.3077335069371432e-05 -0.023079924084873613 0 5.0755430849480839e-05 -0.023080750222206618 0 5.3077335069371432e-05 -0.023079924084873613 0 5.0755430849480839e-05 -0.023080750222206618 0 4.6998218474339754e-05 -0.023162159134963556 0 7.5163663636288472e-05 -0.023087676072225422 0 5.4346462301900989e-05 -0.023051347265217473 0 4.6998218474339754e-05 -0.023162159134963556 0 5.4346462301900989e-05 -0.023051347265217473 0 5.0755430849480839e-05 -0.023080750222206618 0 4.6998218474339754e-05 -0.023162159134963556 0 5.4346462301900989e-05 -0.023051347265217473 0 4.4395235318708771e-05 -0.023029240462207414 0 5.0755430849480839e-05 -0.023080750222206618 0 7.5163663636288472e-05 -0.023087676072225422 0 4.6998218474339754e-05 -0.023162159134963556 0 -5.5046670719717692e-06 -0.023320256228161588 0 0.00019617184470024053 -0.023350684439591724 0 2.6186478750376321e-05 -0.023308033489903318 0 -0.00028815212206565843 -0.023588696142092237 0 -5.5046670719717692e-06 -0.023320256228161588 0 -0.00018862684017775016 -0.023397596160011958 0 -5.5046670719717692e-06 -0.023320256228161588 0 8.8792190324550075e-06 -0.02315244987389176 0 -0.00018862684017775016 -0.023397596160011958 0 8.8792190324550075e-06 -0.02315244987389176 0 -0.00014660388876914235 -0.023114171369474031 0 -0.00018862684017775016 -0.023397596160011958 0 4.6998218474339754e-05 -0.023162159134963556 0 -5.5046670719717692e-06 -0.023320256228161588 0 8.8792190324550075e-06 -0.02315244987389176 0 5.3077335069371432e-05 -0.023079924084873613 0 4.6998218474339754e-05 -0.023162159134963556 0 8.8792190324550075e-06 -0.02315244987389176 0 8.8792190324550075e-06 -0.02315244987389176 0 -0.00014660388876914235 -0.023114171369474031 0 2.8690709203330741e-05 -0.022951070192077889 0 8.8792190324550075e-06 -0.02315244987389176 0 2.8690709203330741e-05 -0.022951070192077889 0 5.4720538209646228e-05 -0.023026737816101723 0 -0.00067862362327886043 -0.018973513064367127 0 -0.0008353283783921351 -0.018945481768233949 0 -0.00014660388876914235 -0.023114171369474031 0 2.8690709203330741e-05 -0.022951070192077889 0 -0.00026602050701838621 -0.022875525717376746 0 -0.0014234775894068064 -0.014986659523068751 0 -0.0013638679030675933 -0.014859392943101632 0 -0.001394005094343391 -0.014868311939838013 0 -0.0014234775894068064 -0.014986659523068751 0 -0.0012352911673814897 -0.015168976040232174 0 -0.0013604094188672613 -0.014898972217257925 0 2.8690709203330741e-05 -0.022951070192077889 0 6.8685460288323377e-05 -0.022952655373204817 0 5.4720538209646228e-05 -0.023026737816101723 0 -0.00067862362327886043 -0.018973513064367127 0 -0.00061399080941848235 -0.018950424522360378 0 6.8685460288323377e-05 -0.022952655373204817 0 5.979237006849403e-05 -0.023002391472119091 0 5.4720538209646228e-05 -0.023026737816101723 0 6.8685460288323377e-05 -0.022952655373204817 0 6.2940805981133996e-05 -0.02295190375437264 0 5.979237006849403e-05 -0.023002391472119091 0 4.9813587459277105e-05 -0.022973999149418761 0 6.2940805981133996e-05 -0.02295190375437264 0 5.979237006849403e-05 -0.023002391472119091 0 5.3077335069371432e-05 -0.023079924084873613 0 5.979237006849403e-05 -0.023002391472119091 0 5.4720538209646228e-05 -0.023026737816101723 0 -0.0014535704156527617 -0.023597211057134568 0 -0.0012301386666068741 -0.023697840397979467 0 -0.001216278941497852 -0.023394117307099987 0 -0.0014535704156527617 -0.023597211057134568 0 -0.0012301386666068741 -0.023697840397979467 0 -0.0014427804574690462 -0.023842536090503633 0 -0.001646476830621212 -0.024095944579962978 0 -0.0014896287477135005 -0.024549656314501133 0 -0.001218899500675409 -0.024078426888701397 0 -0.001646476830621212 -0.024095944579962978 0 -0.0014427804574690462 -0.023842536090503633 0 -0.001218899500675409 -0.024078426888701397 0 -0.0012301386666068741 -0.023697840397979467 0 -0.0014427804574690462 -0.023842536090503633 0 -0.001218899500675409 -0.024078426888701397 0 -0.0012301386666068741 -0.023697840397979467 0 -0.001218899500675409 -0.024078426888701397 0 -0.00094889527128236804 -0.023686390928995882 0 -0.001218899500675409 -0.024078426888701397 0 -0.00094889527128236804 -0.023686390928995882 0 -0.00079162804157820209 -0.024169188629522907 0 -0.0012301386666068741 -0.023697840397979467 0 -0.00094889527128236804 -0.023686390928995882 0 -0.001216278941497852 -0.023394117307099987 0 -0.00094889527128236804 -0.023686390928995882 0 -0.0005418406422298081 -0.023705566352936094 0 -0.00054334870416727606 -0.023243348371591682 0 -0.00094889527128236804 -0.023686390928995882 0 -0.00079162804157820209 -0.024169188629522907 0 -0.0005418406422298081 -0.023705566352936094 0 -0.00014899043512293364 -0.024227643926620922 0 -0.00079162804157820209 -0.024169188629522907 0 -0.0005418406422298081 -0.023705566352936094 0 -0.00022461498943762028 -0.023910458005692595 0 -0.00018887752464017619 -0.023439850444298416 0 -0.00014899043512293364 -0.024227643926620922 0 -0.0005418406422298081 -0.023705566352936094 0 -0.00018862684017775016 -0.023397596160011958 0 -0.0005418406422298081 -0.023705566352936094 0 -0.00018862684017775016 -0.023397596160011958 0 -0.00054334870416727606 -0.023243348371591682 0 -0.00014660388876914235 -0.023114171369474031 0 -0.00026602050701838621 -0.022875525717376746 0 -0.00054334870416727606 -0.023243348371591682 0 -0.00014660388876914235 -0.023114171369474031 0 -0.00018862684017775016 -0.023397596160011958 0 -0.00054334870416727606 -0.023243348371591682 0 -0.0008353283783921351 -0.018945481768233949 0 -0.00092000038690738517 -0.01833260464652019 0 -0.00026602050701838621 -0.022875525717376746 0 -0.00054334870416727606 -0.023243348371591682 0 -0.00085003117042015217 -0.022852608196615637 0 -0.00054334870416727606 -0.023243348371591682 0 -0.00092604614514095907 -0.023223778307527507 0 -0.00085003117042015217 -0.022852608196615637 0 -0.00092604614514095907 -0.023223778307527507 0 -0.0012094929157396707 -0.023061318621609327 0 -0.001216278941497852 -0.023394117307099987 0 -0.00094889527128236804 -0.023686390928995882 0 -0.00092604614514095907 -0.023223778307527507 0 -0.001216278941497852 -0.023394117307099987 0 -0.00094889527128236804 -0.023686390928995882 0 -0.00054334870416727606 -0.023243348371591682 0 -0.00092604614514095907 -0.023223778307527507 0 -0.00092604614514095907 -0.023223778307527507 0 -0.00085003117042015217 -0.022852608196615637 0 -0.0012094929157396707 -0.023061318621609327 0 -0.00149841734401782 -0.022930564035334784 0 -0.00085003117042015217 -0.022852608196615637 0 -0.0012094929157396707 -0.023061318621609327 0 -0.0017426444664362154 -0.02260159259713182 0 -0.00092000038690738517 -0.01833260464652019 0 -0.00149841734401782 -0.022930564035334784 0 -0.0012094929157396707 -0.023061318621609327 0 -0.0014578614755334496 -0.023088811706494791 0 -0.0012094929157396707 -0.023061318621609327 0 -0.0014578614755334496 -0.023088811706494791 0 -0.0013759422205807227 -0.02322580474120111 0 -0.0015106558683986649 -0.023219640643433292 0 -0.0014578614755334496 -0.023088811706494791 0 -0.0013759422205807227 -0.02322580474120111 0 -0.0014808481027988245 -0.023366633738880368 0 -0.0013759422205807227 -0.02322580474120111 0 -0.001216278941497852 -0.023394117307099987 0 -0.0012094929157396707 -0.023061318621609327 0 -0.0013759422205807227 -0.02322580474120111 0 -0.001216278941497852 -0.023394117307099987 0 -0.0014808481027988245 -0.023366633738880368 0 -0.0015106558683986649 -0.023219640643433292 0 -0.0013759422205807227 -0.02322580474120111 0 -0.0014808481027988245 -0.023366633738880368 0 -0.0014535704156527617 -0.023597211057134568 0 -0.001216278941497852 -0.023394117307099987 0 -0.00094988578128008655 -0.015010207120466086 0 -0.001085947861484607 -0.014933748239471707 0 -0.0010623416842750083 -0.014998715671165085 0 -0.0010016664774249353 -0.01492142680719072 0 -0.0011781731613091137 -0.01484697117818359 0 -0.001085947861484607 -0.014933748239471707 0 -0.00094988578128008655 -0.015010207120466086 0 -0.0010016664774249353 -0.01492142680719072 0 -0.001085947861484607 -0.014933748239471707 0 -0.0011781731613091137 -0.01484697117818359 0 -0.001085947861484607 -0.014933748239471707 0 -0.0012647591230835347 -0.01489282096050532 0 -0.001085947861484607 -0.014933748239471707 0 -0.0012647591230835347 -0.01489282096050532 0 -0.0010623416842750083 -0.014998715671165085 0 -0.0013638679030675933 -0.014859392943101632 0 -0.0011781731613091137 -0.01484697117818359 0 -0.0012647591230835347 -0.01489282096050532 0 -0.0013638679030675933 -0.014859392943101632 0 -0.0012647591230835347 -0.01489282096050532 0 -0.001394005094343391 -0.014868311939838013 0 -0.0012647591230835347 -0.01489282096050532 0 -0.0014015698150881145 -0.014845082363505289 0 -0.001394005094343391 -0.014868311939838013 0 -0.0012647591230835347 -0.01489282096050532 0 -0.0014015698150881145 -0.014845082363505289 0 -0.0012577118395936235 -0.014930562170609068 0 -0.0014015698150881145 -0.014845082363505289 0 -0.0014398144909290155 -0.014855533511466037 0 -0.0012577118395936235 -0.014930562170609068 0 -0.0014398144909290155 -0.014855533511466037 0 -0.0012577118395936235 -0.014930562170609068 0 -0.0012138485881544145 -0.015012452654095048 0 -0.0012577118395936235 -0.014930562170609068 0 -0.0010880217070821901 -0.015044672634112546 0 -0.0012138485881544145 -0.015012452654095048 0 -0.0012647591230835347 -0.01489282096050532 0 -0.0012577118395936235 -0.014930562170609068 0 -0.0010623416842750083 -0.014998715671165085 0 -0.0012577118395936235 -0.014930562170609068 0 -0.0010623416842750083 -0.014998715671165085 0 -0.0010880217070821901 -0.015044672634112546 0 -0.0010623416842750083 -0.014998715671165085 0 -0.0010880217070821901 -0.015044672634112546 0 -0.00090454653704567084 -0.015163698346282352 0 -0.00084362087099941582 -0.015130374220744744 0 -0.0010623416842750083 -0.014998715671165085 0 -0.00090454653704567084 -0.015163698346282352 0 -0.00084362087099941582 -0.015130374220744744 0 -0.00094988578128008655 -0.015010207120466086 0 -0.0010623416842750083 -0.014998715671165085 0 -0.0013604094188672613 -0.014898972217257925 0 -0.0014276430072365485 -0.014762853380849183 0 -0.0012823441964183995 -0.014708958086512076 0 -0.0013604094188672613 -0.014898972217257925 0 -0.0014402079544129486 -0.014838483881630839 0 -0.0014276430072365485 -0.014762853380849183 0 -0.0011653706775405191 -0.014894417626633532 0 -0.0013604094188672613 -0.014898972217257925 0 -0.0012823441964183995 -0.014708958086512076 0 -0.0012352911673814897 -0.015168976040232174 0 -0.0011653706775405191 -0.014894417626633532 0 -0.0010442136710792237 -0.015075686127392858 0 -0.0012352911673814897 -0.015168976040232174 0 -0.0011653706775405191 -0.014894417626633532 0 -0.0013604094188672613 -0.014898972217257925 0 -0.0014234775894068064 -0.014986659523068751 0 -0.0013604094188672613 -0.014898972217257925 0 -0.0014402079544129486 -0.014838483881630839 0 -0.0014234775894068064 -0.014986659523068751 0 -0.001394005094343391 -0.014868311939838013 0 -0.0014402079544129486 -0.014838483881630839 0 -0.0014015698150881145 -0.014845082363505289 0 -0.001394005094343391 -0.014868311939838013 0 -0.0014402079544129486 -0.014838483881630839 0 -0.0014830627542831037 -0.014753554208154485 0 -0.0014747228088935382 -0.014620912337201676 0 -0.0014276430072365485 -0.014762853380849183 0 -0.0014402079544129486 -0.014838483881630839 0 -0.0014830627542831037 -0.014753554208154485 0 -0.0014276430072365485 -0.014762853380849183 0 -0.0014015698150881145 -0.014845082363505289 0 -0.0014398144909290155 -0.014855533511466037 0 -0.0014830627542831037 -0.014753554208154485 0 -0.0014015698150881145 -0.014845082363505289 0 -0.0014402079544129486 -0.014838483881630839 0 -0.0014830627542831037 -0.014753554208154485 0 -0.0014398144909290155 -0.014855533511466037 0 -0.0014830627542831037 -0.014753554208154485 0 -0.0015490691291682763 -0.014697670144675502 0 -0.0014830627542831037 -0.014753554208154485 0 -0.0014747228088935382 -0.014620912337201676 0 -0.0015490691291682763 -0.014697670144675502 0 -0.0014747228088935382 -0.014620912337201676 0 -0.0015490691291682763 -0.014697670144675502 0 -0.0015458494494160052 -0.014462789322914846 0 -0.0014747228088935382 -0.014620912337201676 0 -0.0013293511560504446 -0.014452825912791865 0 -0.0015458494494160052 -0.014462789322914846 0 -0.0014747228088935382 -0.014620912337201676 0 -0.0014276430072365485 -0.014762853380849183 0 -0.0012823441964183995 -0.014708958086512076 0 -0.0012823441964183995 -0.014708958086512076 0 -0.0013293511560504446 -0.014452825912791865 0 -0.0010483098246631521 -0.014487888154172613 0 -0.0014747228088935382 -0.014620912337201676 0 -0.0012823441964183995 -0.014708958086512076 0 -0.0013293511560504446 -0.014452825912791865 0 -0.0013293511560504446 -0.014452825912791865 0 -0.0010771936575674434 -0.014200730728161521 0 -0.0013623320875016144 -0.014202266336661329 0 -0.0013293511560504446 -0.014452825912791865 0 -0.0010771936575674434 -0.014200730728161521 0 -0.0010483098246631521 -0.014487888154172613 0 -0.00074537299816239541 -0.014218059752865785 0 -0.00051543969140423001 -0.01388849074074215 0 -0.00079396639732271976 -0.013888051524869122 0 -0.0010771936575674434 -0.014200730728161521 0 -0.00074537299816239541 -0.014218059752865785 0 -0.0010483098246631521 -0.014487888154172613 0 -0.0010771936575674434 -0.014200730728161521 0 -0.00074537299816239541 -0.014218059752865785 0 -0.00079396639732271976 -0.013888051524869122 0 -0.00074537299816239541 -0.014218059752865785 0 -0.00070052865021435812 -0.014562528138775769 0 -0.0010483098246631521 -0.014487888154172613 0 -0.00070052865021435812 -0.014562528138775769 0 -0.0010483098246631521 -0.014487888154172613 0 -0.0010124373983047715 -0.014748803331510326 0 -0.0012823441964183995 -0.014708958086512076 0 -0.0010483098246631521 -0.014487888154172613 0 -0.0010124373983047715 -0.014748803331510326 0 -0.00032404652478937529 -0.014170236249530755 0 5.6242572037479676e-05 -0.014357546824075057 0 0.00023155026198401965 -0.013958450844142956 0 0.00023155026198401965 -0.013958450844142956 0 0.00036558208819414219 -0.013450191255635327 0 -0.0001996126906560686 -0.013653377605590525 0 -0.00032404652478937529 -0.014170236249530755 0 0.00023155026198401965 -0.013958450844142956 0 -0.0001996126906560686 -0.013653377605590525 0 -0.00074537299816239541 -0.014218059752865785 0 -0.00032404652478937529 -0.014170236249530755 0 -0.00051543969140423001 -0.01388849074074215 0 -0.00032404652478937529 -0.014170236249530755 0 -0.00051543969140423001 -0.01388849074074215 0 -0.0001996126906560686 -0.013653377605590525 0 -0.00070052865021435812 -0.014562528138775769 0 -0.00032404652478937529 -0.014170236249530755 0 -0.0002854105672896161 -0.014591338461736238 0 -0.00074537299816239541 -0.014218059752865785 0 -0.00070052865021435812 -0.014562528138775769 0 -0.00032404652478937529 -0.014170236249530755 0 -0.00032404652478937529 -0.014170236249530755 0 5.6242572037479676e-05 -0.014357546824075057 0 -0.0002854105672896161 -0.014591338461736238 0 5.6242572037479676e-05 -0.014357546824075057 0 0.00017054531559140831 -0.014662048170015091 0 -0.0002854105672896161 -0.014591338461736238 0 0.00017054531559140831 -0.014662048170015091 0 -0.0002854105672896161 -0.014591338461736238 0 -0.0003075764820816727 -0.015043366744347015 0 0.00017054531559140831 -0.014662048170015091 0 0.00016397075179983334 -0.015000045898687595 0 0.00036298780883508409 -0.014898194760025263 0 0.00014563554166810316 -0.014690675416150675 0 -0.0001937584068400874 -0.014957579930757615 0 -0.00070052865021435812 -0.014562528138775769 0 -0.0002854105672896161 -0.014591338461736238 0 -0.00057194270170839818 -0.014806545200753236 0 -0.0002854105672896161 -0.014591338461736238 0 -0.00057194270170839818 -0.014806545200753236 0 -0.0003075764820816727 -0.015043366744347015 0 -0.00057194270170839818 -0.014806545200753236 0 -0.0003075764820816727 -0.015043366744347015 0 -0.00075762059802509274 -0.015047756512319082 0 -0.0003075764820816727 -0.015043366744347015 0 -0.00075762059802509274 -0.015047756512319082 0 -0.0006712142200888515 -0.015354546988513587 0 -6.3696922407576774e-05 -0.014964031930851038 0 -0.00034227305478538162 -0.015267739657424744 0 -0.0001540516586180039 -0.015262102489649475 0 -0.0001937584068400874 -0.014957579930757615 0 -0.00014374106213525565 -0.015752738820843815 0 -6.3696922407576774e-05 -0.014964031930851038 0 -0.0001540516586180039 -0.015262102489649475 0 1.3581654162233653e-05 -0.015190520848724227 0 0.00017054531559140831 -0.014662048170015091 0 -6.3696922407576774e-05 -0.014964031930851038 0 0.00016397075179983334 -0.015000045898687595 0 -6.3696922407576774e-05 -0.014964031930851038 0 0.00016397075179983334 -0.015000045898687595 0 1.3581654162233653e-05 -0.015190520848724227 0 0.00016397075179983334 -0.015000045898687595 0 0.00019431456416617876 -0.015268899416811407 0 1.3581654162233653e-05 -0.015190520848724227 0 0.00016397075179983334 -0.015000045898687595 0 0.00019431456416617876 -0.015268899416811407 0 0.00034202112819438569 -0.015059576665988231 0 -0.0011653706775405191 -0.014894417626633532 0 -0.0012823441964183995 -0.014708958086512076 0 -0.0010124373983047715 -0.014748803331510326 0 -0.0011653706775405191 -0.014894417626633532 0 -0.0010124373983047715 -0.014748803331510326 0 -0.0009510860347406359 -0.014957658102409685 0 -0.00070052865021435812 -0.014562528138775769 0 -0.0010124373983047715 -0.014748803331510326 0 -0.00080472626833916498 -0.014844275626570957 0 -0.00070052865021435812 -0.014562528138775769 0 -0.00057194270170839818 -0.014806545200753236 0 -0.00080472626833916498 -0.014844275626570957 0 -0.00057194270170839818 -0.014806545200753236 0 -0.00080472626833916498 -0.014844275626570957 0 -0.00075762059802509274 -0.015047756512319082 0 -0.0010124373983047715 -0.014748803331510326 0 -0.00080472626833916498 -0.014844275626570957 0 -0.0009510860347406359 -0.014957658102409685 0 -0.00080472626833916498 -0.014844275626570957 0 -0.00075762059802509274 -0.015047756512319082 0 -0.0009510860347406359 -0.014957658102409685 0 -0.00071108515843682288 -0.014927652069005067 0 -0.00014374106213525565 -0.015752738820843815 0 -0.00075762059802509274 -0.015047756512319082 0 -0.00086428494915925455 -0.015116533681361052 0 -0.00073323473283439379 -0.015192532458566421 0 -0.00075762059802509274 -0.015047756512319082 0 -0.00086428494915925455 -0.015116533681361052 0 -0.0009510860347406359 -0.014957658102409685 0 -0.00086428494915925455 -0.015116533681361052 0 -0.0009510860347406359 -0.014957658102409685 0 -0.0010442136710792237 -0.015075686127392858 0 -0.0011653706775405191 -0.014894417626633532 0 -0.0009510860347406359 -0.014957658102409685 0 -0.0010442136710792237 -0.015075686127392858 0 -0.00061399080941848235 -0.018950424522360378 0 -0.00025239082046005202 -0.019868880363723879 0 6.8685460288323377e-05 -0.022952655373204817 0 6.2940805981133996e-05 -0.02295190375437264 0 4.0408845822340922e-05 -0.022917931774734623 0 -0.0012352911673814897 -0.015168976040232174 0 -0.0010442136710792237 -0.015075686127392858 0 -0.00085152165629413497 -0.015306337718554972 0 0.00017084110879965518 -0.022805904220120406 0 5.3296066126565357e-05 -0.022928302325550425 0 0.0002286312971159138 -0.022591948556924642 0 -0.00015402693369120308 -0.023706735530349056 0 -0.00025239082046005202 -0.019868880363723879 0 6.2940805981133996e-05 -0.02295190375437264 0 5.3296066126565357e-05 -0.022928302325550425 0 4.0408845822340922e-05 -0.022917931774734623 0 0.00017084110879965518 -0.022805904220120406 0 5.3296066126565357e-05 -0.022928302325550425 0 9.2110604600552888e-05 -0.022949432283631478 0 4.9813587459277105e-05 -0.022973999149418761 0 6.2940805981133996e-05 -0.02295190375437264 0 5.3296066126565357e-05 -0.022928302325550425 0 -0.00018714391834963131 -0.022948740875258243 0 -0.00039749827310761078 -0.023030049915405942 0 9.2110604600552888e-05 -0.022949432283631478 0 0.00026548382446489577 -0.022742338701221412 0 0.00043095023532302738 -0.022716446388839698 0 9.2110604600552888e-05 -0.022949432283631478 0 0.00052942102509341018 -0.019288643527555258 0 -0.00038829384490445933 -0.02408376543167004 0 0.00017084110879965518 -0.022805904220120406 0 0.00026548382446489577 -0.022742338701221412 0 9.2110604600552888e-05 -0.022949432283631478 0 0.00017084110879965518 -0.022805904220120406 0 0.00026548382446489577 -0.022742338701221412 0 0.0002286312971159138 -0.022591948556924642 0 0.00026548382446489577 -0.022742338701221412 0 0.00040312890310907948 -0.022595962167336555 0 0.00043095023532302738 -0.022716446388839698 0 0.00026548382446489577 -0.022742338701221412 0 0.0002286312971159138 -0.022591948556924642 0 0.00040312890310907948 -0.022595962167336555 0 -0.00014374106213525565 -0.015752738820843815 0 0.00037084585020083087 -0.018188262647573946 0 -0.00025239082046005202 -0.019868880363723879 0 -0.00014374106213525565 -0.015752738820843815 0 -0.00025239082046005202 -0.019868880363723879 0 0.00037084585020083087 -0.018188262647573946 0 -0.00059426450186575116 -0.018271426505927779 0 0.00015217256998275984 -0.017514296596377696 0 0.00037810695540415544 -0.018332553076426426 0 -0.00086428494915925455 -0.015116533681361052 0 -0.00085152165629413497 -0.015306337718554972 0 -0.00073323473283439379 -0.015192532458566421 0 -0.00086428494915925455 -0.015116533681361052 0 -0.0010442136710792237 -0.015075686127392858 0 -0.00085152165629413497 -0.015306337718554972 0 -0.00034227305478538162 -0.015267739657424744 0 -0.0001540516586180039 -0.015262102489649475 0 -0.00029098257948598981 -0.015444972967880487 0 -0.0001540516586180039 -0.015262102489649475 0 -6.9846715387136352e-05 -0.015453225771319811 0 1.3581654162233653e-05 -0.015190520848724227 0 -0.0001540516586180039 -0.015262102489649475 0 -6.9846715387136352e-05 -0.015453225771319811 0 -0.00029098257948598981 -0.015444972967880487 0 0.0010979543941958281 -0.015618095384749228 0 0.00037084585020083087 -0.018188262647573946 0 0.0010979543941958281 -0.015618095384749228 0 0.00085516498702630102 -0.014362608792684695 0 0.00082057876503654689 -0.014182721657313284 0 0.00098093699491007464 -0.01406444339609202 0 0.0010118479723405119 -0.014180844799342245 0 -6.9846715387136352e-05 -0.015453225771319811 0 0.00019431456416617876 -0.015268899416811407 0 1.3581654162233653e-05 -0.015190520848724227 0 0.0010979543941958281 -0.015618095384749228 0 0.00052068807709216712 -0.014716492833442694 0 0.0018775770092612789 -0.014658137909171457 0 0.00094250887422177374 -0.014567466903641569 0 0.0014866357449552377 -0.013956475269222083 0 0.00094250887422177374 -0.014567466903641569 0 0.0014866357449552377 -0.013956475269222083 0 0.00062710570037653594 -0.013885085993977671 0 0.0014866357449552377 -0.013956475269222083 0 0.0024135089105147374 -0.014318316618910842 0 0.0021386483759480985 -0.01326332650238439 0 -0.00018714391834963131 -0.022948740875258243 0 -0.00039749827310761078 -0.023030049915405942 0 -0.0008734017092370932 -0.022301302513468117 0 0.0018775770092612789 -0.014658137909171457 0 0.0014866357449552377 -0.013956475269222083 0 0.0024135089105147374 -0.014318316618910842 0 0.00052942102509341018 -0.019288643527555258 0 0.0006440086341636187 -0.017643585234973069 0 0.0010979543941958281 -0.015618095384749228 0 0.00052942102509341018 -0.019288643527555258 0 0.0011526878010838201 -0.017386333915281112 0 0.00037222512273985252 -0.017341770786269101 0 0.0005061252588500041 -0.017826547029988895 0 0.00037084585020083087 -0.018188262647573946 0 0.00052942102509341018 -0.019288643527555258 0 -0.00018714391834963131 -0.022948740875258243 0 -0.0008734017092370932 -0.022301302513468117 0 -0.00047958311287501555 -0.021885553526755881 0 0.0014866357449552377 -0.013956475269222083 0 0.0021386483759480985 -0.01326332650238439 0 0.0010184523801203254 -0.013139152331383273 0 0.0021386483759480985 -0.01326332650238439 0 0.0010184523801203254 -0.013139152331383273 0 0.0018561412020870033 -0.012202446084903052 0 0.0014866357449552377 -0.013956475269222083 0 0.0010184523801203254 -0.013139152331383273 0 0.00062710570037653594 -0.013885085993977671 0 0.0010184523801203254 -0.013139152331383273 0 0.0018561412020870033 -0.012202446084903052 0 0.00042866864273328055 -0.012477362274098479 0 0.00040026597721678364 -0.012287837122068612 0 0.0001363270677352999 -0.01684285000719065 0 0.00053367096319760596 -0.011773148850609082 0 0.0018561412020870033 -0.012202446084903052 0 0.00042866864273328055 -0.012477362274098479 0 0.0001363270677352999 -0.01684285000719065 0 -0.00034053335407210151 -0.021520941055713779 0 0.0006440086341636187 -0.017643585234973069 0 0.0001363270677352999 -0.01684285000719065 0 -0.0008734017092370932 -0.022301302513468117 0 -0.00047958311287501555 -0.021885553526755881 0 -0.0012314690589094498 -0.021129297246677087 0 -0.00047958311287501555 -0.021885553526755881 0 -0.0012314690589094498 -0.021129297246677087 0 -0.00019732761814547623 -0.021436307448527182 0 -0.00061388493038355436 -0.020636830838093794 0 -0.00096995676502963698 -0.021141432306159808 0 -0.00019732761814547623 -0.021436307448527182 0 -3.1155508762879877e-05 -0.022965897776675171 0 2.5175422450020436e-05 -0.022946224872159825 0 6.4533691662304591e-06 -0.022974687476682635 0 -2.8974627337636795e-05 -0.020473882895082642 0 -0.00019732761814547623 -0.021436307448527182 0 4.6868811889500871e-06 -0.02155047977584066 0 -0.00047958311287501555 -0.021885553526755881 0 -0.00019732761814547623 -0.021436307448527182 0 4.6868811889500871e-06 -0.02155047977584066 0 2.5175422450020436e-05 -0.022946224872159825 0 6.4533691662304591e-06 -0.022974687476682635 0 1.7969124151104043e-05 -0.022954263190035139 0 2.5175422450020436e-05 -0.022946224872159825 0 1.7969124151104043e-05 -0.022954263190035139 0 -2.1355547129733478e-05 -0.02294077341988851 0 6.4533691662304591e-06 -0.022974687476682635 0 3.4213905441319061e-05 -0.023003225494506774 0 3.1549176804454478e-05 -0.022979586530401747 0 4.3916049651590752e-05 -0.02300460190211449 0 3.1549176804454478e-05 -0.022979586530401747 0 5.233884668680726e-05 -0.022984367110399532 0 3.4213905441319061e-05 -0.023003225494506774 0 4.3916049651590752e-05 -0.02300460190211449 0 3.1549176804454478e-05 -0.022979586530401747 0 6.4533691662304591e-06 -0.022974687476682635 0 3.1549176804454478e-05 -0.022979586530401747 0 1.7969124151104043e-05 -0.022954263190035139 0 3.1549176804454478e-05 -0.022979586530401747 0 1.7969124151104043e-05 -0.022954263190035139 0 4.3130528927454876e-05 -0.022959784502754058 0 1.7969124151104043e-05 -0.022954263190035139 0 4.3130528927454876e-05 -0.022959784502754058 0 7.3286508310341954e-06 -0.022939485402442974 0 4.3130528927454876e-05 -0.022959784502754058 0 5.233884668680726e-05 -0.022984367110399532 0 9.2110604600552888e-05 -0.022949432283631478 0 4.3130528927454876e-05 -0.022959784502754058 0 9.2110604600552888e-05 -0.022949432283631478 0 7.3286508310341954e-06 -0.022939485402442974 0 3.1549176804454478e-05 -0.022979586530401747 0 4.3130528927454876e-05 -0.022959784502754058 0 5.233884668680726e-05 -0.022984367110399532 0 4.9813587459277105e-05 -0.022973999149418761 0 5.3296066126565357e-05 -0.022928302325550425 0 9.2110604600552888e-05 -0.022949432283631478 0 4.9813587459277105e-05 -0.022973999149418761 0 5.233884668680726e-05 -0.022984367110399532 0 9.2110604600552888e-05 -0.022949432283631478 0 -0.00018714391834963131 -0.022948740875258243 0 9.2110604600552888e-05 -0.022949432283631478 0 7.3286508310341954e-06 -0.022939485402442974 0 -0.00014594613232994885 -0.022903049839427692 0 -1.5960834686042292e-05 -0.022273556178558404 0 -0.00018714391834963131 -0.022948740875258243 0 7.3286508310341954e-06 -0.022939485402442974 0 -2.1355547129733478e-05 -0.02294077341988851 0 -0.00018714391834963131 -0.022948740875258243 0 2.5175422450020436e-05 -0.022946224872159825 0 -2.1355547129733478e-05 -0.02294077341988851 0 -0.00018714391834963131 -0.022948740875258243 0 -0.00047958311287501555 -0.021885553526755881 0 4.6868811889500871e-06 -0.02155047977584066 0 1.7969124151104043e-05 -0.022954263190035139 0 7.3286508310341954e-06 -0.022939485402442974 0 -2.1355547129733478e-05 -0.02294077341988851 0 0.0017314941253734686 -0.0068728792398696547 0 0.0022367930602565939 -0.0069963953180959323 0 0.0016872012519861832 -0.0076082916398170193 0 0.0017314941253734686 -0.0068728792398696547 0 0.0012305483908060624 -0.0070077656370063019 0 0.0014533983222031444 -0.0064527392327184329 0 0.0017314941253734686 -0.0068728792398696547 0 0.0012305483908060624 -0.0070077656370063019 0 0.0016872012519861832 -0.0076082916398170193 0 0.0012305483908060624 -0.0070077656370063019 0 0.0014533983222031444 -0.0064527392327184329 0 0.00085922390915416428 -0.0065768519996407416 0 0.0016172036698266356 -0.0037953439892852978 0 0.00042637263676702052 -0.0045159380599223671 0 0.00088409198314063459 -0.0013688948654911064 0 0.0011631728020575383 -0.0016619462496962794 0 0.00075803074267913513 -0.0018048299891656333 0 0.0011631728020575383 -0.0016619462496962794 0 0.0011654015241208322 -0.0017083969767647306 0 0.00075803074267913513 -0.0018048299891656333 0 0.0016172036698266356 -0.0037953439892852978 0 0.0009039557510978725 -0.0078918245146115656 0 0.001102351859806871 -0.0017381636594958122 0 0.0011631728020575383 -0.0016619462496962794 0 0.0011654015241208322 -0.0017083969767647306 0 0.0017314941253734686 -0.0068728792398696547 0 0.0014533983222031444 -0.0064527392327184329 0 0.0020539832532908541 -0.0063165995592006103 0 0.001102351859806871 -0.0017381636594958122 0 0.0011654015241208322 -0.0017083969767647306 0 0.0010147947810627887 -0.0017425994029534454 0 3.5095807080513195e-05 -0.011860637809022518 0 -0.00064082803083913851 -0.01202418182157043 0 0.00042866864273328055 -0.012477362274098479 0 -0.00064082803083913851 -0.01202418182157043 0 0.00042866864273328055 -0.012477362274098479 0 -0.00032047620745851807 -0.01327039210260187 0 0.0009039557510978725 -0.0078918245146115656 0 0.00091215439655621146 -0.010175865230847132 0 -0.00081603407645760196 -0.011162164055796106 0 0.0009039557510978725 -0.0078918245146115656 0 0.00053367096319760596 -0.011773148850609082 0 3.5095807080513195e-05 -0.011860637809022518 0 0.00042866864273328055 -0.012477362274098479 0 0.0010184523801203254 -0.013139152331383273 0 -0.00032047620745851807 -0.01327039210260187 0 0.00062710570037653594 -0.013885085993977671 0 0.0010184523801203254 -0.013139152331383273 0 0.00042866864273328055 -0.012477362274098479 0 -0.00032047620745851807 -0.01327039210260187 0 0.0017314941253734686 -0.0068728792398696547 0 0.0020539832532908541 -0.0063165995592006103 0 0.0022367930602565939 -0.0069963953180959323 0 0.0016744437521729004 -0.012046846327294856 0 0.0014551786884295728 -0.010081053735722474 0 0.00091215439655621146 -0.010175865230847132 0 0.0016744437521729004 -0.012046846327294856 0 0.0022367930602565939 -0.0069963953180959323 0 0.0024164954995171762 -0.0077080574506760242 0 0.0016872012519861832 -0.0076082916398170193 0 0.00085516498702630102 -0.014362608792684695 0 0.0016744437521729004 -0.012046846327294856 0 0.00094250887422177374 -0.014567466903641569 0 6.8297432183498463e-07 -0.014482948326088556 0 0.00062710570037653594 -0.013885085993977671 0 -0.00032047620745851807 -0.01327039210260187 0 6.8297432183498463e-07 -0.014482948326088556 0 0.00062710570037653594 -0.013885085993977671 0 0.00098093699491007464 -0.01406444339609202 0 0.0012019000607539209 -0.014180506646303877 0 0.0011388089631159668 -0.013956679153793039 0 0.00098093699491007464 -0.01406444339609202 0 0.0010118479723405119 -0.014180844799342245 0 0.0012019000607539209 -0.014180506646303877 0 0.0016744437521729004 -0.012046846327294856 0 0.001180150221408764 -0.014418002504186164 0 0.0018557592985186228 -0.012928850227178901 0 0.0015357218816606998 -0.01345923446829716 0 0.0010100781335548601 -0.012864197058389593 0 0.0018557592985186228 -0.012928850227178901 0 0.0015357218816606998 -0.01345923446829716 0 0.0020615731564394553 -0.013743970347013404 0 0.0015357218816606998 -0.01345923446829716 0 0.0010100781335548601 -0.012864197058389593 0 0.0010122754330435207 -0.01365005603614354 0 0.0010100781335548601 -0.012864197058389593 0 0.00051891501521802855 -0.013321200446348278 0 0.0010122754330435207 -0.01365005603614354 0 0.0012305483908060624 -0.0070077656370063019 0 0.0016872012519861832 -0.0076082916398170193 0 0.00098743330565265511 -0.0075016187237356138 0 0.0014551786884295728 -0.010081053735722474 0 0.00045725042852792417 -0.010210287899855584 0 0.0010100781335548601 -0.012864197058389593 0 0.00017582688478973035 -0.012763021540316759 0 0.00051891501521802855 -0.013321200446348278 0 0.00017582688478973035 -0.012763021540316759 0 0.00051891501521802855 -0.013321200446348278 0 -5.3060217704115155e-05 -0.013545002574371424 0 0.00051891501521802855 -0.013321200446348278 0 0.00062933748943529795 -0.013860652253051884 0 -5.3060217704115155e-05 -0.013545002574371424 0 0.00062933748943529795 -0.013860652253051884 0 0.00052565733202741024 -0.014318180590102444 0 -5.3060217704115155e-05 -0.013545002574371424 0 0.0019008840676102512 -0.011690901840272381 0 0.0013144649160507173 -0.011120627815410913 0 0.0010122754330435207 -0.01365005603614354 0 0.0010250546417193526 -0.014414104521671254 0 0.001576583273083071 -0.014069486858445624 0 0.00051891501521802855 -0.013321200446348278 0 0.00062933748943529795 -0.013860652253051884 0 0.0010122754330435207 -0.01365005603614354 0 0.00062933748943529795 -0.013860652253051884 0 0.0010122754330435207 -0.01365005603614354 0 0.0010250546417193526 -0.014414104521671254 0 0.0010250546417193526 -0.014414104521671254 0 0.00052565733202741024 -0.014318180590102444 0 0.00099291052870930556 -0.014467560778055626 0 0.00062933748943529795 -0.013860652253051884 0 0.0010250546417193526 -0.014414104521671254 0 0.00052565733202741024 -0.014318180590102444 0 0.0032462513955927906 -0.0092772804187733707 0 0.0029535333020994556 -0.0099748205794862217 0 0.0024291923552425768 -0.0094748589855298774 0 0.00036298780883508409 -0.014898194760025263 0 0.00050090924734256224 -0.015078081700895503 0 0.00053327713580516461 -0.014725161969182433 0 0.00050090924734256224 -0.015078081700895503 0 0.00082550894109063866 -0.014822656891295694 0 0.00053327713580516461 -0.014725161969182433 0 0.00016397075179983334 -0.015000045898687595 0 0.00036298780883508409 -0.014898194760025263 0 0.00034202112819438569 -0.015059576665988231 0 0.00036298780883508409 -0.014898194760025263 0 0.00034202112819438569 -0.015059576665988231 0 0.00050090924734256224 -0.015078081700895503 0 0.00019431456416617876 -0.015268899416811407 0 0.00034202112819438569 -0.015059576665988231 0 0.00050090924734256224 -0.015078081700895503 0 0.00052068807709216712 -0.014716492833442694 0 0.001180150221408764 -0.014418002504186164 0 0.0015357218816606998 -0.01345923446829716 0 0.0020615731564394553 -0.013743970347013404 0 0.001576583273083071 -0.014069486858445624 0 0.0015357218816606998 -0.01345923446829716 0 0.0010122754330435207 -0.01365005603614354 0 0.001576583273083071 -0.014069486858445624 0 0.001180150221408764 -0.014418002504186164 0 0.0011869318282233311 -0.014429581848432285 0 0.0010250546417193526 -0.014414104521671254 0 0.00082550894109063866 -0.014822656891295694 0 0.00085834108685520314 -0.014529599488398342 0 0.0010480742672840818 -0.01445511074150271 0 0.0011869318282233311 -0.014429581848432285 0 0.0010250546417193526 -0.014414104521671254 0 0.00085834108685520314 -0.014529599488398342 0 0.00099291052870930556 -0.014467560778055626 0 0.00082550894109063866 -0.014822656891295694 0 0.00085834108685520314 -0.014529599488398342 0 0.00053327713580516461 -0.014725161969182433 0 0.00017054531559140831 -0.014662048170015091 0 0.00053327713580516461 -0.014725161969182433 0 0.00051839143350574074 -0.014394074033485501 0 0.00085834108685520314 -0.014529599488398342 0 0.00053327713580516461 -0.014725161969182433 0 0.00051839143350574074 -0.014394074033485501 0 0.00017054531559140831 -0.014662048170015091 0 0.00036298780883508409 -0.014898194760025263 0 0.00053327713580516461 -0.014725161969182433 0 5.6242572037479676e-05 -0.014357546824075057 0 0.00051839143350574074 -0.014394074033485501 0 0.00023155026198401965 -0.013958450844142956 0 5.6242572037479676e-05 -0.014357546824075057 0 0.00017054531559140831 -0.014662048170015091 0 0.00051839143350574074 -0.014394074033485501 0 0.00051839143350574074 -0.014394074033485501 0 0.0009795292358429099 -0.014370323514347067 0 0.00064834384559458373 -0.013965108238543848 0 0.00085834108685520314 -0.014529599488398342 0 0.00051839143350574074 -0.014394074033485501 0 0.0009795292358429099 -0.014370323514347067 0 0.00085834108685520314 -0.014529599488398342 0 0.0009795292358429099 -0.014370323514347067 0 0.00099291052870930556 -0.014467560778055626 0 0.0009795292358429099 -0.014370323514347067 0 0.00064834384559458373 -0.013965108238543848 0 0.0011909039030318174 -0.01348375010580271 0 0.00064834384559458373 -0.013965108238543848 0 0.0011909039030318174 -0.01348375010580271 0 0.00036558208819414219 -0.013450191255635327 0 0.00051839143350574074 -0.014394074033485501 0 0.00064834384559458373 -0.013965108238543848 0 0.00023155026198401965 -0.013958450844142956 0 0.00064834384559458373 -0.013965108238543848 0 0.00023155026198401965 -0.013958450844142956 0 0.00036558208819414219 -0.013450191255635327 0 0.0032462513955927906 -0.0092772804187733707 0 0.0029535333020994556 -0.0099748205794862217 0 0.0039528190067711156 -0.01048076144132213 0 0.0028413527631750979 -0.01061074677685463 0 0.0029535333020994556 -0.0099748205794862217 0 0.0039528190067711156 -0.01048076144132213 0 0.0019008840676102512 -0.011690901840272381 0 0.0019885081980769112 -0.01276150820667071 0 0.0023751683576047383 -0.011620362042180959 0 0.0019885081980769112 -0.01276150820667071 0 0.00069026629169262419 -0.01434999337053929 0 0.0019885081980769112 -0.01276150820667071 0 0.0009795292358429099 -0.014370323514347067 0 0.00091851449104953778 -0.01456722018287328 0 0.00099291052870930556 -0.014467560778055626 0 0.00052565733202741024 -0.014318180590102444 0 0.00091851449104953778 -0.01456722018287328 0 0.00099291052870930556 -0.014467560778055626 0 0.0019885081980769112 -0.01276150820667071 0 0.0010395785997682797 -0.012918062511356047 0 0.0009795292358429099 -0.014370323514347067 0 0.0015497523357844043 -0.014288321336731635 0 0.0011909039030318174 -0.01348375010580271 0 0.0013737949815238262 -0.012686475244888586 0 0.0015046904624635787 -0.012208232394972292 0 0.001026232175061686 -0.012147620976644775 0 0.0018901219470896808 -0.012624518791199621 0 0.0013737949815238262 -0.012686475244888586 0 0.0015046904624635787 -0.012208232394972292 0 0.0018901219470896808 -0.012624518791199621 0 0.0015046904624635787 -0.012208232394972292 0 0.001966810474540069 -0.012173351580838796 0 0.0015046904624635787 -0.012208232394972292 0 0.0017220777422337664 -0.011813088628900518 0 0.001966810474540069 -0.012173351580838796 0 0.0015046904624635787 -0.012208232394972292 0 0.0017220777422337664 -0.011813088628900518 0 0.001305505613340821 -0.011803954023786497 0 0.0015046904624635787 -0.012208232394972292 0 0.001305505613340821 -0.011803954023786497 0 0.001026232175061686 -0.012147620976644775 0 0.001305505613340821 -0.011803954023786497 0 0.00099278097661296841 -0.011795452664065849 0 0.001026232175061686 -0.012147620976644775 0 0.001305505613340821 -0.011803954023786497 0 0.001177799421002142 -0.011295814684577837 0 0.00099278097661296841 -0.011795452664065849 0 0.001305505613340821 -0.011803954023786497 0 0.001563358125687695 -0.011334228617357627 0 0.001177799421002142 -0.011295814684577837 0 0.0017220777422337664 -0.011813088628900518 0 0.001305505613340821 -0.011803954023786497 0 0.001563358125687695 -0.011334228617357627 0 0.0017220777422337664 -0.011813088628900518 0 0.001563358125687695 -0.011334228617357627 0 0.001933408637480869 -0.011351585077644926 0 0.0018054233594693267 -0.010746549638625221 0 0.001563358125687695 -0.011334228617357627 0 0.001933408637480869 -0.011351585077644926 0 0.0018054233594693267 -0.010746549638625221 0 0.001563358125687695 -0.011334228617357627 0 0.0014382308084784935 -0.010937840009249982 0 0.001563358125687695 -0.011334228617357627 0 0.001177799421002142 -0.011295814684577837 0 0.0014382308084784935 -0.010937840009249982 0 0.001177799421002142 -0.011295814684577837 0 0.0014382308084784935 -0.010937840009249982 0 0.0011541394267608218 -0.010817289633348121 0 0.0014382308084784935 -0.010937840009249982 0 0.0011541394267608218 -0.010817289633348121 0 0.001466432136626645 -0.010486630187031826 0 0.0011541394267608218 -0.010817289633348121 0 0.001466432136626645 -0.010486630187031826 0 0.0011522968708307679 -0.010411682906782618 0 0.0018054233594693267 -0.010746549638625221 0 0.001466432136626645 -0.010486630187031826 0 0.001834339259162534 -0.010080072319277638 0 0.0018054233594693267 -0.010746549638625221 0 0.0014382308084784935 -0.010937840009249982 0 0.001466432136626645 -0.010486630187031826 0 0.00045635486940241656 -0.010798696130966434 0 0.00079756027330842548 -0.011186398113750074 0 0.00023404214372127309 -0.011248290429835996 0 0.00045635486940241656 -0.010798696130966434 0 0.00023404214372127309 -0.011248290429835996 0 -0.00016691948528104743 -0.010603714395780214 0 0.00045635486940241656 -0.010798696130966434 0 -0.00016691948528104743 -0.010603714395780214 0 0.00044163476513320939 -0.010379521577999791 0 0.00045635486940241656 -0.010798696130966434 0 0.00083383295613120617 -0.01060097824085836 0 0.00044163476513320939 -0.010379521577999791 0 0.0011541394267608218 -0.010817289633348121 0 0.00083383295613120617 -0.01060097824085836 0 0.0011522968708307679 -0.010411682906782618 0 0.0011541394267608218 -0.010817289633348121 0 0.00083383295613120617 -0.01060097824085836 0 0.00079756027330842548 -0.011186398113750074 0 0.00045635486940241656 -0.010798696130966434 0 0.00083383295613120617 -0.01060097824085836 0 0.00079756027330842548 -0.011186398113750074 0 0.001177799421002142 -0.011295814684577837 0 0.00079756027330842548 -0.011186398113750074 0 0.00099278097661296841 -0.011795452664065849 0 0.00079756027330842548 -0.011186398113750074 0 0.00064481633269819342 -0.012059433990870942 0 0.00099278097661296841 -0.011795452664065849 0 0.001177799421002142 -0.011295814684577837 0 0.0011541394267608218 -0.010817289633348121 0 0.00079756027330842548 -0.011186398113750074 0 0.00079756027330842548 -0.011186398113750074 0 0.00023404214372127309 -0.011248290429835996 0 0.00064481633269819342 -0.012059433990870942 0 0.00023404214372127309 -0.011248290429835996 0 0.00064481633269819342 -0.012059433990870942 0 -7.5917821088183175e-05 -0.011787407248994462 0 0.00064481633269819342 -0.012059433990870942 0 -6.5928036863205518e-05 -0.012938548110769254 0 -7.5917821088183175e-05 -0.011787407248994462 0 0.00064481633269819342 -0.012059433990870942 0 0.00036558208819414219 -0.013450191255635327 0 -6.5928036863205518e-05 -0.012938548110769254 0 0.00064481633269819342 -0.012059433990870942 0 0.00099278097661296841 -0.011795452664065849 0 0.001026232175061686 -0.012147620976644775 0 0.00065923785365533481 -0.012030709961865883 0 0.0010395785997682797 -0.012918062511356047 0 0.00064481633269819342 -0.012059433990870942 0 0.0011909039030318174 -0.01348375010580271 0 0.00036558208819414219 -0.013450191255635327 0 -0.0001996126906560686 -0.013653377605590525 0 -0.00046053860176886236 -0.013494322227362575 0 -6.5928036863205518e-05 -0.012938548110769254 0 0.00036558208819414219 -0.013450191255635327 0 -0.0001996126906560686 -0.013653377605590525 0 -6.5928036863205518e-05 -0.012938548110769254 0 -0.00051543969140423001 -0.01388849074074215 0 -0.0001996126906560686 -0.013653377605590525 0 -0.00046053860176886236 -0.013494322227362575 0 -0.00051543969140423001 -0.01388849074074215 0 -0.00046053860176886236 -0.013494322227362575 0 -0.00079396639732271976 -0.013888051524869122 0 -0.00046053860176886236 -0.013494322227362575 0 -6.5928036863205518e-05 -0.012938548110769254 0 -0.00027572529274564955 -0.013113968311600367 0 -0.00046053860176886236 -0.013494322227362575 0 -0.00080465529194131426 -0.013544820043875196 0 -0.00027572529274564955 -0.013113968311600367 0 -6.5928036863205518e-05 -0.012938548110769254 0 -7.5917821088183175e-05 -0.011787407248994462 0 -0.00089351630927766241 -0.011581378219917738 0 -7.2523307260798886e-05 -0.012932552596331153 0 -0.00055335623095701899 -0.012351765300249106 0 -0.0010771936575674434 -0.014200730728161521 0 -0.001067473903901793 -0.013917395047902211 0 -0.0013623320875016144 -0.014202266336661329 0 -0.0010771936575674434 -0.014200730728161521 0 -0.001067473903901793 -0.013917395047902211 0 -0.00079396639732271976 -0.013888051524869122 0 -0.00046053860176886236 -0.013494322227362575 0 -0.00079396639732271976 -0.013888051524869122 0 -0.00080465529194131426 -0.013544820043875196 0 -0.001067473903901793 -0.013917395047902211 0 -0.00079396639732271976 -0.013888051524869122 0 -0.00080465529194131426 -0.013544820043875196 0 -0.001067473903901793 -0.013917395047902211 0 -0.001237594899488469 -0.013747374277965251 0 -0.0013623320875016144 -0.014202266336661329 0 -0.00080465529194131426 -0.013544820043875196 0 -0.001237594899488469 -0.013747374277965251 0 -0.0011130368648763706 -0.013178246786714762 0 -0.001067473903901793 -0.013917395047902211 0 -0.00080465529194131426 -0.013544820043875196 0 -0.001237594899488469 -0.013747374277965251 0 -0.001237594899488469 -0.013747374277965251 0 -0.0011130368648763706 -0.013178246786714762 0 -0.0013778053219486619 -0.01319123079170367 0 -0.0011827191538882934 -0.013192163839258059 0 -0.0019091656152330041 -0.012993439005532558 0 -0.0011130368648763706 -0.013178246786714762 0 -0.00066940429421929884 -0.012226726251419739 0 -0.00027572529274564955 -0.013113968311600367 0 -0.00080465529194131426 -0.013544820043875196 0 -0.0011130368648763706 -0.013178246786714762 0 -0.00027572529274564955 -0.013113968311600367 0 -0.0011130368648763706 -0.013178246786714762 0 -0.0016596942328873311 -0.012128072547132621 0 -0.0022446496627765719 -0.012869443398226568 0 -0.0011130368648763706 -0.013178246786714762 0 -0.00066940429421929884 -0.012226726251419739 0 -0.0016596942328873311 -0.012128072547132621 0 -0.00035759282242775947 -0.011249269638878312 0 -7.5917821088183175e-05 -0.011787407248994462 0 -0.00089351630927766241 -0.011581378219917738 0 0.00023404214372127309 -0.011248290429835996 0 -0.00035759282242775947 -0.011249269638878312 0 -7.5917821088183175e-05 -0.011787407248994462 0 -0.00035759282242775947 -0.011249269638878312 0 -0.00089351630927766241 -0.011581378219917738 0 -0.00076166550307061004 -0.010928476508642447 0 -0.0013511428861256189 -0.010857041564886859 0 -0.00089351630927766241 -0.011581378219917738 0 -0.00076166550307061004 -0.010928476508642447 0 -0.0010551272880637995 -0.011517698289911513 0 -0.00055335623095701899 -0.012351765300249106 0 -0.0013511428861256189 -0.010857041564886859 0 -0.00076166550307061004 -0.010928476508642447 0 -0.00093667069756796727 -0.010407379799294477 0 0.00023404214372127309 -0.011248290429835996 0 -0.00035759282242775947 -0.011249269638878312 0 -0.00016691948528104743 -0.010603714395780214 0 -0.00035759282242775947 -0.011249269638878312 0 -0.00076166550307061004 -0.010928476508642447 0 -0.00016691948528104743 -0.010603714395780214 0 -0.00016691948528104743 -0.010603714395780214 0 -0.00046756589446692482 -0.010059518989520243 0 0.00019250912999724693 -0.00996673006524189 0 -0.00016691948528104743 -0.010603714395780214 0 -0.00093667069756796727 -0.010407379799294477 0 -0.00046756589446692482 -0.010059518989520243 0 -0.00076166550307061004 -0.010928476508642447 0 -0.00016691948528104743 -0.010603714395780214 0 -0.00093667069756796727 -0.010407379799294477 0 -0.00093667069756796727 -0.010407379799294477 0 -0.00094361645315344065 -0.0096530093778235335 0 -0.00046756589446692482 -0.010059518989520243 0 -0.00094361645315344065 -0.0096530093778235335 0 -0.00046756589446692482 -0.010059518989520243 0 -0.00018297580365215753 -0.009624407396334687 0 -0.00046756589446692482 -0.010059518989520243 0 -0.00018297580365215753 -0.009624407396334687 0 0.00019250912999724693 -0.00996673006524189 0 -0.0013511428861256189 -0.010857041564886859 0 -0.001892503335746389 -0.010504462004495273 0 -0.0014542967845152751 -0.010312763805380321 0 -0.0010551272880637995 -0.011517698289911513 0 -0.0018587298096753861 -0.010550644686436843 0 -0.00066940429421929884 -0.012226726251419739 0 -0.0016596942328873311 -0.012128072547132621 0 -0.001892503335746389 -0.010504462004495273 0 -0.0016596942328873311 -0.012128072547132621 0 -0.001892503335746389 -0.010504462004495273 0 -0.0024429085551683563 -0.01165427555302322 0 -0.0013511428861256189 -0.010857041564886859 0 -0.00093667069756796727 -0.010407379799294477 0 -0.0014542967845152751 -0.010312763805380321 0 -0.00085438058223253819 -0.009726355208474079 0 -0.0014089731959518697 -0.010249987167423188 0 -0.00077087398567379599 -0.0097892586913814715 0 -0.0014542967845152751 -0.010312763805380321 0 -0.0017066394563239908 -0.0099905078747562007 0 -0.00093667069756796727 -0.010407379799294477 0 -0.00094361645315344065 -0.0096530093778235335 0 -0.0014542967845152751 -0.010312763805380321 0 -0.0017066394563239908 -0.0099905078747562007 0 -0.0014828726672796051 -0.0093725398022548503 0 -0.0022351120680402336 -0.0099207915344550618 0 -0.001892503335746389 -0.010504462004495273 0 -0.0014542967845152751 -0.010312763805380321 0 -0.0017066394563239908 -0.0099905078747562007 0 -0.001892503335746389 -0.010504462004495273 0 -0.0017066394563239908 -0.0099905078747562007 0 -0.0022351120680402336 -0.0099207915344550618 0 -0.00062473965597145394 -0.010072655508291692 0 -0.0013534319891205853 -0.010482236872097034 0 0.00027037879277773462 -0.010722737099311368 0 -0.00043415061542681222 -0.011414029909010599 0 -0.00049353643452477709 -0.01062856651563821 0 -0.00077087398567379599 -0.0097892586913814715 0 -0.0017066394563239908 -0.0099905078747562007 0 -0.0014828726672796051 -0.0093725398022548503 0 -0.00077087398567379599 -0.0097892586913814715 0 -0.0014828726672796051 -0.0093725398022548503 0 -0.00083377345625346589 -0.0088017970235044311 0 0.00027037879277773462 -0.010722737099311368 0 0.00010512487211060553 -0.010076374664642365 0 0.00093357600041417269 -0.010076488628144833 0 -0.00062473965597145394 -0.010072655508291692 0 7.1836037158858396e-05 -0.0094677626213989889 0 0.00010512487211060553 -0.010076374664642365 0 0.00093357600041417269 -0.010076488628144833 0 0.00053347404187280756 -0.0095495201820829431 0 0.00010512487211060553 -0.010076374664642365 0 -0.00050997070612737792 -0.010134310671739309 0 -0.000125053630844254 -0.0094677323172767426 0 0.00027037879277773462 -0.010722737099311368 0 0.00010512487211060553 -0.010076374664642365 0 -0.00049353643452477709 -0.01062856651563821 0 0.00010512487211060553 -0.010076374664642365 0 -0.00049353643452477709 -0.01062856651563821 0 -0.00050997070612737792 -0.010134310671739309 0 -0.00094361645315344065 -0.0096530093778235335 0 -0.00018297580365215753 -0.009624407396334687 0 -0.00032365088374137232 -0.0090814247769292634 0 -0.00018297580365215753 -0.009624407396334687 0 -0.00032365088374137232 -0.0090814247769292634 0 0.00019764205354882004 -0.009131100179166218 0 -0.00085438058223253819 -0.009726355208474079 0 -0.00021861758246342284 -0.0092090879100330293 0 -0.00077087398567379599 -0.0097892586913814715 0 -0.00012543167063685463 -0.009269058635379258 0 -0.00083377345625346589 -0.0088017970235044311 0 -0.00012543167063685463 -0.009269058635379258 0 -0.00083377345625346589 -0.0088017970235044311 0 -4.1956879398869367e-05 -0.0087357235865914724 0 -0.00012543167063685463 -0.009269058635379258 0 -4.1956879398869367e-05 -0.0087357235865914724 0 0.00050731001325513079 -0.0087522552478466395 0 -0.00021861758246342284 -0.0092090879100330293 0 0.00024186740620486997 -0.0083408153856612596 0 -0.00032365088374137232 -0.0090814247769292634 0 0.00028163137672687714 -0.0085905025549929022 0 0.00019764205354882004 -0.009131100179166218 0 -4.1956879398869367e-05 -0.0087357235865914724 0 0.00042481470222397268 -0.0086250294938544862 0 0.00050731001325513079 -0.0087522552478466395 0 0.00024186740620486997 -0.0083408153856612596 0 0.00057894602263445442 -0.0090539419217608424 0 9.6994879471483974e-05 -0.0081237801028636401 0 0.00044018349421830704 -0.0086582058957755687 0 0.00039273197592904315 -0.0082530530252403755 0 0.00028163137672687714 -0.0085905025549929022 0 0.00019764205354882004 -0.009131100179166218 0 0.00067135496466131977 -0.0092045463824731479 0 0.00020129711770067673 -0.0081055472019304214 0 0.00028127397190648977 -0.0081761698757696396 0 0.00020129711770067673 -0.0081055472019304214 0 0.00024186740620486997 -0.0083408153856612596 0 0.00028370416298935641 -0.0081775107292551049 0 0.00024350812599710752 -0.0081154577128037097 0 0.00021836586543463564 -0.0081357394237925023 0 9.6994879471483974e-05 -0.0081237801028636401 0 0.00013884646759457811 -0.0080900810030256117 0 0.00039273197592904315 -0.0082530530252403755 0 0.00028127397190648977 -0.0081761698757696396 0 0.00031175654671582582 -0.0081989818715135273 0 0.00024186740620486997 -0.0083408153856612596 0 0.00028127397190648977 -0.0081761698757696396 0 -0.00018297580365215753 -0.009624407396334687 0 0.00019764205354882004 -0.009131100179166218 0 0.00036003779004087019 -0.00949930467537481 0 0.00019764205354882004 -0.009131100179166218 0 0.00036003779004087019 -0.00949930467537481 0 0.00067135496466131977 -0.0092045463824731479 0 0.00039248929412585425 -0.0094169928391797195 0 0.00057894602263445442 -0.0090539419217608424 0 0.00070270506401751566 -0.0091696759491256032 0 0.0011352598212949793 -0.0087639771505492615 0 0.0010798143219061245 -0.00934559872375758 0 0.00082345368118551027 -0.0093684346603000422 0 0.0010798143219061245 -0.00934559872375758 0 0.00087861834844485246 -0.0096014479658257743 0 0.00082345368118551027 -0.0093684346603000422 0 0.00070270506401751566 -0.0091696759491256032 0 0.0010798143219061245 -0.00934559872375758 0 0.00036003779004087019 -0.00949930467537481 0 0.00082345368118551027 -0.0093684346603000422 0 0.00068307859836746619 -0.0091556543101400517 0 0.00074522511245575724 -0.0092848666123615618 0 0.00057894602263445442 -0.0090539419217608424 0 0.00039273197592904315 -0.0082530530252403755 0 0.00085086514122262823 -0.0082592338549578263 0 0.00077830964110332833 -0.0075618198861637786 0 0.00057894602263445442 -0.0090539419217608424 0 0.0010138793343115831 -0.0085133820278710803 0 0.00044018349421830704 -0.0086582058957755687 0 0.00039273197592904315 -0.0082530530252403755 0 0.00085086514122262823 -0.0082592338549578263 0 0.0011352598212949793 -0.0087639771505492615 0 0.001651988934987301 -0.0088741436492024081 0 0.0015098130821043724 -0.0092170856815611737 0 0.0011352598212949793 -0.0087639771505492615 0 0.001651988934987301 -0.0088741436492024081 0 0.0015377833979578971 -0.0083849771132558822 0 0.0010138793343115831 -0.0085133820278710803 0 0.0010211813633358537 -0.0077205876167037229 0 0.0010211813633358537 -0.0077205876167037229 0 0.0021334858565847685 -0.0092507849763195007 0 0.001651988934987301 -0.0088741436492024081 0 0.0015377833979578971 -0.0083849771132558822 0 0.0022074352846751656 -0.0088113880397784582 0 0.001651988934987301 -0.0088741436492024081 0 0.0018497946469949109 -0.0091916893870109158 0 0.0022074352846751656 -0.0088113880397784582 0 0.001651988934987301 -0.0088741436492024081 0 0.0018497946469949109 -0.0091916893870109158 0 0.0015098130821043724 -0.0092170856815611737 0 0.0018497946469949109 -0.0091916893870109158 0 0.0015098130821043724 -0.0092170856815611737 0 0.0017912719453051376 -0.0095382473270821874 0 0.0018497946469949109 -0.0091916893870109158 0 0.0017912719453051376 -0.0095382473270821874 0 0.0021737935514377959 -0.0092933841868042804 0 0.0011352598212949793 -0.0087639771505492615 0 0.0015098130821043724 -0.0092170856815611737 0 0.0010798143219061245 -0.00934559872375758 0 0.0015098130821043724 -0.0092170856815611737 0 0.0010798143219061245 -0.00934559872375758 0 0.0013758503239015339 -0.0095657680272904014 0 0.0010798143219061245 -0.00934559872375758 0 0.0013758503239015339 -0.0095657680272904014 0 0.0011053601458191865 -0.0097617322613411609 0 0.0013758503239015339 -0.0095657680272904014 0 0.0017912719453051376 -0.0095382473270821874 0 0.0013993132078968776 -0.0099699876752524057 0 0.0013758503239015339 -0.0095657680272904014 0 0.0011053601458191865 -0.0097617322613411609 0 0.0013993132078968776 -0.0099699876752524057 0 0.0017912719453051376 -0.0095382473270821874 0 0.001834339259162534 -0.010080072319277638 0 0.0021679319114598868 -0.0096768391360169161 0 0.0015098130821043724 -0.0092170856815611737 0 0.0013758503239015339 -0.0095657680272904014 0 0.0017912719453051376 -0.0095382473270821874 0 0.001466432136626645 -0.010486630187031826 0 0.001834339259162534 -0.010080072319277638 0 0.0013993132078968776 -0.0099699876752524057 0 0.0017912719453051376 -0.0095382473270821874 0 0.001834339259162534 -0.010080072319277638 0 0.0013993132078968776 -0.0099699876752524057 0 0.001466432136626645 -0.010486630187031826 0 0.0013993132078968776 -0.0099699876752524057 0 0.0011522968708307679 -0.010411682906782618 0 0.0010838840461093288 -0.010104080156685798 0 0.0013993132078968776 -0.0099699876752524057 0 0.0011522968708307679 -0.010411682906782618 0 0.0011053601458191865 -0.0097617322613411609 0 0.0010838840461093288 -0.010104080156685798 0 0.0013993132078968776 -0.0099699876752524057 0 0.0010838840461093288 -0.010104080156685798 0 0.0011522968708307679 -0.010411682906782618 0 0.00082797332198851058 -0.01026696021747758 0 0.00083383295613120617 -0.01060097824085836 0 0.0011522968708307679 -0.010411682906782618 0 0.00082797332198851058 -0.01026696021747758 0 0.0010838840461093288 -0.010104080156685798 0 0.00082797332198851058 -0.01026696021747758 0 0.0007241935788507226 -0.0099653657857451464 0 0.00082797332198851058 -0.01026696021747758 0 0.00044163476513320939 -0.010379521577999791 0 0.0007241935788507226 -0.0099653657857451464 0 0.00083383295613120617 -0.01060097824085836 0 0.00082797332198851058 -0.01026696021747758 0 0.00044163476513320939 -0.010379521577999791 0 -0.00016691948528104743 -0.010603714395780214 0 0.00044163476513320939 -0.010379521577999791 0 0.00019250912999724693 -0.00996673006524189 0 0.00044163476513320939 -0.010379521577999791 0 0.00019250912999724693 -0.00996673006524189 0 0.0007241935788507226 -0.0099653657857451464 0 -0.00018297580365215753 -0.009624407396334687 0 0.00036003779004087019 -0.00949930467537481 0 0.00019250912999724693 -0.00996673006524189 0 0.00019250912999724693 -0.00996673006524189 0 0.00061036927819531925 -0.009673109096808968 0 0.0007241935788507226 -0.0099653657857451464 0 0.00036003779004087019 -0.00949930467537481 0 0.00019250912999724693 -0.00996673006524189 0 0.00061036927819531925 -0.009673109096808968 0 0.00082345368118551027 -0.0093684346603000422 0 0.00061036927819531925 -0.009673109096808968 0 0.00087861834844485246 -0.0096014479658257743 0 0.00036003779004087019 -0.00949930467537481 0 0.00082345368118551027 -0.0093684346603000422 0 0.00061036927819531925 -0.009673109096808968 0 0.0010798143219061245 -0.00934559872375758 0 0.0011053601458191865 -0.0097617322613411609 0 0.00087861834844485246 -0.0096014479658257743 0 0.0011053601458191865 -0.0097617322613411609 0 0.00087861834844485246 -0.0096014479658257743 0 0.0007241935788507226 -0.0099653657857451464 0 0.0011053601458191865 -0.0097617322613411609 0 0.0010838840461093288 -0.010104080156685798 0 0.0007241935788507226 -0.0099653657857451464 0 0.00061036927819531925 -0.009673109096808968 0 0.00087861834844485246 -0.0096014479658257743 0 0.0007241935788507226 -0.0099653657857451464 0 -0.00053432939792507793 -0.016174779493841412 0 -0.00076412813748700809 -0.016153697411545976 0 -0.0006438236699052906 -0.015879521464811041 0 -0.00036228462005435372 -0.016049181808572541 0 -0.00053432939792507793 -0.016174779493841412 0 -0.0006438236699052906 -0.015879521464811041 0 -0.00036228462005435372 -0.016049181808572541 0 -0.00032621755041537122 -0.016285500721945196 0 -0.00053432939792507793 -0.016174779493841412 0 -0.00032621755041537122 -0.016285500721945196 0 -0.00053432939792507793 -0.016174779493841412 0 -0.00041631312488455677 -0.016437403341829401 0 -0.00053432939792507793 -0.016174779493841412 0 -0.00076412813748700809 -0.016153697411545976 0 -0.00060373297998721827 -0.016323917316192524 0 -0.00076412813748700809 -0.016153697411545976 0 -0.0009747421556403382 -0.01599736754042989 0 -0.0010389830614202776 -0.016271060496921248 0 -0.00076412813748700809 -0.016153697411545976 0 -0.00086653328369725336 -0.015859923257775663 0 -0.0009747421556403382 -0.01599736754042989 0 -0.00076412813748700809 -0.016153697411545976 0 -0.00086653328369725336 -0.015859923257775663 0 -0.0006438236699052906 -0.015879521464811041 0 -0.00086653328369725336 -0.015859923257775663 0 -0.00087856671567184969 -0.015621309595907486 0 -0.0006438236699052906 -0.015879521464811041 0 -0.00087856671567184969 -0.015621309595907486 0 -0.0010332713009107064 -0.01528530542125426 0 -0.0010622004081117229 -0.015634115584497971 0 -0.00086653328369725336 -0.015859923257775663 0 -0.00087856671567184969 -0.015621309595907486 0 -0.0010622004081117229 -0.015634115584497971 0 -0.00087856671567184969 -0.015621309595907486 0 -0.0006438236699052906 -0.015879521464811041 0 -0.00071502194150267144 -0.015508231050197519 0 -0.0006438236699052906 -0.015879521464811041 0 -0.00035244844832615051 -0.015759123194077702 0 -0.00071502194150267144 -0.015508231050197519 0 -0.00036228462005435372 -0.016049181808572541 0 -0.0006438236699052906 -0.015879521464811041 0 -0.00035244844832615051 -0.015759123194077702 0 -0.00035244844832615051 -0.015759123194077702 0 -0.00071502194150267144 -0.015508231050197519 0 -0.00034847725242571583 -0.015390292394521523 0 -0.00089031941831582868 -0.015647741297595982 0 6.2365269504581172e-05 -0.015020651411901627 0 -0.00071502194150267144 -0.015508231050197519 0 -0.00086262105705927207 -0.015270672945913171 0 -0.00076770210921277933 -0.015330192162546726 0 -0.00086262105705927207 -0.015270672945913171 0 -0.00076770210921277933 -0.015330192162546726 0 -0.00090454653704567084 -0.015163698346282352 0 -0.0010074014597115132 -0.015143833216982481 0 -0.0010332713009107064 -0.01528530542125426 0 -0.0012138485881544145 -0.015012452654095048 0 -0.0010880217070821901 -0.015044672634112546 0 -0.00090454653704567084 -0.015163698346282352 0 -0.0010074014597115132 -0.015143833216982481 0 -0.0010880217070821901 -0.015044672634112546 0 -0.0010074014597115132 -0.015143833216982481 0 -0.0012138485881544145 -0.015012452654095048 0 -0.00086262105705927207 -0.015270672945913171 0 -0.0010074014597115132 -0.015143833216982481 0 -0.0010332713009107064 -0.01528530542125426 0 -0.00086262105705927207 -0.015270672945913171 0 -0.00090454653704567084 -0.015163698346282352 0 -0.0010074014597115132 -0.015143833216982481 0 -0.00071502194150267144 -0.015508231050197519 0 -0.00086262105705927207 -0.015270672945913171 0 -0.0010332713009107064 -0.01528530542125426 0 -0.00087856671567184969 -0.015621309595907486 0 -0.00071502194150267144 -0.015508231050197519 0 -0.0010332713009107064 -0.01528530542125426 0 -0.0010332713009107064 -0.01528530542125426 0 -0.0013535108455592379 -0.015253343126669058 0 -0.0010622004081117229 -0.015634115584497971 0 -0.0010332713009107064 -0.01528530542125426 0 -0.0013395233700074652 -0.015043053640575647 0 -0.0013535108455592379 -0.015253343126669058 0 -0.0010332713009107064 -0.01528530542125426 0 -0.0012138485881544145 -0.015012452654095048 0 -0.0013395233700074652 -0.015043053640575647 0 -0.0014398144909290155 -0.014855533511466037 0 -0.0012138485881544145 -0.015012452654095048 0 -0.0013395233700074652 -0.015043053640575647 0 -0.0014398144909290155 -0.014855533511466037 0 -0.0013395233700074652 -0.015043053640575647 0 -0.0015861171151140387 -0.014911667297166885 0 -0.0013395233700074652 -0.015043053640575647 0 -0.0013535108455592379 -0.015253343126669058 0 -0.0015861171151140387 -0.014911667297166885 0 -0.0013535108455592379 -0.015253343126669058 0 -0.0017648377318699429 -0.015138112626430347 0 -0.0015861171151140387 -0.014911667297166885 0 -0.0013535108455592379 -0.015253343126669058 0 -0.001386415376536308 -0.015603885658969181 0 -0.0010622004081117229 -0.015634115584497971 0 -0.0013535108455592379 -0.015253343126669058 0 -0.001386415376536308 -0.015603885658969181 0 -0.0017648377318699429 -0.015138112626430347 0 -0.001386415376536308 -0.015603885658969181 0 -0.0010622004081117229 -0.015634115584497971 0 -0.001143926110937373 -0.015971840614069262 0 -0.00086653328369725336 -0.015859923257775663 0 -0.0010622004081117229 -0.015634115584497971 0 -0.0009747421556403382 -0.01599736754042989 0 -0.0013463555611897757 -0.016272701326690234 0 -0.00015776489246119486 -0.016922991614315507 0 -0.001143926110937373 -0.015971840614069262 0 -0.0014128709801009848 -0.016245275773217396 0 -0.0010389830614202776 -0.016271060496921248 0 -0.0010622004081117229 -0.015634115584497971 0 -0.001143926110937373 -0.015971840614069262 0 -0.0009747421556403382 -0.01599736754042989 0 -0.001143926110937373 -0.015971840614069262 0 -0.0009747421556403382 -0.01599736754042989 0 -0.0010389830614202776 -0.016271060496921248 0 -0.0014128709801009848 -0.016245275773217396 0 -0.00059197649143444839 -0.017626664291964494 0 0.00073831691203811662 -0.017469647569701329 0 -0.001386415376536308 -0.015603885658969181 0 -0.0014128709801009848 -0.016245275773217396 0 -0.0021959535641176376 -0.016277322693383323 0 -0.001386415376536308 -0.015603885658969181 0 -0.001143926110937373 -0.015971840614069262 0 -0.0014128709801009848 -0.016245275773217396 0 -0.0028335888390590425 -0.015829748680618705 0 -0.0021959535641176376 -0.016277322693383323 0 -0.00370383010836572 -0.016570167037714068 0 -0.0021959535641176376 -0.016277322693383323 0 -0.00370383010836572 -0.016570167037714068 0 -0.0020444115653048159 -0.017374015698577019 0 -0.0014128709801009848 -0.016245275773217396 0 -0.0021959535641176376 -0.016277322693383323 0 -0.0020444115653048159 -0.017374015698577019 0 -0.0016019643243398072 -0.014772178596678931 0 -0.0015847087927567517 -0.014795211014283473 0 -0.0015648789567298932 -0.014685534036462508 0 -0.0022957659466481379 -0.015427631028876393 0 -0.0017666862055870569 -0.015360751980329324 0 -0.0016019643243398072 -0.014772178596678931 0 -0.0015648789567298932 -0.014685534036462508 0 -0.0016155981451159251 -0.014872114380398307 0 -0.001386415376536308 -0.015603885658969181 0 -0.0021959535641176376 -0.016277322693383323 0 -0.0017648377318699429 -0.015138112626430347 0 -0.0028335888390590425 -0.015829748680618705 0 -0.0021959535641176376 -0.016277322693383323 0 -0.0017648377318699429 -0.015138112626430347 0 -0.0016019643243398072 -0.014772178596678931 0 -0.0016155981451159251 -0.014872114380398307 0 -0.0017648377318699429 -0.015138112626430347 0 -0.0022957659466481379 -0.015427631028876393 0 -0.0018215484416345242 -0.0151016323395438 0 -0.0016155981451159251 -0.014872114380398307 0 -0.0017648377318699429 -0.015138112626430347 0 -0.0015861171151140387 -0.014911667297166885 0 -0.0014398144909290155 -0.014855533511466037 0 -0.0015861171151140387 -0.014911667297166885 0 -0.0015490691291682763 -0.014697670144675502 0 -0.0015490691291682763 -0.014697670144675502 0 -0.0015867085786552936 -0.014621473455990283 0 -0.0015458494494160052 -0.014462789322914846 0 -0.0015861171151140387 -0.014911667297166885 0 -0.0015490691291682763 -0.014697670144675502 0 -0.0015867085786552936 -0.014621473455990283 0 -0.0015648789567298932 -0.014685534036462508 0 -0.0016155981451159251 -0.014872114380398307 0 -0.0015867085786552936 -0.014621473455990283 0 -0.0016155981451159251 -0.014872114380398307 0 -0.0015861171151140387 -0.014911667297166885 0 -0.0015867085786552936 -0.014621473455990283 0 -0.0015648789567298932 -0.014685534036462508 0 -0.0015867085786552936 -0.014621473455990283 0 -0.0016400858152704845 -0.014180071851496008 0 -0.0015867085786552936 -0.014621473455990283 0 -0.0015458494494160052 -0.014462789322914846 0 -0.0016400858152704845 -0.014180071851496008 0 -0.0013293511560504446 -0.014452825912791865 0 -0.0015458494494160052 -0.014462789322914846 0 -0.0013623320875016144 -0.014202266336661329 0 -0.0015458494494160052 -0.014462789322914846 0 -0.0013623320875016144 -0.014202266336661329 0 -0.0016400858152704845 -0.014180071851496008 0 -0.001237594899488469 -0.013747374277965251 0 -0.0013623320875016144 -0.014202266336661329 0 -0.0016400858152704845 -0.014180071851496008 0 -0.0015793630440566146 -0.014378447267247041 0 -0.0021439961561994076 -0.013404695339102725 0 -0.0016400858152704845 -0.014180071851496008 0 -0.0013778053219486619 -0.01319123079170367 0 -0.0019553261898549675 -0.012988432557960177 0 -0.001237594899488469 -0.013747374277965251 0 -0.0016400858152704845 -0.014180071851496008 0 -0.0013778053219486619 -0.01319123079170367 0 -0.0015648789567298932 -0.014685534036462508 0 -0.0016400858152704845 -0.014180071851496008 0 -0.001726963961803318 -0.014772202662803765 0 -0.00199622479750361 -0.013980294238501674 0 -0.0017825729009933611 -0.014050639120725718 0 -0.0018109684863538362 -0.013806426643859683 0 -0.0021439961561994076 -0.013404695339102725 0 -0.0016876441834808803 -0.01315325220200337 0 -0.0015847087927567517 -0.014795211014283473 0 -0.0015648789567298932 -0.014685534036462508 0 -0.001726963961803318 -0.014772202662803765 0 -0.0017666862055870569 -0.015360751980329324 0 -0.0021439961561994076 -0.013404695339102725 0 -0.0033120130891474281 -0.012478558278494246 0 -0.0024429085551683563 -0.01165427555302322 0 -0.0034780738606108759 -0.01095339298324652 0 -0.0016596942328873311 -0.012128072547132621 0 -0.0022446496627765719 -0.012869443398226568 0 -0.0024429085551683563 -0.01165427555302322 0 -0.0022446496627765719 -0.012869443398226568 0 -0.0033120130891474281 -0.012478558278494246 0 -0.0024429085551683563 -0.01165427555302322 0 -0.0019091656152330041 -0.012993439005532558 0 -0.0021439961561994076 -0.013404695339102725 0 -0.001892503335746389 -0.010504462004495273 0 -0.0024429085551683563 -0.01165427555302322 0 -0.0034780738606108759 -0.01095339298324652 0 -0.0017666862055870569 -0.015360751980329324 0 -0.0016876441834808803 -0.01315325220200337 0 -0.0016876441834808803 -0.01315325220200337 0 -0.00087384839355325995 -0.013475423113581733 0 -0.0006549922409314797 -0.015731998131186913 0 -0.00064702693971306245 -0.015611229858574903 0 -0.00076126291476894914 -0.015709403941818738 0 -0.0011820491548295313 -0.012106223618756932 0 -0.00043415061542681222 -0.011414029909010599 0 -0.0013090495707636057 -0.010985783603476558 0 -0.0016876441834808803 -0.01315325220200337 0 -0.0013534319891205853 -0.010482236872097034 0 -0.001892503335746389 -0.010504462004495273 0 -0.0034780738606108759 -0.01095339298324652 0 -0.0022351120680402336 -0.0099207915344550618 0 -0.00049353643452477709 -0.01062856651563821 0 -0.00097824530327838503 -0.010423719982470304 0 -0.0013090495707636057 -0.010985783603476558 0 -0.00043415061542681222 -0.011414029909010599 0 -0.00049353643452477709 -0.01062856651563821 0 -0.0013090495707636057 -0.010985783603476558 0 -0.00049353643452477709 -0.01062856651563821 0 -0.00050997070612737792 -0.010134310671739309 0 -0.00097824530327838503 -0.010423719982470304 0 -0.00050997070612737792 -0.010134310671739309 0 -0.0010549460608210279 -0.0099989865011699715 0 -0.00097824530327838503 -0.010423719982470304 0 -0.00087384839355325995 -0.013475423113581733 0 -0.0010111183445169999 -0.012578263676828527 0 -0.00064702693971306245 -0.015611229858574903 0 -0.00072634249958250974 -0.015525408807603702 0 -0.00057395497452705432 -0.01543310675764612 0 -0.00097824530327838503 -0.010423719982470304 0 -0.0013090495707636057 -0.010985783603476558 0 -0.0014519593186910745 -0.0098294750150200606 0 -0.0010549460608210279 -0.0099989865011699715 0 -0.00097824530327838503 -0.010423719982470304 0 -0.0014519593186910745 -0.0098294750150200606 0 -0.00064702693971306245 -0.015611229858574903 0 -0.00080923896620832601 -0.015593288963730514 0 -0.00076126291476894914 -0.015709403941818738 0 -0.00064702693971306245 -0.015611229858574903 0 -0.00072634249958250974 -0.015525408807603702 0 -0.00080923896620832601 -0.015593288963730514 0 -0.00072634249958250974 -0.015525408807603702 0 -0.00083880918699833417 -0.01541468715234909 0 -0.00057395497452705432 -0.01543310675764612 0 -0.00072634249958250974 -0.015525408807603702 0 -0.00080923896620832601 -0.015593288963730514 0 -0.00083880918699833417 -0.01541468715234909 0 -0.00080923896620832601 -0.015593288963730514 0 -0.00088494976274475104 -0.015492368764090608 0 -0.00083880918699833417 -0.01541468715234909 0 -0.00080923896620832601 -0.015593288963730514 0 -0.00076126291476894914 -0.015709403941818738 0 -0.00086483879110495123 -0.015695238919463995 0 -0.00076126291476894914 -0.015709403941818738 0 -0.000852991413687914 -0.015788575417819223 0 -0.00086483879110495123 -0.015695238919463995 0 -0.00073863570553697928 -0.015811487071690035 0 -0.0006549922409314797 -0.015731998131186913 0 -0.00076126291476894914 -0.015709403941818738 0 -0.00073863570553697928 -0.015811487071690035 0 -0.00076126291476894914 -0.015709403941818738 0 -0.000852991413687914 -0.015788575417819223 0 -0.0017666862055870569 -0.015360751980329324 0 -0.0015913430621540912 -0.016626789379249187 0 -0.0020444115653048159 -0.017374015698577019 0 -0.00059197649143444839 -0.017626664291964494 0 0.00032650113954361991 -0.018915252583973453 0 -0.000852991413687914 -0.015788575417819223 0 -0.00096171084086027296 -0.015770271244324521 0 -0.00086483879110495123 -0.015695238919463995 0 -0.0015913430621540912 -0.016626789379249187 0 0.00013313909161041476 -0.017856247335789971 0 -0.0014128709801009848 -0.016245275773217396 0 -0.0020444115653048159 -0.017374015698577019 0 -0.00059197649143444839 -0.017626664291964494 0 -0.00059197649143444839 -0.017626664291964494 0 0.00014840321126204922 -0.018071686721446944 0 0.00073831691203811662 -0.017469647569701329 0 0.00073831691203811662 -0.017469647569701329 0 0.0013356570592153009 -0.018806100355631357 0 0.00063314206268763899 -0.018306894396307189 0 0.00014840321126204922 -0.018071686721446944 0 0.00073831691203811662 -0.017469647569701329 0 0.00063314206268763899 -0.018306894396307189 0 0.0013356570592153009 -0.018806100355631357 0 0.00063314206268763899 -0.018306894396307189 0 0.00032650113954361991 -0.018915252583973453 0 -0.00059197649143444839 -0.017626664291964494 0 0.00014840321126204922 -0.018071686721446944 0 0.00032650113954361991 -0.018915252583973453 0 0.00014840321126204922 -0.018071686721446944 0 0.00063314206268763899 -0.018306894396307189 0 0.00032650113954361991 -0.018915252583973453 0 0.00013313909161041476 -0.017856247335789971 0 8.7891678639668064e-05 -0.018852703577224621 0 0.0012346305132701968 -0.019948834662104641 0 0.0018277051608634771 -0.021261935195181322 0 0.0010352459989415089 -0.02208414208990972 0 -0.00096171084086027296 -0.015770271244324521 0 -0.00086483879110495123 -0.015695238919463995 0 -0.00093369262400693235 -0.015642370542942388 0 -0.00080923896620832601 -0.015593288963730514 0 -0.00086483879110495123 -0.015695238919463995 0 -0.00093369262400693235 -0.015642370542942388 0 8.7891678639668064e-05 -0.018852703577224621 0 0.00023685544435821061 -0.019088316274586681 0 -0.00080923896620832601 -0.015593288963730514 0 -0.00093369262400693235 -0.015642370542942388 0 -0.00088494976274475104 -0.015492368764090608 0 0.0016868310236188373 -0.022586973865689575 0 0.0018679698600373674 -0.023326493253548301 0 0.0017185159402850968 -0.023207654146124711 0 0.0016868310236188373 -0.022586973865689575 0 0.0010352459989415089 -0.02208414208990972 0 0.0015305397687765596 -0.023078529561223717 0 0.0016868310236188373 -0.022586973865689575 0 0.0017185159402850968 -0.023207654146124711 0 0.0015305397687765596 -0.023078529561223717 0 0.0018277051608634771 -0.021261935195181322 0 0.0016868310236188373 -0.022586973865689575 0 0.0010352459989415089 -0.02208414208990972 0 0.0016868310236188373 -0.022586973865689575 0 0.0025054025227750762 -0.021484650669144064 0 0.003451927936791326 -0.022092834405437977 0 0.0018277051608634771 -0.021261935195181322 0 0.0016868310236188373 -0.022586973865689575 0 0.0025054025227750762 -0.021484650669144064 0 0.0019011621032650422 -0.023397258489809607 0 0.0025153350362256618 -0.023269629708680982 0 0.0018679698600373674 -0.023326493253548301 0 0.0011002817558103698 -0.023572866340624127 0 0.0012785369901484689 -0.024600132755033251 0 0.0016868310236188373 -0.022586973865689575 0 0.0018679698600373674 -0.023326493253548301 0 0.003451927936791326 -0.022092834405437977 0 0.00060128308389047831 -0.024471823455562699 0 0.0011002817558103698 -0.023572866340624127 0 0.0012785369901484689 -0.024600132755033251 0 0.00078498942943303496 -0.025302308883374133 0 0.00060128308389047831 -0.024471823455562699 0 0.0012785369901484689 -0.024600132755033251 0 0.0016560849500999158 -0.022543782443660378 0 0.0025153350362256618 -0.023269629708680982 0 0.005073751465472039 -0.020266850701372928 0 0.002765922106460008 -0.02026339216798724 0 0.0031337014442698553 -0.019090016434175332 0 0.005073751465472039 -0.020266850701372928 0 0.003451927936791326 -0.022092834405437977 0 0.002765922106460008 -0.02026339216798724 0 0.0016560849500999158 -0.022543782443660378 0 0.0011559186083676246 -0.017460241550739067 0 0.00013313909161041476 -0.017856247335789971 0 0.0030250811974559216 -0.020474866091063668 0 0.0025054025227750762 -0.021484650669144064 0 0.003451927936791326 -0.022092834405437977 0 0.002765922106460008 -0.02026339216798724 0 0.0012346305132701968 -0.019948834662104641 0 0.0018277051608634771 -0.021261935195181322 0 0.002765922106460008 -0.02026339216798724 0 0.0018277051608634771 -0.021261935195181322 0 0.0025054025227750762 -0.021484650669144064 0 0.002765922106460008 -0.02026339216798724 0 0.0013356570592153009 -0.018806100355631357 0 0.00032650113954361991 -0.018915252583973453 0 0.002765922106460008 -0.02026339216798724 0 -0.00015776489246119486 -0.016922991614315507 0 0.0011559186083676246 -0.017460241550739067 0 -0.00076412813748700809 -0.016153697411545976 0 -0.00066128731113352594 -0.016566153826493662 0 -0.00060373297998721827 -0.016323917316192524 0 -0.00076412813748700809 -0.016153697411545976 0 -0.0010389830614202776 -0.016271060496921248 0 -0.00066128731113352594 -0.016566153826493662 0 0.0013356570592153009 -0.018806100355631357 0 0.002765922106460008 -0.02026339216798724 0 0.0031337014442698553 -0.019090016434175332 0 0.00073831691203811662 -0.017469647569701329 0 0.0013356570592153009 -0.018806100355631357 0 0.0031337014442698553 -0.019090016434175332 0 -0.00053432939792507793 -0.016174779493841412 0 -0.00060373297998721827 -0.016323917316192524 0 -0.00041631312488455677 -0.016437403341829401 0 -0.00066128731113352594 -0.016566153826493662 0 -0.00060373297998721827 -0.016323917316192524 0 -0.00041631312488455677 -0.016437403341829401 0 -0.00020146965456938314 -0.016866911054912656 0 -0.00066128731113352594 -0.016566153826493662 0 -0.00041631312488455677 -0.016437403341829401 0 -0.00018191874606552909 -0.016491496804910348 0 -0.00032621755041537122 -0.016285500721945196 0 -0.00041631312488455677 -0.016437403341829401 0 -0.00018433615473387172 -0.021339560855328857 0 0.00052344897454417597 -0.021467576610616126 0 -0.00019118477744859132 -0.020157216748952336 0 0.00052344897454417597 -0.021467576610616126 0 0.0012714329457414013 -0.021328404739334332 0 0.0011041937147471847 -0.022278663515488278 0 0.00052344897454417597 -0.021467576610616126 0 0.0012714329457414013 -0.021328404739334332 0 0.00064093502888577618 -0.020263223188903678 0 0.0012714329457414013 -0.021328404739334332 0 0.0011041937147471847 -0.022278663515488278 0 0.0017360044075454433 -0.021985287602073467 0 0.00023185933615341419 -0.022332045116687672 0 0.00052344897454417597 -0.021467576610616126 0 0.0011041937147471847 -0.022278663515488278 0 0.00023185933615341419 -0.022332045116687672 0 0.0011041937147471847 -0.022278663515488278 0 0.00084663175125918489 -0.02291230993661366 0 0.00045259802097737437 -0.023500219532289198 0 0.0011002817558103698 -0.023572866340624127 0 0.00084663175125918489 -0.02291230993661366 0 0.0011002817558103698 -0.023572866340624127 0 0.00084663175125918489 -0.02291230993661366 0 0.0014645136561861833 -0.023063413284808688 0 0.0018679698600373674 -0.023326493253548301 0 0.0014645136561861833 -0.023063413284808688 0 0.0017185159402850968 -0.023207654146124711 0 0.0018679698600373674 -0.023326493253548301 0 0.0011002817558103698 -0.023572866340624127 0 0.0014645136561861833 -0.023063413284808688 0 0.0011041937147471847 -0.022278663515488278 0 0.00084663175125918489 -0.02291230993661366 0 0.0014645136561861833 -0.023063413284808688 0 0.0011041937147471847 -0.022278663515488278 0 0.0014645136561861833 -0.023063413284808688 0 0.0016590017197819248 -0.022735443430953947 0 0.0016590017197819248 -0.022735443430953947 0 0.0018756326315496428 -0.022995537191959094 0 0.0020109751139904173 -0.022423215664494192 0 0.0016590017197819248 -0.022735443430953947 0 0.0017185159402850968 -0.023207654146124711 0 0.0018756326315496428 -0.022995537191959094 0 0.0014645136561861833 -0.023063413284808688 0 0.0016590017197819248 -0.022735443430953947 0 0.0017185159402850968 -0.023207654146124711 0 0.0017185159402850968 -0.023207654146124711 0 0.0015305397687765596 -0.023078529561223717 0 0.0018756326315496428 -0.022995537191959094 0 0.0015305397687765596 -0.023078529561223717 0 0.0018756326315496428 -0.022995537191959094 0 0.0020256025857301172 -0.022929276246352222 0 0.00023685544435821061 -0.019088316274586681 0 0.001448441629754907 -0.020052764965030733 0 0.0015436046934556294 -0.022946814468863642 0 0.001448441629754907 -0.020052764965030733 0 0.0018756326315496428 -0.022995537191959094 0 0.0020109751139904173 -0.022423215664494192 0 0.0026252398899921218 -0.022590640677060229 0 0.0020109751139904173 -0.022423215664494192 0 0.0026252398899921218 -0.022590640677060229 0 0.0025626564670595329 -0.022314754404037164 0 0.0020109751139904173 -0.022423215664494192 0 0.0024385585291728721 -0.021781786513694872 0 0.0017360044075454433 -0.021985287602073467 0 0.0025626564670595329 -0.022314754404037164 0 0.0024385585291728721 -0.021781786513694872 0 0.0030921780851889008 -0.022219207478784999 0 0.0020109751139904173 -0.022423215664494192 0 0.0025626564670595329 -0.022314754404037164 0 0.0024385585291728721 -0.021781786513694872 0 0.0011041937147471847 -0.022278663515488278 0 0.0016590017197819248 -0.022735443430953947 0 0.0017360044075454433 -0.021985287602073467 0 0.0024385585291728721 -0.021781786513694872 0 0.0017360044075454433 -0.021985287602073467 0 0.0020059978787067322 -0.021287024179629317 0 0.0016590017197819248 -0.022735443430953947 0 0.0020109751139904173 -0.022423215664494192 0 0.0017360044075454433 -0.021985287602073467 0 0.0012714329457414013 -0.021328404739334332 0 0.0017360044075454433 -0.021985287602073467 0 0.0020059978787067322 -0.021287024179629317 0 0.0012714329457414013 -0.021328404739334332 0 0.0020059978787067322 -0.021287024179629317 0 0.0017078826544938467 -0.020359785002132418 0 0.0024385585291728721 -0.021781786513694872 0 0.002879613799199683 -0.020897607993218752 0 0.0030921780851889008 -0.022219207478784999 0 0.0024385585291728721 -0.021781786513694872 0 0.0020059978787067322 -0.021287024179629317 0 0.002879613799199683 -0.020897607993218752 0 0.00076565866958364667 -0.014399467855263718 0 0.0013183382857822614 -0.014525680262272658 0 0.00090921781528541322 -0.014926246101389776 0 0.0020994676167702757 -0.017971888079489556 0 0.00024709781677475931 -0.017217391004806681 0 -0.00013154619317131945 -0.010704697727230773 0 0.00024709781677475931 -0.017217391004806681 0 -0.00013154619317131945 -0.010704697727230773 0 -0.0011405344714842628 -0.011722904730008423 0 -0.000563536421289515 -0.014183477266629781 0 -0.001107144750069456 -0.014717728065517004 0 -0.00050663128608399797 -0.014904736862238907 0 0.0026252398899921218 -0.022590640677060229 0 0.0025626564670595329 -0.022314754404037164 0 0.0030921780851889008 -0.022219207478784999 0 0.001448441629754907 -0.020052764965030733 0 0.00024709781677475931 -0.017217391004806681 0 0.00024709781677475931 -0.017217391004806681 0 -0.0013087153311318394 -0.014459288698952808 0 -0.00082977994087884879 -0.015507841070077645 0 -0.00085098418851782347 -0.015537866332764886 0 -0.00083880918699833417 -0.01541468715234909 0 -0.00088494976274475104 -0.015492368764090608 0 -0.00082977994087884879 -0.015507841070077645 0 -0.00083880918699833417 -0.01541468715234909 0 -0.00083880918699833417 -0.01541468715234909 0 -0.00050663128608399797 -0.014904736862238907 0 -0.00057395497452705432 -0.01543310675764612 0 -0.001107144750069456 -0.014717728065517004 0 -0.00083880918699833417 -0.01541468715234909 0 -0.00050663128608399797 -0.014904736862238907 0 -0.0015491373554191951 -0.0085052484925283844 0 -0.00086957979271043309 -0.0092025593706686667 0 -0.00052314531228568584 -0.0084083143413975145 0 -0.0011405344714842628 -0.011722904730008423 0 -0.0010111183445169999 -0.012578263676828527 0 -0.0010549460608210279 -0.0099989865011699715 0 -0.0014519593186910745 -0.0098294750150200606 0 -0.00086957979271043309 -0.0092025593706686667 0 -0.0015491373554191951 -0.0085052484925283844 0 -0.0014519593186910745 -0.0098294750150200606 0 -0.00086957979271043309 -0.0092025593706686667 0 -0.00050997070612737792 -0.010134310671739309 0 -0.0010549460608210279 -0.0099989865011699715 0 -0.000125053630844254 -0.0094677323172767426 0 -0.001014610315960426 -0.0099563330519898234 0 1.2500669667708267e-05 -0.0094316106052790734 0 -0.0010549460608210279 -0.0099989865011699715 0 -0.00086957979271043309 -0.0092025593706686667 0 8.8797003047433085e-05 -0.0092814440905526572 0 -0.00086957979271043309 -0.0092025593706686667 0 -0.00052314531228568584 -0.0084083143413975145 0 8.8797003047433085e-05 -0.0092814440905526572 0 -0.00052314531228568584 -0.0084083143413975145 0 -0.00042140885119177257 -0.0075621486226434432 0 -0.0010905417639065784 -0.0078257563631831933 0 -0.0015611577803052576 -0.0073800764711399527 0 -0.0015491373554191951 -0.0085052484925283844 0 -0.0010905417639065784 -0.0078257563631831933 0 -0.0015491373554191951 -0.0085052484925283844 0 -0.00052314531228568584 -0.0084083143413975145 0 -0.0010905417639065784 -0.0078257563631831933 0 -0.00013154619317131945 -0.010704697727230773 0 -0.00015401792818076865 -0.0063220180126499379 0 -0.0015611577803052576 -0.0073800764711399527 0 -0.0010905417639065784 -0.0078257563631831933 0 -0.00077818992409068428 -0.0068470814480068041 0 -0.00042140885119177257 -0.0075621486226434432 0 -0.0010905417639065784 -0.0078257563631831933 0 -0.00077818992409068428 -0.0068470814480068041 0 -0.00042140885119177257 -0.0075621486226434432 0 -0.00077818992409068428 -0.0068470814480068041 0 -0.00030970527993224168 -0.007146940658571601 0 -0.00015401792818076865 -0.0063220180126499379 0 -0.00030293802230674992 -0.0069558375840318666 0 -0.00077818992409068428 -0.0068470814480068041 0 -0.00030970527993224168 -0.007146940658571601 0 -0.00030764398592894842 -0.0068910682211863646 0 -0.00077818992409068428 -0.0068470814480068041 0 -0.00030764398592894842 -0.0068910682211863646 0 -0.00015408855487180018 -0.0067928421255833409 0 0.00036320295964519162 -0.0066575008397553748 0 0.00017600886135860086 -0.0067500684205920288 0 0.00043404852840003475 -0.0069154000142903323 0 0.00017600886135860086 -0.0067500684205920288 0 0.00015995843150168955 -0.0069427031529419314 0 0.00043404852840003475 -0.0069154000142903323 0 0.00015995843150168955 -0.0069427031529419314 0 0.00018654223208070767 -0.0072010269057576626 0 0.00043404852840003475 -0.0069154000142903323 0 0.00015995843150168955 -0.0069427031529419314 0 -0.00015408855487180018 -0.0067928421255833409 0 -8.4336638881608709e-05 -0.00716021368284675 0 0.00017600886135860086 -0.0067500684205920288 0 0.00015995843150168955 -0.0069427031529419314 0 -0.00015408855487180018 -0.0067928421255833409 0 0.00015995843150168955 -0.0069427031529419314 0 0.00018654223208070767 -0.0072010269057576626 0 -8.4336638881608709e-05 -0.00716021368284675 0 7.0558599426767558e-06 -0.008472076854611035 0 9.8837926538877173e-05 -0.0091312476946877191 0 -8.4336638881608709e-05 -0.00716021368284675 0 -0.00011009193586819719 -0.0079455343712676752 0 -0.00012687459348804304 -0.0073831312713342938 0 7.0558599426767558e-06 -0.008472076854611035 0 2.9142199992713775e-07 -0.010409441424761441 0 -1.89391627223388e-07 -0.0083309086899291205 0 7.0558599426767558e-06 -0.008472076854611035 0 2.9142199992713775e-07 -0.010409441424761441 0 9.8837926538877173e-05 -0.0091312476946877191 0 2.9142199992713775e-07 -0.010409441424761441 0 9.8837926538877173e-05 -0.0091312476946877191 0 0.00012045112337429448 -0.010882526214977418 0 -0.00011009193586819719 -0.0079455343712676752 0 0.0007651847106227949 -0.01069667463327189 0 0.00018654223208070767 -0.0072010269057576626 0 0.00050475899861331455 -0.0073139836769666724 0 0.00043404852840003475 -0.0069154000142903323 0 0.0007651847106227949 -0.01069667463327189 0 0.00097109065937387546 -0.010399077394423055 0 2.9142199992713775e-07 -0.010409441424761441 0 0.00012045112337429448 -0.010882526214977418 0 9.8263075255622783e-05 -0.011245439917166589 0 2.9142199992713775e-07 -0.010409441424761441 0 9.8263075255622783e-05 -0.011245439917166589 0 -1.3836018318348918e-07 -0.012488482140845681 0 0.0007651847106227949 -0.01069667463327189 0 0.00060294960576111702 -0.010998987374714837 0 0.0001046354119927364 -0.011275990442210043 0 9.8263075255622783e-05 -0.011245439917166589 0 2.416503319036147e-05 -0.012511266282131211 0 0.0007651847106227949 -0.01069667463327189 0 0.00024973502467610822 -0.013005486098436776 0 9.8263075255622783e-05 -0.011245439917166589 0 -1.3836018318348918e-07 -0.012488482140845681 0 2.416503319036147e-05 -0.012511266282131211 0 0.0011804100578035606 -0.013534569954763464 0 0.00083075095376841971 -0.013488348186242602 0 0.0009328675908146241 -0.013861128308782718 0 0.00083075095376841971 -0.013488348186242602 0 0.0009328675908146241 -0.013861128308782718 0 0.00063093627744573535 -0.013900336492452436 0 0.0011804100578035606 -0.013534569954763464 0 0.0009328675908146241 -0.013861128308782718 0 0.0012519446721965235 -0.01401481874614066 0 -0.00013154619317131945 -0.010704697727230773 0 0.00097109065937387546 -0.010399077394423055 0 0.00076565866958364667 -0.014399467855263718 0 0.0013183382857822614 -0.014525680262272658 0 0.0012519446721965235 -0.01401481874614066 0 0.00076565866958364667 -0.014399467855263718 0 0.0009328675908146241 -0.013861128308782718 0 0.0012519446721965235 -0.01401481874614066 0 0.0020994676167702757 -0.017971888079489556 0 0.0016214757727629596 -0.016454948662082788 0 0.0020059978787067322 -0.021287024179629317 0 0.002879613799199683 -0.020897607993218752 0 0.0017078826544938467 -0.020359785002132418 0 0.002879613799199683 -0.020897607993218752 0 0.0017078826544938467 -0.020359785002132418 0 0.0025968825930428522 -0.019149728073010422 0 0.0017078826544938467 -0.020359785002132418 0 0.0025968825930428522 -0.019149728073010422 0 0.00087840575073315865 -0.018978966398234855 0 0.00076565866958364667 -0.014399467855263718 0 0.0009328675908146241 -0.013861128308782718 0 0.00063093627744573535 -0.013900336492452436 0 0.00083075095376841971 -0.013488348186242602 0 0.00063093627744573535 -0.013900336492452436 0 0.00049125498895892115 -0.013434768022936161 0 0.0016214757727629596 -0.016454948662082788 0 0.000665006292497525 -0.014761017261257428 0 -1.3836018318348918e-07 -0.012488482140845681 0 7.2275056519611303e-07 -0.014565210459447142 0 5.7956732704996413e-05 -0.013864331664547487 0 -1.3836018318348918e-07 -0.012488482140845681 0 2.416503319036147e-05 -0.012511266282131211 0 5.7956732704996413e-05 -0.013864331664547487 0 0.00024973502467610822 -0.013005486098436776 0 0.000665006292497525 -0.014761017261257428 0 0.00047743500011834859 -0.015824588645548386 0 3.0524639772597703e-06 -0.014569715615911255 0 -9.3821560535569596e-07 -0.015453034669127712 0 6.0563551608940279e-07 -0.014567290485334158 0 0.000665006292497525 -0.014761017261257428 0 0.00047743500011834859 -0.015824588645548386 0 3.0524639772597703e-06 -0.014569715615911255 0 0.00079247664457929464 -0.015710959079196053 0 0.00081160481447089281 -0.015281837977306078 0 0.000665006292497525 -0.014761017261257428 0 0.00047743500011834859 -0.015824588645548386 0 0.0017786618961558994 -0.016218370660616981 0 0.0011383353107236799 -0.017757951435930359 0 0.00047743500011834859 -0.015824588645548386 0 0.0011383353107236799 -0.017757951435930359 0 0.0001622838886145785 -0.016871782818036505 0 0.0025968825930428522 -0.019149728073010422 0 0.0017786618961558994 -0.016218370660616981 0 0.0011383353107236799 -0.017757951435930359 0 0.0025968825930428522 -0.019149728073010422 0 0.0011383353107236799 -0.017757951435930359 0 0.00087840575073315865 -0.018978966398234855 0 0.0011383353107236799 -0.017757951435930359 0 0.00019317273750976918 -0.017863101044077869 0 0.00087840575073315865 -0.018978966398234855 0 0.00019317273750976918 -0.017863101044077869 0 -0.00011615536014747986 -0.019019411892483983 0 0.00087840575073315865 -0.018978966398234855 0 0.0011383353107236799 -0.017757951435930359 0 0.00019317273750976918 -0.017863101044077869 0 0.0001622838886145785 -0.016871782818036505 0 8.4995842356025442e-08 -0.015454251549087005 0 -0.00020832188863183668 -0.017912029977298564 0 0.0001622838886145785 -0.016871782818036505 0 -9.3821560535569596e-07 -0.015453034669127712 0 -0.00054155173425504894 -0.01780836296030151 0 0.00019317273750976918 -0.017863101044077869 0 0.0001622838886145785 -0.016871782818036505 0 -0.00054155173425504894 -0.01780836296030151 0 0.00047743500011834859 -0.015824588645548386 0 0.0001622838886145785 -0.016871782818036505 0 -9.3821560535569596e-07 -0.015453034669127712 0 6.6669719692956869e-07 -0.01545455470450501 0 0.00022643268506792547 -0.018065848691794645 0 3.8398907374527789e-07 -0.017493010066698633 0 0.00019317273750976918 -0.017863101044077869 0 -0.00054155173425504894 -0.01780836296030151 0 -0.00011615536014747986 -0.019019411892483983 0 -0.00011615536014747986 -0.019019411892483983 0 0.00064093502888577618 -0.020263223188903678 0 -0.00019118477744859132 -0.020157216748952336 0 0.0017078826544938467 -0.020359785002132418 0 0.00087840575073315865 -0.018978966398234855 0 0.00064093502888577618 -0.020263223188903678 0 -0.00011615536014747986 -0.019019411892483983 0 0.00087840575073315865 -0.018978966398234855 0 0.00064093502888577618 -0.020263223188903678 0 0.0012714329457414013 -0.021328404739334332 0 0.0017078826544938467 -0.020359785002132418 0 0.00064093502888577618 -0.020263223188903678 0 0.00052344897454417597 -0.021467576610616126 0 0.00064093502888577618 -0.020263223188903678 0 -0.00019118477744859132 -0.020157216748952336 0 0.0005887484864688197 -0.0059930642906212096 0 0.000771105624237076 -0.0059713970975923914 0 0.00065388973566909894 -0.0062085048285170363 0 0.0005887484864688197 -0.0059930642906212096 0 0.00045964068300356108 -0.0061480066644808802 0 0.00065388973566909894 -0.0062085048285170363 0 0.0005887484864688197 -0.0059930642906212096 0 0.00045964068300356108 -0.0061480066644808802 0 0.00035752786794774255 -0.0059315279636510234 0 0.00045964068300356108 -0.0061480066644808802 0 0.00032561907081803782 -0.006102001268391357 0 0.00036713239320571755 -0.0062388895401113056 0 0.00047226022489987884 -0.0062247346605552086 0 0.00037898824264200433 -0.0063967986640216376 0 0.00032561907081803782 -0.006102001268391357 0 0.00036713239320571755 -0.0062388895401113056 0 0.00016027824924130647 -0.0061350841708997603 0 0.00037898824264200433 -0.0063967986640216376 0 0.00016751305674901886 -0.0061416848087197948 0 0.00032561907081803782 -0.006102001268391357 0 0.00035752786794774255 -0.0059315279636510234 0 0.00016027824924130647 -0.0061350841708997603 0 0.00045964068300356108 -0.0061480066644808802 0 0.00032561907081803782 -0.006102001268391357 0 0.00035752786794774255 -0.0059315279636510234 0 0.0011536181910876372 -0.0072368022869608211 0 0.0011352769709884489 -0.0069321128412369263 0 0.0017223372815044513 -0.0068485553746745267 0 0.0011536181910876372 -0.0072368022869608211 0 0.0011352769709884489 -0.0069321128412369263 0 0.00079420241909351937 -0.0072085347557397234 0 0.0005887484864688197 -0.0059930642906212096 0 0.00035752786794774255 -0.0059315279636510234 0 0.00070000944006518549 -0.0057073092053818572 0 0.00083268548842196574 -0.0066806124476848326 0 0.00054407674891893772 -0.0053447008642023347 0 0.0005887484864688197 -0.0059930642906212096 0 0.000771105624237076 -0.0059713970975923914 0 0.00070000944006518549 -0.0057073092053818572 0 0.0008337724915094076 -0.0050257302584492429 0 0.00054407674891893772 -0.0053447008642023347 0 0.00098506479982694091 -0.0058083588501625216 0 0.000771105624237076 -0.0059713970975923914 0 0.00070000944006518549 -0.0057073092053818572 0 0.00064504484474943555 -0.0041265367497784443 0 0.0007041064683450159 -0.0039989260264953414 0 0.00078076885715918135 -0.0041041974869140936 0 0.00083648076209521497 -0.0059971797257536725 0 0.0011513693112760524 -0.0038741261155729582 0 0.00098506479982694091 -0.0058083588501625216 0 0.00097671567710818242 -0.0061673390476804143 0 0.0012746284496842318 -0.0059067164589263034 0 0.00098506479982694091 -0.0058083588501625216 0 0.00097671567710818242 -0.0061673390476804143 0 0.000771105624237076 -0.0059713970975923914 0 0.00097671567710818242 -0.0061673390476804143 0 0.000771105624237076 -0.0059713970975923914 0 0.00065388973566909894 -0.0062085048285170363 0 0.00097671567710818242 -0.0061673390476804143 0 0.00068070088142260256 -0.0064162738754340101 0 0.00065388973566909894 -0.0062085048285170363 0 0.00076717296707294418 -0.0055219569637429584 0 0.00056508259848190863 -0.0062700306279176018 0 -0.00019386083658733935 -0.0063254258185088215 0 0.00083648076209521497 -0.0059971797257536725 0 0.00055659966003559613 -0.0068071251555296801 0 0.00076717296707294418 -0.0055219569637429584 0 0.0011594968145589098 -0.0058361458944579947 0 0.001767032295119546 -0.0055670181448436388 0 0.00076717296707294418 -0.0055219569637429584 0 0.0011594968145589098 -0.0058361458944579947 0 0.00056508259848190863 -0.0062700306279176018 0 0.0011594968145589098 -0.0058361458944579947 0 0.00056508259848190863 -0.0062700306279176018 0 0.0010345703944038415 -0.0063245319005108373 0 0.0012940663976604809 -0.0073609748856443427 0 0.00079241584800190587 -0.0078465783880523193 0 0.0019697308225024384 -0.0085738704824421339 0 0.0011158016061320521 -0.0065557938203154196 0 0.0010211813633358537 -0.0077205876167037229 0 0.00056508259848190863 -0.0062700306279176018 0 0.0010416294507410483 -0.0063303290936219166 0 0.00056393002699562603 -0.0067908451324568972 0 0.00066843240046623618 -0.0063663752846304968 0 0.0011158016061320521 -0.0065557938203154196 0 0.00085086514122262823 -0.0082592338549578263 0 0.0012607415305701097 -0.0078589193551534212 0 0.00077830964110332833 -0.0075618198861637786 0 0.0010211813633358537 -0.0077205876167037229 0 0.00055659966003559613 -0.0068071251555296801 0 0.00056508259848190863 -0.0062700306279176018 0 0.00056393002699562603 -0.0067908451324568972 0 -0.00019386083658733935 -0.0063254258185088215 0 0.00030603917421682253 -0.0075687851855699229 0 0.00075344843477806835 -0.007200075739387044 0 0.00031839844505231256 -0.0072760739322204025 0 0.00028127397190648977 -0.0081761698757696396 0 0.00055659966003559613 -0.0068071251555296801 0 0.00013618329301397122 -0.0080875827272015293 0 0.00039273197592904315 -0.0082530530252403755 0 0.00077830964110332833 -0.0075618198861637786 0 0.00068070088142260256 -0.0064162738754340101 0 0.00065388973566909894 -0.0062085048285170363 0 0.00036935720890873429 -0.0062273623450381285 0 0.00075344843477806835 -0.007200075739387044 0 0.00029313247980730341 -0.0069175807170146772 0 0.00031839844505231256 -0.0072760739322204025 0 0.00045964068300356108 -0.0061480066644808802 0 0.00065388973566909894 -0.0062085048285170363 0 0.00036935720890873429 -0.0062273623450381285 0 0.00055659966003559613 -0.0068071251555296801 0 0.00037898824264200433 -0.0063967986640216376 0 0.00029313247980730341 -0.0069175807170146772 0 0.00031839844505231256 -0.0072760739322204025 0 9.6370115566111175e-06 -0.0071750095284601649 0 0.00037898824264200433 -0.0063967986640216376 0 0.00024995117335438943 -0.0073846418630483506 0 0.00022967816318836598 -0.007519485190503418 0 0.00031839844505231256 -0.0072760739322204025 0 9.6370115566111175e-06 -0.0071750095284601649 0 0.00022967816318836598 -0.007519485190503418 0 0.00030603917421682253 -0.0075687851855699229 0 0.00031839844505231256 -0.0072760739322204025 0 -4.1956879398869367e-05 -0.0087357235865914724 0 0.00042481470222397268 -0.0086250294938544862 0 -0.00018842496725665175 -0.0082310429070715299 0 0.00026715199289630362 -0.0080601253688830192 0 0.00028634662165428283 -0.0080710860109323348 0 0.00027957590543801591 -0.0080753569533767635 0 0.00020129711770067673 -0.0081055472019304214 0 0.00024995117335438943 -0.0073846418630483506 0 0.00020129711770067673 -0.0081055472019304214 0 0.00046445747009645947 -0.0085390286382708968 0 0.00046445747009645947 -0.0085390286382708968 0 0.00024995117335438943 -0.0073846418630483506 0 0.0015913208000653731 -0.0094633628282939138 0 0.00053347404187280756 -0.0095495201820829431 0 0.00076395141156904872 -0.0089301349955894557 0 -0.00083377345625346589 -0.0088017970235044311 0 -4.1956879398869367e-05 -0.0087357235865914724 0 -0.00018842496725665175 -0.0082310429070715299 0 7.1836037158858396e-05 -0.0094677626213989889 0 0.00046445747009645947 -0.0085390286382708968 0 0.00093357600041417269 -0.010076488628144833 0 0.0015913208000653731 -0.0094633628282939138 0 0.00053347404187280756 -0.0095495201820829431 0 0.00048809666612062598 -0.0078374362292060514 0 0.00043857304556177483 -0.0078057506400211526 0 0.00047547092377945834 -0.0077775547073429818 0 0.00066665529806508655 -0.0083493545869533035 0 0.00038042172423816438 -0.007104747187291564 0 0.00046445747009645947 -0.0085390286382708968 0 0.00066665529806508655 -0.0083493545869533035 0 0.00040321104367786433 -0.0062855380034813032 0 0.0001635711878283618 -0.0065015237467171789 0 0.00016027824924130647 -0.0061350841708997603 0 0.00048809666612062598 -0.0078374362292060514 0 0.00050244461068258892 -0.0078220960777930643 0 0.00047547092377945834 -0.0077775547073429818 0 0.0001635711878283618 -0.0065015237467171789 0 0.00016027824924130647 -0.0061350841708997603 0 -2.72936801032384e-05 -0.0061804342251681396 0 0.00024995117335438943 -0.0073846418630483506 0 0.00038042172423816438 -0.007104747187291564 0 0.00010512487211060553 -0.010076374664642365 0 -0.000125053630844254 -0.0094677323172767426 0 0.00053347404187280756 -0.0095495201820829431 0 -0.000125053630844254 -0.0094677323172767426 0 0.00053347404187280756 -0.0095495201820829431 0 0.00076395141156904872 -0.0089301349955894557 0 1.2500669667708267e-05 -0.0094316106052790734 0 0.00066665529806508655 -0.0083493545869533035 0 0.00066665529806508655 -0.0083493545869533035 0 0.00011157087465874779 -0.0078401350458562769 0 -0.00052314531228568584 -0.0084083143413975145 0 8.8797003047433085e-05 -0.0092814440905526572 0 0.00041539826837355611 -0.0080869363026601342 0 8.8797003047433085e-05 -0.0092814440905526572 0 0.0011969377001169626 -0.0085918625692066319 0 0.00041539826837355611 -0.0080869363026601342 0 -0.00042140885119177257 -0.0075621486226434432 0 -0.00014612038925259868 -0.0076120349991156671 0 -0.0001406065642001057 -0.0073302881243321608 0 -0.00052314531228568584 -0.0084083143413975145 0 -0.00042140885119177257 -0.0075621486226434432 0 0.00041539826837355611 -0.0080869363026601342 0 -0.0003639752629685476 -0.0075786523276320465 0 0.00011157087465874779 -0.0078401350458562769 0 0.0001744508439016298 -0.0078185380758992781 0 -0.00014612038925259868 -0.0076120349991156671 0 0.00025516253755305114 -0.0075253560144632643 0 -0.00014612038925259868 -0.0076120349991156671 0 6.3967201746635368e-05 -0.0073769394248005783 0 0.00025516253755305114 -0.0075253560144632643 0 -0.00014612038925259868 -0.0076120349991156671 0 6.3967201746635368e-05 -0.0073769394248005783 0 -0.0001406065642001057 -0.0073302881243321608 0 6.3967201746635368e-05 -0.0073769394248005783 0 0.00025516253755305114 -0.0075253560144632643 0 0.00033665235816686281 -0.0072749699250753913 0 6.3967201746635368e-05 -0.0073769394248005783 0 4.4332577645295862e-05 -0.0070955544389482523 0 0.00033665235816686281 -0.0072749699250753913 0 4.4332577645295862e-05 -0.0070955544389482523 0 -0.0001406065642001057 -0.0073302881243321608 0 -0.00014384805989605756 -0.0069773171580487575 0 6.3967201746635368e-05 -0.0073769394248005783 0 4.4332577645295862e-05 -0.0070955544389482523 0 -0.0001406065642001057 -0.0073302881243321608 0 -0.00042140885119177257 -0.0075621486226434432 0 -0.0001406065642001057 -0.0073302881243321608 0 -0.00030970527993224168 -0.007146940658571601 0 -0.0001406065642001057 -0.0073302881243321608 0 -0.00030970527993224168 -0.007146940658571601 0 -0.00014384805989605756 -0.0069773171580487575 0 0.00053254587273106812 -0.0076295644502439672 0 0.00053731677130371819 -0.0073671941376151169 0 0.00079420241909351937 -0.0072085347557397234 0 0.0011536181910876372 -0.0072368022869608211 0 0.00053254587273106812 -0.0076295644502439672 0 0.00079420241909351937 -0.0072085347557397234 0 0.00035752786794774255 -0.0059315279636510234 0 0.00016027824924130647 -0.0061350841708997603 0 -2.72936801032384e-05 -0.0061804342251681396 0 0.00083268548842196574 -0.0066806124476848326 0 0.00038042172423816438 -0.007104747187291564 0 0.0001744508439016298 -0.0078185380758992781 0 0.00052211653598091122 -0.007615193036420686 0 0.00025516253755305114 -0.0075253560144632643 0 0.00052211653598091122 -0.007615193036420686 0 0.00047242452573469844 -0.0075369042558547372 0 0.00025516253755305114 -0.0075253560144632643 0 0.00038042172423816438 -0.007104747187291564 0 0.00048101147036178987 -0.0073098206937981776 0 0.00047242452573469844 -0.0075369042558547372 0 0.00025516253755305114 -0.0075253560144632643 0 0.00039836327213277491 -0.0074270507983412604 0 0.00025516253755305114 -0.0075253560144632643 0 0.00039836327213277491 -0.0074270507983412604 0 0.00033665235816686281 -0.0072749699250753913 0 0.00053254587273106812 -0.0076295644502439672 0 0.00047242452573469844 -0.0075369042558547372 0 0.00053731677130371819 -0.0073671941376151169 0 0.00039836327213277491 -0.0074270507983412604 0 0.00053731677130371819 -0.0073671941376151169 0 0.00033665235816686281 -0.0072749699250753913 0 0.00047242452573469844 -0.0075369042558547372 0 0.00039836327213277491 -0.0074270507983412604 0 0.00053731677130371819 -0.0073671941376151169 0 0.00053731677130371819 -0.0073671941376151169 0 0.00033665235816686281 -0.0072749699250753913 0 0.00060515348496411139 -0.0071554703412926171 0 0.00033665235816686281 -0.0072749699250753913 0 0.00048780796228311136 -0.0069834983825654371 0 0.00026513636231438641 -0.0069561691973307931 0 4.4332577645295862e-05 -0.0070955544389482523 0 0.00033665235816686281 -0.0072749699250753913 0 0.00026513636231438641 -0.0069561691973307931 0 0.00033665235816686281 -0.0072749699250753913 0 0.00048780796228311136 -0.0069834983825654371 0 0.00060515348496411139 -0.0071554703412926171 0 0.00060515348496411139 -0.0071554703412926171 0 0.00079420241909351937 -0.0072085347557397234 0 0.00079949295931782847 -0.0069225706659136977 0 0.00048780796228311136 -0.0069834983825654371 0 0.00060515348496411139 -0.0071554703412926171 0 0.00079949295931782847 -0.0069225706659136977 0 0.00053731677130371819 -0.0073671941376151169 0 0.00060515348496411139 -0.0071554703412926171 0 0.00079420241909351937 -0.0072085347557397234 0 0.0011352769709884489 -0.0069321128412369263 0 0.00079420241909351937 -0.0072085347557397234 0 0.00079949295931782847 -0.0069225706659136977 0 0.0011352769709884489 -0.0069321128412369263 0 0.00079949295931782847 -0.0069225706659136977 0 0.00096644963529937092 -0.0067323845013818537 0 0.00079949295931782847 -0.0069225706659136977 0 0.00096644963529937092 -0.0067323845013818537 0 0.00077734589065251878 -0.0066796702115640384 0 0.00096644963529937092 -0.0067323845013818537 0 0.00077734589065251878 -0.0066796702115640384 0 0.00079880002562061501 -0.0064310718449197921 0 0.00065785397166297189 -0.0065888217098528873 0 0.00077734589065251878 -0.0066796702115640384 0 0.0005547409351647388 -0.0067567818678994354 0 0.00065785397166297189 -0.0065888217098528873 0 0.00046465530814556339 -0.0064939332688673497 0 0.00079880002562061501 -0.0064310718449197921 0 0.00065785397166297189 -0.0065888217098528873 0 0.00077734589065251878 -0.0066796702115640384 0 0.00079880002562061501 -0.0064310718449197921 0 0.00048780796228311136 -0.0069834983825654371 0 0.00079949295931782847 -0.0069225706659136977 0 0.0005547409351647388 -0.0067567818678994354 0 0.00079949295931782847 -0.0069225706659136977 0 0.00077734589065251878 -0.0066796702115640384 0 0.0005547409351647388 -0.0067567818678994354 0 0.00048780796228311136 -0.0069834983825654371 0 0.0005547409351647388 -0.0067567818678994354 0 0.00026513636231438641 -0.0069561691973307931 0 0.00026513636231438641 -0.0069561691973307931 0 0.00020898741869557194 -0.0065880148618269662 0 3.3392078785566539e-05 -0.0068491250176377716 0 0.0005547409351647388 -0.0067567818678994354 0 0.00026513636231438641 -0.0069561691973307931 0 0.00020898741869557194 -0.0065880148618269662 0 0.00065785397166297189 -0.0065888217098528873 0 0.0005547409351647388 -0.0067567818678994354 0 0.00046465530814556339 -0.0064939332688673497 0 0.0005547409351647388 -0.0067567818678994354 0 0.00020898741869557194 -0.0065880148618269662 0 0.00046465530814556339 -0.0064939332688673497 0 4.8399906949248289e-05 -0.006012704102914909 0 -1.4604580420734178e-05 -0.0047327797812990379 0 -2.7509462662638009e-05 -0.0045792264586208744 0 2.8412002253978286e-05 -0.0058407650246290986 0 0.00030386145788013045 -0.0055605337773574383 0 0.00046465530814556339 -0.0064939332688673497 0 4.8399906949248289e-05 -0.006012704102914909 0 0.00079880002562061501 -0.0064310718449197921 0 4.8399906949248289e-05 -0.006012704102914909 0 -1.4604580420734178e-05 -0.0047327797812990379 0 -2.290850272306326e-05 -0.005106857839341377 0 0.00020898741869557194 -0.0065880148618269662 0 0.00046465530814556339 -0.0064939332688673497 0 4.8399906949248289e-05 -0.006012704102914909 0 -1.4604580420734178e-05 -0.0047327797812990379 0 -2.7509462662638009e-05 -0.0045792264586208744 0 -0.000337563836813674 -0.0044597980380974489 0 -1.4604580420734178e-05 -0.0047327797812990379 0 -9.6791500961080292e-05 -0.004479049150318967 0 -2.290850272306326e-05 -0.005106857839341377 0 -1.4604580420734178e-05 -0.0047327797812990379 0 -9.6791500961080292e-05 -0.004479049150318967 0 -0.00021880276530509611 -0.0036370331013145358 0 -0.00030764398592894842 -0.0068910682211863646 0 -0.00013939675150246293 -0.0066286326495582758 0 -0.00015408855487180018 -0.0067928421255833409 0 -0.00030764398592894842 -0.0068910682211863646 0 -0.00014384805989605756 -0.0069773171580487575 0 -0.00013939675150246293 -0.0066286326495582758 0 -0.00030970527993224168 -0.007146940658571601 0 -0.00030764398592894842 -0.0068910682211863646 0 -0.00014384805989605756 -0.0069773171580487575 0 0.00020898741869557194 -0.0065880148618269662 0 3.3392078785566539e-05 -0.0068491250176377716 0 -0.00013939675150246293 -0.0066286326495582758 0 -0.00014384805989605756 -0.0069773171580487575 0 3.3392078785566539e-05 -0.0068491250176377716 0 -0.00013939675150246293 -0.0066286326495582758 0 4.4332577645295862e-05 -0.0070955544389482523 0 -0.00014384805989605756 -0.0069773171580487575 0 3.3392078785566539e-05 -0.0068491250176377716 0 4.4332577645295862e-05 -0.0070955544389482523 0 0.00026513636231438641 -0.0069561691973307931 0 3.3392078785566539e-05 -0.0068491250176377716 0 0.00020898741869557194 -0.0065880148618269662 0 4.8399906949248289e-05 -0.006012704102914909 0 -0.00013939675150246293 -0.0066286326495582758 0 4.8399906949248289e-05 -0.006012704102914909 0 -0.00013939675150246293 -0.0066286326495582758 0 -0.00014354851779236876 -0.0065611281275680718 0 -0.00015408855487180018 -0.0067928421255833409 0 -8.4336638881608709e-05 -0.00716021368284675 0 -0.00014354851779236876 -0.0065611281275680718 0 -0.00013939675150246293 -0.0066286326495582758 0 -0.00015408855487180018 -0.0067928421255833409 0 -0.00014354851779236876 -0.0065611281275680718 0 7.0558599426767558e-06 -0.008472076854611035 0 -8.4336638881608709e-05 -0.00716021368284675 0 -0.00012478368565384157 -0.006844606349797608 0 4.8399906949248289e-05 -0.006012704102914909 0 -0.00014354851779236876 -0.0065611281275680718 0 -3.2951540712877423e-05 -0.0058585168382288746 0 -0.00012478368565384157 -0.006844606349797608 0 -0.00014354851779236876 -0.0065611281275680718 0 -3.2951540712877423e-05 -0.0058585168382288746 0 -8.4336638881608709e-05 -0.00716021368284675 0 -0.00012478368565384157 -0.006844606349797608 0 -0.00014354851779236876 -0.0065611281275680718 0 -0.00012478368565384157 -0.006844606349797608 0 -3.2951540712877423e-05 -0.0058585168382288746 0 -2.1483263706912507e-07 -0.0062524464933721791 0 -0.00012478368565384157 -0.006844606349797608 0 -1.89391627223388e-07 -0.0083309086899291205 0 -2.1483263706912507e-07 -0.0062524464933721791 0 7.0558599426767558e-06 -0.008472076854611035 0 -0.00012478368565384157 -0.006844606349797608 0 -1.89391627223388e-07 -0.0083309086899291205 0 -7.0464414641833816e-05 -0.0049135173120237905 0 -9.6791500961080292e-05 -0.004479049150318967 0 -0.00012268588182229691 -0.0040758112611481321 0 -7.0464414641833816e-05 -0.0049135173120237905 0 -9.6791500961080292e-05 -0.004479049150318967 0 -2.290850272306326e-05 -0.005106857839341377 0 -7.0464414641833816e-05 -0.0049135173120237905 0 -2.290850272306326e-05 -0.005106857839341377 0 -3.2951540712877423e-05 -0.0058585168382288746 0 4.8399906949248289e-05 -0.006012704102914909 0 -2.290850272306326e-05 -0.005106857839341377 0 -3.2951540712877423e-05 -0.0058585168382288746 0 -7.0464414641833816e-05 -0.0049135173120237905 0 -3.2951540712877423e-05 -0.0058585168382288746 0 -2.1483263706912507e-07 -0.0062524464933721791 0 -7.0464414641833816e-05 -0.0049135173120237905 0 -2.1483263706912507e-07 -0.0062524464933721791 0 -1.7035527741469491e-07 -0.0041741148282440597 0 -7.0464414641833816e-05 -0.0049135173120237905 0 -1.7035527741469491e-07 -0.0041741148282440597 0 -0.00012268588182229691 -0.0040758112611481321 0 -1.7035527741469491e-07 -0.0041741148282440597 0 -0.00024071009209850489 -0.0029878238327216027 0 -0.00012268588182229691 -0.0040758112611481321 0 -1.7035527741469491e-07 -0.0041741148282440597 0 -0.00024071009209850489 -0.0029878238327216027 0 -6.2258170242422532e-07 -0.0020958376797024321 0 -0.00024071009209850489 -0.0029878238327216027 0 -0.00030601954834404008 -0.0030591032448518585 0 -0.00031970377680342276 -0.0025777527628814312 0 -0.00024071009209850489 -0.0029878238327216027 0 -0.00012268588182229691 -0.0040758112611481321 0 -0.00021880276530509611 -0.0036370331013145358 0 -9.6791500961080292e-05 -0.004479049150318967 0 -0.00012268588182229691 -0.0040758112611481321 0 -0.00021880276530509611 -0.0036370331013145358 0 -3.9935136778211224e-05 -0.0045666426300620122 0 -0.00042134785236157301 -0.0038357828810734241 0 -1.4604580420734178e-05 -0.0047327797812990379 0 -0.00021880276530509611 -0.0036370331013145358 0 -0.00028222466540946372 -0.0031303209196719989 0 -0.00024071009209850489 -0.0029878238327216027 0 -0.00021880276530509611 -0.0036370331013145358 0 -0.00030601954834404008 -0.0030591032448518585 0 -0.00030601954834404008 -0.0030591032448518585 0 -0.00033344407203081405 -0.0027785131335871932 0 -0.00031970377680342276 -0.0025777527628814312 0 -0.00030601954834404008 -0.0030591032448518585 0 -0.00033344407203081405 -0.0027785131335871932 0 -0.00028222466540946372 -0.0031303209196719989 0 -0.00021880276530509611 -0.0036370331013145358 0 -0.00030601954834404008 -0.0030591032448518585 0 -0.00028222466540946372 -0.0031303209196719989 0 -0.00042134785236157301 -0.0038357828810734241 0 -0.00010190130825769481 -0.0035319956939405123 0 0.00052395337310105544 -0.0055745102363958417 0 0.00054407674891893772 -0.0053447008642023347 0 -0.00033344407203081405 -0.0027785131335871932 0 -0.00028222466540946372 -0.0031303209196719989 0 -0.00033566018861509028 -0.0025542818337326435 0 -0.000337563836813674 -0.0044597980380974489 0 -0.00039784488696588394 -0.0043956129373758559 0 -0.00043437483862338803 -0.0044132523243612899 0 -0.000337563836813674 -0.0044597980380974489 0 -0.00029580086797076344 -0.0044197924796227691 0 -0.00039784488696588394 -0.0043956129373758559 0 0.0011352769709884489 -0.0069321128412369263 0 0.0012531030769267889 -0.0066731934357452463 0 0.0017223372815044513 -0.0068485553746745267 0 -2.7509462662638009e-05 -0.0045792264586208744 0 -0.000337563836813674 -0.0044597980380974489 0 -0.00029580086797076344 -0.0044197924796227691 0 0.00096644963529937092 -0.0067323845013818537 0 0.00079880002562061501 -0.0064310718449197921 0 0.0012531030769267889 -0.0066731934357452463 0 0.00030386145788013045 -0.0055605337773574383 0 0.00052395337310105544 -0.0055745102363958417 0 0.0011352769709884489 -0.0069321128412369263 0 0.00096644963529937092 -0.0067323845013818537 0 0.0012531030769267889 -0.0066731934357452463 0 -0.00029282178683566446 -0.002514615615632862 0 2.5568983778432911e-06 -0.0028415539800399673 0 -0.00051019035673956778 -0.0026458258895822595 0 -0.00029282178683566446 -0.002514615615632862 0 -4.5141895817627191e-05 -0.0024443015750360095 0 -0.00024118975302632781 -0.0022610652883942916 0 -0.00029282178683566446 -0.002514615615632862 0 -4.5141895817627191e-05 -0.0024443015750360095 0 2.5568983778432911e-06 -0.0028415539800399673 0 -4.5141895817627191e-05 -0.0024443015750360095 0 2.5568983778432911e-06 -0.0028415539800399673 0 0.00033774058526026289 -0.0023948073234572108 0 0.00064504484474943555 -0.0041265367497784443 0 0.0007041064683450159 -0.0039989260264953414 0 0.0005161078387795105 -0.0039560499041153812 0 0.00034723412187118375 -0.0034162358058334292 0 -0.00010190130825769481 -0.0035319956939405123 0 0.00064504484474943555 -0.0041265367497784443 0 0.0003903628344435041 -0.0040389818818986735 0 0.0005161078387795105 -0.0039560499041153812 0 0.00054407674891893772 -0.0053447008642023347 0 -0.00010190130825769481 -0.0035319956939405123 0 -0.00029282178683566446 -0.002514615615632862 0 -0.00033566018861509028 -0.0025542818337326435 0 -0.00032832636877682325 -0.0025133309139898415 0 -6.3484117880175568e-05 -0.0030808732458589535 0 -0.00010190130825769481 -0.0035319956939405123 0 -0.00029282178683566446 -0.002514615615632862 0 -0.00032832636877682325 -0.0025133309139898415 0 -0.00024118975302632781 -0.0022610652883942916 0 -0.00033344407203081405 -0.0027785131335871932 0 -0.00033566018861509028 -0.0025542818337326435 0 -0.00032832636877682325 -0.0025133309139898415 0 -0.00033344407203081405 -0.0027785131335871932 0 -0.00032832636877682325 -0.0025133309139898415 0 -0.00031970377680342276 -0.0025777527628814312 0 -0.00032832636877682325 -0.0025133309139898415 0 -0.00024038959212450877 -0.0020741973917521163 0 -0.00024118975302632781 -0.0022610652883942916 0 -0.00032832636877682325 -0.0025133309139898415 0 -0.00031970377680342276 -0.0025777527628814312 0 -0.00024038959212450877 -0.0020741973917521163 0 -0.00024038959212450877 -0.0020741973917521163 0 -0.00024118975302632781 -0.0022610652883942916 0 -0.00010948154737797928 -0.0015233713602254564 0 -0.00024118975302632781 -0.0022610652883942916 0 -2.9425890521387322e-06 -0.0020167683494304619 0 -0.00010948154737797928 -0.0015233713602254564 0 -4.5141895817627191e-05 -0.0024443015750360095 0 -0.00024118975302632781 -0.0022610652883942916 0 -2.9425890521387322e-06 -0.0020167683494304619 0 -4.5141895817627191e-05 -0.0024443015750360095 0 -2.9425890521387322e-06 -0.0020167683494304619 0 0.00033774058526026289 -0.0023948073234572108 0 -2.9425890521387322e-06 -0.0020167683494304619 0 -0.00010948154737797928 -0.0015233713602254564 0 0.00017581044911028443 -0.0013136681988306022 0 -0.00010948154737797928 -0.0015233713602254564 0 1.8700167321823359e-05 -0.00060223157779094915 0 0.00017581044911028443 -0.0013136681988306022 0 -0.00010948154737797928 -0.0015233713602254564 0 1.8700167321823359e-05 -0.00060223157779094915 0 -0.00016642351257084182 -0.0017224750482714847 0 -0.00024038959212450877 -0.0020741973917521163 0 -0.00010948154737797928 -0.0015233713602254564 0 -0.00016642351257084182 -0.0017224750482714847 0 -0.00024071009209850489 -0.0029878238327216027 0 -0.00031970377680342276 -0.0025777527628814312 0 -0.00016642351257084182 -0.0017224750482714847 0 -0.00031970377680342276 -0.0025777527628814312 0 -0.00024038959212450877 -0.0020741973917521163 0 -0.00016642351257084182 -0.0017224750482714847 0 -0.00024071009209850489 -0.0029878238327216027 0 -0.00016642351257084182 -0.0017224750482714847 0 -6.2258170242422532e-07 -0.0020958376797024321 0 -0.00016642351257084182 -0.0017224750482714847 0 -6.2258170242422532e-07 -0.0020958376797024321 0 5.1602654444296356e-07 -1.686857643947942e-05 0 1.8700167321823359e-05 -0.00060223157779094915 0 -0.00016642351257084182 -0.0017224750482714847 0 5.1602654444296356e-07 -1.686857643947942e-05 0 5.1602654444296356e-07 -1.686857643947942e-05 0 3.145646047224325e-07 0.0020613857801087352 0 0.0005261179781354074 0.00068187860929962141 0 1.8700167321823359e-05 -0.00060223157779094915 0 5.1602654444296356e-07 -1.686857643947942e-05 0 0.0005261179781354074 0.00068187860929962141 0 3.145646047224325e-07 0.0020613857801087352 0 0.0005261179781354074 0.00068187860929962141 0 -7.6750989905249292e-05 0.0024856806064333789 0 9.6804988272906426e-05 0.0023708570816283617 0 0.0005261179781354074 0.00068187860929962141 0 -7.6750989905249292e-05 0.0024856806064333789 0 0.00062062966724464998 0.0008031655412764077 0 0.0011100940437870535 0.00067534566693531973 0 9.6804988272906426e-05 0.0023708570816283617 0 0.0005261179781354074 0.00068187860929962141 0 0.00043688048774862616 0.0031766494198161551 0 0.0005261179781354074 0.00068187860929962141 0 0.00095247010421347234 -0.001956901914070234 0 0.00017581044911028443 -0.0013136681988306022 0 1.8700167321823359e-05 -0.00060223157779094915 0 0.0005261179781354074 0.00068187860929962141 0 0.00017581044911028443 -0.0013136681988306022 0 -2.5453270452549019e-07 0.0041406838010287755 0 -9.8897956796198448e-05 0.0032469758440235824 0 -4.4634598617197038e-05 0.0041441901067204726 0 3.145646047224325e-07 0.0020613857801087352 0 -2.5453270452549019e-07 0.0041406838010287755 0 -9.8897956796198448e-05 0.0032469758440235824 0 3.145646047224325e-07 0.0020613857801087352 0 -9.8897956796198448e-05 0.0032469758440235824 0 -7.6750989905249292e-05 0.0024856806064333789 0 9.6804988272906426e-05 0.0023708570816283617 0 -7.6750989905249292e-05 0.0024856806064333789 0 -0.00014858883079902434 0.002959396196883853 0 -7.6750989905249292e-05 0.0024856806064333789 0 -0.00022986041572227377 0.0033587516262183251 0 -0.00014858883079902434 0.002959396196883853 0 -0.00022986041572227377 0.0033587516262183251 0 -0.00023155277112827833 0.0032195075034805016 0 -0.00014858883079902434 0.002959396196883853 0 -9.8897956796198448e-05 0.0032469758440235824 0 -7.6750989905249292e-05 0.0024856806064333789 0 -0.00022986041572227377 0.0033587516262183251 0 -9.8897956796198448e-05 0.0032469758440235824 0 -0.00022986041572227377 0.0033587516262183251 0 -4.4634598617197038e-05 0.0041441901067204726 0 -0.00022986041572227377 0.0033587516262183251 0 -4.4634598617197038e-05 0.0041441901067204726 0 -2.1323079926336803e-06 0.0036397175518641631 0 0.0014570212097345604 0.0066900027995116422 0 0.00079160080590785992 0.0069423586203189776 0 0.00097191740008353356 0.0062383323247214781 0 0.00088468578090824385 0.004383912278644958 0 0.00040652613844330271 0.0050027736764079898 0 -0.00022986041572227377 0.0033587516262183251 0 -0.0002022187942556721 0.0033451976874888044 0 -2.1323079926336803e-06 0.0036397175518641631 0 -0.0002022187942556721 0.0033451976874888044 0 -0.00022856948817945454 0.0031399760349190738 0 -2.1323079926336803e-06 0.0036397175518641631 0 -0.00022986041572227377 0.0033587516262183251 0 -0.0002022187942556721 0.0033451976874888044 0 -0.00023155277112827833 0.0032195075034805016 0 -0.0002022187942556721 0.0033451976874888044 0 -0.00022856948817945454 0.0031399760349190738 0 -0.00026688405564761412 0.0032619883571680911 0 -0.0003215446157624412 0.003373420657338093 0 -1.42960289980435e-06 0.003375852331926288 0 -0.00014651041403771791 0.0032389153638668474 0 -0.0003215446157624412 0.003373420657338093 0 -0.00026688405564761412 0.0032619883571680911 0 -0.00014651041403771791 0.0032389153638668474 0 0.00088468578090824385 0.004383912278644958 0 0.00070192674847322314 0.0038395075096005937 0 -0.0002022187942556721 0.0033451976874888044 0 -0.00026688405564761412 0.0032619883571680911 0 -0.00023155277112827833 0.0032195075034805016 0 -0.00023155277112827833 0.0032195075034805016 0 -0.00014858883079902434 0.002959396196883853 0 -0.00014651041403771791 0.0032389153638668474 0 -0.00026688405564761412 0.0032619883571680911 0 -0.00023155277112827833 0.0032195075034805016 0 -0.00014651041403771791 0.0032389153638668474 0 -0.00014858883079902434 0.002959396196883853 0 -0.00014651041403771791 0.0032389153638668474 0 2.3871025636638539e-05 0.0031003487557075219 0 9.6804988272906426e-05 0.0023708570816283617 0 -0.00014858883079902434 0.002959396196883853 0 2.3871025636638539e-05 0.0031003487557075219 0 -1.42960289980435e-06 0.003375852331926288 0 -0.00014651041403771791 0.0032389153638668474 0 2.3871025636638539e-05 0.0031003487557075219 0 0.0014322560038568153 0.0027126681009866879 0 0.00091881526130457088 0.0017110739887938326 0 0.001344192721546274 0.0013539157440849007 0 -0.0003215446157624412 0.003373420657338093 0 -1.42960289980435e-06 0.003375852331926288 0 1.9625384454892071e-05 0.0037272111795624736 0 0.0014322560038568153 0.0027126681009866879 0 0.00045540476254892219 0.0019047037687820736 0 0.00091881526130457088 0.0017110739887938326 0 0.00088468578090824385 0.004383912278644958 0 0.00063097811810028013 0.00031287360346726913 0 0.0014322560038568153 0.0027126681009866879 0 0.001344192721546274 0.0013539157440849007 0 0.0018757020935802544 0.0011609466652328778 0 0.0014570212097345604 0.0066900027995116422 0 0.0011738183606024258 0.0074730320307847013 0 0.00079160080590785992 0.0069423586203189776 0 0.00088468578090824385 0.004383912278644958 0 0.0016064336786703246 0.0042648184476730732 0 0.00095247010421347234 -0.001956901914070234 0 0.00017581044911028443 -0.0013136681988306022 0 0.00033774058526026289 -0.0023948073234572108 0 -2.9425890521387322e-06 -0.0020167683494304619 0 0.00017581044911028443 -0.0013136681988306022 0 0.00033774058526026289 -0.0023948073234572108 0 0.0005261179781354074 0.00068187860929962141 0 0.00095247010421347234 -0.001956901914070234 0 0.0018123410494938826 -0.0016556366223987051 0 9.6804988272906426e-05 0.0023708570816283617 0 0.00043688048774862616 0.0031766494198161551 0 2.3871025636638539e-05 0.0031003487557075219 0 -1.42960289980435e-06 0.003375852331926288 0 0.00043688048774862616 0.0031766494198161551 0 2.3871025636638539e-05 0.0031003487557075219 0 0.00095247010421347234 -0.001956901914070234 0 0.0018123410494938826 -0.0016556366223987051 0 0.0016867399260295708 -0.0024648692350307416 0 0.00095247010421347234 -0.001956901914070234 0 0.0014749798507746096 -0.0029105548783078033 0 0.0016867399260295708 -0.0024648692350307416 0 0.00063097811810028013 0.00031287360346726913 0 0.0011100940437870535 0.00067534566693531973 0 0.0024401691001208923 -0.0033345051412080515 0 0.0018123410494938826 -0.0016556366223987051 0 0.0016867399260295708 -0.0024648692350307416 0 -1.42960289980435e-06 0.003375852331926288 0 1.9625384454892071e-05 0.0037272111795624736 0 0.00043688048774862616 0.0031766494198161551 0 0.0024401691001208923 -0.0033345051412080515 0 0.0014749798507746096 -0.0029105548783078033 0 0.0016867399260295708 -0.0024648692350307416 0 0.0024401691001208923 -0.0033345051412080515 0 0.001663289740672212 -0.0034289051995992415 0 0.0017882448376245776 -0.0038421792289914146 0 0.0024401691001208923 -0.0033345051412080515 0 0.0014749798507746096 -0.0029105548783078033 0 0.001663289740672212 -0.0034289051995992415 0 0.00063097811810028013 0.00031287360346726913 0 0.0010812027596050172 -0.0012838305366909115 0 0.0014749798507746096 -0.0029105548783078033 0 0.001663289740672212 -0.0034289051995992415 0 0.00095636956240914128 -0.0036285626542799541 0 0.00095247010421347234 -0.001956901914070234 0 0.0007310153352784117 -0.0031037570434278685 0 0.00033774058526026289 -0.0023948073234572108 0 0.00090881880555409016 -0.0021594705510806877 0 0.0011704454490741832 -0.003105264770332735 0 0.00095247010421347234 -0.001956901914070234 0 0.0014749798507746096 -0.0029105548783078033 0 0.00095636956240914128 -0.0036285626542799541 0 0.00095247010421347234 -0.001956901914070234 0 0.0007310153352784117 -0.0031037570434278685 0 0.00084671461524883163 -0.0031346184365783633 0 0.001076857184288264 -0.0032965187837027728 0 0.0011704454490741832 -0.003105264770332735 0 0.0007041064683450159 -0.0039989260264953414 0 0.00088983544944529495 -0.0040414602729696878 0 0.00078076885715918135 -0.0041041974869140936 0 0.00034723412187118375 -0.0034162358058334292 0 0.001076857184288264 -0.0032965187837027728 0 2.5568983778432911e-06 -0.0028415539800399673 0 0.0007310153352784117 -0.0031037570434278685 0 0.00033774058526026289 -0.0023948073234572108 0 0.00064504484474943555 -0.0041265367497784443 0 0.00078076885715918135 -0.0041041974869140936 0 0.00089504727026863229 -0.0042092860883092571 0 0.0008337724915094076 -0.0050257302584492429 0 0.0011513693112760524 -0.0038741261155729582 0 0.00088983544944529495 -0.0040414602729696878 0 0.00078076885715918135 -0.0041041974869140936 0 0.00086406108258106271 -0.0041212002396979119 0 0.0011704454490741832 -0.003105264770332735 0 0.0011559817550042301 -0.0031172723657260674 0 0.0011127938655178784 -0.0032193832646191926 0 0.0010899626478380897 -0.0032132256462617682 0 0.0010943875703261492 -0.0031227871611048856 0 0.00088983544944529495 -0.0040414602729696878 0 0.00086406108258106271 -0.0041212002396979119 0 0.00091139306595732232 -0.0041507438665370879 0 0.001076857184288264 -0.0032965187837027728 0 0.0011559817550042301 -0.0031172723657260674 0 0.0011559817550042301 -0.0031172723657260674 0 0.0012113923409991674 -0.0028293207851088683 0 0.00091139306595732232 -0.0041507438665370879 0 0.00089504727026863229 -0.0042092860883092571 0 0.00091917033551185048 -0.004188527800547015 0 0.00086406108258106271 -0.0041212002396979119 0 0.00091139306595732232 -0.0041507438665370879 0 0.00089504727026863229 -0.0042092860883092571 0 0.0011513693112760524 -0.0038741261155729582 0 0.0009838889340288814 -0.0028182691504965562 0 0.0011513693112760524 -0.0038741261155729582 0 0.0012113923409991674 -0.0028293207851088683 0 0.0012659437852634448 -0.0035288644657193598 0 0.0011941648697094494 -0.0035861635824498013 0 0.0011756224833112509 -0.0034926921454262088 0 0.0012113923409991674 -0.0028293207851088683 0 0.0009838889340288814 -0.0028182691504965562 0 0.00033506031980562429 0.00025315076657581915 0 0.00035074847783859157 0.00017290631457957941 0 0.0004379372998313652 0.00014191461192756858 0 0.0009838889340288814 -0.0028182691504965562 0 0.00060036344884418233 -0.0024150381832921748 0 0.00078076885715918135 -0.0041041974869140936 0 0.00086406108258106271 -0.0041212002396979119 0 0.00089504727026863229 -0.0042092860883092571 0 0.00100704007700427 -0.002116124333740403 0 0.00075914924852048564 -0.0039544143621321175 0 0.0013745605024224972 -0.0040477980289347903 0 0.0017476569030772113 -0.004693281828840397 0 0.0018700115838142623 -0.004739928708172832 0 0.001767032295119546 -0.0055670181448436388 0 0.00076717296707294418 -0.0055219569637429584 0 0.0017476569030772113 -0.004693281828840397 0 0.001767032295119546 -0.0055670181448436388 0 0.0009838889340288814 -0.0028182691504965562 0 0.0012744120672423425 -0.0046750774467082265 0 0.00034802096497436652 0.00017546018122277011 0 0.0004379372998313652 0.00014191461192756858 0 0.00042029684678499918 -0.00040114851740201781 0 0.0009838889340288814 -0.0028182691504965562 0 0.00074312268490203562 -0.0013779395388902442 0 0.00065315112300810005 -4.8379345886770931e-05 0 0.0004379372998313652 0.00014191461192756858 0 0.00042029684678499918 -0.00040114851740201781 0 0.00087609644644922235 -5.5845444202363685e-05 0 0.0011075546102309996 -0.00029594116592390079 0 0.00078751757114240643 -0.00041407800519509047 0 0.00065315112300810005 -4.8379345886770931e-05 0 0.00087609644644922235 -5.5845444202363685e-05 0 0.00078751757114240643 -0.00041407800519509047 0 0.00065315112300810005 -4.8379345886770931e-05 0 0.00042029684678499918 -0.00040114851740201781 0 0.00078751757114240643 -0.00041407800519509047 0 0.00065315112300810005 -4.8379345886770931e-05 0 0.0004379372998313652 0.00014191461192756858 0 0.00064979418673927745 0.00020745275361381529 0 0.00065315112300810005 -4.8379345886770931e-05 0 0.00087609644644922235 -5.5845444202363685e-05 0 0.00083004498915129738 0.00019863049758124274 0 0.00087609644644922235 -5.5845444202363685e-05 0 0.00083004498915129738 0.00019863049758124274 0 0.0010842762149733292 2.0026545892396729e-06 0 0.00065315112300810005 -4.8379345886770931e-05 0 0.00083004498915129738 0.00019863049758124274 0 0.00064979418673927745 0.00020745275361381529 0 0.00083004498915129738 0.00019863049758124274 0 0.00067788827715102194 0.0005318926681275849 0 0.0010807804897383542 0.00043051956868235612 0 0.00083004498915129738 0.00019863049758124274 0 0.00064979418673927745 0.00020745275361381529 0 0.00067788827715102194 0.0005318926681275849 0 0.0004379372998313652 0.00014191461192756858 0 0.00064979418673927745 0.00020745275361381529 0 0.00067788827715102194 0.0005318926681275849 0 0.00033506031980562429 0.00025315076657581915 0 0.0004379372998313652 0.00014191461192756858 0 0.00067788827715102194 0.0005318926681275849 0 0.0010440304086205283 -0.0024678674680234094 0 0.0010545125223163278 -0.0025223352332872698 0 0.0012369450096998507 -0.0023696345011180492 0 0.0012113923409991674 -0.0028293207851088683 0 0.0010812027596050172 -0.0012838305366909115 0 0.001663289740672212 -0.0034289051995992415 0 0.00095636956240914128 -0.0036285626542799541 0 0.0017882448376245776 -0.0038421792289914146 0 0.0010512669817503337 -0.0023249731803692639 0 0.0010440304086205283 -0.0024678674680234094 0 0.0012369450096998507 -0.0023696345011180492 0 0.0011704454490741832 -0.003105264770332735 0 0.0010812027596050172 -0.0012838305366909115 0 0.0010812027596050172 -0.0012838305366909115 0 0.00072663740364126768 0.00048202362156679325 0 0.00078355141874950475 -0.00030602460120574958 0 0.00091778546705421655 -0.00020196538414797376 0 0.00071042761909553137 -0.00014221349072319163 0 0.00045540476254892219 0.0019047037687820736 0 0.00091881526130457088 0.0017110739887938326 0 0.00075851729965588409 0.0012496517698286508 0 0.00075851729965588409 0.0012496517698286508 0 0.001344192721546274 0.0013539157440849007 0 0.0014856493072402646 -0.00026014219011773453 0 0.00063097811810028013 0.00031287360346726913 0 0.00072663740364126768 0.00048202362156679325 0 0.00091881526130457088 0.0017110739887938326 0 0.00075851729965588409 0.0012496517698286508 0 0.00095217007594080075 0.0013891359810946904 0 0.00091881526130457088 0.0017110739887938326 0 0.001344192721546274 0.0013539157440849007 0 0.00095217007594080075 0.0013891359810946904 0 0.00075851729965588409 0.0012496517698286508 0 0.001344192721546274 0.0013539157440849007 0 0.00095217007594080075 0.0013891359810946904 0 0.00083004498915129738 0.00019863049758124274 0 0.0010807804897383542 0.00043051956868235612 0 0.0010842762149733292 2.0026545892396729e-06 0 0.001344192721546274 0.0013539157440849007 0 0.0018757020935802544 0.0011609466652328778 0 0.0014856493072402646 -0.00026014219011773453 0 0.0016064336786703246 0.0042648184476730732 0 0.0014731578346625792 0.0044301025512922315 0 0.0018757020935802544 0.0011609466652328778 0 0.0022079640628511784 -0.00027101860597502015 0 0.0014856493072402646 -0.00026014219011773453 0 0.00072663740364126768 0.00048202362156679325 0 0.0014805816694337497 -8.3416148281202125e-05 0 0.0010807804897383542 0.00043051956868235612 0 0.0010842762149733292 2.0026545892396729e-06 0 0.0014856493072402646 -0.00026014219011773453 0 0.0010842762149733292 2.0026545892396729e-06 0 0.0011075546102309996 -0.00029594116592390079 0 0.0014856493072402646 -0.00026014219011773453 0 0.00087609644644922235 -5.5845444202363685e-05 0 0.0010842762149733292 2.0026545892396729e-06 0 0.0011075546102309996 -0.00029594116592390079 0 0.0011075546102309996 -0.00029594116592390079 0 0.0011201401513473016 -0.00065996879035797517 0 0.00078751757114240643 -0.00041407800519509047 0 0.0011201401513473016 -0.00065996879035797517 0 0.0017875668057928092 -0.00077171185174393765 0 0.0014243390291607892 -0.0011996100190006188 0 0.0011201401513473016 -0.00065996879035797517 0 0.0014856493072402646 -0.00026014219011773453 0 0.0017875668057928092 -0.00077171185174393765 0 0.0011075546102309996 -0.00029594116592390079 0 0.0011201401513473016 -0.00065996879035797517 0 0.0014856493072402646 -0.00026014219011773453 0 0.0022079640628511784 -0.00027101860597502015 0 0.0017875668057928092 -0.00077171185174393765 0 0.0024559193017887385 -0.0013201438430605343 0 0.0022079640628511784 -0.00027101860597502015 0 0.0014856493072402646 -0.00026014219011773453 0 0.0017875668057928092 -0.00077171185174393765 0 0.0017875668057928092 -0.00077171185174393765 0 0.0014243390291607892 -0.0011996100190006188 0 0.0024559193017887385 -0.0013201438430605343 0 0.0018180163274165869 -0.0062468215074613764 0 0.001960981968080111 0.0014027306214612824 0 0.001994490097620543 -0.010036204565861009 0 0.0016087412102653005 -0.0099875892277141373 0 0.0018133096971930302 -0.0098659072646086702 0 0.0018180163274165869 -0.0062468215074613764 0 0.0013424514747770778 -0.0066492304319024373 0 0.001994490097620543 -0.010036204565861009 0 0.0021963632227112542 -0.0099074834124172097 0 0.0023503676024497927 -0.010056028906183574 0 0.0011201401513473016 -0.00065996879035797517 0 0.0014243390291607892 -0.0011996100190006188 0 0.00051191427849909437 -0.0010751509722326145 0 0.0015706402310715799 -0.0071547896166473338 0 0.0021334858565847685 -0.0092507849763195007 0 0.0023022398652041368 -0.0093544019058418824 0 0.0021749874115306548 -0.009338873895249851 0 0.0022427181135446549 -0.0095239109286857013 0 0.0012940663976604809 -0.0073609748856443427 0 0.0020209517509641672 -0.0074518369799342152 0 0.0019697308225024384 -0.0085738704824421339 0 0.0021749874115306548 -0.009338873895249851 0 0.0021985807147044149 -0.0096036400637651807 0 0.0022427181135446549 -0.0095239109286857013 0 0.0011158016061320521 -0.0065557938203154196 0 0.0015706402310715799 -0.0071547896166473338 0 0.0013424514747770778 -0.0066492304319024373 0 0.0015706402310715799 -0.0071547896166473338 0 0.0015706402310715799 -0.0071547896166473338 0 0.0012744120672423425 -0.0046750774467082265 0 0.0017519393510196535 -0.0060215303406560821 0 0.00066265435076394636 -0.0058886603288226015 0 0.0013745605024224972 -0.0040477980289347903 0 0.00066265435076394636 -0.0058886603288226015 0 0.00075914924852048564 -0.0039544143621321175 0 0.0013745605024224972 -0.0040477980289347903 0 0.001728403489022645 -0.0064367920149631976 0 0.0016501435878114781 -0.0057226213704938706 0 0.001767032295119546 -0.0055670181448436388 0 0.0011158016061320521 -0.0065557938203154196 0 0.0016018501397975073 -0.0057598568961526467 0 0.0011594968145589098 -0.0058361458944579947 0 0.0010345703944038415 -0.0063245319005108373 0 0.0016501435878114781 -0.0057226213704938706 0 0.0010027283442940297 -0.0063491814667260265 0 0.001728403489022645 -0.0064367920149631976 0 0.0016501435878114781 -0.0057226213704938706 0 0.0011594968145589098 -0.0058361458944579947 0 0.0016501435878114781 -0.0057226213704938706 0 0.001767032295119546 -0.0055670181448436388 0 0.0011201401513473016 -0.00065996879035797517 0 0.00051191427849909437 -0.0010751509722326145 0 0.00078751757114240643 -0.00041407800519509047 0 0.0013424514747770778 -0.0066492304319024373 0 0.00074312268490203562 -0.0013779395388902442 0 0.00051191427849909437 -0.0010751509722326145 0 0.00042029684678499918 -0.00040114851740201781 0 0.00078751757114240643 -0.00041407800519509047 0 6.9184775872626936e-05 0.0085592076124751636 0 -0.0001467885237005872 0.0081967057026259699 0 -0.00021549305584700996 0.008735605940466731 0 6.9184775872626936e-05 0.0085592076124751636 0 -0.0001467885237005872 0.0081967057026259699 0 0.00027903534828999321 0.0082415170453933179 0 -0.00021589731309606667 0.0087580295974173401 0 -0.00026480666018771453 0.0089563008002070364 0 -1.9179151332768315e-05 0.0089793537352349552 0 0.00015536153970589753 0.0098660728417279443 0 0.00052031103135572192 0.0092956092947715785 0 -1.9179151332768315e-05 0.0089793537352349552 0 -0.00021549305584700996 0.008735605940466731 0 0.00015536153970589753 0.0098660728417279443 0 -0.0001467885237005872 0.0081967057026259699 0 -0.00021549305584700996 0.008735605940466731 0 -0.0006098366570444245 0.0079991563356418549 0 -1.9179151332768315e-05 0.0089793537352349552 0 0.00052031103135572192 0.0092956092947715785 0 0.0006721628221484573 0.0087204041674013282 0 -1.9179151332768315e-05 0.0089793537352349552 0 -0.00014439445119160808 0.0088924260996072965 0 -0.00022677422541335455 0.0088809817931238717 0 2.0042807600461333e-06 0.008636378657215716 0 0.00047121766311000805 0.0093625429442450135 0 -1.9179151332768315e-05 0.0089793537352349552 0 -0.00012204088414480444 0.0088695329220826492 0 -0.00014439445119160808 0.0088924260996072965 0 -1.9179151332768315e-05 0.0089793537352349552 0 -0.00012204088414480444 0.0088695329220826492 0 -0.00021549305584700996 0.008735605940466731 0 -0.00012204088414480444 0.0088695329220826492 0 -0.00013385712658256889 0.0088683885234057298 0 -0.00021549305584700996 0.008735605940466731 0 -0.00014439445119160808 0.0088924260996072965 0 -0.00013385712658256889 0.0088683885234057298 0 -9.9389437313550057e-05 0.0089302077345496719 0 -0.00012204088414480444 0.0088695329220826492 0 -0.00014439445119160808 0.0088924260996072965 0 -0.00013385712658256889 0.0088683885234057298 0 -0.00013385712658256889 0.0088683885234057298 0 -9.9389437313550057e-05 0.0089302077345496719 0 -6.2203483221932493e-05 0.0088219672341990924 0 -9.9389437313550057e-05 0.0089302077345496719 0 -6.2203483221932493e-05 0.0088219672341990924 0 1.7179968970373183e-05 0.00892867102698678 0 6.9184775872626936e-05 0.0085592076124751636 0 -6.2203483221932493e-05 0.0088219672341990924 0 -0.00021549305584700996 0.008735605940466731 0 -0.00013385712658256889 0.0088683885234057298 0 -6.2203483221932493e-05 0.0088219672341990924 0 -0.00021549305584700996 0.008735605940466731 0 6.9184775872626936e-05 0.0085592076124751636 0 -6.2203483221932493e-05 0.0088219672341990924 0 0.00016978576493947235 0.0087908777806324639 0 -6.2203483221932493e-05 0.0088219672341990924 0 0.00016978576493947235 0.0087908777806324639 0 1.7179968970373183e-05 0.00892867102698678 0 0.00016978576493947235 0.0087908777806324639 0 1.7179968970373183e-05 0.00892867102698678 0 0.00023220909550751345 0.0089903785601909928 0 0.00016978576493947235 0.0087908777806324639 0 0.00047387810633856323 0.0088130241898428212 0 0.00023220909550751345 0.0089903785601909928 0 0.00047387810633856323 0.0088130241898428212 0 0.00032466437054634622 0.0085945127545479748 0 0.0005674419660064489 0.0084479084436086711 0 0.00016978576493947235 0.0087908777806324639 0 0.00047387810633856323 0.0088130241898428212 0 0.00032466437054634622 0.0085945127545479748 0 6.9184775872626936e-05 0.0085592076124751636 0 0.00016978576493947235 0.0087908777806324639 0 0.00032466437054634622 0.0085945127545479748 0 -8.7775695389319863e-05 0.0081056641417949493 0 0.001960981968080111 0.0014027306214612824 0 0.00047387810633856323 0.0088130241898428212 0 0.00079514030262309461 0.0087341430674087676 0 0.0005674419660064489 0.0084479084436086711 0 0.00096750696356754653 0.0081433800420557725 0 0.00079514030262309461 0.0087341430674087676 0 0.0005674419660064489 0.0084479084436086711 0 0.0014731578346625792 0.0044301025512922315 0 0.001960981968080111 0.0014027306214612824 0 0.00096750696356754653 0.0081433800420557725 0 0.0005674419660064489 0.0084479084436086711 0 0.00054275496487135914 0.0079590489342383913 0 0.0005674419660064489 0.0084479084436086711 0 0.00027903534828999321 0.0082415170453933179 0 0.00054275496487135914 0.0079590489342383913 0 6.9184775872626936e-05 0.0085592076124751636 0 0.00032466437054634622 0.0085945127545479748 0 0.00027903534828999321 0.0082415170453933179 0 0.00032466437054634622 0.0085945127545479748 0 0.0005674419660064489 0.0084479084436086711 0 0.00027903534828999321 0.0082415170453933179 0 0.00027903534828999321 0.0082415170453933179 0 0.00054275496487135914 0.0079590489342383913 0 0.00022601467587858248 0.0076206304504187767 0 0.00027903534828999321 0.0082415170453933179 0 0.00022601467587858248 0.0076206304504187767 0 -0.00015432688820027268 0.0077774140727932444 0 0.00096750696356754653 0.0081433800420557725 0 0.00054275496487135914 0.0079590489342383913 0 0.00064902981181529692 0.007497012134664565 0 0.0011738183606024258 0.0074730320307847013 0 0.00096750696356754653 0.0081433800420557725 0 0.00064902981181529692 0.007497012134664565 0 0.0011738183606024258 0.0074730320307847013 0 0.00064902981181529692 0.007497012134664565 0 0.00079160080590785992 0.0069423586203189776 0 0.00064902981181529692 0.007497012134664565 0 0.00022601467587858248 0.0076206304504187767 0 0.00028098859393818973 0.007067822532252706 0 0.00054275496487135914 0.0079590489342383913 0 0.00064902981181529692 0.007497012134664565 0 0.00022601467587858248 0.0076206304504187767 0 0.00022601467587858248 0.0076206304504187767 0 -0.00013487003684033497 0.007292770126708592 0 0.00028098859393818973 0.007067822532252706 0 -0.00013487003684033497 0.007292770126708592 0 -0.00015432688820027268 0.0077774140727932444 0 -0.00045649603051784484 0.0075009909717260364 0 0.00022601467587858248 0.0076206304504187767 0 -0.00013487003684033497 0.007292770126708592 0 -0.00015432688820027268 0.0077774140727932444 0 -0.00013487003684033497 0.007292770126708592 0 -0.00045649603051784484 0.0075009909717260364 0 -0.00050780418894764295 0.0071152667425362186 0 -0.0001467885237005872 0.0081967057026259699 0 0.00027903534828999321 0.0082415170453933179 0 -0.00015432688820027268 0.0077774140727932444 0 -0.0001467885237005872 0.0081967057026259699 0 -0.00015432688820027268 0.0077774140727932444 0 -0.0006098366570444245 0.0079991563356418549 0 -0.00015432688820027268 0.0077774140727932444 0 -0.0006098366570444245 0.0079991563356418549 0 -0.00045649603051784484 0.0075009909717260364 0 -0.00045649603051784484 0.0075009909717260364 0 -0.00050780418894764295 0.0071152667425362186 0 -0.00089424431337540829 0.0074008878774701452 0 -0.0006098366570444245 0.0079991563356418549 0 -0.00045649603051784484 0.0075009909717260364 0 -0.00089424431337540829 0.0074008878774701452 0 -0.00026480666018771453 0.0089563008002070364 0 0.0004851505363305247 0.0088201314152992257 0 -0.00030182800983384627 0.0068891971904494259 0 0.0004851505363305247 0.0088201314152992257 0 -0.00013487003684033497 0.007292770126708592 0 -0.00050780418894764295 0.0071152667425362186 0 -0.0001940368898615619 0.0068576672711112502 0 -0.00030182800983384627 0.0068891971904494259 0 -0.00022734015753834641 0.0068835236601288603 0 -0.0001940368898615619 0.0068576672711112502 0 0.00015180962987690363 0.0064961518118132403 0 -0.00023896854713082667 0.0067301321419953788 0 -0.0001940368898615619 0.0068576672711112502 0 -0.00018372045761945975 0.0070882004957690181 0 -0.00023896854713082667 0.0067301321419953788 0 -0.0001817158397058148 0.0068179183847567448 0 -0.0001940368898615619 0.0068576672711112502 0 -0.00018372045761945975 0.0070882004957690181 0 -0.0001817158397058148 0.0068179183847567448 0 -0.00018372045761945975 0.0070882004957690181 0 0.00040709631787883032 0.0070942867575289155 0 0.00064902981181529692 0.007497012134664565 0 0.00079160080590785992 0.0069423586203189776 0 0.00028098859393818973 0.007067822532252706 0 0.00079160080590785992 0.0069423586203189776 0 0.00028098859393818973 0.007067822532252706 0 0.00015180962987690363 0.0064961518118132403 0 -0.00013487003684033497 0.007292770126708592 0 -0.0001940368898615619 0.0068576672711112502 0 0.00028098859393818973 0.007067822532252706 0 -0.0001940368898615619 0.0068576672711112502 0 0.00028098859393818973 0.007067822532252706 0 0.00015180962987690363 0.0064961518118132403 0 0.00079160080590785992 0.0069423586203189776 0 0.00015180962987690363 0.0064961518118132403 0 0.00097191740008353356 0.0062383323247214781 0 0.00015180962987690363 0.0064961518118132403 0 0.00097191740008353356 0.0062383323247214781 0 0.00018678508959087286 0.0054578396459763461 0 -4.4634598617197038e-05 0.0041441901067204726 0 -2.1323079926336803e-06 0.0036397175518641631 0 0.00018678508959087286 0.0054578396459763461 0 0.00040652613844330271 0.0050027736764079898 0 0.0001998368360285981 0.0052452326783023464 0 0.00015180962987690363 0.0064961518118132403 0 0.00018678508959087286 0.0054578396459763461 0 -0.00023896854713082667 0.0067301321419953788 0 0.00018678508959087286 0.0054578396459763461 0 2.6545491093733741e-07 0.0062186602284329852 0 -0.00023896854713082667 0.0067301321419953788 0 -2.5453270452549019e-07 0.0041406838010287755 0 0.00018678508959087286 0.0054578396459763461 0 2.6545491093733741e-07 0.0062186602284329852 0 -2.5453270452549019e-07 0.0041406838010287755 0 -4.4634598617197038e-05 0.0041441901067204726 0 0.00018678508959087286 0.0054578396459763461 0 -0.00018372045761945975 0.0070882004957690181 0 -0.00023896854713082667 0.0067301321419953788 0 -4.0785687193775174e-05 0.0076857233781316694 0 -0.00023896854713082667 0.0067301321419953788 0 -1.3407462704849525e-06 0.0082976348481634092 0 -4.0785687193775174e-05 0.0076857233781316694 0 2.6545491093733741e-07 0.0062186602284329852 0 -0.00023896854713082667 0.0067301321419953788 0 -1.3407462704849525e-06 0.0082976348481634092 0 -1.3407462704849525e-06 0.0082976348481634092 0 0.00017803295660044022 0.0088849017382984577 0 3.051969717232023e-06 0.010373158464133276 0 -1.3407462704849525e-06 0.0082976348481634092 0 -4.0785687193775174e-05 0.0076857233781316694 0 0.00017803295660044022 0.0088849017382984577 0 -4.0785687193775174e-05 0.0076857233781316694 0 0.00037258489871763771 0.0080809588822511099 0 0.00017803295660044022 0.0088849017382984577 0 -4.0785687193775174e-05 0.0076857233781316694 0 0.00037258489871763771 0.0080809588822511099 0 0.00040709631787883032 0.0070942867575289155 0 0.0011951028642201008 0.0087496552428993988 0 0.0011711308147246858 0.0084256106927208634 0 0.00037258489871763771 0.0080809588822511099 0 0.0012105163997410693 0.0087559037123009689 0 0.00040709631787883032 0.0070942867575289155 0 0.00037258489871763771 0.0080809588822511099 0 0.0012105163997410693 0.0087559037123009689 0 0.00017803295660044022 0.0088849017382984577 0 0.0012105163997410693 0.0087559037123009689 0 0.0012054524265259505 0.0090440756904860645 0 0.00017803295660044022 0.0088849017382984577 0 0.0012054524265259505 0.0090440756904860645 0 3.051969717232023e-06 0.010373158464133276 0 0.0016228410509906721 0.0090032370795880366 0 0.0012054524265259505 0.0090440756904860645 0 0.00017803295660044022 0.0088849017382984577 0 3.051969717232023e-06 0.010373158464133276 0 5.8349586814719331e-07 0.010376128491873712 0 0.0010788461513965358 0.011151381186456448 0 0.0010788461513965358 0.011151381186456448 0 0.0021659220601858153 0.016011185620145203 0 -9.3045788355458972e-05 0.011392739320220771 0 -4.4312712919821488e-09 0.012061309792308289 0 0.00022139137923072271 0.011522244224973943 0 3.8777563579958749e-08 0.010379151561719658 0 -9.3045788355458972e-05 0.011392739320220771 0 -4.4312712919821488e-09 0.012061309792308289 0 0.0012105163997410693 0.0087559037123009689 0 0.0012054524265259505 0.0090440756904860645 0 0.0012555914369289909 0.0089222194109702772 0 0.0011958837577832676 0.010943214650193064 0 0.0010788461513965358 0.011151381186456448 0 -2.7062452580644014e-07 0.012764239510280752 0 -4.9443745341682193e-05 0.012544979282531857 0 0.00022975625166801649 0.012561953160415484 0 -2.7062452580644014e-07 0.012764239510280752 0 2.9271203396410544e-07 0.012067323721293382 0 -4.9443745341682193e-05 0.012544979282531857 0 1.0027432315064706e-06 0.012061991936242879 0 0.0021659220601858153 0.016011185620145203 0 0.0014020240600863812 0.013290832679530894 0 0.001724872737146843 0.013745441781297395 0 0.0011754498857635993 0.014358024774087839 0 0.0051867578274721248 0.02262420100598083 0 0.0048019818265618262 0.024479135109206667 0 0.0038065888938130319 0.024002293480876482 0 0.0021659220601858153 0.016011185620145203 0 0.0016891823615277097 0.015386072349207826 0 0.0021659220601858153 0.016011185620145203 0 0.0013646161154813733 0.017180928909629262 0 0.0017175824810968625 0.011246243625665779 0 0.0016891823615277097 0.015386072349207826 0 0.0010184798780415269 0.009123786018955804 0 0.0010846985783688626 0.0095535415734944364 0 0.00078388049784678315 0.0096250079662206899 0 0.0012105163997410693 0.0087559037123009689 0 0.0011732729411806169 0.0090946421504554727 0 0.0013082368568398141 0.0094710942221150601 0 0.0022677305231421072 0.01313242700246051 0 0.0014020240600863812 0.013290832679530894 0 0.001724872737146843 0.013745441781297395 0 0.0012555914369289909 0.0089222194109702772 0 0.0010184798780415269 0.009123786018955804 0 0.0011732729411806169 0.0090946421504554727 0 0.0012105163997410693 0.0087559037123009689 0 0.0012555914369289909 0.0089222194109702772 0 0.0011732729411806169 0.0090946421504554727 0 0.0010788461513965358 0.011151381186456448 0 0.0017175824810968625 0.011246243625665779 0 0.0010184798780415269 0.009123786018955804 0 0.0011732729411806169 0.0090946421504554727 0 0.0010846985783688626 0.0095535415734944364 0 0.0011732729411806169 0.0090946421504554727 0 0.0013082368568398141 0.0094710942221150601 0 0.0010846985783688626 0.0095535415734944364 0 0.0013082368568398141 0.0094710942221150601 0 0.0010846985783688626 0.0095535415734944364 0 0.0012940501364231425 0.010000354812357989 0 0.0010846985783688626 0.0095535415734944364 0 0.0010894905216553129 0.010025923226223624 0 0.0012940501364231425 0.010000354812357989 0 0.00078388049784678315 0.0096250079662206899 0 0.0010894905216553129 0.010025923226223624 0 0.0010931626775132776 0.010445615144970761 0 0.0016891823615277097 0.015386072349207826 0 0.0012113818026908852 0.008524855446314622 0 0.0010846985783688626 0.0095535415734944364 0 0.00078388049784678315 0.0096250079662206899 0 0.0010894905216553129 0.010025923226223624 0 0.0010894905216553129 0.010025923226223624 0 0.0010931626775132776 0.010445615144970761 0 0.0011962824481314084 0.010334758496388971 0 0.0010931626775132776 0.010445615144970761 0 0.0011962824481314084 0.010334758496388971 0 0.0012615115792570482 0.010510430241633735 0 0.0012940501364231425 0.010000354812357989 0 0.0011962824481314084 0.010334758496388971 0 0.0014629397343355645 0.010336514396299104 0 0.0010894905216553129 0.010025923226223624 0 0.0012940501364231425 0.010000354812357989 0 0.0011962824481314084 0.010334758496388971 0 0.00180924525871606 0.0098292253542158099 0 0.0019456081210817587 0.010355309038798076 0 0.0014629397343355645 0.010336514396299104 0 0.0012940501364231425 0.010000354812357989 0 0.00180924525871606 0.0098292253542158099 0 0.0014629397343355645 0.010336514396299104 0 0.0011711308147246858 0.0084256106927208634 0 0.0004851505363305247 0.0088201314152992257 0 -0.0001817158397058148 0.0068179183847567448 0 0.00040709631787883032 0.0070942867575289155 0 0.0001366289410405336 0.0066076763398892754 0 -0.00018372045761945975 0.0070882004957690181 0 -4.0785687193775174e-05 0.0076857233781316694 0 0.00040709631787883032 0.0070942867575289155 0 0.0013082368568398141 0.0094710942221150601 0 0.0012940501364231425 0.010000354812357989 0 0.00180924525871606 0.0098292253542158099 0 0.0012105163997410693 0.0087559037123009689 0 0.0013082368568398141 0.0094710942221150601 0 0.00180924525871606 0.0098292253542158099 0 0.00091946044601616767 0.024280053194343232 0 0.00013065162431824079 0.024802135893706403 0 0.0011314137400797021 0.024550034891281641 0 0.00022114909626382882 0.024785069447112222 0 0.0011103455539497929 0.024608594455236898 0 0.00013065162431824079 0.024802135893706403 0 0.0010677734352551628 0.024728095343788496 0 0.00065271370392194642 0.025226357410643309 0 0.00091946044601616767 0.024280053194343232 0 0.00013065162431824079 0.024802135893706403 0 -0.00035014624308274454 0.024166053619206956 0 0.00034022292013363123 0.020250744863472947 0 -0.00043521121210370495 0.020663522903216887 0 -5.5751325445442461e-05 0.0170357869675484 0 -1.1445449926508854e-07 0.016302477127346872 0 -4.5919829621610473e-07 0.018070158335865907 0 -9.9887755584908864e-05 0.01632282012666815 0 -5.5751325445442461e-05 0.0170357869675484 0 -2.1837710113539484e-05 0.017455736643448704 0 -9.9887755584908864e-05 0.01632282012666815 0 -5.5751325445442461e-05 0.0170357869675484 0 -1.1445449926508854e-07 0.016302477127346872 0 -1.1445449926508854e-07 0.016302477127346872 0 -8.5045024498617039e-05 0.015662966294818861 0 -4.7988721761579735e-07 0.014534836181509969 0 -9.9887755584908864e-05 0.01632282012666815 0 -1.1445449926508854e-07 0.016302477127346872 0 -8.5045024498617039e-05 0.015662966294818861 0 0.0010677734352551628 0.024728095343788496 0 0.0015526412801036048 0.02510316715506565 0 0.0018564667431148591 0.024605279884251437 0 0.0011103455539497929 0.024608594455236898 0 0.0011059741461479069 0.021116680954780642 0 0.00034022292013363123 0.020250744863472947 0 0.0011059741461479069 0.021116680954780642 0 0.00091946044601616767 0.024280053194343232 0 0.0011314137400797021 0.024550034891281641 0 0.0020470938954804453 0.024337324561870682 0 -9.9887755584908864e-05 0.01632282012666815 0 -8.5045024498617039e-05 0.015662966294818861 0 -6.3456218605420411e-05 0.015475713145228555 0 0.0010677734352551628 0.024728095343788496 0 0.00114983327165421 0.025337175686239576 0 0.00065271370392194642 0.025226357410643309 0 0.0010677734352551628 0.024728095343788496 0 0.0015526412801036048 0.02510316715506565 0 0.00114983327165421 0.025337175686239576 0 0.0010826200193405993 0.019844553694789428 0 0.0013953031905964003 0.019768759113668308 0 0.0013294540110029335 0.01985868673281771 0 0.0011059741461479069 0.021116680954780642 0 0.0013646161154813733 0.017180928909629262 0 0.0015526412801036048 0.02510316715506565 0 0.0018564667431148591 0.024605279884251437 0 0.0021109453099346989 0.025143005264127449 0 0.0017667273806938066 0.022113333104680864 0 0.0019719694858167263 0.024703027388445414 0 0.0018564667431148591 0.024605279884251437 0 0.0024791617030821074 0.024671380704919848 0 0.0021109453099346989 0.025143005264127449 0 0.0011059741461479069 0.021116680954780642 0 0.0017667273806938066 0.022113333104680864 0 -8.5045024498617039e-05 0.015662966294818861 0 -6.3456218605420411e-05 0.015475713145228555 0 -4.7988721761579735e-07 0.014534836181509969 0 -6.3456218605420411e-05 0.015475713145228555 0 -4.7988721761579735e-07 0.014534836181509969 0 0.00015819169137477613 0.014790883335389929 0 1.1176589387319917e-06 0.012769695972425435 0 -4.7988721761579735e-07 0.014534836181509969 0 0.00015819169137477613 0.014790883335389929 0 7.756566259615529e-07 0.012765113124626973 0 0.0013646161154813733 0.017180928909629262 0 0.0029302330463778763 0.02344203552451293 0 0.0038065888938130319 0.024002293480876482 0 0.0022794027729555952 0.024394702107310783 0 0.0051867578274721248 0.02262420100598083 0 0.0032366354259373772 0.023019863565607084 0 0.0038065888938130319 0.024002293480876482 0 0.0032366354259373772 0.023019863565607084 0 0.0029302330463778763 0.02344203552451293 0 0.0038065888938130319 0.024002293480876482 0 0.0013646161154813733 0.017180928909629262 0 0.0017667273806938066 0.022113333104680864 0 0.0048019818265618262 0.024479135109206667 0 0.0038065888938130319 0.024002293480876482 0 0.0032587273842815184 0.024972149490072613 0 0.0038065888938130319 0.024002293480876482 0 0.0032587273842815184 0.024972149490072613 0 0.0022794027729555952 0.024394702107310783 0 0.0016891823615277097 0.015386072349207826 0 0.0023191196170970342 0.018839918869040739 0 0.0048019818265618262 0.024479135109206667 0 0.0032587273842815184 0.024972149490072613 0 0.0029781406727656581 0.026374081200978713 0 0.0032587273842815184 0.024972149490072613 0 0.0029781406727656581 0.026374081200978713 0 0.0024218109830002848 0.025567758757890992 0 0.0010168549157906063 0.010958257198927023 0 0.0010931626775132776 0.010445615144970761 0 0.0013705941492594455 0.010529131935316313 0 0.0010931626775132776 0.010445615144970761 0 0.0013705941492594455 0.010529131935316313 0 0.0012615115792570482 0.010510430241633735 0 0.0029781406727656581 0.026374081200978713 0 0.0017157841237519095 0.02651217028542574 0 0.0024218109830002848 0.025567758757890992 0 0.0017157841237519095 0.02651217028542574 0 0.0024218109830002848 0.025567758757890992 0 0.0015774742655124405 0.025782489147084912 0 0.0019719694858167263 0.024703027388445414 0 0.0016589932225524824 0.025610908925355069 0 0.0024218109830002848 0.025567758757890992 0 0.0022794027729555952 0.024394702107310783 0 0.0015774742655124405 0.025782489147084912 0 0.0032587273842815184 0.024972149490072613 0 0.0024218109830002848 0.025567758757890992 0 0.0022794027729555952 0.024394702107310783 0 0.0015526412801036048 0.02510316715506565 0 0.0021109453099346989 0.025143005264127449 0 0.0015774742655124405 0.025782489147084912 0 0.00114983327165421 0.025337175686239576 0 0.0015774742655124405 0.025782489147084912 0 0.00081195706823304018 0.025795769591238905 0 0.0015526412801036048 0.02510316715506565 0 0.00114983327165421 0.025337175686239576 0 0.0015774742655124405 0.025782489147084912 0 0.00114983327165421 0.025337175686239576 0 0.00081195706823304018 0.025795769591238905 0 0.00065271370392194642 0.025226357410643309 0 0.0017157841237519095 0.02651217028542574 0 0.0015774742655124405 0.025782489147084912 0 0.00096185387318207529 0.026464712953592835 0 0.0015774742655124405 0.025782489147084912 0 0.00096185387318207529 0.026464712953592835 0 0.00081195706823304018 0.025795769591238905 0 0.0017157841237519095 0.02651217028542574 0 0.00096185387318207529 0.026464712953592835 0 0.0010042278614562146 0.027105052551286507 0 0.00096185387318207529 0.026464712953592835 0 0.00043605437757918933 0.026355307959316222 0 0.00081195706823304018 0.025795769591238905 0 0.00043605437757918933 0.026355307959316222 0 6.4821272058232897e-05 0.025668687117801972 0 -1.6978144614130823e-05 0.026954777001670118 0 0.00096185387318207529 0.026464712953592835 0 0.00043605437757918933 0.026355307959316222 0 0.00034957412486264118 0.027054390658063483 0 0.00043605437757918933 0.026355307959316222 0 0.00034957412486264118 0.027054390658063483 0 -1.6978144614130823e-05 0.026954777001670118 0 0.00043605437757918933 0.026355307959316222 0 6.4821272058232897e-05 0.025668687117801972 0 0.00081195706823304018 0.025795769591238905 0 6.4821272058232897e-05 0.025668687117801972 0 0.00081195706823304018 0.025795769591238905 0 0.00065271370392194642 0.025226357410643309 0 0.00013065162431824079 0.024802135893706403 0 6.4821272058232897e-05 0.025668687117801972 0 0.00065271370392194642 0.025226357410643309 0 0.00032909918106816276 0.026968687644072148 0 0.00026837111702542347 0.02705584574410819 0 0.00029352916011242489 0.026840165185962474 0 0.000546827664158507 0.028630539600467939 0 0.001667290208554985 0.020102602462973181 0 0.00032909918106816276 0.026968687644072148 0 0.00026837111702542347 0.02705584574410819 0 0.00029770833122871464 0.027068217439490675 0 0.00026837111702542347 0.02705584574410819 0 0.00034957412486264118 0.027054390658063483 0 0.00029770833122871464 0.027068217439490675 0 0.00057247840408580341 0.027719446793893873 0 0.00034957412486264118 0.027054390658063483 0 0.0010042278614562146 0.027105052551286507 0 0.000546827664158507 0.028630539600467939 0 0.00031941816073127093 0.026656791175820965 0 0.00096185387318207529 0.026464712953592835 0 0.00034957412486264118 0.027054390658063483 0 0.0010042278614562146 0.027105052551286507 0 0.00057247840408580341 0.027719446793893873 0 0.0015476535930442226 0.027571206456514525 0 0.0010042278614562146 0.027105052551286507 0 0.0017157841237519095 0.02651217028542574 0 0.0015476535930442226 0.027571206456514525 0 0.0010042278614562146 0.027105052551286507 0 0.0014156987414339183 0.010734224695641 0 0.0014270498182341635 0.01098549165097747 0 0.0013030684736371372 0.011083691816924453 0 0.0014156987414339183 0.010734224695641 0 0.0015088953542062578 0.010957036107129696 0 0.0014270498182341635 0.01098549165097747 0 0.00057247840408580341 0.027719446793893873 0 0.0015476535930442226 0.027571206456514525 0 0.00065126466730978602 0.028307641110362967 0 0.0013866120185541775 0.019021384914637635 0 0.001667290208554985 0.020102602462973181 0 0.0014156987414339183 0.010734224695641 0 0.0014265264681582283 0.010604889432739663 0 0.0015383809816883445 0.010666351451498289 0 0.0014156987414339183 0.010734224695641 0 0.0015383809816883445 0.010666351451498289 0 0.0015088953542062578 0.010957036107129696 0 0.0023191196170970342 0.018839918869040739 0 0.0013866120185541775 0.019021384914637635 0 0.0013705941492594455 0.010529131935316313 0 0.0014156987414339183 0.010734224695641 0 0.0014265264681582283 0.010604889432739663 0 0.0029781406727656581 0.026374081200978713 0 0.0017157841237519095 0.02651217028542574 0 0.0015476535930442226 0.027571206456514525 0 0.0013705941492594455 0.010529131935316313 0 0.0014265264681582283 0.010604889432739663 0 0.0012615115792570482 0.010510430241633735 0 0.0014265264681582283 0.010604889432739663 0 0.0015383809816883445 0.010666351451498289 0 0.0012615115792570482 0.010510430241633735 0 0.001573719746805405 0.010667822650559699 0 0.0016414722923996199 0.010634398659076024 0 0.0015383809816883445 0.010666351451498289 0 0.0016495889863891136 0.011012004696551562 0 0.0018305010139249708 0.011050131065503847 0 0.0015383809816883445 0.010666351451498289 0 0.0018305010139249708 0.011050131065503847 0 0.0019937810610881285 0.010903729990560841 0 0.0016495889863891136 0.011012004696551562 0 0.0018305010139249708 0.011050131065503847 0 0.0017593448328928009 0.011164096027141791 0 0.0018305010139249708 0.011050131065503847 0 0.0018693300906827514 0.01121083856925841 0 0.0017593448328928009 0.011164096027141791 0 0.0018305010139249708 0.011050131065503847 0 0.0018693300906827514 0.01121083856925841 0 0.0019949303178520244 0.011137875875019075 0 0.0018693300906827514 0.01121083856925841 0 0.0017914762545087153 0.011303023599637663 0 0.0019181080075202316 0.011327945389655935 0 0.0018693300906827514 0.01121083856925841 0 0.0017914762545087153 0.011303023599637663 0 0.0017593448328928009 0.011164096027141791 0 0.0017914762545087153 0.011303023599637663 0 0.0017593448328928009 0.011164096027141791 0 0.0016254466070827918 0.011166294078772922 0 0.0017914762545087153 0.011303023599637663 0 0.0016254466070827918 0.011166294078772922 0 0.0016829237765250355 0.011363105595155321 0 0.0015383809816883445 0.010666351451498289 0 0.0016495889863891136 0.011012004696551562 0 0.0015088953542062578 0.010957036107129696 0 0.0016254466070827918 0.011166294078772922 0 0.0015088953542062578 0.010957036107129696 0 0.0014803049102125403 0.011171527416602474 0 0.0016495889863891136 0.011012004696551562 0 0.0016254466070827918 0.011166294078772922 0 0.0015088953542062578 0.010957036107129696 0 0.0016495889863891136 0.011012004696551562 0 0.0017593448328928009 0.011164096027141791 0 0.0016254466070827918 0.011166294078772922 0 0.0014270498182341635 0.01098549165097747 0 0.0014803049102125403 0.011171527416602474 0 0.0013030684736371372 0.011083691816924453 0 0.0015088953542062578 0.010957036107129696 0 0.0014270498182341635 0.01098549165097747 0 0.0014803049102125403 0.011171527416602474 0 0.0016254466070827918 0.011166294078772922 0 0.0014803049102125403 0.011171527416602474 0 0.0016829237765250355 0.011363105595155321 0 0.0014803049102125403 0.011171527416602474 0 0.0014954970005660935 0.011406316209260669 0 0.0016829237765250355 0.011363105595155321 0 0.0014803049102125403 0.011171527416602474 0 0.0013030684736371372 0.011083691816924453 0 0.0014954970005660935 0.011406316209260669 0 0.003492391873937632 0.019018690976445114 0 0.0030735859632305979 0.018581771978233342 0 0.0027319699445873353 0.019150722010800151 0 0.001667290208554985 0.020102602462973181 0 0.0025231550068560834 0.013944493042440134 0 0.0033426761873419672 0.018280633407357062 0 0.003492391873937632 0.019018690976445114 0 0.0030735859632305979 0.018581771978233342 0 0.00018559646797369612 0.026812459926190496 0 0.00029352916011242489 0.026840165185962474 0 0.00053496967281308058 0.026263602261740477 0 0.00026837111702542347 0.02705584574410819 0 0.00018559646797369612 0.026812459926190496 0 0.00029352916011242489 0.026840165185962474 0 -0.00014612441293260391 0.027521858677609024 0 0.0014566987220953375 0.023517464028382173 0 0.001667290208554985 0.020102602462973181 0 0.0014566987220953375 0.023517464028382173 0 0.00034597505055664274 0.026869915574714388 0 0.00029352916011242489 0.026840165185962474 0 0.00037186281841040898 0.026780616507194457 0 0.00032909918106816276 0.026968687644072148 0 0.00034597505055664274 0.026869915574714388 0 0.00029352916011242489 0.026840165185962474 0 0.001171531713386332 0.010435847564304927 0 0.0011567354354327358 0.01038903923236713 0 0.0012889673209099594 0.010481419440065946 0 0.0013911450964094146 0.010653664245793724 0 0.0013282302725502301 0.010442573714695652 0 0.001171531713386332 0.010435847564304927 0 0.0011567354354327358 0.01038903923236713 0 0.00092484139482890289 0.01041075962172049 0 0.00092484139482890289 0.01041075962172049 0 0.00052031103135572192 0.0092956092947715785 0 0.0011618997552263314 0.0092847443410093572 0 0.00015536153970589753 0.0098660728417279443 0 0.00092484139482890289 0.01041075962172049 0 0.00052031103135572192 0.0092956092947715785 0 0.00093530417567578932 0.010467750686438536 0 0.0011525501297961569 0.0096017396894108788 0 0.0011567354354327358 0.01038903923236713 0 0.00092484139482890289 0.01041075962172049 0 0.001106512645141248 0.01034770754403257 0 0.001171531713386332 0.010435847564304927 0 0.00092484139482890289 0.01041075962172049 0 0.00079657438809296833 0.010830050289078193 0 0.0013911450964094146 0.010653664245793724 0 0.0004851505363305247 0.0088201314152992257 0 0.00015536153970589753 0.0098660728417279443 0 0.00092484139482890289 0.01041075962172049 0 0.00079657438809296833 0.010830050289078193 0 0.0015465565323836772 0.010557930434978833 0 0.0019456081210817587 0.010355309038798076 0 0.0014629397343355645 0.010336514396299104 0 0.0015465565323836772 0.010557930434978833 0 0.0014629397343355645 0.010336514396299104 0 0.0013591340249514729 0.010509325840397467 0 0.0011962824481314084 0.010334758496388971 0 0.0014629397343355645 0.010336514396299104 0 0.0012950069883543623 0.010456289975059487 0 0.0012950069883543623 0.010456289975059487 0 0.001310866718631354 0.010536198559320861 0 0.0013591340249514729 0.010509325840397467 0 0.0014629397343355645 0.010336514396299104 0 0.0012950069883543623 0.010456289975059487 0 0.0013591340249514729 0.010509325840397467 0 0.0012950069883543623 0.010456289975059487 0 0.0012615115792570482 0.010510430241633735 0 0.001310866718631354 0.010536198559320861 0 0.0011962824481314084 0.010334758496388971 0 0.0012950069883543623 0.010456289975059487 0 0.0012615115792570482 0.010510430241633735 0 0.001310866718631354 0.010536198559320861 0 0.0012889673209099594 0.010481419440065946 0 0.001374527346263585 0.010455978601225442 0 0.0015383809816883445 0.010666351451498289 0 0.0012615115792570482 0.010510430241633735 0 0.001310866718631354 0.010536198559320861 0 0.0015383809816883445 0.010666351451498289 0 0.001310866718631354 0.010536198559320861 0 0.001374527346263585 0.010455978601225442 0 0.0015465565323836772 0.010557930434978833 0 0.0013591340249514729 0.010509325840397467 0 0.0012889673209099594 0.010481419440065946 0 0.001310866718631354 0.010536198559320861 0 0.0013591340249514729 0.010509325840397467 0 0.0012889673209099594 0.010481419440065946 0 0.0012889673209099594 0.010481419440065946 0 0.001287505709762175 0.010399081371840466 0 0.0012167902448526229 0.010385648925306671 0 0.001287505709762175 0.010399081371840466 0 0.0012858349023590269 0.010346368479282556 0 0.001374527346263585 0.010455978601225442 0 0.0012889673209099594 0.010481419440065946 0 0.001287505709762175 0.010399081371840466 0 0.001374527346263585 0.010455978601225442 0 0.001287505709762175 0.010399081371840466 0 0.0012858349023590269 0.010346368479282556 0 0.0012521400502439946 0.010366778029477245 0 0.0012858349023590269 0.010346368479282556 0 0.0012443540028216837 0.010336934603999417 0 0.0012521400502439946 0.010366778029477245 0 0.001287505709762175 0.010399081371840466 0 0.0012521400502439946 0.010366778029477245 0 0.0012167902448526229 0.010385648925306671 0 0.0012443540028216837 0.010336934603999417 0 0.0012258308160609961 0.010354061299616982 0 0.0012521400502439946 0.010366778029477245 0 0.0012258308160609961 0.010354061299616982 0 0.0012521400502439946 0.010366778029477245 0 0.0012167902448526229 0.010385648925306671 0 0.0022271295555109948 0.011096310834771637 0 0.0019937810610881285 0.010903729990560841 0 0.0019949303178520244 0.011137875875019075 0 0.0016322082461163116 0.011392243057207639 0 0.0016414722923996199 0.010634398659076024 0 0.0018305010139249708 0.011050131065503847 0 0.0019937810610881285 0.010903729990560841 0 0.0019949303178520244 0.011137875875019075 0 0.0022271295555109948 0.011096310834771637 0 0.0019949303178520244 0.011137875875019075 0 0.0019181080075202316 0.011327945389655935 0 0.0015884692440776907 0.012657212086770274 0 0.0018479579181839118 0.012480160319755806 0 0.0016390373295866885 0.012563549616059969 0 0.0016322082461163116 0.011392243057207639 0 0.0019165148608431262 0.011966619641051238 0 0.0016722696491447094 0.012500831771879727 0 0.0018479579181839118 0.012480160319755806 0 0.0016390373295866885 0.012563549616059969 0 0.0018693300906827514 0.01121083856925841 0 0.0019949303178520244 0.011137875875019075 0 0.0019181080075202316 0.011327945389655935 0 0.0015884692440776907 0.012657212086770274 0 0.0015664807100843226 0.01261761960398986 0 0.0013185099808165871 0.012475007554969943 0 0.0015771651226291047 0.012575192118691436 0 0.0015846023682522751 0.012553420153923639 0 0.0015193471161880523 0.012543447663911134 0 0.0015664807100843226 0.01261761960398986 0 0.0015771651226291047 0.012575192118691436 0 0.0015193471161880523 0.012543447663911134 0 0.0015884692440776907 0.012657212086770274 0 0.0015664807100843226 0.01261761960398986 0 0.0016390373295866885 0.012563549616059969 0 0.0015664807100843226 0.01261761960398986 0 0.0016390373295866885 0.012563549616059969 0 0.0015771651226291047 0.012575192118691436 0 0.0016390373295866885 0.012563549616059969 0 0.0015771651226291047 0.012575192118691436 0 0.0015846023682522751 0.012553420153923639 0 0.0015846023682522751 0.012553420153923639 0 0.0016150539339800671 0.012533027619004888 0 0.0015681480718834641 0.01252214306523507 0 0.0016390373295866885 0.012563549616059969 0 0.0015846023682522751 0.012553420153923639 0 0.0016150539339800671 0.012533027619004888 0 0.0016150539339800671 0.012533027619004888 0 0.0015901326963932531 0.012490722344505906 0 0.0015681480718834641 0.01252214306523507 0 0.0016722696491447094 0.012500831771879727 0 0.0016390373295866885 0.012563549616059969 0 0.0016150539339800671 0.012533027619004888 0 0.0016722696491447094 0.012500831771879727 0 0.0016150539339800671 0.012533027619004888 0 0.0015901326963932531 0.012490722344505906 0 0.0016722696491447094 0.012500831771879727 0 0.0015901326963932531 0.012490722344505906 0 0.0016720832764372162 0.012436337839684257 0 0.0015901326963932531 0.012490722344505906 0 0.0015005650726769158 0.012497113289794002 0 0.0014903596840818766 0.012450122349997704 0 0.0015901326963932531 0.012490722344505906 0 0.0015681480718834641 0.01252214306523507 0 0.0015005650726769158 0.012497113289794002 0 0.0015681480718834641 0.01252214306523507 0 0.0015193471161880523 0.012543447663911134 0 0.0015005650726769158 0.012497113289794002 0 0.0015846023682522751 0.012553420153923639 0 0.0015681480718834641 0.01252214306523507 0 0.0015193471161880523 0.012543447663911134 0 0.0012443540028216837 0.010336934603999417 0 0.0011363213690715938 0.010239125617994472 0 0.0011810951511213557 0.010319616316602956 0 0.0012858349023590269 0.010346368479282556 0 0.0012443540028216837 0.010336934603999417 0 0.0011363213690715938 0.010239125617994472 0 0.0011363213690715938 0.010239125617994472 0 0.0011810951511213557 0.010319616316602956 0 0.001106512645141248 0.01034770754403257 0 0.0016322082461163116 0.011392243057207639 0 0.0012138343291825478 0.010373098720012713 0 0.0015193471161880523 0.012543447663911134 0 0.0015005650726769158 0.012497113289794002 0 0.0013185099808165871 0.012475007554969943 0 0.0015005650726769158 0.012497113289794002 0 0.0013185099808165871 0.012475007554969943 0 0.0014903596840818766 0.012450122349997704 0 0.0015664807100843226 0.01261761960398986 0 0.0015193471161880523 0.012543447663911134 0 0.0013185099808165871 0.012475007554969943 0 0.0012138343291825478 0.010373098720012713 0 0.0011525501297961569 0.0096017396894108788 0 0.0012258308160609961 0.010354061299616982 0 0.0011810951511213557 0.010319616316602956 0 0.0012167902448526229 0.010385648925306671 0 0.0011567354354327358 0.01038903923236713 0 0.0012889673209099594 0.010481419440065946 0 0.0012167902448526229 0.010385648925306671 0 0.0012443540028216837 0.010336934603999417 0 0.0012258308160609961 0.010354061299616982 0 0.0011810951511213557 0.010319616316602956 0 0.0011567354354327358 0.01038903923236713 0 0.0012167902448526229 0.010385648925306671 0 0.001106512645141248 0.01034770754403257 0 0.0011810951511213557 0.010319616316602956 0 0.0012167902448526229 0.010385648925306671 0 0.001106512645141248 0.01034770754403257 0 0.00052031103135572192 0.0092956092947715785 0 0.0011618997552263314 0.0092847443410093572 0 0.0006721628221484573 0.0087204041674013282 0 0.0011618997552263314 0.0092847443410093572 0 0.0006721628221484573 0.0087204041674013282 0 0.00095788528928105029 0.0084186624784975961 0 0.0013465606781320508 0.0083011167187543589 0 0.0011618997552263314 0.0092847443410093572 0 0.00095788528928105029 0.0084186624784975961 0 -1.9179151332768315e-05 0.0089793537352349552 0 0.0006721628221484573 0.0087204041674013282 0 0.00091629002614471145 0.0080254072160781658 0 0.0006721628221484573 0.0087204041674013282 0 0.00095788528928105029 0.0084186624784975961 0 0.00091629002614471145 0.0080254072160781658 0 0.0013465606781320508 0.0083011167187543589 0 0.00095788528928105029 0.0084186624784975961 0 0.00091629002614471145 0.0080254072160781658 0 -0.00014439445119160808 0.0088924260996072965 0 -0.0001974043270103193 0.0089359049768017867 0 -0.00022677422541335455 0.0088809817931238717 0 -5.2715072838713189e-05 0.0096570080102463852 0 0.00030854812838912671 0.0098923527924849979 0 0.00047881459307525393 0.009704632459997798 0 -0.0001752137312518014 0.0094649863836657813 0 0.00024109102904976514 0.01009325962959662 0 -0.0001752137312518014 0.0094649863836657813 0 0.00047121766311000805 0.0093625429442450135 0 0.0012138343291825478 0.010373098720012713 0 0.00047121766311000805 0.0093625429442450135 0 0.00096678838736334713 0.010600749731716257 0 0.00058307669425405211 0.010350353666055379 0 0.00068390742559516847 0.01024014960628903 0 0.00024109102904976514 0.01009325962959662 0 0.0010179949801347044 0.011522242879379105 0 0.00047121766311000805 0.0093625429442450135 0 0.00024109102904976514 0.01009325962959662 0 -0.00035316176447217692 0.0096329303858460353 0 -0.00027872200606923281 0.0098067378946995621 0 -0.00039784368318756641 0.0098913812742800564 0 -0.00019742188984451882 0.0096485976892515101 0 -0.00027872200606923281 0.0098067378946995621 0 -0.00013860571925351279 0.0098517046259836826 0 -0.00019742188984451882 0.0096485976892515101 0 -0.00035316176447217692 0.0096329303858460353 0 -0.00027872200606923281 0.0098067378946995621 0 -0.00027872200606923281 0.0098067378946995621 0 -0.00013860571925351279 0.0098517046259836826 0 -0.00023273769610544749 0.010022947763577957 0 -0.00027872200606923281 0.0098067378946995621 0 -0.00039784368318756641 0.0098913812742800564 0 -0.00023273769610544749 0.010022947763577957 0 -0.00039784368318756641 0.0098913812742800564 0 -0.00023273769610544749 0.010022947763577957 0 -0.00045460723206707285 0.010079685062163325 0 0.0011611399647794285 0.011794390789346541 0 0.00049575425802000277 0.011105727608236448 0 0.00059181075374017359 0.011402873281996137 0 0.00069980511562722618 0.011280785284898282 0 0.00066221638140242416 0.011454884562769415 0 0.00049575425802000277 0.011105727608236448 0 0.00047613157359872546 0.011136019005957794 0 0.0011611399647794285 0.011794390789346541 0 0.00047613157359872546 0.011136019005957794 0 -0.00045460723206707285 0.010079685062163325 0 -0.00059917736436027936 0.0099000483809696203 0 -0.00066158071395066621 0.010166158035862951 0 -0.00039784368318756641 0.0098913812742800564 0 -0.00045460723206707285 0.010079685062163325 0 -0.00059917736436027936 0.0099000483809696203 0 0.0013029362635408458 0.012187608115905602 0 0.0013719924934352944 0.012278164816317747 0 0.0014553713492529282 0.01220606091653992 0 0.0014248565656837795 0.012053469107533139 0 0.0013029362635408458 0.012187608115905602 0 0.0014553713492529282 0.01220606091653992 0 0.0013029362635408458 0.012187608115905602 0 0.0013719924934352944 0.012278164816317747 0 0.0012581472284950148 0.012396659081278074 0 0.0013719924934352944 0.012278164816317747 0 0.0012581472284950148 0.012396659081278074 0 0.0014709023370125883 0.012322801423240564 0 0.00024109102904976514 0.01009325962959662 0 0.00049575425802000277 0.011105727608236448 0 -0.00035316176447217692 0.0096329303858460353 0 -0.00039784368318756641 0.0098913812742800564 0 -0.00059917736436027936 0.0099000483809696203 0 0.0006184626348932176 0.010748980469585109 0 0.0004216363416877268 0.010971019984602971 0 0.00047240404461412365 0.010738580687675659 0 0.00049575425802000277 0.011105727608236448 0 0.0010179949801347044 0.011522242879379105 0 0.00096678838736334713 0.010600749731716257 0 0.00068390742559516847 0.01024014960628903 0 0.0010374879202378169 0.010274080136733114 0 0.0012138343291825478 0.010373098720012713 0 0.0010179949801347044 0.011522242879379105 0 0.0013185099808165871 0.012475007554969943 0 0.0013401359002195201 0.012371764049658214 0 0.0014903596840818766 0.012450122349997704 0 0.0010179949801347044 0.011522242879379105 0 0.0017858690758432235 0.012653130603245572 0 0.0012581472284950148 0.012396659081278074 0 0.0014709023370125883 0.012322801423240564 0 0.0016720832764372162 0.012436337839684257 0 0.0014709023370125883 0.012322801423240564 0 0.0016720832764372162 0.012436337839684257 0 0.0016170298766627258 0.012206097567881973 0 0.0013401359002195201 0.012371764049658214 0 0.0014903596840818766 0.012450122349997704 0 0.0016720832764372162 0.012436337839684257 0 0.0015901326963932531 0.012490722344505906 0 0.0014903596840818766 0.012450122349997704 0 0.0016720832764372162 0.012436337839684257 0 0.0013719924934352944 0.012278164816317747 0 0.0014709023370125883 0.012322801423240564 0 0.0014553713492529282 0.01220606091653992 0 0.0016720832764372162 0.012436337839684257 0 0.0017888152894458653 0.012369209475807125 0 0.0016170298766627258 0.012206097567881973 0 0.0018479579181839118 0.012480160319755806 0 0.0017888152894458653 0.012369209475807125 0 0.0019099503650550971 0.012294333777914994 0 0.0018479579181839118 0.012480160319755806 0 0.0016720832764372162 0.012436337839684257 0 0.0017888152894458653 0.012369209475807125 0 0.0016722696491447094 0.012500831771879727 0 0.0018479579181839118 0.012480160319755806 0 0.0016720832764372162 0.012436337839684257 0 0.0017414874095497176 0.012341183660963892 0 0.0016305050110655514 0.012265885810410528 0 0.0017888152894458653 0.012369209475807125 0 0.001781303096124737 0.012189312576992359 0 0.0019099503650550971 0.012294333777914994 0 0.0017888152894458653 0.012369209475807125 0 0.001781303096124737 0.012189312576992359 0 0.0015619808963780511 0.012276470729070128 0 0.001781303096124737 0.012189312576992359 0 0.0015619808963780511 0.012276470729070128 0 0.0015746668399992442 0.012072283121811593 0 0.0014248565656837795 0.012053469107533139 0 0.0014553713492529282 0.01220606091653992 0 0.0016170298766627258 0.012206097567881973 0 0.0014709023370125883 0.012322801423240564 0 0.0014553713492529282 0.01220606091653992 0 0.0016170298766627258 0.012206097567881973 0 0.0012824329361397773 0.012105632089669588 0 0.0015619808963780511 0.012276470729070128 0 0.0015746668399992442 0.012072283121811593 0 0.0011611399647794285 0.011794390789346541 0 0.0016305050110655514 0.012265885810410528 0 0.0011611399647794285 0.011794390789346541 0 0.0013873366584149353 0.011908122471349432 0 0.0011878774205236102 0.012103819860669386 0 0.0014688439671302614 0.011857197342123742 0 0.0012437580409851016 0.011718941949334257 0 0.0012824329361397773 0.012105632089669588 0 0.0015746668399992442 0.012072283121811593 0 0.0014688439671302614 0.011857197342123742 0 0.0014688439671302614 0.011857197342123742 0 0.0017562105819638695 0.011880262749262023 0 0.0014275510634638975 0.01162164756492853 0 0.0014688439671302614 0.011857197342123742 0 0.0012437580409851016 0.011718941949334257 0 0.0014275510634638975 0.01162164756492853 0 0.001781303096124737 0.012189312576992359 0 0.0017562105819638695 0.011880262749262023 0 0.0019867284909411442 0.01215573821457968 0 0.001781303096124737 0.012189312576992359 0 0.0015746668399992442 0.012072283121811593 0 0.0017562105819638695 0.011880262749262023 0 0.0015746668399992442 0.012072283121811593 0 0.0014688439671302614 0.011857197342123742 0 0.0017562105819638695 0.011880262749262023 0 0.0017562105819638695 0.011880262749262023 0 0.0018319762332308176 0.011641633719524149 0 0.0019905194329978056 0.011932750680605521 0 0.0017562105819638695 0.011880262749262023 0 0.0015805200608857923 0.011521288552511126 0 0.0014275510634638975 0.01162164756492853 0 0.0017562105819638695 0.011880262749262023 0 0.0015805200608857923 0.011521288552511126 0 0.0018319762332308176 0.011641633719524149 0 0.0015805200608857923 0.011521288552511126 0 0.0018319762332308176 0.011641633719524149 0 0.0015726554350935656 0.011135538011287135 0 0.0014275510634638975 0.01162164756492853 0 0.0012850117440387733 0.01127584891101029 0 0.0011591263575479551 0.011460794651269951 0 0.0012437580409851016 0.011718941949334257 0 0.0014275510634638975 0.01162164756492853 0 0.0011591263575479551 0.011460794651269951 0 0.0015805200608857923 0.011521288552511126 0 0.0012850117440387733 0.01127584891101029 0 0.0015726554350935656 0.011135538011287135 0 0.0015805200608857923 0.011521288552511126 0 0.0014275510634638975 0.01162164756492853 0 0.0012850117440387733 0.01127584891101029 0 0.0012850117440387733 0.01127584891101029 0 0.00091790186171289217 0.011177348047765089 0 0.0011192779940900235 0.011024443777712969 0 0.0012850117440387733 0.01127584891101029 0 0.0011591263575479551 0.011460794651269951 0 0.00091790186171289217 0.011177348047765089 0 0.0012437580409851016 0.011718941949334257 0 0.0011591263575479551 0.011460794651269951 0 0.00090082618511168756 0.011524961983208267 0 0.0011591263575479551 0.011460794651269951 0 0.00091790186171289217 0.011177348047765089 0 0.00090082618511168756 0.011524961983208267 0 0.00091790186171289217 0.011177348047765089 0 0.00057060839887188182 0.011514349591193402 0 0.00090082618511168756 0.011524961983208267 0 0.00091790186171289217 0.011177348047765089 0 0.00057060839887188182 0.011514349591193402 0 0.00050001715913285496 0.010812457650955197 0 0.00057060839887188182 0.011514349591193402 0 0.00050001715913285496 0.010812457650955197 0 0.00014234775101404712 0.010784274539584374 0 9.3705617823322611e-05 0.010940730043406743 0 0.00015446631364521524 0.010850528884916713 0 -0.00023273769610544749 0.010022947763577957 0 -0.00045460723206707285 0.010079685062163325 0 -0.00033983215079598142 0.010426559096519555 0 -0.00023273769610544749 0.010022947763577957 0 -0.00033983215079598142 0.010426559096519555 0 6.7914103396024111e-05 0.010245850456306764 0 0.00057060839887188182 0.011514349591193402 0 0.0010362858131025101 0.012016339746351525 0 0.0010712667483538183 0.01186729509754389 0 -0.00045460723206707285 0.010079685062163325 0 -0.00033983215079598142 0.010426559096519555 0 -0.00066158071395066621 0.010166158035862951 0 9.3705617823322611e-05 0.010940730043406743 0 0.00047613157359872546 0.011136019005957794 0 0.00057060839887188182 0.011514349591193402 0 0.0010712667483538183 0.01186729509754389 0 0.00090082618511168756 0.011524961983208267 0 0.00047613157359872546 0.011136019005957794 0 0.00053792442248727288 0.011505483009755244 0 0.0011878774205236102 0.012103819860669386 0 0.0010422765876632225 0.011993008791352589 0 0.0010712667483538183 0.01186729509754389 0 0.0011878774205236102 0.012103819860669386 0 0.0012437580409851016 0.011718941949334257 0 0.0010712667483538183 0.01186729509754389 0 0.0012437580409851016 0.011718941949334257 0 0.0010712667483538183 0.01186729509754389 0 0.00090082618511168756 0.011524961983208267 0 0.0032879243538448512 0.019414698164189281 0 0.003492391873937632 0.019018690976445114 0 0.0036696938594143786 0.019943497940879316 0 0.0032879243538448512 0.019414698164189281 0 0.0034607417583036415 0.019859174757706155 0 0.0036696938594143786 0.019943497940879316 0 0.0025231550068560834 0.013944493042440134 0 0.0027375540420751924 0.016280163251815378 0 0.0032879243538448512 0.019414698164189281 0 0.0034607417583036415 0.019859174757706155 0 0.0028905520100989987 0.019699046865954157 0 0.0032879243538448512 0.019414698164189281 0 0.003492391873937632 0.019018690976445114 0 0.0027319699445873353 0.019150722010800151 0 0.0014954970005660935 0.011406316209260669 0 0.0017679093741436529 0.011588434526040076 0 0.0016829237765250355 0.011363105595155321 0 0.0014954970005660935 0.011406316209260669 0 0.0017679093741436529 0.011588434526040076 0 0.0016343767067319328 0.011783967905959489 0 0.0017679093741436529 0.011588434526040076 0 0.001870847731384761 0.011509567444320789 0 0.0021433429206633337 0.012252527893362777 0 0.0017679093741436529 0.011588434526040076 0 0.0021433429206633337 0.012252527893362777 0 0.0016343767067319328 0.011783967905959489 0 0.0021257107963066216 0.012275362859383987 0 0.0021558238475565864 0.012224209124031042 0 0.0021433429206633337 0.012252527893362777 0 0.001997513067464761 0.01192652153349812 0 0.0020731769155244635 0.012221575325044627 0 0.0021257107963066216 0.012275362859383987 0 0.0019867284909411442 0.01215573821457968 0 0.0021558238475565864 0.012224209124031042 0 0.0017679093741436529 0.011588434526040076 0 0.001870847731384761 0.011509567444320789 0 0.0016829237765250355 0.011363105595155321 0 0.0017914762545087153 0.011303023599637663 0 0.001870847731384761 0.011509567444320789 0 0.0016829237765250355 0.011363105595155321 0 0.0019165148608431262 0.011966619641051238 0 0.001997513067464761 0.01192652153349812 0 0.0017914762545087153 0.011303023599637663 0 0.0019181080075202316 0.011327945389655935 0 0.001870847731384761 0.011509567444320789 0 0.0018479579181839118 0.012480160319755806 0 0.0021257107963066216 0.012275362859383987 0 0.0019099503650550971 0.012294333777914994 0 0.0021257107963066216 0.012275362859383987 0 0.0019099503650550971 0.012294333777914994 0 0.0019867284909411442 0.01215573821457968 0 0.001781303096124737 0.012189312576992359 0 0.0019099503650550971 0.012294333777914994 0 0.0019867284909411442 0.01215573821457968 0 0.0017562105819638695 0.011880262749262023 0 0.0019867284909411442 0.01215573821457968 0 0.0019905194329978056 0.011932750680605521 0 0.0019867284909411442 0.01215573821457968 0 0.0019905194329978056 0.011932750680605521 0 0.0021558238475565864 0.012224209124031042 0 0.0018319762332308176 0.011641633719524149 0 0.0019905194329978056 0.011932750680605521 0 0.0020866586277525478 0.011745007251295651 0 0.0018319762332308176 0.011641633719524149 0 0.0020866586277525478 0.011745007251295651 0 0.0019499442632663409 0.011423555722523723 0 0.0019905194329978056 0.011932750680605521 0 0.0020866586277525478 0.011745007251295651 0 0.0021279702576691832 0.012019812138295474 0 0.0020866586277525478 0.011745007251295651 0 0.0021843322088791941 0.011769863658012737 0 0.0022580726781627697 0.011664435131046954 0 0.0020866586277525478 0.011745007251295651 0 0.0021279702576691832 0.012019812138295474 0 0.0021843322088791941 0.011769863658012737 0 0.0021843322088791941 0.011769863658012737 0 0.0021676789747659825 0.012070737809670957 0 0.0022777485282870487 0.011819569729542373 0 0.0021279702576691832 0.012019812138295474 0 0.0021843322088791941 0.011769863658012737 0 0.0021676789747659825 0.012070737809670957 0 0.0021676789747659825 0.012070737809670957 0 0.0021929892176232963 0.012289944885031252 0 0.0021781270572561228 0.012258417782895702 0 0.0021279702576691832 0.012019812138295474 0 0.0021676789747659825 0.012070737809670957 0 0.0021929892176232963 0.012289944885031252 0 0.0019905194329978056 0.011932750680605521 0 0.0021279702576691832 0.012019812138295474 0 0.0021558238475565864 0.012224209124031042 0 0.0021279702576691832 0.012019812138295474 0 0.0021929892176232963 0.012289944885031252 0 0.0021558238475565864 0.012224209124031042 0 0.0022002835806214541 0.013039522569280164 0 0.0021777960489259103 0.012507344650577575 0 0.0022777485282870487 0.011819569729542373 0 0.0021929892176232963 0.012289944885031252 0 0.0021558238475565864 0.012224209124031042 0 0.0021433429206633337 0.012252527893362777 0 0.0016343767067319328 0.011783967905959489 0 0.0022002835806214541 0.013039522569280164 0 0.0038758514443665831 0.020506250466775892 0 0.0021433429206633337 0.012252527893362777 0 0.0022002835806214541 0.013039522569280164 0 0.0021777960489259103 0.012507344650577575 0 0.0021433429206633337 0.012252527893362777 0 0.0016343767067319328 0.011783967905959489 0 0.0022002835806214541 0.013039522569280164 0 0.0021929892176232963 0.012289944885031252 0 0.0021433429206633337 0.012252527893362777 0 0.0021777960489259103 0.012507344650577575 0 0.0021929892176232963 0.012289944885031252 0 0.0021777960489259103 0.012507344650577575 0 0.0021781270572561228 0.012258417782895702 0 0.0024118297432127959 0.013217480197585282 0 0.0036890805153216356 0.015560950652205781 0 0.0021676789747659825 0.012070737809670957 0 0.0021781270572561228 0.012258417782895702 0 0.0022777485282870487 0.011819569729542373 0 0.0036696938594143786 0.019943497940879316 0 0.0035961101981421785 0.020406580114094568 0 0.0038758514443665831 0.020506250466775892 0 0.0021777960489259103 0.012507344650577575 0 0.0021781270572561228 0.012258417782895702 0 0.0022777485282870487 0.011819569729542373 0 0.0022002835806214541 0.013039522569280164 0 0.0054683150817942481 0.019485509488840289 0 0.0038758514443665831 0.020506250466775892 0 0.0027375540420751924 0.016280163251815378 0 0.0037096939817729342 0.020067794643492447 0 0.0035961101981421785 0.020406580114094568 0 0.0034076070687941262 0.020334278683591351 0 0.0034812348689991076 0.020156333109660914 0 0.0035961101981421785 0.020406580114094568 0 0.0035173598756457467 0.020993518564356974 0 0.0038758514443665831 0.020506250466775892 0 0.0035961101981421785 0.020406580114094568 0 0.0032329372794417475 0.020662096115555438 0 0.0035173598756457467 0.020993518564356974 0 0.0032329372794417475 0.020662096115555438 0 0.0034076070687941262 0.020334278683591351 0 0.0031939821899276762 0.020218303330123751 0 0.0035961101981421785 0.020406580114094568 0 0.0032329372794417475 0.020662096115555438 0 0.0034076070687941262 0.020334278683591351 0 0.0034076070687941262 0.020334278683591351 0 0.0034812348689991076 0.020156333109660914 0 0.0031939821899276762 0.020218303330123751 0 0.0036696938594143786 0.019943497940879316 0 0.0035961101981421785 0.020406580114094568 0 0.0034812348689991076 0.020156333109660914 0 0.0034607417583036415 0.019859174757706155 0 0.0036696938594143786 0.019943497940879316 0 0.0034812348689991076 0.020156333109660914 0 0.0034607417583036415 0.019859174757706155 0 0.0034812348689991076 0.020156333109660914 0 0.0031939821899276762 0.020218303330123751 0 0.0038262993743546432 0.023086183894458535 0 0.0032928299125541665 0.022351745279222263 0 0.0030863480567385128 0.023143376535104156 0 0.0040618725686849787 0.022268679286719831 0 0.0038262993743546432 0.023086183894458535 0 0.0032928299125541665 0.022351745279222263 0 0.0040618725686849787 0.022268679286719831 0 0.0046745742156171213 0.022999462342670005 0 0.0038262993743546432 0.023086183894458535 0 0.0040618725686849787 0.022268679286719831 0 0.0035285029587113579 0.021722953742390267 0 0.0032928299125541665 0.022351745279222263 0 0.0035285029587113579 0.021722953742390267 0 0.0035173598756457467 0.020993518564356974 0 0.0030702883077778497 0.021478621475730229 0 0.0035285029587113579 0.021722953742390267 0 0.0030702883077778497 0.021478621475730229 0 0.0032928299125541665 0.022351745279222263 0 0.0032329372794417475 0.020662096115555438 0 0.0035173598756457467 0.020993518564356974 0 0.0030702883077778497 0.021478621475730229 0 0.0035173598756457467 0.020993518564356974 0 0.0038697753862019235 0.021423944635189689 0 0.0038758514443665831 0.020506250466775892 0 0.0035285029587113579 0.021722953742390267 0 0.0035173598756457467 0.020993518564356974 0 0.0038697753862019235 0.021423944635189689 0 0.0040618725686849787 0.022268679286719831 0 0.0035285029587113579 0.021722953742390267 0 0.0038697753862019235 0.021423944635189689 0 0.0054683150817942481 0.019485509488840289 0 0.0046664280275373901 0.021529394374274945 0 0.0056827852450316973 0.022023611250214261 0 0.0040618725686849787 0.022268679286719831 0 0.0038697753862019235 0.021423944635189689 0 0.0046664280275373901 0.021529394374274945 0 0.0038697753862019235 0.021423944635189689 0 0.0038758514443665831 0.020506250466775892 0 0.0046664280275373901 0.021529394374274945 0 0.0054683150817942481 0.019485509488840289 0 0.0038758514443665831 0.020506250466775892 0 0.0046664280275373901 0.021529394374274945 0 0.0046664280275373901 0.021529394374274945 0 0.0048566733479000175 0.02233507924776133 0 0.0056827852450316973 0.022023611250214261 0 0.0040618725686849787 0.022268679286719831 0 0.0046664280275373901 0.021529394374274945 0 0.0048566733479000175 0.02233507924776133 0 0.0040618725686849787 0.022268679286719831 0 0.0048566733479000175 0.02233507924776133 0 0.0046745742156171213 0.022999462342670005 0 0.0048566733479000175 0.02233507924776133 0 0.005338666080074812 0.022796064364275868 0 0.0046745742156171213 0.022999462342670005 0 0.0020051471068228857 0.012008465463410875 0 0.0025568484632318288 0.012438429395772999 0 0.0022749927641293852 0.013176951053076424 0 0.005338666080074812 0.022796064364275868 0 0.0056827852450316973 0.022023611250214261 0 0.0058734812187671657 0.023181704163673756 0 0.0039147205553360853 0.017066999004347126 0 0.0039665844110953986 0.017842109115464962 0 0.0048566733479000175 0.02233507924776133 0 0.005338666080074812 0.022796064364275868 0 0.0056827852450316973 0.022023611250214261 0 0.0020051471068228857 0.012008465463410875 0 0.0022580726781627697 0.011664435131046954 0 0.0025568484632318288 0.012438429395772999 0 0.0021843322088791941 0.011769863658012737 0 0.0020051471068228857 0.012008465463410875 0 0.0022580726781627697 0.011664435131046954 0 0.0021843322088791941 0.011769863658012737 0 0.0022777485282870487 0.011819569729542373 0 0.0020051471068228857 0.012008465463410875 0 0.0036890805153216356 0.015560950652205781 0 0.0039147205553360853 0.017066999004347126 0 0.0022580726781627697 0.011664435131046954 0 0.0019499442632663409 0.011423555722523723 0 0.0019218178512006364 0.010888097148198956 0 0.0023074603863140293 0.011616613878099953 0 0.0025199550447825218 0.011566315930994163 0 0.0020866586277525478 0.011745007251295651 0 0.0022580726781627697 0.011664435131046954 0 0.0019499442632663409 0.011423555722523723 0 0.0022580726781627697 0.011664435131046954 0 0.0025568484632318288 0.012438429395772999 0 0.0032317033595285396 0.012256973879179177 0 0.0025568484632318288 0.012438429395772999 0 0.0032317033595285396 0.012256973879179177 0 0.0032229921417448763 0.012844923220227022 0 0.0025568484632318288 0.012438429395772999 0 0.0027824527200387785 0.013009458370664298 0 0.0032229921417448763 0.012844923220227022 0 0.0030960585990741354 0.013482709551808733 0 0.0027435429473924872 0.014400163468630503 0 0.0022749927641293852 0.013176951053076424 0 0.0027824527200387785 0.013009458370664298 0 0.0030960585990741354 0.013482709551808733 0 0.0022749927641293852 0.013176951053076424 0 0.0027824527200387785 0.013009458370664298 0 0.0030960585990741354 0.013482709551808733 0 0.0032229921417448763 0.012844923220227022 0 0.0025568484632318288 0.012438429395772999 0 0.0027824527200387785 0.013009458370664298 0 0.0022749927641293852 0.013176951053076424 0 0.00492064473277176 0.020744737915700383 0 0.0039665844110953986 0.017842109115464962 0 0.0064539810205805773 0.024325060746380068 0 0.0055263254511722388 0.02409768292781661 0 0.0057346942527078974 0.024698705099418426 0 0.0064539810205805773 0.024325060746380068 0 0.0055263254511722388 0.02409768292781661 0 0.0054875754194686314 0.023367146961523071 0 0.00492064473277176 0.020744737915700383 0 0.0063153128393295529 0.024556055270575153 0 0.005100680223991111 0.02432479046453645 0 0.0050368560908716749 0.02480705679990684 0 0.0057346942527078974 0.024698705099418426 0 0.0055263254511722388 0.02409768292781661 0 0.005100680223991111 0.02432479046453645 0 0.0057346942527078974 0.024698705099418426 0 0.0055263254511722388 0.02409768292781661 0 0.0054875754194686314 0.023367146961523071 0 0.0048128469733518565 0.023766542930469346 0 0.0055263254511722388 0.02409768292781661 0 0.0048128469733518565 0.023766542930469346 0 0.005100680223991111 0.02432479046453645 0 0.0061671179616524813 0.023843837288583688 0 0.0054875754194686314 0.023367146961523071 0 0.0058734812187671657 0.023181704163673756 0 0.005338666080074812 0.022796064364275868 0 0.0054875754194686314 0.023367146961523071 0 0.0058734812187671657 0.023181704163673756 0 0.005338666080074812 0.022796064364275868 0 0.0054875754194686314 0.023367146961523071 0 0.0046745742156171213 0.022999462342670005 0 0.0046745742156171213 0.022999462342670005 0 0.0043609211392595919 0.023427771274573499 0 0.0038262993743546432 0.023086183894458535 0 0.0043609211392595919 0.023427771274573499 0 0.0048128469733518565 0.023766542930469346 0 0.0041123194878575154 0.023846458636482295 0 0.0046745742156171213 0.022999462342670005 0 0.0043609211392595919 0.023427771274573499 0 0.0048128469733518565 0.023766542930469346 0 0.0054875754194686314 0.023367146961523071 0 0.0046745742156171213 0.022999462342670005 0 0.0048128469733518565 0.023766542930469346 0 0.0048128469733518565 0.023766542930469346 0 0.005100680223991111 0.02432479046453645 0 0.0044287544904540333 0.024405929897028431 0 0.005100680223991111 0.02432479046453645 0 0.0044287544904540333 0.024405929897028431 0 0.0050368560908716749 0.02480705679990684 0 0.0048128469733518565 0.023766542930469346 0 0.0044287544904540333 0.024405929897028431 0 0.0041123194878575154 0.023846458636482295 0 0.0044287544904540333 0.024405929897028431 0 0.0041123194878575154 0.023846458636482295 0 0.0038525339725490621 0.024606777305637657 0 0.0038525339725490621 0.024606777305637657 0 0.003428528993043189 0.023849816207110047 0 0.0030878062154464135 0.024536750751983954 0 0.0041123194878575154 0.023846458636482295 0 0.0038525339725490621 0.024606777305637657 0 0.003428528993043189 0.023849816207110047 0 0.0041123194878575154 0.023846458636482295 0 0.003428528993043189 0.023849816207110047 0 0.0038262993743546432 0.023086183894458535 0 0.0043609211392595919 0.023427771274573499 0 0.0041123194878575154 0.023846458636482295 0 0.0038262993743546432 0.023086183894458535 0 0.003428528993043189 0.023849816207110047 0 0.0038262993743546432 0.023086183894458535 0 0.0030863480567385128 0.023143376535104156 0 0.0010779288463896731 0.01042045914576745 0 0.00086074591750921292 0.010431757463557111 0 0.00093605057776279703 0.010733659348201372 0 0.0010779288463896731 0.01042045914576745 0 0.00093605057776279703 0.010733659348201372 0 0.0012585475117197693 0.010627093301366722 0 0.0010779288463896731 0.01042045914576745 0 0.0012823544675344277 0.010433503672838434 0 0.0011700407138626667 0.010234637699644942 0 0.0010779288463896731 0.01042045914576745 0 0.00086074591750921292 0.010431757463557111 0 0.00091500796392409941 0.010176674693623681 0 0.00086074591750921292 0.010431757463557111 0 0.00068783620421690233 0.010280173811998049 0 0.00091500796392409941 0.010176674693623681 0 0.00086074591750921292 0.010431757463557111 0 0.00068783620421690233 0.010280173811998049 0 0.00054832993961430494 0.010496877026437807 0 0.00086074591750921292 0.010431757463557111 0 0.00054832993961430494 0.010496877026437807 0 0.00093605057776279703 0.010733659348201372 0 0.00068783620421690233 0.010280173811998049 0 0.00054832993961430494 0.010496877026437807 0 0.0003762278275561449 0.010234226938787248 0 0.00054832993961430494 0.010496877026437807 0 0.00050001715913285496 0.010812457650955197 0 0.00093605057776279703 0.010733659348201372 0 0.00091790186171289217 0.011177348047765089 0 0.00050001715913285496 0.010812457650955197 0 0.00093605057776279703 0.010733659348201372 0 0.00091790186171289217 0.011177348047765089 0 0.00093605057776279703 0.010733659348201372 0 0.0011192779940900235 0.011024443777712969 0 0.00093605057776279703 0.010733659348201372 0 0.0011192779940900235 0.011024443777712969 0 0.0013091429660750094 0.01093246882962725 0 0.0012850117440387733 0.01127584891101029 0 0.0011192779940900235 0.011024443777712969 0 0.0013091429660750094 0.01093246882962725 0 0.0012850117440387733 0.01127584891101029 0 0.0013091429660750094 0.01093246882962725 0 0.0015726554350935656 0.011135538011287135 0 0.0013091429660750094 0.01093246882962725 0 0.0015726554350935656 0.011135538011287135 0 0.0015205742829717114 0.010726128784352333 0 0.0018319762332308176 0.011641633719524149 0 0.0019499442632663409 0.011423555722523723 0 0.0015726554350935656 0.011135538011287135 0 0.0019499442632663409 0.011423555722523723 0 0.0015726554350935656 0.011135538011287135 0 0.0019218178512006364 0.010888097148198956 0 0.0032317033595285396 0.012256973879179177 0 0.003999029136371084 0.012920236637960297 0 0.0037911284904699788 0.01293810036284595 0 0.0019218178512006364 0.010888097148198956 0 0.0015205742829717114 0.010726128784352333 0 0.0014863790016035603 0.010347841841131578 0 0.0025199550447825218 0.011566315930994163 0 0.0028372660998651818 0.01172313383970708 0 0.0015726554350935656 0.011135538011287135 0 0.0019218178512006364 0.010888097148198956 0 0.0015205742829717114 0.010726128784352333 0 0.0032317033595285396 0.012256973879179177 0 0.0032229921417448763 0.012844923220227022 0 0.0037911284904699788 0.01293810036284595 0 0.00093605057776279703 0.010733659348201372 0 0.0013091429660750094 0.01093246882962725 0 0.0012585475117197693 0.010627093301366722 0 0.0013091429660750094 0.01093246882962725 0 0.0012585475117197693 0.010627093301366722 0 0.0015205742829717114 0.010726128784352333 0 0.0012585475117197693 0.010627093301366722 0 0.0015205742829717114 0.010726128784352333 0 0.0013841550795004856 0.010534938043185595 0 0.0015205742829717114 0.010726128784352333 0 0.0013841550795004856 0.010534938043185595 0 0.0014863790016035603 0.010347841841131578 0 0.0013841550795004856 0.010534938043185595 0 0.0012823544675344277 0.010433503672838434 0 0.0014863790016035603 0.010347841841131578 0 0.0010779288463896731 0.01042045914576745 0 0.0012585475117197693 0.010627093301366722 0 0.0012823544675344277 0.010433503672838434 0 0.0012585475117197693 0.010627093301366722 0 0.0013841550795004856 0.010534938043185595 0 0.0012823544675344277 0.010433503672838434 0 0.0014863790016035603 0.010347841841131578 0 0.0010740763877062039 0.0099856645889142177 0 0.0011700407138626667 0.010234637699644942 0 0.0012823544675344277 0.010433503672838434 0 0.0014863790016035603 0.010347841841131578 0 0.0011700407138626667 0.010234637699644942 0 0.003999029136371084 0.012920236637960297 0 0.0040219265901081771 0.013177525310625694 0 0.0042477734644505646 0.013173004414342 0 0.0040219265901081771 0.013177525310625694 0 0.0037911284904699788 0.01293810036284595 0 0.0039680992767382704 0.013470032360475755 0 0.0028372660998651818 0.01172313383970708 0 0.0021568510106618768 0.011041897701196332 0 0.003999029136371084 0.012920236637960297 0 0.0040219265901081771 0.013177525310625694 0 0.0037911284904699788 0.01293810036284595 0 0.0037911284904699788 0.01293810036284595 0 0.0036382859782047605 0.013685292865896153 0 0.0043513340722090878 0.014599972743859272 0 0.0030960585990741354 0.013482709551808733 0 0.0032229921417448763 0.012844923220227022 0 0.0034361286931152858 0.013233101417922369 0 0.0032229921417448763 0.012844923220227022 0 0.0034361286931152858 0.013233101417922369 0 0.0037911284904699788 0.01293810036284595 0 0.0034361286931152858 0.013233101417922369 0 0.0037911284904699788 0.01293810036284595 0 0.0036382859782047605 0.013685292865896153 0 0.0030960585990741354 0.013482709551808733 0 0.0034361286931152858 0.013233101417922369 0 0.0036382859782047605 0.013685292865896153 0 0.0027435429473924872 0.014400163468630503 0 0.0035300785130695303 0.014253919724042457 0 0.0037505516441449982 0.015348497966158737 0 0.0030960585990741354 0.013482709551808733 0 0.0036382859782047605 0.013685292865896153 0 0.0035300785130695303 0.014253919724042457 0 0.0030960585990741354 0.013482709551808733 0 0.0027435429473924872 0.014400163468630503 0 0.0035300785130695303 0.014253919724042457 0 0.0036382859782047605 0.013685292865896153 0 0.0035300785130695303 0.014253919724042457 0 0.0043513340722090878 0.014599972743859272 0 0.0038289257830473136 0.013115647711676537 0 0.0041558305192674989 0.013733776315180451 0 0.0040219265901081771 0.013177525310625694 0 0.0041090808713511451 0.013312050438076675 0 0.0039680992767382704 0.013470032360475755 0 0.0040219265901081771 0.013177525310625694 0 0.0041090808713511451 0.013312050438076675 0 0.0042477734644505646 0.013173004414342 0 0.0041090808713511451 0.013312050438076675 0 0.0039680992767382704 0.013470032360475755 0 0.0041934279231996717 0.013432783270906157 0 0.0021568510106618768 0.011041897701196332 0 0.0025444384324985075 0.011439733273278248 0 0.0021568510106618768 0.011041897701196332 0 0.00042937646995660919 0.0092047031721667633 0 0.0041934279231996717 0.013432783270906157 0 0.0042477734644505646 0.013173004414342 0 0.0044173319633444546 0.013557550325666537 0 0.0017174552457650811 0.010264698609405853 0 0.00108547055536891 0.009584849387187299 0 0.0012746426765264274 0.0091965249413199519 0 0.0041090808713511451 0.013312050438076675 0 0.0041934279231996717 0.013432783270906157 0 0.0042477734644505646 0.013173004414342 0 0.0021568510106618768 0.011041897701196332 0 0.0012549851230416473 0.0099077651571576192 0 0.0010958076904366589 0.0099503396464308037 0 0.00091500796392409941 0.010176674693623681 0 0.0011700407138626667 0.010234637699644942 0 0.0010958076904366589 0.0099503396464308037 0 0.00091500796392409941 0.010176674693623681 0 0.00081560728810667923 0.009888298754204803 0 0.0010779288463896731 0.01042045914576745 0 0.00091500796392409941 0.010176674693623681 0 0.0011700407138626667 0.010234637699644942 0 0.00068783620421690233 0.010280173811998049 0 0.00064252829753704379 0.01002325938393542 0 0.0003762278275561449 0.010234226938787248 0 0.00068783620421690233 0.010280173811998049 0 0.00091500796392409941 0.010176674693623681 0 0.00064252829753704379 0.01002325938393542 0 0.00091500796392409941 0.010176674693623681 0 0.00064252829753704379 0.01002325938393542 0 0.00081560728810667923 0.009888298754204803 0 0.00064252829753704379 0.01002325938393542 0 0.00064963363911610839 0.0097894897048786678 0 0.00081560728810667923 0.009888298754204803 0 0.0017174552457650811 0.010264698609405853 0 0.00108547055536891 0.009584849387187299 0 0.00074819353701762814 0.0094930004995252351 0 0.0010958076904366589 0.0099503396464308037 0 0.00081560728810667923 0.009888298754204803 0 0.00074819353701762814 0.0094930004995252351 0 0.00064252829753704379 0.01002325938393542 0 0.00064963363911610839 0.0097894897048786678 0 0.00038326885169075593 0.0097409760968216394 0 0.00064963363911610839 0.0097894897048786678 0 0.00074819353701762814 0.0094930004995252351 0 0.00038326885169075593 0.0097409760968216394 0 0.00064963363911610839 0.0097894897048786678 0 0.00081560728810667923 0.009888298754204803 0 0.00074819353701762814 0.0094930004995252351 0 0.00074819353701762814 0.0094930004995252351 0 0.00038326885169075593 0.0097409760968216394 0 0.00058849405716216634 0.0092353619516471665 0 0.00038326885169075593 0.0097409760968216394 0 9.7401433198462404e-06 0.0094530094805283793 0 0.00035028159589355469 0.0090972467857696835 0 -0.0012052521968645914 -0.0050774535823727056 0 -0.00063512938443743751 -0.0066895097938024211 0 0.00027652270268204701 -0.0055150037372322944 0 0.00038326885169075593 0.0097409760968216394 0 9.7401433198462404e-06 0.0094530094805283793 0 -9.3588201797939415e-06 0.010168804636212597 0 -0.0006011431835653032 0.0022477362637983219 0 -0.00030748545094602691 0.0017286821705260822 0 0.00038326885169075593 0.0097409760968216394 0 -9.3588201797939415e-06 0.010168804636212597 0 0.0003762278275561449 0.010234226938787248 0 0.00064252829753704379 0.01002325938393542 0 0.00038326885169075593 0.0097409760968216394 0 0.0003762278275561449 0.010234226938787248 0 0.00054832993961430494 0.010496877026437807 0 0.0003762278275561449 0.010234226938787248 0 0.00021126790009639673 0.010590359071247998 0 -9.3588201797939415e-06 0.010168804636212597 0 0.0003762278275561449 0.010234226938787248 0 0.00021126790009639673 0.010590359071247998 0 -0.00030748545094602691 0.0017286821705260822 0 0.00013499797951979032 0.001198093935951181 0 -9.3588201797939415e-06 0.010168804636212597 0 0.00021126790009639673 0.010590359071247998 0 0.00017332786476934018 0.010559265745097166 0 0.00021126790009639673 0.010590359071247998 0 0.00017332786476934018 0.010559265745097166 0 0.00023821690453134164 0.010578225777937905 0 0.00050001715913285496 0.010812457650955197 0 0.00021126790009639673 0.010590359071247998 0 0.00014234775101404712 0.010784274539584374 0 0.00054832993961430494 0.010496877026437807 0 0.00050001715913285496 0.010812457650955197 0 0.00021126790009639673 0.010590359071247998 0 8.4277876437700009e-05 -0.0081236027578230185 0 0.0015322856600677498 -0.0081438066550532217 0 0.00077517983596188443 -0.0092247325949130921 0 8.4277876437700009e-05 -0.0081236027578230185 0 0.00053888484845316547 -0.0071880444276753597 0 0.0015322856600677498 -0.0081438066550532217 0 -0.00063512938443743751 -0.0066895097938024211 0 8.4277876437700009e-05 -0.0081236027578230185 0 0.00053888484845316547 -0.0071880444276753597 0 0.00053888484845316547 -0.0071880444276753597 0 0.0013682470771021684 -0.0064572368048680445 0 0.0015322856600677498 -0.0081438066550532217 0 0.00053888484845316547 -0.0071880444276753597 0 0.0013682470771021684 -0.0064572368048680445 0 0.00027652270268204701 -0.0055150037372322944 0 -0.00063512938443743751 -0.0066895097938024211 0 0.00053888484845316547 -0.0071880444276753597 0 0.00027652270268204701 -0.0055150037372322944 0 0.00027652270268204701 -0.0055150037372322944 0 0.0012330404256899598 -0.0053945083135643283 0 0.00051852672065156127 -0.0043205981192960437 0 0.0013682470771021684 -0.0064572368048680445 0 0.00027652270268204701 -0.0055150037372322944 0 0.0012330404256899598 -0.0053945083135643283 0 0.0012330404256899598 -0.0053945083135643283 0 0.0021191244331220066 -0.00557331561692412 0 0.0015084282042532996 -0.004492404987467823 0 0.0013682470771021684 -0.0064572368048680445 0 0.0012330404256899598 -0.0053945083135643283 0 0.0021191244331220066 -0.00557331561692412 0 0.0021191244331220066 -0.00557331561692412 0 0.0033243425137765986 -0.005923382716419583 0 0.002407021533614486 -0.0066577107421018963 0 0.0021191244331220066 -0.00557331561692412 0 0.0033243425137765986 -0.005923382716419583 0 0.0028344610747264806 -0.0050645714389075946 0 0.0031039763699460625 -0.009053963903875098 0 0.0029993466426273181 -0.0091254663921857913 0 0.0033243425137765986 -0.005923382716419583 0 0.002407021533614486 -0.0066577107421018963 0 0.0031201316076222819 -0.0075691869992651102 0 0.0013682470771021684 -0.0064572368048680445 0 0.0021191244331220066 -0.00557331561692412 0 0.002407021533614486 -0.0066577107421018963 0 0.0017220777422337664 -0.011813088628900518 0 0.0022500647381435463 -0.011712681159359117 0 0.001966810474540069 -0.012173351580838796 0 0.0022500647381435463 -0.011712681159359117 0 0.0024649117481840865 -0.012208982976055152 0 0.001966810474540069 -0.012173351580838796 0 0.0028713370644423554 -0.011733809568249995 0 0.0022500647381435463 -0.011712681159359117 0 0.0024649117481840865 -0.012208982976055152 0 0.0028713370644423554 -0.011733809568249995 0 0.0022500647381435463 -0.011712681159359117 0 0.0022739155663665613 -0.0110049179073633 0 0.0028713370644423554 -0.011733809568249995 0 0.0022739155663665613 -0.0110049179073633 0 0.0029334049871074961 -0.010800440914904718 0 0.0022500647381435463 -0.011712681159359117 0 0.001933408637480869 -0.011351585077644926 0 0.0022739155663665613 -0.0110049179073633 0 0.0017220777422337664 -0.011813088628900518 0 0.0022500647381435463 -0.011712681159359117 0 0.001933408637480869 -0.011351585077644926 0 0.0018054233594693267 -0.010746549638625221 0 0.001933408637480869 -0.011351585077644926 0 0.0022739155663665613 -0.0110049179073633 0 0.0018054233594693267 -0.010746549638625221 0 0.0022739155663665613 -0.0110049179073633 0 0.0022259665604458965 -0.010118078182626809 0 0.0022739155663665613 -0.0110049179073633 0 0.0022259665604458965 -0.010118078182626809 0 0.0029334049871074961 -0.010800440914904718 0 0.0022259665604458965 -0.010118078182626809 0 0.0029334049871074961 -0.010800440914904718 0 0.0027222373501747023 -0.0093798614623866062 0 0.0018054233594693267 -0.010746549638625221 0 0.001834339259162534 -0.010080072319277638 0 0.0022259665604458965 -0.010118078182626809 0 0.0013682470771021684 -0.0064572368048680445 0 0.002407021533614486 -0.0066577107421018963 0 0.0015322856600677498 -0.0081438066550532217 0 0.002407021533614486 -0.0066577107421018963 0 0.0031201316076222819 -0.0075691869992651102 0 0.0015322856600677498 -0.0081438066550532217 0 0.0029993466426273181 -0.0091254663921857913 0 0.0027809251185317491 -0.0093972632977017568 0 0.0031201316076222819 -0.0075691869992651102 0 0.0015322856600677498 -0.0081438066550532217 0 0.0027222373501747023 -0.0093798614623866062 0 0.0015322856600677498 -0.0081438066550532217 0 0.0027222373501747023 -0.0093798614623866062 0 0.001825989358520741 -0.0093527588235125924 0 0.0027222373501747023 -0.0093798614623866062 0 0.0022327461391428902 -0.0095426539608088525 0 0.001825989358520741 -0.0093527588235125924 0 0.0022327461391428902 -0.0095426539608088525 0 0.0023591243604972234 -0.0095765237100477896 0 0.0022327395345410252 -0.0096414833842469461 0 0.0027222373501747023 -0.0093798614623866062 0 0.0022327461391428902 -0.0095426539608088525 0 0.0023591243604972234 -0.0095765237100477896 0 0.0022327461391428902 -0.0095426539608088525 0 0.001825989358520741 -0.0093527588235125924 0 0.0019430530415835774 -0.0096797790470197782 0 0.0022259665604458965 -0.010118078182626809 0 0.0023902690889347935 -0.0096488905497787575 0 0.0021679319114598868 -0.0096768391360169161 0 0.001834339259162534 -0.010080072319277638 0 0.0022259665604458965 -0.010118078182626809 0 0.0021679319114598868 -0.0096768391360169161 0 0.0022259665604458965 -0.010118078182626809 0 0.0027222373501747023 -0.0093798614623866062 0 0.0023902690889347935 -0.0096488905497787575 0 0.0027222373501747023 -0.0093798614623866062 0 0.0023902690889347935 -0.0096488905497787575 0 0.0023591243604972234 -0.0095765237100477896 0 0.0023902690889347935 -0.0096488905497787575 0 0.0023591243604972234 -0.0095765237100477896 0 0.0021679319114598868 -0.0096768391360169161 0 0.0017912719453051376 -0.0095382473270821874 0 0.0021679319114598868 -0.0096768391360169161 0 0.0021737935514377959 -0.0092933841868042804 0 0.0021806313724563021 -0.0096626531586954355 0 0.0022094201730249998 -0.0094463334629688502 0 0.0023591243604972234 -0.0095765237100477896 0 0.0021679319114598868 -0.0096768391360169161 0 0.0022578413562723593 -0.0096027735385920583 0 0.0018497946469949109 -0.0091916893870109158 0 0.0021737935514377959 -0.0092933841868042804 0 0.0022074352846751656 -0.0088113880397784582 0 0.0022094201730249998 -0.0094463334629688502 0 0.0021334858565847685 -0.0092507849763195007 0 0.0022578413562723593 -0.0096027735385920583 0 0.002296835072936165 -0.0096308015269308579 0 0.0022321355291907968 -0.0096168648496366971 0 0.0022578413562723593 -0.0096027735385920583 0 0.0022321355291907968 -0.0096168648496366971 0 0.0022332412811368048 -0.0096177978802956567 0 0.0023591243604972234 -0.0095765237100477896 0 0.0022578413562723593 -0.0096027735385920583 0 0.002296835072936165 -0.0096308015269308579 0 0.002296835072936165 -0.0096308015269308579 0 0.0022964638122988947 -0.0096802461211526348 0 0.0022321355291907968 -0.0096168648496366971 0 0.0023591243604972234 -0.0095765237100477896 0 0.002296835072936165 -0.0096308015269308579 0 0.0022327395345410252 -0.0096414833842469461 0 0.002296835072936165 -0.0096308015269308579 0 0.0022964638122988947 -0.0096802461211526348 0 0.0022327395345410252 -0.0096414833842469461 0 0.0023022398652041368 -0.0093544019058418824 0 0.0022964638122988947 -0.0096802461211526348 0 0.0022427181135446549 -0.0095239109286857013 0 0.0021963632227112542 -0.0099074834124172097 0 0.0023503676024497927 -0.010056028906183574 0 0.0022964638122988947 -0.0096802461211526348 0 0.0013424514747770778 -0.0066492304319024373 0 0.0026479024767526648 -0.010989347681664725 0 0.0022964638122988947 -0.0096802461211526348 0 0.0022321355291907968 -0.0096168648496366971 0 0.0022427181135446549 -0.0095239109286857013 0 0.0021766609466558917 -0.0092970324827943707 0 0.0021334858565847685 -0.0092507849763195007 0 0.0022321355291907968 -0.0096168648496366971 0 0.0021985807147044149 -0.0096036400637651807 0 0.0022427181135446549 -0.0095239109286857013 0 0.001825989358520741 -0.0093527588235125924 0 0.0019430530415835774 -0.0096797790470197782 0 0.0013405261617874997 -0.0097358159885925482 0 0.0019430530415835774 -0.0096797790470197782 0 0.0018133096971930302 -0.0098659072646086702 0 0.0013405261617874997 -0.0097358159885925482 0 0.0022327461391428902 -0.0095426539608088525 0 0.0019430530415835774 -0.0096797790470197782 0 0.0022327395345410252 -0.0096414833842469461 0 0.0019430530415835774 -0.0096797790470197782 0 0.0022327395345410252 -0.0096414833842469461 0 0.0020844142979061999 -0.0098007032275444356 0 0.0022964638122988947 -0.0096802461211526348 0 0.0022327395345410252 -0.0096414833842469461 0 0.0020844142979061999 -0.0098007032275444356 0 0.001994490097620543 -0.010036204565861009 0 0.0021963632227112542 -0.0099074834124172097 0 0.0020844142979061999 -0.0098007032275444356 0 0.0021963632227112542 -0.0099074834124172097 0 0.0022964638122988947 -0.0096802461211526348 0 0.0020844142979061999 -0.0098007032275444356 0 0.001994490097620543 -0.010036204565861009 0 0.0020844142979061999 -0.0098007032275444356 0 0.0018133096971930302 -0.0098659072646086702 0 0.0019430530415835774 -0.0096797790470197782 0 0.0020844142979061999 -0.0098007032275444356 0 0.0018133096971930302 -0.0098659072646086702 0 0.00047387810633856323 0.0088130241898428212 0 0.0010744361673767381 0.0086881650188300932 0 0.0006685105547261696 0.0093571955848298031 0 0.0010744361673767381 0.0086881650188300932 0 0.00080253170411344256 0.0096658829423512116 0 0.0006685105547261696 0.0093571955848298031 0 0.0016087412102653005 -0.0099875892277141373 0 0.0018133096971930302 -0.0098659072646086702 0 0.0013405261617874997 -0.0097358159885925482 0 0.001960981968080111 0.0014027306214612824 0 0.0010319821061109051 -0.00044742639594729455 0 0.00080253170411344256 0.0096658829423512116 0 0.00047053932930951592 0.0099177285204351696 0 0.00053910204037521323 0.01033699741409899 0 0.00080253170411344256 0.0096658829423512116 0 0.00047053932930951592 0.0099177285204351696 0 0.00058184349111037759 0.009630931376367783 0 0.00080253170411344256 0.0096658829423512116 0 0.00058184349111037759 0.009630931376367783 0 0.0006685105547261696 0.0093571955848298031 0 0.00047053932930951592 0.0099177285204351696 0 0.00058184349111037759 0.009630931376367783 0 0.00041349138876639011 0.0096360761687290086 0 0.00065958997310990616 0.0093594400175619624 0 2.408729486513321e-05 0.0092548759789412745 0 0.0006685105547261696 0.0093571955848298031 0 0.00023220909550751345 0.0089903785601909928 0 -8.5753998405817822e-05 0.0090934551174973646 0 0.00041349138876639011 0.0096360761687290086 0 0.0006685105547261696 0.0093571955848298031 0 0.00014525027288913296 0.009480652288551274 0 0.00058184349111037759 0.009630931376367783 0 0.00041349138876639011 0.0096360761687290086 0 0.0006685105547261696 0.0093571955848298031 0 0.00047387810633856323 0.0088130241898428212 0 0.0006685105547261696 0.0093571955848298031 0 0.00023220909550751345 0.0089903785601909928 0 1.7179968970373183e-05 0.00892867102698678 0 0.00023220909550751345 0.0089903785601909928 0 -8.5753998405817822e-05 0.0090934551174973646 0 -9.9389437313550057e-05 0.0089302077345496719 0 1.7179968970373183e-05 0.00892867102698678 0 -8.5753998405817822e-05 0.0090934551174973646 0 -0.00014439445119160808 0.0088924260996072965 0 -0.0001974043270103193 0.0089359049768017867 0 -8.5753998405817822e-05 0.0090934551174973646 0 -0.0001752137312518014 0.0094649863836657813 0 2.408729486513321e-05 0.0092548759789412745 0 -0.00047097386318272822 0.009433886884496737 0 0.00014525027288913296 0.009480652288551274 0 -0.00013881437727377438 0.0096494554561734041 0 -0.00014439445119160808 0.0088924260996072965 0 -9.9389437313550057e-05 0.0089302077345496719 0 -8.5753998405817822e-05 0.0090934551174973646 0 -0.0001752137312518014 0.0094649863836657813 0 -5.1849175816167686e-05 0.0097177304784931973 0 -0.00019742188984451882 0.0096485976892515101 0 -0.00013860571925351279 0.0098517046259836826 0 3.9950123829703207e-05 0.009813343249699305 0 -2.645899044896022e-05 0.0099703224001058011 0 0.00021758564357172281 0.0098806206475991129 0 6.7914103396024111e-05 0.010245850456306764 0 3.9950123829703207e-05 0.009813343249699305 0 -2.645899044896022e-05 0.0099703224001058011 0 0.00021758564357172281 0.0098806206475991129 0 -0.00013860571925351279 0.0098517046259836826 0 3.9950123829703207e-05 0.009813343249699305 0 -2.645899044896022e-05 0.0099703224001058011 0 -0.00013860571925351279 0.0098517046259836826 0 -0.00023273769610544749 0.010022947763577957 0 -2.645899044896022e-05 0.0099703224001058011 0 -0.00023273769610544749 0.010022947763577957 0 -2.645899044896022e-05 0.0099703224001058011 0 6.7914103396024111e-05 0.010245850456306764 0 0.00041349138876639011 0.0096360761687290086 0 0.00014525027288913296 0.009480652288551274 0 0.00021758564357172281 0.0098806206475991129 0 0.00047053932930951592 0.0099177285204351696 0 0.00041349138876639011 0.0096360761687290086 0 0.00021758564357172281 0.0098806206475991129 0 0.00014525027288913296 0.009480652288551274 0 -0.00013881437727377438 0.0096494554561734041 0 0.00021758564357172281 0.0098806206475991129 0 -5.1849175816167686e-05 0.0097177304784931973 0 0.00018514593457903412 0.0098679664008721399 0 0.00047053932930951592 0.0099177285204351696 0 0.00021758564357172281 0.0098806206475991129 0 0.00029916375925259333 0.010204985975982586 0 0.00021758564357172281 0.0098806206475991129 0 0.00029916375925259333 0.010204985975982586 0 6.7914103396024111e-05 0.010245850456306764 0 0.00029916375925259333 0.010204985975982586 0 6.7914103396024111e-05 0.010245850456306764 0 0.00023821690453134164 0.010578225777937905 0 0.00029916375925259333 0.010204985975982586 0 0.00023821690453134164 0.010578225777937905 0 0.00053910204037521323 0.01033699741409899 0 -0.00033983215079598142 0.010426559096519555 0 6.7914103396024111e-05 0.010245850456306764 0 0.00014234775101404712 0.010784274539584374 0 6.7914103396024111e-05 0.010245850456306764 0 0.00014234775101404712 0.010784274539584374 0 0.00023821690453134164 0.010578225777937905 0 0.00021126790009639673 0.010590359071247998 0 0.00014234775101404712 0.010784274539584374 0 0.00023821690453134164 0.010578225777937905 0 0.00017332786476934018 0.010559265745097166 0 0.00023821690453134164 0.010578225777937905 0 0.00053910204037521323 0.01033699741409899 0 0.00013499797951979032 0.001198093935951181 0 0.00063860446240007241 0.00065671949715764865 0 0.0015322856600677498 -0.0081438066550532217 0 0.001825989358520741 -0.0093527588235125924 0 0.00077517983596188443 -0.0092247325949130921 0 0.001825989358520741 -0.0093527588235125924 0 0.0013405261617874997 -0.0097358159885925482 0 0.00077517983596188443 -0.0092247325949130921 0 0.00047053932930951592 0.0099177285204351696 0 0.00029916375925259333 0.010204985975982586 0 0.00053910204037521323 0.01033699741409899 0 0.0010319821061109051 -0.00044742639594729455 0 0.00063860446240007241 0.00065671949715764865 0 -0.00022248666227151534 0.03456404337533435 0 -9.2467251710645905e-05 0.034777413556186833 0 -0.00022215040042317675 0.034494305893950888 0 -0.00030298443093519482 0.034442741704924888 0 -0.0002624244619956249 0.03432038831341911 0 -0.0003100623614460866 0.034002974546682885 0 -0.00022248666227151534 0.03456404337533435 0 -0.00022215040042317675 0.034494305893950888 0 -0.0002624244619956249 0.03432038831341911 0 -0.00022248666227151534 0.03456404337533435 0 -0.00030298443093519482 0.034442741704924888 0 -0.0002624244619956249 0.03432038831341911 0 -0.00022248666227151534 0.03456404337533435 0 -0.00030298443093519482 0.034442741704924888 0 -0.00013644368524762669 0.034746413277825426 0 -0.00030298443093519482 0.034442741704924888 0 -0.00013644368524762669 0.034746413277825426 0 -1.5663617106328386e-06 0.034998048197040693 0 -0.00013644368524762669 0.034746413277825426 0 1.8522344201706904e-07 0.034999759648754993 0 -1.5663617106328386e-06 0.034998048197040693 0 -0.00013644368524762669 0.034746413277825426 0 -9.2467251710645905e-05 0.034777413556186833 0 1.8522344201706904e-07 0.034999759648754993 0 -0.00022248666227151534 0.03456404337533435 0 -0.00013644368524762669 0.034746413277825426 0 -9.2467251710645905e-05 0.034777413556186833 0 1.8522344201706904e-07 0.034999759648754993 0 -3.7554295908226179e-05 0.034952116951478575 0 -1.1156875804217943e-07 0.03499994370792639 0 -9.2467251710645905e-05 0.034777413556186833 0 1.8522344201706904e-07 0.034999759648754993 0 -3.7554295908226179e-05 0.034952116951478575 0 -9.2467251710645905e-05 0.034777413556186833 0 -3.7554295908226179e-05 0.034952116951478575 0 -2.3025925112949595e-05 0.034903424923999574 0 -9.2467251710645905e-05 0.034777413556186833 0 -2.3025925112949595e-05 0.034903424923999574 0 4.1298643012071245e-05 0.034902641901107409 0 -3.7554295908226179e-05 0.034952116951478575 0 -2.3025925112949595e-05 0.034903424923999574 0 -4.1504482920620913e-06 0.034945272011437524 0 -9.2467251710645905e-05 0.034777413556186833 0 4.1298643012071245e-05 0.034902641901107409 0 0.00018390647540480638 0.034935758165238015 0 -2.3025925112949595e-05 0.034903424923999574 0 4.1298643012071245e-05 0.034902641901107409 0 -4.1504482920620913e-06 0.034945272011437524 0 -9.2467251710645905e-05 0.034777413556186833 0 -0.00022215040042317675 0.034494305893950888 0 -0.0002682644396969647 0.03434327766651854 0 4.1298643012071245e-05 0.034902641901107409 0 0.00018390647540480638 0.034935758165238015 0 -4.1504482920620913e-06 0.034945272011437524 0 -0.00011849974168097014 0.034800461385694828 0 2.335116225179845e-05 0.034462610749865313 0 -0.0002682644396969647 0.03434327766651854 0 -0.00019892786048541597 0.034306329254627378 0 -0.00023416828544835754 0.034360637905229814 0 -0.0002682644396969647 0.03434327766651854 0 -0.00019892786048541597 0.034306329254627378 0 2.9691736661186699e-05 0.034246531672460521 0 -0.00019892786048541597 0.034306329254627378 0 -0.00010390122277221641 0.034215036233075084 0 -0.00019432061680695186 0.034243637877654984 0 -0.00019892786048541597 0.034306329254627378 0 -0.00023416828544835754 0.034360637905229814 0 -0.00019432061680695186 0.034243637877654984 0 -0.00022215040042317675 0.034494305893950888 0 -0.0002682644396969647 0.03434327766651854 0 -0.00023416828544835754 0.034360637905229814 0 -0.00019892786048541597 0.034306329254627378 0 -0.00010390122277221641 0.034215036233075084 0 2.9691736661186699e-05 0.034246531672460521 0 9.5772050672315171e-05 0.03401084975158964 0 0.00034664139740873994 0.033883504113310516 0 0.00018041573413823736 0.034049750148756074 0 0.00097441000447818029 0.033117678740169451 0 0.00041373630646596046 0.033647822998242025 0 0.0013982543068718936 0.032441790859522111 0 0.0013364052889570323 0.032481079259860282 0 0.001305939163808123 0.032489319837418713 0 0.00034664139740873994 0.033883504113310516 0 0.00039459834773039235 0.033917302920746843 0 0.00018041573413823736 0.034049750148756074 0 2.335116225179845e-05 0.034462610749865313 0 0.00018289369018517575 0.034010987964608233 0 0.0013982543068718936 0.032441790859522111 0 0.0013364052889570323 0.032481079259860282 0 0.001384960495732663 0.032479299221771868 0 -0.00010390122277221641 0.034215036233075084 0 2.9691736661186699e-05 0.034246531672460521 0 -3.2059202161873924e-05 0.034158047624031948 0 2.9691736661186699e-05 0.034246531672460521 0 3.3611126307570327e-05 0.034033609574160704 0 0.00022332397845046184 0.033922352596320031 0 3.3611126307570327e-05 0.034033609574160704 0 -1.9430567208217595e-05 0.033926627904308788 0 0.00012487205189129594 0.033868596901778222 0 3.3611126307570327e-05 0.034033609574160704 0 -3.2059202161873924e-05 0.034158047624031948 0 -9.6900670962059008e-05 0.03412760235773734 0 2.9691736661186699e-05 0.034246531672460521 0 3.3611126307570327e-05 0.034033609574160704 0 -3.2059202161873924e-05 0.034158047624031948 0 3.3611126307570327e-05 0.034033609574160704 0 -9.6900670962059008e-05 0.03412760235773734 0 -1.9430567208217595e-05 0.033926627904308788 0 -0.00010390122277221641 0.034215036233075084 0 -9.6900670962059008e-05 0.03412760235773734 0 -0.00019432061680695186 0.034243637877654984 0 -0.00010390122277221641 0.034215036233075084 0 -3.2059202161873924e-05 0.034158047624031948 0 -9.6900670962059008e-05 0.03412760235773734 0 -9.6900670962059008e-05 0.03412760235773734 0 -1.9430567208217595e-05 0.033926627904308788 0 -0.00017546201112699771 0.034011822205880164 0 -1.9430567208217595e-05 0.033926627904308788 0 -0.00017546201112699771 0.034011822205880164 0 -3.9693242647673941e-05 0.033743272226010382 0 -1.9430567208217595e-05 0.033926627904308788 0 8.0671179678214135e-05 0.033722828492348533 0 -3.9693242647673941e-05 0.033743272226010382 0 -1.9430567208217595e-05 0.033926627904308788 0 8.0671179678214135e-05 0.033722828492348533 0 0.00012487205189129594 0.033868596901778222 0 -0.00022215040042317675 0.034494305893950888 0 -0.00023416828544835754 0.034360637905229814 0 -0.0002624244619956249 0.03432038831341911 0 -0.00023416828544835754 0.034360637905229814 0 -0.0002624244619956249 0.03432038831341911 0 -0.00019432061680695186 0.034243637877654984 0 -0.0002624244619956249 0.03432038831341911 0 -0.00019432061680695186 0.034243637877654984 0 -0.00017546201112699771 0.034011822205880164 0 -9.6900670962059008e-05 0.03412760235773734 0 -0.00019432061680695186 0.034243637877654984 0 -0.00017546201112699771 0.034011822205880164 0 -0.0002624244619956249 0.03432038831341911 0 -0.00017546201112699771 0.034011822205880164 0 -0.0003100623614460866 0.034002974546682885 0 -0.0003100623614460866 0.034002974546682885 0 -0.00015616378954061514 0.033631794487219098 0 -0.00035568248415053343 0.033297946919864561 0 -0.0003100623614460866 0.034002974546682885 0 -0.00035568248415053343 0.033297946919864561 0 -0.00045782191529772213 0.03401078000232232 0 -0.00017546201112699771 0.034011822205880164 0 -0.0003100623614460866 0.034002974546682885 0 -0.00015616378954061514 0.033631794487219098 0 7.4276296103238762e-05 0.033466067087113555 0 -3.9693242647673941e-05 0.033743272226010382 0 -0.00015616378954061514 0.033631794487219098 0 8.0671179678214135e-05 0.033722828492348533 0 7.4276296103238762e-05 0.033466067087113555 0 -3.9693242647673941e-05 0.033743272226010382 0 -0.00017546201112699771 0.034011822205880164 0 -3.9693242647673941e-05 0.033743272226010382 0 -0.00015616378954061514 0.033631794487219098 0 7.4276296103238762e-05 0.033466067087113555 0 -0.00015616378954061514 0.033631794487219098 0 -3.569557533476412e-05 0.033149857932332848 0 -3.569557533476412e-05 0.033149857932332848 0 -6.9517311103807191e-05 0.032398677358412294 0 0.00023237980307092902 0.032776661573782999 0 -3.569557533476412e-05 0.033149857932332848 0 -0.00035568248415053343 0.033297946919864561 0 -6.9517311103807191e-05 0.032398677358412294 0 -0.00015616378954061514 0.033631794487219098 0 -3.569557533476412e-05 0.033149857932332848 0 -0.00035568248415053343 0.033297946919864561 0 -0.00035568248415053343 0.033297946919864561 0 -0.00077212467225882349 0.033448603720342494 0 -0.00045782191529772213 0.03401078000232232 0 -0.00030298443093519482 0.034442741704924888 0 -0.0003100623614460866 0.034002974546682885 0 -0.00045782191529772213 0.03401078000232232 0 -0.00030298443093519482 0.034442741704924888 0 -0.00045782191529772213 0.03401078000232232 0 -1.5663617106328386e-06 0.034998048197040693 0 -0.00036016302007262584 0.034075640461887872 0 -6.7368649328496777e-08 0.034999548371915587 0 -0.00077212467225882349 0.033448603720342494 0 -0.00045782191529772213 0.03401078000232232 0 -1.5663617106328386e-06 0.034998048197040693 0 -7.7367205002405127e-05 0.034769496399145679 0 5.6650759411150727e-08 0.035000081560687089 0 -5.4403510907159862e-07 0.034997181379549006 0 -7.7367205002405127e-05 0.034769496399145679 0 -0.00010680899360876967 0.033925219225501423 0 6.1322356092075579e-05 0.03431609150909793 0 -7.7367205002405127e-05 0.034769496399145679 0 -5.4403510907159862e-07 0.034997181379549006 0 -0.00010680899360876967 0.033925219225501423 0 -0.00036016302007262584 0.034075640461887872 0 -0.00033865827520583364 0.033166321368421153 0 -0.00035568248415053343 0.033297946919864561 0 -0.00077212467225882349 0.033448603720342494 0 -0.00078336807488057602 0.032067761281801742 0 -5.4403510907159862e-07 0.034997181379549006 0 -0.00010680899360876967 0.033925219225501423 0 -4.4620893414695388e-07 0.032168868443105444 0 -4.4620893414695388e-07 0.032168868443105444 0 0.00035921613416914431 0.033142830689644673 0 1.9160006166599251e-06 0.030060368499052435 0 -0.00013516988793846568 0.031969545863004281 0 -9.8490814960741911e-08 0.03005893671844256 0 -0.00010680899360876967 0.033925219225501423 0 -4.4620893414695388e-07 0.032168868443105444 0 0.00035921613416914431 0.033142830689644673 0 -0.00010680899360876967 0.033925219225501423 0 0.00035921613416914431 0.033142830689644673 0 6.1322356092075579e-05 0.03431609150909793 0 -0.00047060103415197461 0.030757020709034456 0 -0.00029326990593378868 0.031678637030550669 0 0.00014991047434410727 0.031519950904730011 0 -0.00029326990593378868 0.031678637030550669 0 -6.9517311103807191e-05 0.032398677358412294 0 0.00014991047434410727 0.031519950904730011 0 -0.00047060103415197461 0.030757020709034456 0 -0.00029326990593378868 0.031678637030550669 0 -0.00078336807488057602 0.032067761281801742 0 -0.00013516988793846568 0.031969545863004281 0 -0.00033865827520583364 0.033166321368421153 0 -0.00035568248415053343 0.033297946919864561 0 -0.00078336807488057602 0.032067761281801742 0 -6.9517311103807191e-05 0.032398677358412294 0 -0.00029326990593378868 0.031678637030550669 0 -0.00078336807488057602 0.032067761281801742 0 -6.9517311103807191e-05 0.032398677358412294 0 -6.9517311103807191e-05 0.032398677358412294 0 0.00051199666658407333 0.032195460612746203 0 0.00023237980307092902 0.032776661573782999 0 -6.9517311103807191e-05 0.032398677358412294 0 0.00051199666658407333 0.032195460612746203 0 0.00014991047434410727 0.031519950904730011 0 0.00051199666658407333 0.032195460612746203 0 0.00073415053223619038 0.031477517447912801 0 0.0011119589190143892 0.031963709146097787 0 0.00051199666658407333 0.032195460612746203 0 0.00073415053223619038 0.031477517447912801 0 0.00014991047434410727 0.031519950904730011 0 0.00073415053223619038 0.031477517447912801 0 0.00029118508513536389 0.030722791429967776 0 0.0010522424842028129 0.030551954462448742 0 0.00073415053223619038 0.031477517447912801 0 0.00014991047434410727 0.031519950904730011 0 0.00029118508513536389 0.030722791429967776 0 -0.00047060103415197461 0.030757020709034456 0 0.00029118508513536389 0.030722791429967776 0 1.1895640135004097e-05 0.030077480279481469 0 -0.00047060103415197461 0.030757020709034456 0 0.00014991047434410727 0.031519950904730011 0 0.00029118508513536389 0.030722791429967776 0 0.00029118508513536389 0.030722791429967776 0 0.00050078424774908329 0.03007895785619643 0 0.0010522424842028129 0.030551954462448742 0 0.00029118508513536389 0.030722791429967776 0 0.00050078424774908329 0.03007895785619643 0 1.1895640135004097e-05 0.030077480279481469 0 2.6511790019981052e-06 0.028797640155542304 0 -2.032443619814751e-06 0.030054488378910012 0 1.1895640135004097e-05 0.030077480279481469 0 0.00050078424774908329 0.03007895785619643 0 2.6511790019981052e-06 0.028797640155542304 0 1.1895640135004097e-05 0.030077480279481469 0 -0.00047060103415197461 0.030757020709034456 0 -2.032443619814751e-06 0.030054488378910012 0 1.1895640135004097e-05 0.030077480279481469 0 3.7107449913349966e-08 0.027001528740281645 0 2.8688779416480201e-06 0.026848856657936546 0 -1.137066738573195e-08 0.025210469538130234 0 0.00050078424774908329 0.03007895785619643 0 0.0015821182526524562 0.029688101380994831 0 0.0010522424842028129 0.030551954462448742 0 1.3930891739665391e-08 0.028792519559870746 0 3.7107449913349966e-08 0.027001528740281645 0 2.8688779416480201e-06 0.026848856657936546 0 0.00050078424774908329 0.03007895785619643 0 2.6511790019981052e-06 0.028797640155542304 0 0.0015821182526524562 0.029688101380994831 0 -2.4523710184079069e-07 0.028792479666798175 0 0.00063875543118658152 0.028237875681991084 0 0.0015821182526524562 0.029688101380994831 0 0.0010522424842028129 0.030551954462448742 0 0.0018290467695407659 0.030446274905218434 0 0.0010522424842028129 0.030551954462448742 0 0.0012053588981375098 0.031128569360367182 0 0.0018290467695407659 0.030446274905218434 0 0.0012053588981375098 0.031128569360367182 0 0.0015392149117002783 0.031340429294529869 0 0.0018290467695407659 0.030446274905218434 0 0.00073415053223619038 0.031477517447912801 0 0.0010522424842028129 0.030551954462448742 0 0.0012053588981375098 0.031128569360367182 0 0.00073415053223619038 0.031477517447912801 0 0.0012053588981375098 0.031128569360367182 0 0.0011119589190143892 0.031963709146097787 0 0.0012053588981375098 0.031128569360367182 0 0.0011119589190143892 0.031963709146097787 0 0.0015392149117002783 0.031340429294529869 0 0.0015392149117002783 0.031340429294529869 0 0.0014901005637568186 0.031973258333255747 0 0.00177335104978824 0.031733977199293044 0 0.0011119589190143892 0.031963709146097787 0 0.0015392149117002783 0.031340429294529869 0 0.0014901005637568186 0.031973258333255747 0 0.0014901005637568186 0.031973258333255747 0 0.0016611517318018125 0.032348414644520658 0 0.00177335104978824 0.031733977199293044 0 0.0014901005637568186 0.031973258333255747 0 0.0016611517318018125 0.032348414644520658 0 0.0012833491271648739 0.032414895448234428 0 0.0016169324478019799 0.032399766144319102 0 0.0016292147452422491 0.032455960899195682 0 0.0018864131647127217 0.032335018262227205 0 0.0016611517318018125 0.032348414644520658 0 0.0016169324478019799 0.032399766144319102 0 0.0015457146672670763 0.03239138503512777 0 0.0016319319506049145 0.032422102281348057 0 0.0013431695921711966 0.03276853314879815 0 0.0016611517318018125 0.032348414644520658 0 0.0016169324478019799 0.032399766144319102 0 0.0018864131647127217 0.032335018262227205 0 0.0016611517318018125 0.032348414644520658 0 0.0011672235900046458 0.033160393168408638 0 0.0012833491271648739 0.032414895448234428 0 0.0011672235900046458 0.033160393168408638 0 0.00095542767290524055 0.032684947812403366 0 0.0012833491271648739 0.032414895448234428 0 0.0011672235900046458 0.033160393168408638 0 0.00095542767290524055 0.032684947812403366 0 0.00076963748692212392 0.033228576370231168 0 0.0011119589190143892 0.031963709146097787 0 0.00095542767290524055 0.032684947812403366 0 0.0012833491271648739 0.032414895448234428 0 0.0011119589190143892 0.031963709146097787 0 0.0014901005637568186 0.031973258333255747 0 0.0012833491271648739 0.032414895448234428 0 0.00051199666658407333 0.032195460612746203 0 0.00095542767290524055 0.032684947812403366 0 0.00051730182337535765 0.032921327513894823 0 0.00051199666658407333 0.032195460612746203 0 0.0011119589190143892 0.031963709146097787 0 0.00095542767290524055 0.032684947812403366 0 0.00051199666658407333 0.032195460612746203 0 0.00023237980307092902 0.032776661573782999 0 0.00051730182337535765 0.032921327513894823 0 0.00023237980307092902 0.032776661573782999 0 0.00026513899126267876 0.033172900156181705 0 0.00051730182337535765 0.032921327513894823 0 -3.569557533476412e-05 0.033149857932332848 0 0.00023237980307092902 0.032776661573782999 0 0.00026513899126267876 0.033172900156181705 0 7.4276296103238762e-05 0.033466067087113555 0 -3.569557533476412e-05 0.033149857932332848 0 0.00026513899126267876 0.033172900156181705 0 0.00026513899126267876 0.033172900156181705 0 0.00047252140091203881 0.033340304546289945 0 0.00051730182337535765 0.032921327513894823 0 0.00026513899126267876 0.033172900156181705 0 0.00047252140091203881 0.033340304546289945 0 0.00026390684098707913 0.033598877590653581 0 0.00047252140091203881 0.033340304546289945 0 0.00026390684098707913 0.033598877590653581 0 0.00045824715433626524 0.033574949958557254 0 7.4276296103238762e-05 0.033466067087113555 0 0.00026513899126267876 0.033172900156181705 0 0.00026390684098707913 0.033598877590653581 0 8.0671179678214135e-05 0.033722828492348533 0 7.4276296103238762e-05 0.033466067087113555 0 0.00026390684098707913 0.033598877590653581 0 0.00095542767290524055 0.032684947812403366 0 0.00051730182337535765 0.032921327513894823 0 0.00076963748692212392 0.033228576370231168 0 0.00047252140091203881 0.033340304546289945 0 0.00051730182337535765 0.032921327513894823 0 0.00076963748692212392 0.033228576370231168 0 0.00047252140091203881 0.033340304546289945 0 0.00058381217661672966 0.033461783347460861 0 0.00076963748692212392 0.033228576370231168 0 0.00047252140091203881 0.033340304546289945 0 0.00058381217661672966 0.033461783347460861 0 0.00045824715433626524 0.033574949958557254 0 0.0013431695921711966 0.03276853314879815 0 0.0010334103704682789 0.033091666003974285 0 0.0011672235900046458 0.033160393168408638 0 0.00063801347413718382 0.033706486210990386 0 0.00064136423615521404 0.033760073962045438 0 0.0015457146672670763 0.03239138503512777 0 0.0014710835123409435 0.032419946745008296 0 0.0015116022712863013 0.03243178161085547 0 0.0011672235900046458 0.033160393168408638 0 0.00076963748692212392 0.033228576370231168 0 0.00063801347413718382 0.033706486210990386 0 0.00058381217661672966 0.033461783347460861 0 0.00076963748692212392 0.033228576370231168 0 0.00063801347413718382 0.033706486210990386 0 0.00058381217661672966 0.033461783347460861 0 0.00063801347413718382 0.033706486210990386 0 0.00045824715433626524 0.033574949958557254 0 0.0014710835123409435 0.032419946745008296 0 0.0015116022712863013 0.03243178161085547 0 0.0014790175897269465 0.032443297988846403 0 0.00034664139740873994 0.033883504113310516 0 0.00063801347413718382 0.033706486210990386 0 0.00064136423615521404 0.033760073962045438 0 0.0010334103704682789 0.033091666003974285 0 0.00097441000447818029 0.033117678740169451 0 2.9691736661186699e-05 0.034246531672460521 0 0.00063801347413718382 0.033706486210990386 0 0.00022332397845046184 0.033922352596320031 0 0.00018289369018517575 0.034010987964608233 0 0.00060728045824340001 0.033759222914602371 0 0.00026390684098707913 0.033598877590653581 0 0.00012487205189129594 0.033868596901778222 0 0.00032235599890022347 0.033769728859158493 0 0.00012487205189129594 0.033868596901778222 0 0.00032235599890022347 0.033769728859158493 0 0.00022332397845046184 0.033922352596320031 0 8.0671179678214135e-05 0.033722828492348533 0 0.00026390684098707913 0.033598877590653581 0 0.00012487205189129594 0.033868596901778222 0 0.00063801347413718382 0.033706486210990386 0 0.00032235599890022347 0.033769728859158493 0 0.00045824715433626524 0.033574949958557254 0 0.00026390684098707913 0.033598877590653581 0 0.00032235599890022347 0.033769728859158493 0 0.00045824715433626524 0.033574949958557254 0 0.00063801347413718382 0.033706486210990386 0 0.00032235599890022347 0.033769728859158493 0 0.00022332397845046184 0.033922352596320031 0 3.3611126307570327e-05 0.034033609574160704 0 0.00012487205189129594 0.033868596901778222 0 0.00022332397845046184 0.033922352596320031 0 0.00034664139740873994 0.033883504113310516 0 0.00064136423615521404 0.033760073962045438 0 0.00039459834773039235 0.033917302920746843 0 0.0014710835123409435 0.032419946745008296 0 0.0013982543068718936 0.032441790859522111 0 0.0014497130269674869 0.032447405459117958 0 0.0013982543068718936 0.032441790859522111 0 0.0014497130269674869 0.032447405459117958 0 0.0014264994042428422 0.032470438520212766 0 0.0014497130269674869 0.032447405459117958 0 0.0014264994042428422 0.032470438520212766 0 0.0014670742764658386 0.032468600584124971 0 0.0013982543068718936 0.032441790859522111 0 0.0014264994042428422 0.032470438520212766 0 0.001384960495732663 0.032479299221771868 0 0.0014670742764658386 0.032468600584124971 0 0.0015113980203343778 0.032456570083795856 0 0.0014933103400143961 0.032487346778987361 0 0.0015116022712863013 0.03243178161085547 0 0.0014790175897269465 0.032443297988846403 0 0.0015113980203343778 0.032456570083795856 0 0.0014710835123409435 0.032419946745008296 0 0.0014497130269674869 0.032447405459117958 0 0.0014790175897269465 0.032443297988846403 0 0.0014497130269674869 0.032447405459117958 0 0.0014790175897269465 0.032443297988846403 0 0.0014670742764658386 0.032468600584124971 0 0.0014790175897269465 0.032443297988846403 0 0.0014670742764658386 0.032468600584124971 0 0.0015113980203343778 0.032456570083795856 0 0.0015113980203343778 0.032456570083795856 0 0.0015518570576781444 0.032435282758719666 0 0.0015426264793012645 0.032475614270061369 0 0.0017677686830471087 0.028287961873853674 0 0.0017200588876474141 0.028345832917107308 0 0.0013845209288017523 0.028375036299646043 0 0.001703027864371019 0.030357373304097296 0 0.0014579790555114993 0.030577872396193972 0 0.0016292147452422491 0.032455960899195682 0 0.0015518570576781444 0.032435282758719666 0 0.0015426264793012645 0.032475614270061369 0 0.0016169324478019799 0.032399766144319102 0 0.0016292147452422491 0.032455960899195682 0 0.0015518570576781444 0.032435282758719666 0 0.0016169324478019799 0.032399766144319102 0 0.0015457146672670763 0.03239138503512777 0 0.0015518570576781444 0.032435282758719666 0 0.0015457146672670763 0.03239138503512777 0 0.0015116022712863013 0.03243178161085547 0 0.0015518570576781444 0.032435282758719666 0 0.0015116022712863013 0.03243178161085547 0 0.0015113980203343778 0.032456570083795856 0 0.0015518570576781444 0.032435282758719666 0 0.0016830751684067007 0.028355798263073551 0 0.0017889344433652931 0.028429297771766376 0 0.0017670656121776681 0.028287598967132368 0 0.0016830751684067007 0.028355798263073551 0 0.0016042426801395489 0.028260087001213144 0 0.0015639185783926162 0.028384704097089153 0 0.0016830751684067007 0.028355798263073551 0 0.0016705859204128467 0.028448176995012828 0 0.0015639185783926162 0.028384704097089153 0 0.0016705859204128467 0.028448176995012828 0 0.0015639185783926162 0.028384704097089153 0 0.0015531019757280746 0.028505695461665204 0 0.0016830751684067007 0.028355798263073551 0 0.0016705859204128467 0.028448176995012828 0 0.0017889344433652931 0.028429297771766376 0 0.0017677686830471087 0.028287961873853674 0 0.0017889344433652931 0.028429297771766376 0 0.0017670656121776681 0.028287598967132368 0 0.0017670656121776681 0.028287598967132368 0 0.0017631466284809823 0.028140924381276525 0 0.0017200588876474141 0.028345832917107308 0 0.0017677686830471087 0.028287961873853674 0 0.0017670656121776681 0.028287598967132368 0 0.0017200588876474141 0.028345832917107308 0 0.0016042426801395489 0.028260087001213144 0 0.0013815879832708281 0.028090678610068451 0 0.0017631466284809823 0.028140924381276525 0 0.0017670656121776681 0.028287598967132368 0 0.0016042426801395489 0.028260087001213144 0 0.0017631466284809823 0.028140924381276525 0 0.0016830751684067007 0.028355798263073551 0 0.0017670656121776681 0.028287598967132368 0 0.0016042426801395489 0.028260087001213144 0 0.0013815879832708281 0.028090678610068451 0 0.0011563280749695981 0.028156403987484528 0 0.0010718027168745887 0.027867163534807789 0 0.0013815879832708281 0.028090678610068451 0 0.0011563280749695981 0.028156403987484528 0 0.0013570454352107753 0.028302510340960724 0 0.0016042426801395489 0.028260087001213144 0 0.0013815879832708281 0.028090678610068451 0 0.0013570454352107753 0.028302510340960724 0 0.0011563280749695981 0.028156403987484528 0 0.00086910589750230328 0.028142462663683056 0 0.0010718027168745887 0.027867163534807789 0 0.0011563280749695981 0.028156403987484528 0 0.0011908509462855476 0.028347280659796237 0 0.0013570454352107753 0.028302510340960724 0 0.0011563280749695981 0.028156403987484528 0 0.0011908509462855476 0.028347280659796237 0 0.00086910589750230328 0.028142462663683056 0 0.0011359793910817356 0.027844976763670034 0 0.0008729495126332537 0.027452761473642104 0 0.0011908509462855476 0.028347280659796237 0 0.0011655948001786575 0.02853045608194868 0 0.00086910589750230328 0.028142462663683056 0 0.0011908509462855476 0.028347280659796237 0 0.0012658517181268845 0.028481629641062978 0 0.0011655948001786575 0.02853045608194868 0 0.0011908509462855476 0.028347280659796237 0 0.0012658517181268845 0.028481629641062978 0 0.0013642853458735418 0.028468062264885227 0 0.0011908509462855476 0.028347280659796237 0 0.0013204337367282652 0.02837666406697275 0 0.0013642853458735418 0.028468062264885227 0 0.0015639185783926162 0.028384704097089153 0 0.0013570454352107753 0.028302510340960724 0 0.0014387652096305189 0.028406446320008039 0 0.0016042426801395489 0.028260087001213144 0 0.0015639185783926162 0.028384704097089153 0 0.0013570454352107753 0.028302510340960724 0 0.0011908509462855476 0.028347280659796237 0 0.0013570454352107753 0.028302510340960724 0 0.0013204337367282652 0.02837666406697275 0 0.0013570454352107753 0.028302510340960724 0 0.0013204337367282652 0.02837666406697275 0 0.0014387652096305189 0.028406446320008039 0 0.0014387652096305189 0.028406446320008039 0 0.0013642853458735418 0.028468062264885227 0 0.0015531019757280746 0.028505695461665204 0 0.0013204337367282652 0.02837666406697275 0 0.0014387652096305189 0.028406446320008039 0 0.0013642853458735418 0.028468062264885227 0 0.0015639185783926162 0.028384704097089153 0 0.0014387652096305189 0.028406446320008039 0 0.0015531019757280746 0.028505695461665204 0 0.0015531019757280746 0.028505695461665204 0 0.0015382504575578082 0.028639612634104264 0 0.0017248712061271674 0.028574716902038846 0 0.0013642853458735418 0.028468062264885227 0 0.0015382504575578082 0.028639612634104264 0 0.0013438780359458678 0.02856952574256718 0 0.0013642853458735418 0.028468062264885227 0 0.0015531019757280746 0.028505695461665204 0 0.0015382504575578082 0.028639612634104264 0 0.0015382504575578082 0.028639612634104264 0 0.0013438780359458678 0.02856952574256718 0 0.0014028674836567515 0.028682091414844214 0 0.0011359793910817356 0.027844976763670034 0 0.0013343714061053401 0.028698926972800923 0 0.0010131318674685078 0.0272591431229346 0 0.001121521127582095 0.027100612005290632 0 0.0013606872743206666 0.028772153104319041 0 0.0011655948001786575 0.02853045608194868 0 0.0013606872743206666 0.028772153104319041 0 0.0014028674836567515 0.028682091414844214 0 0.0012658517181268845 0.028481629641062978 0 0.0013642853458735418 0.028468062264885227 0 0.0013438780359458678 0.02856952574256718 0 0.0012658517181268845 0.028481629641062978 0 0.0011655948001786575 0.02853045608194868 0 0.0013438780359458678 0.02856952574256718 0 0.0011655948001786575 0.02853045608194868 0 0.0013438780359458678 0.02856952574256718 0 0.0014028674836567515 0.028682091414844214 0 0.0013606872743206666 0.028772153104319041 0 0.0014028674836567515 0.028682091414844214 0 0.0016560004097027985 0.028921464828188963 0 0.0015382504575578082 0.028639612634104264 0 0.0014028674836567515 0.028682091414844214 0 0.0016560004097027985 0.028921464828188963 0 0.0015382504575578082 0.028639612634104264 0 0.0016560004097027985 0.028921464828188963 0 0.0017848352286274603 0.028761470533439071 0 0.0017848352286274603 0.028761470533439071 0 0.0019172130294410495 0.028617786306885877 0 0.0020398573344599991 0.029121027831280712 0 0.0016560004097027985 0.028921464828188963 0 0.0017848352286274603 0.028761470533439071 0 0.0020398573344599991 0.029121027831280712 0 0.0018911159311243485 0.030478375440720861 0 0.0020906764061180013 0.030259328933444858 0 0.0017889344433652931 0.028429297771766376 0 0.0017248712061271674 0.028574716902038846 0 0.0019172130294410495 0.028617786306885877 0 0.0015382504575578082 0.028639612634104264 0 0.0017848352286274603 0.028761470533439071 0 0.0017248712061271674 0.028574716902038846 0 0.0017848352286274603 0.028761470533439071 0 0.0017248712061271674 0.028574716902038846 0 0.0019172130294410495 0.028617786306885877 0 0.0016705859204128467 0.028448176995012828 0 0.0017889344433652931 0.028429297771766376 0 0.0017248712061271674 0.028574716902038846 0 0.0016705859204128467 0.028448176995012828 0 0.0015531019757280746 0.028505695461665204 0 0.0017248712061271674 0.028574716902038846 0 0.0017677686830471087 0.028287961873853674 0 0.0017889344433652931 0.028429297771766376 0 0.0019172130294410495 0.028617786306885877 0 0.001703027864371019 0.030357373304097296 0 0.0018911159311243485 0.030478375440720861 0 0.0018864131647127217 0.032335018262227205 0 0.00177335104978824 0.031733977199293044 0 0.0022412885356937954 0.031340167628992457 0 0.0016611517318018125 0.032348414644520658 0 0.0018864131647127217 0.032335018262227205 0 0.00177335104978824 0.031733977199293044 0 0.0015392149117002783 0.031340429294529869 0 0.00177335104978824 0.031733977199293044 0 0.0019026199897996612 0.030891973843359833 0 0.00177335104978824 0.031733977199293044 0 0.0022412885356937954 0.031340167628992457 0 0.0019026199897996612 0.030891973843359833 0 0.0019026199897996612 0.030891973843359833 0 0.0018290467695407659 0.030446274905218434 0 0.0020119517146887323 0.030039412805032095 0 0.0020906764061180013 0.030259328933444858 0 0.0020145978786183503 0.030119567479376167 0 0.0022412885356937954 0.031340167628992457 0 0.0019026199897996612 0.030891973843359833 0 0.0020119517146887323 0.030039412805032095 0 0.0015392149117002783 0.031340429294529869 0 0.0019026199897996612 0.030891973843359833 0 0.0018290467695407659 0.030446274905218434 0 0.0018290467695407659 0.030446274905218434 0 0.0020026104093698507 0.030096077214056764 0 0.0020119517146887323 0.030039412805032095 0 6.3901569094998889e-06 0.024908330355433782 0 -1.137066738573195e-08 0.025210469538130234 0 1.7508565165878063e-07 0.023419642546399225 0 0.00063875543118658152 0.028237875681991084 0 0.00091492769449573312 0.027490376337857381 0 0.0015821182526524562 0.029688101380994831 0 0.0018290467695407659 0.030446274905218434 0 0.0020026104093698507 0.030096077214056764 0 2.8688779416480201e-06 0.026848856657936546 0 6.3901569094998889e-06 0.024908330355433782 0 -1.137066738573195e-08 0.025210469538130234 0 6.4767422101675183e-06 0.022970485294680855 0 1.7508565165878063e-07 0.023419642546399225 0 -5.7345649765411172e-07 0.021627954295361667 0 0.00076008581170288608 0.026545081525747378 0 0.00051793865614260164 0.025826055319416383 0 6.4767422101675183e-06 0.022970485294680855 0 -0.00011234481374146474 0.021155002896677676 0 -5.7345649765411172e-07 0.021627954295361667 0 6.3901569094998889e-06 0.024908330355433782 0 6.4767422101675183e-06 0.022970485294680855 0 1.7508565165878063e-07 0.023419642546399225 0 0.00091492769449573312 0.027490376337857381 0 0.00076008581170288608 0.026545081525747378 0 0.0020026104093698507 0.030096077214056764 0 0.0017585676032815948 0.030220487461712131 0 0.0020119517146887323 0.030039412805032095 0 0.0017585676032815948 0.030220487461712131 0 0.0012093671658885083 0.029634777293437824 0 0.0020119517146887323 0.030039412805032095 0 0.0017585676032815948 0.030220487461712131 0 0.0012093671658885083 0.029634777293437824 0 0.0010366299788392135 0.029991964312463398 0 0.0012093671658885083 0.029634777293437824 0 0.0020119517146887323 0.030039412805032095 0 0.0014358791697867183 0.029285177962748789 0 0.0012093671658885083 0.029634777293437824 0 0.0014358791697867183 0.029285177962748789 0 0.0010322760963131132 0.029197945261707523 0 0.0016560004097027985 0.028921464828188963 0 0.0020119517146887323 0.030039412805032095 0 0.0014358791697867183 0.029285177962748789 0 0.0016560004097027985 0.028921464828188963 0 0.0020398573344599991 0.029121027831280712 0 0.0020119517146887323 0.030039412805032095 0 0.0013606872743206666 0.028772153104319041 0 0.0014358791697867183 0.029285177962748789 0 0.0010322760963131132 0.029197945261707523 0 0.0013606872743206666 0.028772153104319041 0 0.0016560004097027985 0.028921464828188963 0 0.0014358791697867183 0.029285177962748789 0 0.0010322760963131132 0.029197945261707523 0 0.00064469142598605998 0.029342876651126192 0 0.00065886760061194987 0.028758559009651411 0 0.0013606872743206666 0.028772153104319041 0 0.0010322760963131132 0.029197945261707523 0 0.00065886760061194987 0.028758559009651411 0 0.00074697053103028822 0.027328159248009111 0 0.0010133916968093142 0.027823171878186923 0 0.0009410374204284357 0.027256768441201999 0 0.00078746567485197812 0.028606290866216504 0 0.00082673880955299944 0.027982160396656238 0 0.0012093671658885083 0.029634777293437824 0 0.00064469142598605998 0.029342876651126192 0 0.00077050189059163271 0.029575015385241665 0 0.0012093671658885083 0.029634777293437824 0 0.0010322760963131132 0.029197945261707523 0 0.00064469142598605998 0.029342876651126192 0 0.0012093671658885083 0.029634777293437824 0 0.00077050189059163271 0.029575015385241665 0 0.0010366299788392135 0.029991964312463398 0 0.00064469142598605998 0.029342876651126192 0 0.00077050189059163271 0.029575015385241665 0 0.00046170757384147543 0.029331159370134082 0 0.00077050189059163271 0.029575015385241665 0 0.0010366299788392135 0.029991964312463398 0 0.00048049066683910214 0.029759914435301911 0 8.04901731985055e-07 0.019840236180120957 0 -0.00011234481374146474 0.021155002896677676 0 0.00030171892892280622 0.020403509279711053 0 0.00051793865614260164 0.025826055319416383 0 6.9832005441121207e-06 0.023429519584841716 0 8.04901731985055e-07 0.019840236180120957 0 -0.00011234481374146474 0.021155002896677676 0 -5.7345649765411172e-07 0.021627954295361667 0 -5.5751325445442461e-05 0.0170357869675484 0 -4.5919829621610473e-07 0.018070158335865907 0 -2.1837710113539484e-05 0.017455736643448704 0 -4.5919829621610473e-07 0.018070158335865907 0 0.0001074306004858791 0.018475314908738338 0 -2.1837710113539484e-05 0.017455736643448704 0 6.9832005441121207e-06 0.023429519584841716 0 -0.00043521121210370495 0.020663522903216887 0 1.0313364117042211e-06 0.019835368145330507 0 -4.5919829621610473e-07 0.018070158335865907 0 0.0001074306004858791 0.018475314908738338 0 -1.3395997524286213e-06 0.019835006189527327 0 6.9832005441121207e-06 0.023429519584841716 0 -0.0016481278820291152 0.024022932156853048 0 -0.00055402910377051284 0.024808598484636828 0 -0.00092488397613863687 0.025408780006481467 0 6.9832005441121207e-06 0.023429519584841716 0 -0.00032081424875271888 0.027566029345989607 0 0.00077050189059163271 0.029575015385241665 0 0.00048049066683910214 0.029759914435301911 0 0.00046170757384147543 0.029331159370134082 0 0.00048049066683910214 0.029759914435301911 0 0.00046170757384147543 0.029331159370134082 0 -2.4482965879674128e-05 0.028404883689188871 0 -0.0016481278820291152 0.024022932156853048 0 -0.00055402910377051284 0.024808598484636828 0 -0.00035014624308274454 0.024166053619206956 0 0.00013065162431824079 0.024802135893706403 0 -0.00055402910377051284 0.024808598484636828 0 -0.00035014624308274454 0.024166053619206956 0 0.00013065162431824079 0.024802135893706403 0 6.4821272058232897e-05 0.025668687117801972 0 -0.00055402910377051284 0.024808598484636828 0 6.4821272058232897e-05 0.025668687117801972 0 -0.00092488397613863687 0.025408780006481467 0 -1.6978144614130823e-05 0.026954777001670118 0 6.4821272058232897e-05 0.025668687117801972 0 -0.00055402910377051284 0.024808598484636828 0 -0.00092488397613863687 0.025408780006481467 0 -0.00032081424875271888 0.027566029345989607 0 -0.00016539090669268801 0.026767688724042098 0 0.0010133916968093142 0.027823171878186923 0 0.00046170757384147543 0.029331159370134082 0 -2.4482965879674128e-05 0.028404883689188871 0 0.00078746567485197812 0.028606290866216504 0 0.00047263857312082396 0.029301466254987852 0 0.0010133916968093142 0.027823171878186923 0 -2.4482965879674128e-05 0.028404883689188871 0 0.00031762249043911303 0.027489090235316028 0 0.00031762249043911303 0.027489090235316028 0 0.00022774938795823682 0.027161501650503919 0 0.00046132772472434091 0.027163279051048636 0 0.00074697053103028822 0.027328159248009111 0 0.00031762249043911303 0.027489090235316028 0 0.00046132772472434091 0.027163279051048636 0 0.00074697053103028822 0.027328159248009111 0 0.0010133916968093142 0.027823171878186923 0 0.00031762249043911303 0.027489090235316028 0 -2.4482965879674128e-05 0.028404883689188871 0 0.00031762249043911303 0.027489090235316028 0 -1.6978144614130823e-05 0.026954777001670118 0 0.00031762249043911303 0.027489090235316028 0 0.00022774938795823682 0.027161501650503919 0 -1.6978144614130823e-05 0.026954777001670118 0 0.00022774938795823682 0.027161501650503919 0 -1.6978144614130823e-05 0.026954777001670118 0 0.00023538215606619582 0.027095518582402191 0 0.00034957412486264118 0.027054390658063483 0 -1.6978144614130823e-05 0.026954777001670118 0 0.00023538215606619582 0.027095518582402191 0 0.00022774938795823682 0.027161501650503919 0 0.00023538215606619582 0.027095518582402191 0 0.00046132772472434091 0.027163279051048636 0 0.00034957412486264118 0.027054390658063483 0 0.00023538215606619582 0.027095518582402191 0 0.00029770833122871464 0.027068217439490675 0 0.00032909918106816276 0.026968687644072148 0 0.00029770833122871464 0.027068217439490675 0 0.00036337970683584999 0.027012506791886076 0 0.00023538215606619582 0.027095518582402191 0 0.00029770833122871464 0.027068217439490675 0 0.00036337970683584999 0.027012506791886076 0 0.00023538215606619582 0.027095518582402191 0 0.00036337970683584999 0.027012506791886076 0 0.00050972854857744159 0.027049117435720922 0 0.00036337970683584999 0.027012506791886076 0 0.00047618020629480978 0.02695265185533096 0 0.00039925072417071089 0.0269001104672403 0 0.00032909918106816276 0.026968687644072148 0 0.00036337970683584999 0.027012506791886076 0 0.00039925072417071089 0.0269001104672403 0 0.00050972854857744159 0.027049117435720922 0 0.00069602374176858963 0.027134261343765134 0 0.00060407735883498523 0.026965391209040665 0 0.00047618020629480978 0.02695265185533096 0 0.00050972854857744159 0.027049117435720922 0 0.00060407735883498523 0.026965391209040665 0 0.00036337970683584999 0.027012506791886076 0 0.00047618020629480978 0.02695265185533096 0 0.00050972854857744159 0.027049117435720922 0 0.00050972854857744159 0.027049117435720922 0 0.00046132772472434091 0.027163279051048636 0 0.00069602374176858963 0.027134261343765134 0 0.00023538215606619582 0.027095518582402191 0 0.00050972854857744159 0.027049117435720922 0 0.00046132772472434091 0.027163279051048636 0 0.00074697053103028822 0.027328159248009111 0 0.00046132772472434091 0.027163279051048636 0 0.00069602374176858963 0.027134261343765134 0 0.00069602374176858963 0.027134261343765134 0 0.0009410374204284357 0.027256768441201999 0 0.0007839165604655873 0.027106476437853879 0 0.00074697053103028822 0.027328159248009111 0 0.00069602374176858963 0.027134261343765134 0 0.0009410374204284357 0.027256768441201999 0 0.0010131318674685078 0.0272591431229346 0 0.0013606872743206666 0.028772153104319041 0 0.00065886760061194987 0.028758559009651411 0 0.0010317800432149578 0.027293309692501867 0 0.00082673880955299944 0.027982160396656238 0 0.0009410374204284357 0.027256768441201999 0 0.00089395787062866293 0.027169057224916558 0 0.0007839165604655873 0.027106476437853879 0 0.0010131318674685078 0.0272591431229346 0 0.0009410374204284357 0.027256768441201999 0 0.00089395787062866293 0.027169057224916558 0 0.00089395787062866293 0.027169057224916558 0 0.0007839165604655873 0.027106476437853879 0 0.00081818629333486762 0.027032160685872216 0 0.00089395787062866293 0.027169057224916558 0 0.00091763332238408595 0.027030010871163142 0 0.00081818629333486762 0.027032160685872216 0 0.0010131318674685078 0.0272591431229346 0 0.001121521127582095 0.027100612005290632 0 0.00091763332238408595 0.027030010871163142 0 0.0010131318674685078 0.0272591431229346 0 0.00089395787062866293 0.027169057224916558 0 0.00091763332238408595 0.027030010871163142 0 0.00069602374176858963 0.027134261343765134 0 0.0007839165604655873 0.027106476437853879 0 0.00060407735883498523 0.026965391209040665 0 0.0007839165604655873 0.027106476437853879 0 0.00072584827654519036 0.026958678834818728 0 0.00081818629333486762 0.027032160685872216 0 0.0007839165604655873 0.027106476437853879 0 0.00072584827654519036 0.026958678834818728 0 0.00060407735883498523 0.026965391209040665 0 0.00072584827654519036 0.026958678834818728 0 0.00065354404631393656 0.02681910358100504 0 0.00060407735883498523 0.026965391209040665 0 0.00072584827654519036 0.026958678834818728 0 0.00081818629333486762 0.027032160685872216 0 0.00078180934332109807 0.026897148889712969 0 0.00072584827654519036 0.026958678834818728 0 0.00078180934332109807 0.026897148889712969 0 0.00065354404631393656 0.02681910358100504 0 0.001121521127582095 0.027100612005290632 0 0.00091763332238408595 0.027030010871163142 0 0.00086973307981258918 0.026779597071489778 0 0.00091763332238408595 0.027030010871163142 0 0.00078180934332109807 0.026897148889712969 0 0.00086973307981258918 0.026779597071489778 0 0.00091763332238408595 0.027030010871163142 0 0.00081818629333486762 0.027032160685872216 0 0.00078180934332109807 0.026897148889712969 0 0.00078180934332109807 0.026897148889712969 0 0.00074731722074325316 0.026756756536613181 0 0.00086973307981258918 0.026779597071489778 0 0.00078180934332109807 0.026897148889712969 0 0.00074731722074325316 0.026756756536613181 0 0.00065354404631393656 0.02681910358100504 0 0.00074731722074325316 0.026756756536613181 0 0.00065354404631393656 0.02681910358100504 0 0.00068649893120505362 0.026711827727940337 0 0.00065354404631393656 0.02681910358100504 0 0.00050027020036116367 0.026843411237714981 0 0.00057423973876527816 0.026680185718480319 0 0.0014566987220953375 0.023517464028382173 0 0.0024414141217084925 0.020675780708102071 0 0.0014566987220953375 0.023517464028382173 0 0.00088814619849368961 0.025251569465144962 0 0.00037186281841040898 0.026780616507194457 0 0.00050027020036116367 0.026843411237714981 0 0.00057423973876527816 0.026680185718480319 0 0.00037186281841040898 0.026780616507194457 0 0.00039925072417071089 0.0269001104672403 0 0.00050027020036116367 0.026843411237714981 0 0.00034597505055664274 0.026869915574714388 0 0.00037186281841040898 0.026780616507194457 0 0.00039925072417071089 0.0269001104672403 0 0.00032909918106816276 0.026968687644072148 0 0.00034597505055664274 0.026869915574714388 0 0.00039925072417071089 0.0269001104672403 0 0.00047618020629480978 0.02695265185533096 0 0.00039925072417071089 0.0269001104672403 0 0.00050027020036116367 0.026843411237714981 0 0.00047618020629480978 0.02695265185533096 0 0.00060407735883498523 0.026965391209040665 0 0.00050027020036116367 0.026843411237714981 0 0.00065354404631393656 0.02681910358100504 0 0.00060407735883498523 0.026965391209040665 0 0.00050027020036116367 0.026843411237714981 0 0.0013308509959739992 0.023949844144323378 0 0.0014388593802110499 0.023309356270257615 0 0.00085847508281505314 0.0239201033863072 0 0.00088814619849368961 0.025251569465144962 0 0.0008001874475112963 0.025274876713426462 0 0.0017867627595920125 0.021976039432819752 0 0.0024414141217084925 0.020675780708102071 0 0.0022669708644438361 0.019877815280184022 0 0.0028905520100989987 0.019699046865954157 0 0.0027319699445873353 0.019150722010800151 0 0.0032879243538448512 0.019414698164189281 0 0.0028905520100989987 0.019699046865954157 0 0.0027319699445873353 0.019150722010800151 0 0.0019410818365380343 0.022802302257743805 0 0.0016447658689527514 0.023323657443403239 0 0.0014388593802110499 0.023309356270257615 0 0.0013308509959739992 0.023949844144323378 0 0.0016447658689527514 0.023323657443403239 0 0.0014388593802110499 0.023309356270257615 0 0.00065354404631393656 0.02681910358100504 0 0.00057423973876527816 0.026680185718480319 0 0.00068649893120505362 0.026711827727940337 0 0.00057423973876527816 0.026680185718480319 0 0.00068649893120505362 0.026711827727940337 0 0.00068726812409522747 0.026727951799779871 0 0.00074731722074325316 0.026756756536613181 0 0.00068649893120505362 0.026711827727940337 0 0.00067849678071378551 0.026699326178069267 0 0.00074731722074325316 0.026756756536613181 0 0.00086973307981258918 0.026779597071489778 0 0.00067849678071378551 0.026699326178069267 0 0.0008729495126332537 0.027452761473642104 0 0.00065428646380198468 0.027125426179506664 0 0.00067849678071378551 0.026699326178069267 0 0.00068726812409522747 0.026727951799779871 0 0.00055071005294822473 0.026856692824217692 0 0.00060812988017799104 0.027545022320267853 0 0.00055071005294822473 0.026856692824217692 0 0.00070516473164643049 0.0270682442382249 0 0.00065428646380198468 0.027125426179506664 0 0.00056317675209702743 0.02688106644284748 0 0.00068649893120505362 0.026711827727940337 0 0.00067849678071378551 0.026699326178069267 0 0.00068726812409522747 0.026727951799779871 0 0.0013308509959739992 0.023949844144323378 0 0.00085847508281505314 0.0239201033863072 0 0.00098287611921915054 0.024648486012955703 0 0.00085847508281505314 0.0239201033863072 0 0.00023248796550822968 0.024606650145957375 0 0.00098287611921915054 0.024648486012955703 0 0.00068726812409522747 0.026727951799779871 0 0.00055071005294822473 0.026856692824217692 0 0.00053395893385551881 0.026862425098673138 0 0.0008001874475112963 0.025274876713426462 0 0.00035397937101000389 0.025732506642227336 0 0.00055071005294822473 0.026856692824217692 0 0.00053395893385551881 0.026862425098673138 0 0.00064939684379857073 0.026884070784504801 0 0.00055071005294822473 0.026856692824217692 0 0.00064939684379857073 0.026884070784504801 0 0.00070516473164643049 0.0270682442382249 0 0.00023248796550822968 0.024606650145957375 0 0.0002963702104421617 0.024984724680652198 0 -0.00038936591561719851 0.025314879970791487 0 0.00023248796550822968 0.024606650145957375 0 0.0002963702104421617 0.024984724680652198 0 0.00098287611921915054 0.024648486012955703 0 -0.0001413168652061217 0.025798782076232589 0 0.0011077428938419175 0.022966747138713873 0 0.0011077428938419175 0.022966747138713873 0 0.00035907185790229627 0.023919538365820045 0 -2.9514821913489334e-05 0.026062151121738451 0 -0.00028071347835279177 0.026121406208812061 0 -0.00018107922447511773 0.025870731119287102 0 0.0016162349643743924 0.020562703384928504 0 0.0022941250833098826 0.020886752501780841 0 0.0018339342811224629 0.02165354525150201 0 0.0016162349643743924 0.020562703384928504 0 0.0022941250833098826 0.020886752501780841 0 0.0027432181311133337 0.020073760391241844 0 0.0022941250833098826 0.020886752501780841 0 0.0028183150159042428 0.020740437233182193 0 0.0024141644460371967 0.021510584293967943 0 0.0022669708644438361 0.019877815280184022 0 0.0017798924134165347 0.020768226566752791 0 0.0026779394411174042 0.020318891582335838 0 0.0017867627595920125 0.021976039432819752 0 0.0011077428938419175 0.022966747138713873 0 0.0011077428938419175 0.022966747138713873 0 0.0029338796905154351 0.01990164870876231 0 0.0034607417583036415 0.019859174757706155 0 0.0028905520100989987 0.019699046865954157 0 0.0026779394411174042 0.020318891582335838 0 0.0022669708644438361 0.019877815280184022 0 0.0028905520100989987 0.019699046865954157 0 0.0026779394411174042 0.020318891582335838 0 0.0032943050418746283 0.019970489762498277 0 0.0029338796905154351 0.01990164870876231 0 0.0034607417583036415 0.019859174757706155 0 0.0027432181311133337 0.020073760391241844 0 0.0031939821899276762 0.020218303330123751 0 0.0027432181311133337 0.020073760391241844 0 0.0031939821899276762 0.020218303330123751 0 0.0028183150159042428 0.020740437233182193 0 0.0032329372794417475 0.020662096115555438 0 0.0031939821899276762 0.020218303330123751 0 0.0028183150159042428 0.020740437233182193 0 0.0022941250833098826 0.020886752501780841 0 0.0027432181311133337 0.020073760391241844 0 0.0028183150159042428 0.020740437233182193 0 0.0032329372794417475 0.020662096115555438 0 0.0028183150159042428 0.020740437233182193 0 0.0030702883077778497 0.021478621475730229 0 0.0028183150159042428 0.020740437233182193 0 0.0030702883077778497 0.021478621475730229 0 0.0024141644460371967 0.021510584293967943 0 0.0030702883077778497 0.021478621475730229 0 0.0024141644460371967 0.021510584293967943 0 0.0027342647622912762 0.02202869526345045 0 0.0018339342811224629 0.02165354525150201 0 0.0024141644460371967 0.021510584293967943 0 0.0022366472279602037 0.022469755827833386 0 0.0024141644460371967 0.021510584293967943 0 0.0022366472279602037 0.022469755827833386 0 0.0027342647622912762 0.02202869526345045 0 0.0022941250833098826 0.020886752501780841 0 0.0018339342811224629 0.02165354525150201 0 0.0024141644460371967 0.021510584293967943 0 0.0018339342811224629 0.02165354525150201 0 0.0022366472279602037 0.022469755827833386 0 0.0014802019498761974 0.02281506204487533 0 0.0022366472279602037 0.022469755827833386 0 0.0020866743669710917 0.023615721331926843 0 0.0014802019498761974 0.02281506204487533 0 0.0022366472279602037 0.022469755827833386 0 0.0027634805744024089 0.022595068517400327 0 0.002589032215683725 0.023126790514021799 0 0.0030702883077778497 0.021478621475730229 0 0.0032928299125541665 0.022351745279222263 0 0.0027342647622912762 0.02202869526345045 0 0.0022366472279602037 0.022469755827833386 0 0.0027342647622912762 0.02202869526345045 0 0.0027634805744024089 0.022595068517400327 0 0.0032928299125541665 0.022351745279222263 0 0.0027342647622912762 0.02202869526345045 0 0.0027634805744024089 0.022595068517400327 0 0.0032928299125541665 0.022351745279222263 0 0.0027634805744024089 0.022595068517400327 0 0.0030863480567385128 0.023143376535104156 0 0.003428528993043189 0.023849816207110047 0 0.0030863480567385128 0.023143376535104156 0 0.0027761014689493282 0.023800040634594143 0 0.0027634805744024089 0.022595068517400327 0 0.0030863480567385128 0.023143376535104156 0 0.002589032215683725 0.023126790514021799 0 0.0030863480567385128 0.023143376535104156 0 0.0027761014689493282 0.023800040634594143 0 0.002589032215683725 0.023126790514021799 0 0.0022366472279602037 0.022469755827833386 0 0.002589032215683725 0.023126790514021799 0 0.0020866743669710917 0.023615721331926843 0 0.0027761014689493282 0.023800040634594143 0 0.002589032215683725 0.023126790514021799 0 0.0020866743669710917 0.023615721331926843 0 0.0020866743669710917 0.023615721331926843 0 0.002454811793042978 0.024394474116815626 0 0.0018138124029371918 0.024591087737480161 0 0.0027761014689493282 0.023800040634594143 0 0.0020866743669710917 0.023615721331926843 0 0.002454811793042978 0.024394474116815626 0 0.002454811793042978 0.024394474116815626 0 0.0018138124029371918 0.024591087737480161 0 0.0024677031271517244 0.025162137694551643 0 0.002454811793042978 0.024394474116815626 0 0.0030878062154464135 0.024536750751983954 0 0.0024677031271517244 0.025162137694551643 0 0.003428528993043189 0.023849816207110047 0 0.0027761014689493282 0.023800040634594143 0 0.0030878062154464135 0.024536750751983954 0 0.0027761014689493282 0.023800040634594143 0 0.002454811793042978 0.024394474116815626 0 0.0030878062154464135 0.024536750751983954 0 0.0011765866898547702 0.024053007579026436 0 0.00033880095167691728 0.024679062896947958 0 0.0010685440646525752 0.025299024326345506 0 0.0018138124029371918 0.024591087737480161 0 0.0011765866898547702 0.024053007579026436 0 0.0010685440646525752 0.025299024326345506 0 0.0020866743669710917 0.023615721331926843 0 0.0018138124029371918 0.024591087737480161 0 0.0011765866898547702 0.024053007579026436 0 0.0020866743669710917 0.023615721331926843 0 0.0011765866898547702 0.024053007579026436 0 0.0014802019498761974 0.02281506204487533 0 0.00031159448933782243 0.024245803750110994 0 0.00030512468083251665 0.024622029107161693 0 0.0011765866898547702 0.024053007579026436 0 0.00056564895165050252 0.023193720808108803 0 0.0014802019498761974 0.02281506204487533 0 0.0011765866898547702 0.024053007579026436 0 0.00056564895165050252 0.023193720808108803 0 0.00033880095167691728 0.024679062896947958 0 -3.4130324905499267e-05 0.025358440223758841 0 -0.00018107922447511773 0.025870731119287102 0 9.7216359972262406e-05 0.025835698462409663 0 0.00031159448933782243 0.024245803750110994 0 0.00035907185790229627 0.023919538365820045 0 0.00056564895165050252 0.023193720808108803 0 0.0014802019498761974 0.02281506204487533 0 0.0010267249634245243 0.021806593824473204 0 0.0018339342811224629 0.02165354525150201 0 0.0014802019498761974 0.02281506204487533 0 0.0010267249634245243 0.021806593824473204 0 0.0016162349643743924 0.020562703384928504 0 0.0018339342811224629 0.02165354525150201 0 0.0010267249634245243 0.021806593824473204 0 -2.9514821913489334e-05 0.026062151121738451 0 -0.00018107922447511773 0.025870731119287102 0 9.7216359972262406e-05 0.025835698462409663 0 -2.9514821913489334e-05 0.026062151121738451 0 9.7216359972262406e-05 0.025835698462409663 0 0.00043491239250249684 0.026000245158852114 0 -0.0001413168652061217 0.025798782076232589 0 0.00029658841842037921 0.025818705845865288 0 0.00065618988923100041 0.026327069603918198 0 0.00078692947008050546 0.026430245096797835 0 0.00072825891982729513 0.026691386890378598 0 0.00029658841842037921 0.025818705845865288 0 0.00036935420887304182 0.025855072205771407 0 0.00043491239250249684 0.026000245158852114 0 0.00068983531254339901 0.025897041282006886 0 0.00034597524585708821 0.025705185100818043 0 9.7216359972262406e-05 0.025835698462409663 0 0.00043491239250249684 0.026000245158852114 0 0.00034597524585708821 0.025705185100818043 0 0.0010842526361989813 0.026382215142338999 0 0.0009346920036700586 0.026451163494570447 0 0.0010556726042442387 0.026629596169100451 0 0.0010842526361989813 0.026382215142338999 0 0.00086917041488818159 0.026238124422400855 0 0.0010236204531649969 0.026115532265567804 0 0.0010842526361989813 0.026382215142338999 0 0.0009346920036700586 0.026451163494570447 0 0.00086917041488818159 0.026238124422400855 0 0.00086917041488818159 0.026238124422400855 0 0.00078692947008050546 0.026430245096797835 0 0.00066906380924909993 0.026252404686874627 0 0.0009346920036700586 0.026451163494570447 0 0.00086917041488818159 0.026238124422400855 0 0.00078692947008050546 0.026430245096797835 0 0.00065618988923100041 0.026327069603918198 0 0.00078692947008050546 0.026430245096797835 0 0.00066906380924909993 0.026252404686874627 0 0.00086917041488818159 0.026238124422400855 0 0.00068983531254339901 0.025897041282006886 0 0.00066906380924909993 0.026252404686874627 0 0.00029658841842037921 0.025818705845865288 0 0.00058893599350627894 0.025865688945668982 0 0.0006008279328429966 0.026340168447595194 0 0.00068983531254339901 0.025897041282006886 0 0.00066906380924909993 0.026252404686874627 0 0.00068983531254339901 0.025897041282006886 0 0.0010236204531649969 0.026115532265567804 0 0.0010443595490199878 0.02582029231636606 0 0.00086917041488818159 0.026238124422400855 0 0.00068983531254339901 0.025897041282006886 0 0.0010236204531649969 0.026115532265567804 0 0.00068983531254339901 0.025897041282006886 0 0.00080126830885279409 0.025617961303256203 0 0.0010443595490199878 0.02582029231636606 0 0.00068983531254339901 0.025897041282006886 0 0.00080126830885279409 0.025617961303256203 0 0.00057316666103996599 0.025561654654591908 0 0.00068983531254339901 0.025897041282006886 0 0.00057316666103996599 0.025561654654591908 0 0.00034597524585708821 0.025705185100818043 0 0.00080126830885279409 0.025617961303256203 0 0.00057316666103996599 0.025561654654591908 0 0.00066739883343960914 0.025288879285463913 0 0.00057316666103996599 0.025561654654591908 0 0.0003865628204803021 0.025337691475133057 0 0.00066739883343960914 0.025288879285463913 0 0.00080126830885279409 0.025617961303256203 0 0.00091153739121882179 0.025396630201168023 0 0.00066739883343960914 0.025288879285463913 0 0.00080126830885279409 0.025617961303256203 0 0.00091153739121882179 0.025396630201168023 0 0.0010443595490199878 0.02582029231636606 0 -3.4130324905499267e-05 0.025358440223758841 0 9.7216359972262406e-05 0.025835698462409663 0 0.00034597524585708821 0.025705185100818043 0 -3.4130324905499267e-05 0.025358440223758841 0 0.00034597524585708821 0.025705185100818043 0 0.0003865628204803021 0.025337691475133057 0 0.00057316666103996599 0.025561654654591908 0 0.00034597524585708821 0.025705185100818043 0 0.0003865628204803021 0.025337691475133057 0 0.0003865628204803021 0.025337691475133057 0 0.00049463750559821632 0.024975461620883804 0 0.00033880095167691728 0.024679062896947958 0 -3.4130324905499267e-05 0.025358440223758841 0 0.0003865628204803021 0.025337691475133057 0 0.00033880095167691728 0.024679062896947958 0 0.0003865628204803021 0.025337691475133057 0 0.00066739883343960914 0.025288879285463913 0 0.00049463750559821632 0.024975461620883804 0 0.00091153739121882179 0.025396630201168023 0 0.00066739883343960914 0.025288879285463913 0 0.00056797066471179786 0.024819271503431221 0 0.00066739883343960914 0.025288879285463913 0 0.00049463750559821632 0.024975461620883804 0 0.00056797066471179786 0.024819271503431221 0 0.00049463750559821632 0.024975461620883804 0 0.00056797066471179786 0.024819271503431221 0 0.00033880095167691728 0.024679062896947958 0 0.00056797066471179786 0.024819271503431221 0 0.00033880095167691728 0.024679062896947958 0 0.00012661981037591144 0.025445917204854947 0 0.00086865451372602467 0.027506946498701924 0 0.00084135513807866462 0.027522661306436731 0 0.00080005280770078136 0.027527632062466136 0 0.00086865451372602467 0.027506946498701924 0 0.00093134803685742014 0.027494042882999274 0 0.00093088577329056895 0.027473855518373398 0 0.00086865451372602467 0.027506946498701924 0 0.00084135513807866462 0.027522661306436731 0 0.00093088577329056895 0.027473855518373398 0 0.00081672380092160529 0.027452774753679111 0 0.00078139651548790232 0.027430655047350344 0 0.00081239554076553461 0.027484494326446708 0 0.00086865451372602467 0.027506946498701924 0 0.00093134803685742014 0.027494042882999274 0 0.00081239554076553461 0.027484494326446708 0 0.00085109905287533206 0.027538571500740509 0 0.00082130498931627801 0.027441381714882484 0 0.00091153739121882179 0.025396630201168023 0 0.00056797066471179786 0.024819271503431221 0 0.001444147708676594 0.025571007979261918 0 0.0006793285387377908 0.026073143819372209 0 0.0011209582469535011 0.026924901180332771 0 0.00081672380092160529 0.027452774753679111 0 0.00078139651548790232 0.027430655047350344 0 0.00078504757133824698 0.027332546111760312 0 0.00085109905287533206 0.027538571500740509 0 0.0011209582469535011 0.026924901180332771 0 0.00093134803685742014 0.027494042882999274 0 0.00093088577329056895 0.027473855518373398 0 0.0010600284033051963 0.027397940432468779 0 0.0010600284033051963 0.027397940432468779 0 0.0012097968331559559 0.027221236231821148 0 0.00099914734054197952 0.027375333735264403 0 0.00093088577329056895 0.027473855518373398 0 0.0010600284033051963 0.027397940432468779 0 0.00099914734054197952 0.027375333735264403 0 0.0011209582469535011 0.026924901180332771 0 0.0014631831035803011 0.026720020639328476 0 0.00091153739121882179 0.025396630201168023 0 0.001444147708676594 0.025571007979261918 0 0.0010443595490199878 0.02582029231636606 0 0.001444147708676594 0.025571007979261918 0 0.0010443595490199878 0.02582029231636606 0 0.0012344756834874859 0.026136403404137622 0 0.001444147708676594 0.025571007979261918 0 0.0012344756834874859 0.026136403404137622 0 0.0015497102848614445 0.026284716645792242 0 0.0010842526361989813 0.026382215142338999 0 0.0010236204531649969 0.026115532265567804 0 0.0012344756834874859 0.026136403404137622 0 0.0010236204531649969 0.026115532265567804 0 0.0010443595490199878 0.02582029231636606 0 0.0012344756834874859 0.026136403404137622 0 0.0012344756834874859 0.026136403404137622 0 0.0015497102848614445 0.026284716645792242 0 0.0012588679683918674 0.026583714795718406 0 0.0010842526361989813 0.026382215142338999 0 0.0012344756834874859 0.026136403404137622 0 0.0012588679683918674 0.026583714795718406 0 0.0012097968331559559 0.027221236231821148 0 0.0012742274621993551 0.027045007211167489 0 0.0010164277450232524 0.027254735955891816 0 0.0011209582469535011 0.026924901180332771 0 0.0012731742825154396 0.027446659569864022 0 0.0014309767999317331 0.02759755971318973 0 0.0013985892114114929 0.027276683953805111 0 0.0012097968331559559 0.027221236231821148 0 0.0013985892114114929 0.027276683953805111 0 0.0012097968331559559 0.027221236231821148 0 0.0014500484623221168 0.026945937149717096 0 0.0012097968331559559 0.027221236231821148 0 0.0014500484623221168 0.026945937149717096 0 0.0012742274621993551 0.027045007211167489 0 0.0014500484623221168 0.026945937149717096 0 0.0012742274621993551 0.027045007211167489 0 0.0014559933856150855 0.027035760061531976 0 0.0012742274621993551 0.027045007211167489 0 0.0014559933856150855 0.027035760061531976 0 0.0014834355410229538 0.027055670133094727 0 0.0014559933856150855 0.027035760061531976 0 0.0014834355410229538 0.027055670133094727 0 0.0014915513353951125 0.027164663049509756 0 0.0013919966383487397 0.027090007316828028 0 0.0012148550221539045 0.02701927333441137 0 0.0012828384959307825 0.027299758927972758 0 0.0014559933856150855 0.027035760061531976 0 0.0013919966383487397 0.027090007316828028 0 0.0014915513353951125 0.027164663049509756 0 0.0013919966383487397 0.027090007316828028 0 0.0014915513353951125 0.027164663049509756 0 0.0014444786437701061 0.027253040607516321 0 0.0014500484623221168 0.026945937149717096 0 0.0013919966383487397 0.027090007316828028 0 0.0012062883613991409 0.026863446288910412 0 0.0014500484623221168 0.026945937149717096 0 0.0014559933856150855 0.027035760061531976 0 0.0013919966383487397 0.027090007316828028 0 0.0013919966383487397 0.027090007316828028 0 0.0012062883613991409 0.026863446288910412 0 0.0012148550221539045 0.02701927333441137 0 0.0014631831035803011 0.026720020639328476 0 0.0014609513115762776 0.026926108834601732 0 0.0014500484623221168 0.026945937149717096 0 0.0012062883613991409 0.026863446288910412 0 0.0012588679683918674 0.026583714795718406 0 0.0015497102848614445 0.026284716645792242 0 0.0014500484623221168 0.026945937149717096 0 0.0012588679683918674 0.026583714795718406 0 0.0012062883613991409 0.026863446288910412 0 0.0012588679683918674 0.026583714795718406 0 0.0010556726042442387 0.026629596169100451 0 0.0010842526361989813 0.026382215142338999 0 0.0012588679683918674 0.026583714795718406 0 0.0010556726042442387 0.026629596169100451 0 0.0009346920036700586 0.026451163494570447 0 0.0010556726042442387 0.026629596169100451 0 0.00088011143347245502 0.026616823624905427 0 0.0010556726042442387 0.026629596169100451 0 0.00088011143347245502 0.026616823624905427 0 0.00099007970962671421 0.02683901917744947 0 0.0009346920036700586 0.026451163494570447 0 0.00078692947008050546 0.026430245096797835 0 0.00088011143347245502 0.026616823624905427 0 0.00078692947008050546 0.026430245096797835 0 0.00088011143347245502 0.026616823624905427 0 0.00072825891982729513 0.026691386890378598 0 0.00088011143347245502 0.026616823624905427 0 0.00099007970962671421 0.02683901917744947 0 0.00072825891982729513 0.026691386890378598 0 0.0012062883613991409 0.026863446288910412 0 0.0010556726042442387 0.026629596169100451 0 0.00099007970962671421 0.02683901917744947 0 0.00053395893385551881 0.026862425098673138 0 0.00065618988923100041 0.026327069603918198 0 0.00072825891982729513 0.026691386890378598 0 0.00035397937101000389 0.025732506642227336 0 0.00029658841842037921 0.025818705845865288 0 0.00053395893385551881 0.026862425098673138 0 0.00072825891982729513 0.026691386890378598 0 0.00064939684379857073 0.026884070784504801 0 0.00099007970962671421 0.02683901917744947 0 0.00072825891982729513 0.026691386890378598 0 0.00080667679297652937 0.026951282396763778 0 0.00064939684379857073 0.026884070784504801 0 0.00080667679297652937 0.026951282396763778 0 0.00070516473164643049 0.0270682442382249 0 0.00072825891982729513 0.026691386890378598 0 0.00064939684379857073 0.026884070784504801 0 0.00080667679297652937 0.026951282396763778 0 0.00080667679297652937 0.026951282396763778 0 0.0010421475749417134 0.027048102181395021 0 0.00089208544557107324 0.02720402310855299 0 0.00080667679297652937 0.026951282396763778 0 0.00070516473164643049 0.0270682442382249 0 0.00089208544557107324 0.02720402310855299 0 0.00099007970962671421 0.02683901917744947 0 0.0012148550221539045 0.02701927333441137 0 0.0010421475749417134 0.027048102181395021 0 0.0012062883613991409 0.026863446288910412 0 0.00099007970962671421 0.02683901917744947 0 0.0012148550221539045 0.02701927333441137 0 0.00099007970962671421 0.02683901917744947 0 0.00080667679297652937 0.026951282396763778 0 0.0010421475749417134 0.027048102181395021 0 0.0010421475749417134 0.027048102181395021 0 0.0010743043650910588 0.027260552318002861 0 0.00089208544557107324 0.02720402310855299 0 0.0012148550221539045 0.02701927333441137 0 0.0010421475749417134 0.027048102181395021 0 0.0012828384959307825 0.027299758927972758 0 0.0010421475749417134 0.027048102181395021 0 0.0012828384959307825 0.027299758927972758 0 0.0010743043650910588 0.027260552318002861 0 0.0010743043650910588 0.027260552318002861 0 0.0010734849484696435 0.027517491503310048 0 0.00089208544557107324 0.02720402310855299 0 0.0012828384959307825 0.027299758927972758 0 0.0010743043650910588 0.027260552318002861 0 0.0010734849484696435 0.027517491503310048 0 0.0012828384959307825 0.027299758927972758 0 0.0010734849484696435 0.027517491503310048 0 0.0013663801646669805 0.027744786487202754 0 0.00060812988017799104 0.027545022320267853 0 0.00070516473164643049 0.0270682442382249 0 0.00089208544557107324 0.02720402310855299 0 0.00060812988017799104 0.027545022320267853 0 0.0010734849484696435 0.027517491503310048 0 0.00089208544557107324 0.02720402310855299 0 0.00086910589750230328 0.028142462663683056 0 0.00060812988017799104 0.027545022320267853 0 0.0010718027168745887 0.027867163534807789 0 0.00060812988017799104 0.027545022320267853 0 0.0010734849484696435 0.027517491503310048 0 0.0010718027168745887 0.027867163534807789 0 0.0010734849484696435 0.027517491503310048 0 0.0010718027168745887 0.027867163534807789 0 0.0013663801646669805 0.027744786487202754 0 0.0013815879832708281 0.028090678610068451 0 0.0010718027168745887 0.027867163534807789 0 0.0013663801646669805 0.027744786487202754 0 0.0017631466284809823 0.028140924381276525 0 0.0019773696570499605 0.027547813170102759 0 0.0016029592363794149 0.027445479242495397 0 0.0013815879832708281 0.028090678610068451 0 0.0013663801646669805 0.027744786487202754 0 0.0017631466284809823 0.028140924381276525 0 0.0013663801646669805 0.027744786487202754 0 0.0017631466284809823 0.028140924381276525 0 0.0016029592363794149 0.027445479242495397 0 0.0017200588876474141 0.028345832917107308 0 0.0018871812107537937 0.028581991669692913 0 0.0017324985109352653 0.028727987128423799 0 0.0017631466284809823 0.028140924381276525 0 0.0017200588876474141 0.028345832917107308 0 0.0018871812107537937 0.028581991669692913 0 0.0017860286787314134 0.028190085459071364 0 0.0019612044920456397 0.028052917659892485 0 0.0019773696570499605 0.027547813170102759 0 0.0023002122667887376 0.026991967837747672 0 0.0016029592363794149 0.027445479242495397 0 0.0022881969641630863 0.028577718911869443 0 0.0016810462164717429 0.027181088674357871 0 0.0014834355410229538 0.027055670133094727 0 0.0014915513353951125 0.027164663049509756 0 0.0016029592363794149 0.027445479242495397 0 0.0018871812107537937 0.028581991669692913 0 0.0017324985109352653 0.028727987128423799 0 0.0018640483221886517 0.029070212021860744 0 0.0019612044920456397 0.028052917659892485 0 0.0022881969641630863 0.028577718911869443 0 0.0014915513353951125 0.027164663049509756 0 0.0014444786437701061 0.027253040607516321 0 0.0016029592363794149 0.027445479242495397 0 0.0013919966383487397 0.027090007316828028 0 0.0012828384959307825 0.027299758927972758 0 0.0014444786437701061 0.027253040607516321 0 0.0012828384959307825 0.027299758927972758 0 0.0014444786437701061 0.027253040607516321 0 0.0016029592363794149 0.027445479242495397 0 0.0012828384959307825 0.027299758927972758 0 0.0013663801646669805 0.027744786487202754 0 0.0016029592363794149 0.027445479242495397 0 0.0013147369991250604 0.028848325794291762 0 0.0013845209288017523 0.028375036299646043 0 0.00084171247644131391 0.029006567920515827 0 0.00098258807570072797 0.030039523734484756 0 0.0010676492779222663 0.029234675701131894 0 0.0013147369991250604 0.028848325794291762 0 0.00084171247644131391 0.029006567920515827 0 0.0012717125606604976 0.029283770275961758 0 0.0013147369991250604 0.028848325794291762 0 0.0015279438048344785 0.02904876825168029 0 0.0012717125606604976 0.029283770275961758 0 0.0017324985109352653 0.028727987128423799 0 0.0018640483221886517 0.029070212021860744 0 0.0015279438048344785 0.02904876825168029 0 0.0017324985109352653 0.028727987128423799 0 0.0015279438048344785 0.02904876825168029 0 0.0015283618763071473 0.028651639073362045 0 0.0013147369991250604 0.028848325794291762 0 0.0015279438048344785 0.02904876825168029 0 0.0015283618763071473 0.028651639073362045 0 0.0013147369991250604 0.028848325794291762 0 0.0015283618763071473 0.028651639073362045 0 0.0013845209288017523 0.028375036299646043 0 0.0017200588876474141 0.028345832917107308 0 0.0015283618763071473 0.028651639073362045 0 0.0013845209288017523 0.028375036299646043 0 0.0017200588876474141 0.028345832917107308 0 0.0017324985109352653 0.028727987128423799 0 0.0015283618763071473 0.028651639073362045 0 0.0014579790555114993 0.030577872396193972 0 0.00098258807570072797 0.030039523734484756 0 0.0015113980203343778 0.032456570083795856 0 0.0015426264793012645 0.032475614270061369 0 0.0014933103400143961 0.032487346778987361 0 0.0015426264793012645 0.032475614270061369 0 0.0014933103400143961 0.032487346778987361 0 0.0014918594145508605 0.032511562885161029 0 0.0014670742764658386 0.032468600584124971 0 0.0014933103400143961 0.032487346778987361 0 0.0014271338840464855 0.032510180917100326 0 0.0014264994042428422 0.032470438520212766 0 0.0014670742764658386 0.032468600584124971 0 0.0014271338840464855 0.032510180917100326 0 0.0014264994042428422 0.032470438520212766 0 0.0014271338840464855 0.032510180917100326 0 0.001384960495732663 0.032479299221771868 0 0.00031161263118837171 0.029199644906636926 0 0.00038838082097373996 0.029527244553698904 0 -4.936421849857291e-05 0.02942576056542455 0 0.00079842175278168432 0.029364910385188667 0 0.00070244660073074132 0.02950792266292215 0 0.00038838082097373996 0.029527244553698904 0 0.00087111050679717587 0.03075683071908945 0 0.00098258807570072797 0.030039523734484756 0 0.0014933103400143961 0.032487346778987361 0 0.0014271338840464855 0.032510180917100326 0 0.0014918594145508605 0.032511562885161029 0 0.00031161263118837171 0.029199644906636926 0 0.00079842175278168432 0.029364910385188667 0 0.00038838082097373996 0.029527244553698904 0 0.00098258807570072797 0.030039523734484756 0 0.00094558980276833221 0.029512407513147678 0 0.00070244660073074132 0.02950792266292215 0 0.0007819397136600404 0.029772654042870397 0 0.00095348737644575981 0.029506287094845766 0 0.00083689877560170155 0.029212056825133708 0 0.00070244660073074132 0.02950792266292215 0 0.00095348737644575981 0.029506287094845766 0 0.00070244660073074132 0.02950792266292215 0 0.00038838082097373996 0.029527244553698904 0 0.00045697410545440456 0.029848719540203461 0 0.00070244660073074132 0.02950792266292215 0 0.0007819397136600404 0.029772654042870397 0 0.00045697410545440456 0.029848719540203461 0 0.00038838082097373996 0.029527244553698904 0 0.00045697410545440456 0.029848719540203461 0 4.6405028824870761e-05 0.029862473169577686 0 0.00038838082097373996 0.029527244553698904 0 4.6405028824870761e-05 0.029862473169577686 0 -4.936421849857291e-05 0.02942576056542455 0 0.00045697410545440456 0.029848719540203461 0 0.00021219470690560862 0.030140683872990872 0 0.00065856061449461869 0.030234621878609733 0 0.00045697410545440456 0.029848719540203461 0 0.00021219470690560862 0.030140683872990872 0 4.6405028824870761e-05 0.029862473169577686 0 0.0007819397136600404 0.029772654042870397 0 0.00045697410545440456 0.029848719540203461 0 0.00065856061449461869 0.030234621878609733 0 0.00063503253524039183 0.031238561136160185 0 0.0016309904765369355 0.030828234626062205 0 0.00060786514405925202 0.032651189336677523 0 0.0019845117810143257 0.031546511644009602 0 0.0015348695633281143 0.032730159860519185 0 0.0007819397136600404 0.029772654042870397 0 0.00065856061449461869 0.030234621878609733 0 0.001259408363313747 0.02974673097014317 0 0.0019845117810143257 0.031546511644009602 0 0.0025431709867036073 0.032202956066127553 0 0.0015348695633281143 0.032730159860519185 0 0.0007819397136600404 0.029772654042870397 0 0.001259408363313747 0.02974673097014317 0 0.00095348737644575981 0.029506287094845766 0 0.001259408363313747 0.02974673097014317 0 0.0012717125606604976 0.029283770275961758 0 0.00095348737644575981 0.029506287094845766 0 0.00083689877560170155 0.029212056825133708 0 0.0012717125606604976 0.029283770275961758 0 0.00095348737644575981 0.029506287094845766 0 0.0015279438048344785 0.02904876825168029 0 0.001259408363313747 0.02974673097014317 0 0.0012717125606604976 0.029283770275961758 0 0.0022881969641630863 0.028577718911869443 0 0.0016309904765369355 0.030828234626062205 0 0.0018640483221886517 0.029070212021860744 0 0.0015279438048344785 0.02904876825168029 0 0.001259408363313747 0.02974673097014317 0 0.0012742274621993551 0.027045007211167489 0 0.0014834355410229538 0.027055670133094727 0 0.0010775306702541512 0.027073656861567975 0 0.0022881969641630863 0.028577718911869443 0 0.001833790944613542 0.029677748637371864 0 0.0035123149133087072 0.030400893706075672 0 0.0019845117810143257 0.031546511644009602 0 0.0025431709867036073 0.032202956066127553 0 0.0012742274621993551 0.027045007211167489 0 0.0010775306702541512 0.027073656861567975 0 0.0010164277450232524 0.027254735955891816 0 0.0010164277450232524 0.027254735955891816 0 0.00078967521357452535 0.027361880984925886 0 0.00099914734054197952 0.027375333735264403 0 0.0010775306702541512 0.027073656861567975 0 0.0010164277450232524 0.027254735955891816 0 0.00078967521357452535 0.027361880984925886 0 0.0012097968331559559 0.027221236231821148 0 0.0010164277450232524 0.027254735955891816 0 0.00099914734054197952 0.027375333735264403 0 0.0025431709867036073 0.032202956066127553 0 0.0015348695633281143 0.032730159860519185 0 0.0015219511439974441 0.033863368509820996 0 0.001833790944613542 0.029677748637371864 0 0.0011533315707532457 0.030596124199086829 0 0.0015348695633281143 0.032730159860519185 0 0.0015219511439974441 0.033863368509820996 0 0.0010453472725951774 0.033331171936177642 0 0.0011533315707532457 0.030596124199086829 0 0.00071948581787686147 0.031074711624836465 0 0.0015219511439974441 0.033863368509820996 0 0.00087242495410876509 0.034040560247242183 0 0.0010453472725951774 0.033331171936177642 0 0.00078967521357452535 0.027361880984925886 0 0.00099914734054197952 0.027375333735264403 0 0.00084877937236384096 0.027475251600055369 0 0.00093088577329056895 0.027473855518373398 0 0.00099914734054197952 0.027375333735264403 0 0.00084877937236384096 0.027475251600055369 0 0.00084135513807866462 0.027522661306436731 0 0.00093088577329056895 0.027473855518373398 0 0.00084877937236384096 0.027475251600055369 0 0.00078967521357452535 0.027361880984925886 0 0.00084877937236384096 0.027475251600055369 0 0.0006373442851919217 0.027507153423726078 0 0.00084877937236384096 0.027475251600055369 0 0.00077746706580288842 0.027540276542354789 0 0.0006373442851919217 0.027507153423726078 0 0.00077746706580288842 0.027540276542354789 0 0.0006373442851919217 0.027507153423726078 0 0.00070100959996233247 0.027610597749557441 0 0.00084135513807866462 0.027522661306436731 0 0.00084877937236384096 0.027475251600055369 0 0.00077746706580288842 0.027540276542354789 0 0.00084135513807866462 0.027522661306436731 0 0.00077746706580288842 0.027540276542354789 0 0.00075631475011939564 0.027571909532533353 0 0.00036765975915206608 0.034818444345768362 0 0.00076088667049886629 0.034709218815439528 0 0.00039694292810722438 0.034943410544719916 0 0.00036765975915206608 0.034818444345768362 0 0.00036360897157282221 0.034611604122895254 0 0.00019699307664064074 0.034838781886452216 0 0.00036765975915206608 0.034818444345768362 0 0.00039694292810722438 0.034943410544719916 0 0.0003084785816187247 0.034904113085420282 0 0.00071948581787686147 0.031074711624836465 0 0.00039556663770274567 0.031412449165537266 0 0.0006373442851919217 0.027507153423726078 0 0.00047462349171548585 0.027677334898842269 0 0.00070100959996233247 0.027610597749557441 0 0.00036765975915206608 0.034818444345768362 0 0.00076088667049886629 0.034709218815439528 0 0.00036360897157282221 0.034611604122895254 0 0.00076088667049886629 0.034709218815439528 0 0.00036360897157282221 0.034611604122895254 0 0.00050898542814469731 0.034347404555687813 0 0.00036360897157282221 0.034611604122895254 0 0.00050898542814469731 0.034347404555687813 0 0.00029479878973043359 0.03442368767956229 0 0.00074654218103471261 0.034161265203897125 0 7.9694619302552925e-05 0.033362119029587085 0 0.00050898542814469731 0.034347404555687813 0 0.00087242495410876509 0.034040560247242183 0 0.00030949712168109179 0.034152413253403978 0 0.00050898542814469731 0.034347404555687813 0 0.00030949712168109179 0.034152413253403978 0 0.00029479878973043359 0.03442368767956229 0 0.00076088667049886629 0.034709218815439528 0 0.00050898542814469731 0.034347404555687813 0 0.00087242495410876509 0.034040560247242183 0 0.0015219511439974441 0.033863368509820996 0 0.00076088667049886629 0.034709218815439528 0 0.00087242495410876509 0.034040560247242183 0 0.00060786514405925202 0.032651189336677523 0 0.0010453472725951774 0.033331171936177642 0 -0.00068337620114309672 0.033606502745429798 0 0.00087242495410876509 0.034040560247242183 0 0.0010453472725951774 0.033331171936177642 0 -0.00068337620114309672 0.033606502745429798 0 0.00060786514405925202 0.032651189336677523 0 0.0015348695633281143 0.032730159860519185 0 0.0010453472725951774 0.033331171936177642 0 0.00063503253524039183 0.031238561136160185 0 7.9694619302552925e-05 0.033362119029587085 0 0.00021219470690560862 0.030140683872990872 0 0.00065856061449461869 0.030234621878609733 0 0.00015185227419916422 0.030621543945441757 0 0.00021219470690560862 0.030140683872990872 0 0.00015185227419916422 0.030621543945441757 0 -0.00017125159136646806 0.030114841003034937 0 0.00015185227419916422 0.030621543945441757 0 -0.00042010929699830404 0.030472186711767338 0 -0.00017125159136646806 0.030114841003034937 0 -3.5117901737389249e-05 0.034815124672410061 0 2.7295144180833012e-05 0.034842036562700261 0 -7.6791762190736812e-06 0.034808034034601629 0 7.9694619302552925e-05 0.033362119029587085 0 -0.00023535616296420543 0.03248006683468823 0 2.7295144180833012e-05 0.034842036562700261 0 2.4317265760857648e-05 0.034826120990032544 0 3.6165649024038096e-05 0.034868354565536684 0 2.7295144180833012e-05 0.034842036562700261 0 2.4317265760857648e-05 0.034826120990032544 0 -7.6791762190736812e-06 0.034808034034601629 0 -1.5264531618672137e-05 0.034649410140334388 0 6.408289602176037e-05 0.034694271787487303 0 2.4317265760857648e-05 0.034826120990032544 0 -7.6791762190736812e-06 0.034808034034601629 0 3.5122658363861149e-05 0.03476120325550637 0 2.4317265760857648e-05 0.034826120990032544 0 3.5122658363861149e-05 0.03476120325550637 0 3.6165649024038096e-05 0.034868354565536684 0 7.9694619302552925e-05 0.033362119029587085 0 -1.5264531618672137e-05 0.034649410140334388 0 0.00030949712168109179 0.034152413253403978 0 0.00013587634725751457 0.03442867390628742 0 0.00029479878973043359 0.03442368767956229 0 0.00013587634725751457 0.03442867390628742 0 0.00016772779714183065 0.034676925977460998 0 3.5122658363861149e-05 0.03476120325550637 0 0.00013587634725751457 0.03442867390628742 0 0.00029479878973043359 0.03442368767956229 0 0.00016772779714183065 0.034676925977460998 0 0.00036360897157282221 0.034611604122895254 0 0.00029479878973043359 0.03442368767956229 0 0.00016772779714183065 0.034676925977460998 0 0.00036360897157282221 0.034611604122895254 0 0.00016772779714183065 0.034676925977460998 0 0.00019699307664064074 0.034838781886452216 0 0.00016772779714183065 0.034676925977460998 0 0.00010280895477690829 0.034816948508044197 0 0.00019699307664064074 0.034838781886452216 0 0.00016772779714183065 0.034676925977460998 0 3.5122658363861149e-05 0.03476120325550637 0 0.00010280895477690829 0.034816948508044197 0 3.5122658363861149e-05 0.03476120325550637 0 0.00010280895477690829 0.034816948508044197 0 5.0184107820355955e-05 0.034887853227107864 0 0.00010280895477690829 0.034816948508044197 0 0.00011992284390237556 0.034903706461025065 0 0.00019699307664064074 0.034838781886452216 0 0.00011992284390237556 0.034903706461025065 0 5.0184107820355955e-05 0.034887853227107864 0 6.8586702641461423e-05 0.034960146115655816 0 0.00010280895477690829 0.034816948508044197 0 0.00011992284390237556 0.034903706461025065 0 5.0184107820355955e-05 0.034887853227107864 0 0.00011992284390237556 0.034903706461025065 0 0.00019699307664064074 0.034838781886452216 0 0.00021372969165963114 0.034920558203253717 0 0.00019699307664064074 0.034838781886452216 0 0.00021372969165963114 0.034920558203253717 0 0.0003084785816187247 0.034904113085420282 0 0.00036765975915206608 0.034818444345768362 0 0.00019699307664064074 0.034838781886452216 0 0.0003084785816187247 0.034904113085420282 0 1.0012672052244969e-08 0.034999956093860994 0 1.8149773169218985e-05 0.034957658620817796 0 -3.5541084652859302e-09 0.034999959341414782 0 1.0012672052244969e-08 0.034999956093860994 0 1.8149773169218985e-05 0.034957658620817796 0 1.8371176557890569e-05 0.034906197687623264 0 1.8149773169218985e-05 0.034957658620817796 0 5.0184107820355955e-05 0.034887853227107864 0 6.8586702641461423e-05 0.034960146115655816 0 1.8149773169218985e-05 0.034957658620817796 0 5.0184107820355955e-05 0.034887853227107864 0 1.8371176557890569e-05 0.034906197687623264 0 3.5122658363861149e-05 0.03476120325550637 0 5.0184107820355955e-05 0.034887853227107864 0 1.8371176557890569e-05 0.034906197687623264 0 1.0012672052244969e-08 0.034999956093860994 0 1.8371176557890569e-05 0.034906197687623264 0 -2.3270827246463855e-08 0.034999608793902903 0 1.8371176557890569e-05 0.034906197687623264 0 -2.3270827246463855e-08 0.034999608793902903 0 3.6165649024038096e-05 0.034868354565536684 0 3.5122658363861149e-05 0.03476120325550637 0 1.8371176557890569e-05 0.034906197687623264 0 3.6165649024038096e-05 0.034868354565536684 0 2.7295144180833012e-05 0.034842036562700261 0 3.6165649024038096e-05 0.034868354565536684 0 1.4284068367826009e-05 0.034835830946976919 0 -0.00023535616296420543 0.03248006683468823 0 -0.00051094478467762891 0.033411084754733068 0 1.2621474152224212e-09 0.034999999127998969 0 6.1577820641685649e-07 0.034992811770958421 0 7.2612591449604685e-07 0.034993827986888562 0 -2.7635833882406245e-07 0.035001824247688537 0 -0.00051094478467762891 0.033411084754733068 0 1.2621474152224212e-09 0.034999999127998969 0 -4.8609327444997259e-09 0.03499998554542201 0 7.2612591449604685e-07 0.034993827986888562 0 -2.3270827246463855e-08 0.034999608793902903 0 3.6165649024038096e-05 0.034868354565536684 0 1.4284068367826009e-05 0.034835830946976919 0 -4.8609327444997259e-09 0.03499998554542201 0 7.2612591449604685e-07 0.034993827986888562 0 2.4890464108658987e-06 0.034994137975585364 0 -4.8609327444997259e-09 0.03499998554542201 0 2.4890464108658987e-06 0.034994137975585364 0 2.6278245031451519e-08 0.034999984269047629 0 1.1385470942156649e-06 0.034992558708131137 0 7.2612591449604685e-07 0.034993827986888562 0 2.4890464108658987e-06 0.034994137975585364 0 -0.00051094478467762891 0.033411084754733068 0 -0.00036315114146016794 0.033527390919951716 0 2.4890464108658987e-06 0.034994137975585364 0 3.1865153209392884e-06 0.034989756106957322 0 2.6278245031451519e-08 0.034999984269047629 0 3.1865153209392884e-06 0.034989756106957322 0 2.6278245031451519e-08 0.034999984269047629 0 -3.7562967748706413e-06 0.034987488990763864 0 3.1865153209392884e-06 0.034989756106957322 0 1.4780023663100921e-05 0.034986097238228459 0 1.1025925887171474e-05 0.034975265359302087 0 2.4890464108658987e-06 0.034994137975585364 0 3.1865153209392884e-06 0.034989756106957322 0 1.4780023663100921e-05 0.034986097238228459 0 1.1385470942156649e-06 0.034992558708131137 0 2.4890464108658987e-06 0.034994137975585364 0 1.4780023663100921e-05 0.034986097238228459 0 -0.00042010929699830404 0.030472186711767338 0 -0.00099778062528115604 0.03034163558104953 0 -0.00073266502563519966 0.029871195707808308 0 -0.00051094478467762891 0.033411084754733068 0 -0.0003132936204492964 0.03230791713348731 0 -0.00042010929699830404 0.030472186711767338 0 -0.00073266502563519966 0.029871195707808308 0 -0.00017125159136646806 0.030114841003034937 0 0.00021219470690560862 0.030140683872990872 0 -0.00017125159136646806 0.030114841003034937 0 4.6405028824870761e-05 0.029862473169577686 0 -0.00017125159136646806 0.030114841003034937 0 4.6405028824870761e-05 0.029862473169577686 0 -0.00028295674284602651 0.029740351533798292 0 4.6405028824870761e-05 0.029862473169577686 0 -0.00028295674284602651 0.029740351533798292 0 -4.936421849857291e-05 0.02942576056542455 0 -0.00073266502563519966 0.029871195707808308 0 -0.00017125159136646806 0.030114841003034937 0 -0.00028295674284602651 0.029740351533798292 0 -0.0003132936204492964 0.03230791713348731 0 -0.00024442131901973905 0.032147872188995182 0 -0.00073266502563519966 0.029871195707808308 0 -0.00028295674284602651 0.029740351533798292 0 -0.0004542684589432878 0.029416376457726386 0 -0.0004542684589432878 0.029416376457726386 0 -4.936421849857291e-05 0.02942576056542455 0 -0.00018430391163164349 0.029005067506017744 0 -0.00028295674284602651 0.029740351533798292 0 -0.0004542684589432878 0.029416376457726386 0 -4.936421849857291e-05 0.02942576056542455 0 0.00087111050679717587 0.03075683071908945 0 0.00054837352752564253 0.032501577100945291 0 0.00031161263118837171 0.029199644906636926 0 -4.936421849857291e-05 0.02942576056542455 0 -0.00018430391163164349 0.029005067506017744 0 0.0014271338840464855 0.032510180917100326 0 0.0013277574414219961 0.032496225129454492 0 0.001384960495732663 0.032479299221771868 0 0.0013277574414219961 0.032496225129454492 0 0.0013364052889570323 0.032481079259860282 0 0.001384960495732663 0.032479299221771868 0 0.001324017474894878 0.032499263509012562 0 0.0013364052889570323 0.032481079259860282 0 0.001305939163808123 0.032489319837418713 0 0.00054837352752564253 0.032501577100945291 0 0.00076239898048027809 0.032374976415157332 0 0.0001203366634073145 0.03487032835469267 0 0.0001013806755040844 0.034862966185629271 0 3.7064632776395731e-05 0.034929551284164383 0 5.4207969009765316e-05 0.034962107038190297 0 0.0001203366634073145 0.03487032835469267 0 3.7064632776395731e-05 0.034929551284164383 0 -0.00024442131901973905 0.032147872188995182 0 0.00054837352752564253 0.032501577100945291 0 0.00054837352752564253 0.032501577100945291 0 0.00041373630646596046 0.033647822998242025 0 2.335116225179845e-05 0.034462610749865313 0 0.00041373630646596046 0.033647822998242025 0 0.00041373630646596046 0.033647822998242025 0 -0.00022200485404288533 0.035040170526852578 0 5.6489760699809053e-05 0.034870176829010703 0 9.1196424825666465e-05 0.034882447027738205 0 3.7064632776395731e-05 0.034929551284164383 0 5.6489760699809053e-05 0.034870176829010703 0 1.8139554411223924e-05 0.034947719238323058 0 -1.6605899327121827e-05 0.034982040376172557 0 0.00018390647540480638 0.034935758165238015 0 -4.1504482920620913e-06 0.034945272011437524 0 -1.6605899327121827e-05 0.034982040376172557 0 5.6489760699809053e-05 0.034870176829010703 0 1.8139554411223924e-05 0.034947719238323058 0 3.7064632776395731e-05 0.034929551284164383 0 2.335116225179845e-05 0.034462610749865313 0 5.0101897088723256e-06 0.035100827289698606 0 -3.7554295908226179e-05 0.034952116951478575 0 -4.1504482920620913e-06 0.034945272011437524 0 -1.6605899327121827e-05 0.034982040376172557 0 -3.7554295908226179e-05 0.034952116951478575 0 -1.1156875804217943e-07 0.03499994370792639 0 -1.6605899327121827e-05 0.034982040376172557 0 2.6278245031451519e-08 0.034999984269047629 0 -1.1156875804217943e-07 0.03499994370792639 0 -3.7562967748706413e-06 0.034987488990763864 0 -1.6605899327121827e-05 0.034982040376172557 0 -3.7562967748706413e-06 0.034987488990763864 0 1.1025925887171474e-05 0.034975265359302087 0 -1.1156875804217943e-07 0.03499994370792639 0 -1.6605899327121827e-05 0.034982040376172557 0 -3.7562967748706413e-06 0.034987488990763864 0 3.1865153209392884e-06 0.034989756106957322 0 -3.7562967748706413e-06 0.034987488990763864 0 1.1025925887171474e-05 0.034975265359302087 0 1.4780023663100921e-05 0.034986097238228459 0 5.4207969009765316e-05 0.034962107038190297 0 1.1025925887171474e-05 0.034975265359302087 0 5.4207969009765316e-05 0.034962107038190297 0 3.7064632776395731e-05 0.034929551284164383 0 1.1025925887171474e-05 0.034975265359302087 0 1.8139554411223924e-05 0.034947719238323058 0 3.7064632776395731e-05 0.034929551284164383 0 1.1025925887171474e-05 0.034975265359302087 0 1.8139554411223924e-05 0.034947719238323058 0 -1.6605899327121827e-05 0.034982040376172557 0 1.1025925887171474e-05 0.034975265359302087 0 -1.1069347931725088e-05 0.035000019728873094 0 -4.3991590873769302e-06 0.034996550702081214 0 2.0575650818982478e-06 0.034977536307684909 0 0.00010897042495307118 0.034534111143022718 0 0.00011162351965586779 0.034596339802037968 0 8.704419647573751e-05 0.034163840658359937 0 0.00034202647275865167 0.034015195880545961 0 0.00038422387926808851 0.033594075690475782 0 8.704419647573751e-05 0.034163840658359937 0 0.00024795922452980492 0.034379745393561506 0 0.00034202647275865167 0.034015195880545961 0 -1.1069347931725088e-05 0.035000019728873094 0 -4.1921075475700277e-08 0.034999976443354668 0 -4.3991590873769302e-06 0.034996550702081214 0 -4.1921075475700277e-08 0.034999976443354668 0 -4.3991590873769302e-06 0.034996550702081214 0 1.8004171295798476e-09 0.034999988549130785 0 0.00010897042495307118 0.034534111143022718 0 -2.0777154536353953e-05 0.034894520246980927 0 -1.1069347931725088e-05 0.035000019728873094 0 -4.1921075475700277e-08 0.034999976443354668 0 -8.7359130847361979e-06 0.0349631779579423 0 -4.1921075475700277e-08 0.034999976443354668 0 -8.7359130847361979e-06 0.0349631779579423 0 3.0480905366734455e-08 0.034998808234579563 0 8.704419647573751e-05 0.034163840658359937 0 -8.7359130847361979e-06 0.0349631779579423 0 6.1405714602939796e-05 0.03479531183653474 0 -8.7359130847361979e-06 0.0349631779579423 0 6.1405714602939796e-05 0.03479531183653474 0 3.0480905366734455e-08 0.034998808234579563 0 8.704419647573751e-05 0.034163840658359937 0 6.1405714602939796e-05 0.03479531183653474 0 0.00024795922452980492 0.034379745393561506 0 6.1405714602939796e-05 0.03479531183653474 0 0.00024795922452980492 0.034379745393561506 0 0.00019074918460654247 0.034625201636531364 0 0.00024795922452980492 0.034379745393561506 0 0.00037335963965738942 0.03445836308918418 0 0.00019074918460654247 0.034625201636531364 0 0.00024795922452980492 0.034379745393561506 0 0.00044737150976232763 0.034138958410009593 0 0.00037335963965738942 0.03445836308918418 0 0.00044737150976232763 0.034138958410009593 0 0.0006341757991716149 0.03425025596202743 0 0.00037335963965738942 0.03445836308918418 0 0.00024795922452980492 0.034379745393561506 0 0.00044737150976232763 0.034138958410009593 0 0.00034202647275865167 0.034015195880545961 0 0.0006341757991716149 0.03425025596202743 0 0.00070472338212171153 0.033966945884093207 0 0.00089557158357997304 0.034028988008605404 0 0.00044737150976232763 0.034138958410009593 0 0.0006341757991716149 0.03425025596202743 0 0.00070472338212171153 0.033966945884093207 0 0.00070472338212171153 0.033966945884093207 0 0.00077980325622523377 0.033675397051121179 0 0.00091228938158851517 0.033800653878148346 0 0.00044737150976232763 0.034138958410009593 0 0.00070472338212171153 0.033966945884093207 0 0.000555113510114088 0.033828990161590543 0 0.00070472338212171153 0.033966945884093207 0 0.00077980325622523377 0.033675397051121179 0 0.000555113510114088 0.033828990161590543 0 0.00077980325622523377 0.033675397051121179 0 0.000555113510114088 0.033828990161590543 0 0.00067066671449506337 0.033533243986162357 0 0.00044737150976232763 0.034138958410009593 0 0.00034202647275865167 0.034015195880545961 0 0.000555113510114088 0.033828990161590543 0 0.00034202647275865167 0.034015195880545961 0 0.000555113510114088 0.033828990161590543 0 0.00038422387926808851 0.033594075690475782 0 -0.00014631737854471985 0.035432293326957812 0 -7.0048290522656663e-05 0.032913006272955056 0 4.7059100778194483e-05 0.034944273725487994 0 0.00064924399840740675 0.034469337943061222 0 0.00016325007421306469 0.034385756745627272 0 -1.1069347931725088e-05 0.035000019728873094 0 2.6237870143363694e-05 0.034949861046853534 0 4.7059100778194483e-05 0.034944273725487994 0 2.6237870143363694e-05 0.034949861046853534 0 1.2661864913007799e-05 0.03495314869994124 0 1.4056995547547438e-05 0.034962254570951437 0 2.6237870143363694e-05 0.034949861046853534 0 4.7059100778194483e-05 0.034944273725487994 0 0.00016325007421306469 0.034385756745627272 0 0.000555113510114088 0.033828990161590543 0 0.00038422387926808851 0.033594075690475782 0 0.00067066671449506337 0.033533243986162357 0 0.00038422387926808851 0.033594075690475782 0 0.00067066671449506337 0.033533243986162357 0 0.00073949398976301409 0.033207850785194337 0 0.00011162351965586779 0.034596339802037968 0 0.00047908148824053997 0.031127412166451453 0 0.00077980325622523377 0.033675397051121179 0 0.00067066671449506337 0.033533243986162357 0 0.0008827583139305855 0.033404114241543492 0 0.00067066671449506337 0.033533243986162357 0 0.00073949398976301409 0.033207850785194337 0 0.0008827583139305855 0.033404114241543492 0 0.00047908148824053997 0.031127412166451453 0 -7.0048290522656663e-05 0.032913006272955056 0 0.00034370997084070317 0.028088049221266481 0 0.00019904517717590699 0.028078139407685231 0 0.00035239927446703361 0.027944262978995316 0 0.00034370997084070317 0.028088049221266481 0 0.00035239927446703361 0.027944262978995316 0 0.00045742653308935785 0.027930192327103105 0 -7.0048290522656663e-05 0.032913006272955056 0 0.00015589677737317762 0.035180447113392972 0 0.00035564030358849305 0.035113296716685047 0 8.3662837214965662e-05 0.035053881521552713 0 0.00023317741114918091 0.034932715185904829 0 1.2661864913007799e-05 0.03495314869994124 0 7.9159229465711127e-06 0.034974355245155526 0 1.4056995547547438e-05 0.034962254570951437 0 7.9159229465711127e-06 0.034974355245155526 0 2.0575650818982478e-06 0.034977536307684909 0 1.4056995547547438e-05 0.034962254570951437 0 -1.1069347931725088e-05 0.035000019728873094 0 2.6237870143363694e-05 0.034949861046853534 0 2.0575650818982478e-06 0.034977536307684909 0 2.6237870143363694e-05 0.034949861046853534 0 2.0575650818982478e-06 0.034977536307684909 0 1.4056995547547438e-05 0.034962254570951437 0 -4.3991590873769302e-06 0.034996550702081214 0 2.0575650818982478e-06 0.034977536307684909 0 1.8004171295798476e-09 0.034999988549130785 0 7.9159229465711127e-06 0.034974355245155526 0 2.0575650818982478e-06 0.034977536307684909 0 1.8004171295798476e-09 0.034999988549130785 0 7.9159229465711127e-06 0.034974355245155526 0 1.8004171295798476e-09 0.034999988549130785 0 4.5533461595594813e-09 0.034999969487756584 0 0.00015589677737317762 0.035180447113392972 0 -1.3705386438787006e-07 0.034999934208258025 0 -3.7592248129375458e-08 0.035000008908897616 0 3.4643102327306432e-05 0.034971930889308597 0 5.4536772225706839e-08 0.034999992177609268 0 8.3662837214965662e-05 0.035053881521552713 0 -3.7592248129375458e-08 0.035000008908897616 0 3.4643102327306432e-05 0.034971930889308597 0 3.4643102327306432e-05 0.034971930889308597 0 0.00027824495760353903 0.034684802802245174 0 0.00023317741114918091 0.034932715185904829 0 8.3662837214965662e-05 0.035053881521552713 0 3.4643102327306432e-05 0.034971930889308597 0 0.00023317741114918091 0.034932715185904829 0 0.00011016285828173825 0.034881415054030536 0 9.1734190034307314e-05 0.035126094715847156 0 4.0279647390285252e-05 0.035007347511270798 0 7.3648603280279882e-05 0.03499892111185627 0 7.8730246332766224e-05 0.035038726102831895 0 3.4643102327306432e-05 0.034971930889308597 0 4.0279647390285252e-05 0.035007347511270798 0 7.8730246332766224e-05 0.035038726102831895 0 4.0279647390285252e-05 0.035007347511270798 0 5.4536772225706839e-08 0.034999992177609268 0 2.8098659613442538e-05 0.034993460438756403 0 3.4643102327306432e-05 0.034971930889308597 0 4.0279647390285252e-05 0.035007347511270798 0 5.4536772225706839e-08 0.034999992177609268 0 5.4536772225706839e-08 0.034999992177609268 0 2.8098659613442538e-05 0.034993460438756403 0 -3.5541084652859302e-09 0.034999959341414782 0 4.0279647390285252e-05 0.035007347511270798 0 2.8098659613442538e-05 0.034993460438756403 0 7.3648603280279882e-05 0.03499892111185627 0 2.8098659613442538e-05 0.034993460438756403 0 6.8586702641461423e-05 0.034960146115655816 0 7.3648603280279882e-05 0.03499892111185627 0 1.8149773169218985e-05 0.034957658620817796 0 2.8098659613442538e-05 0.034993460438756403 0 6.8586702641461423e-05 0.034960146115655816 0 1.8149773169218985e-05 0.034957658620817796 0 2.8098659613442538e-05 0.034993460438756403 0 -3.5541084652859302e-09 0.034999959341414782 0 0.00021372969165963114 0.034920558203253717 0 0.00015133715828310814 0.034971926254704674 0 0.00030509778996974939 0.034944695040922465 0 0.00011992284390237556 0.034903706461025065 0 0.00021372969165963114 0.034920558203253717 0 0.00015133715828310814 0.034971926254704674 0 0.00021372969165963114 0.034920558203253717 0 0.0003084785816187247 0.034904113085420282 0 0.00030509778996974939 0.034944695040922465 0 0.00011992284390237556 0.034903706461025065 0 6.8586702641461423e-05 0.034960146115655816 0 0.00015133715828310814 0.034971926254704674 0 0.00015133715828310814 0.034971926254704674 0 7.3648603280279882e-05 0.03499892111185627 0 0.00012869591949436545 0.035012108639233021 0 6.8586702641461423e-05 0.034960146115655816 0 0.00015133715828310814 0.034971926254704674 0 7.3648603280279882e-05 0.03499892111185627 0 0.00015133715828310814 0.034971926254704674 0 0.0002199887772631421 0.035034433880248954 0 0.00030509778996974939 0.034944695040922465 0 0.00015133715828310814 0.034971926254704674 0 0.00012869591949436545 0.035012108639233021 0 0.0002199887772631421 0.035034433880248954 0 0.00023421354496568352 0.034928471754040145 0 0.00024254118856543598 0.034931673212000892 0 0.00030509778996974939 0.034944695040922465 0 0.00036604718534504507 0.032654781882352761 0 3.3621572771291512e-05 0.035670366839641116 0 0.00036604718534504507 0.032654781882352761 0 0.00042659553446893644 0.031001789880776794 0 0.00036604718534504507 0.032654781882352761 0 9.1734190034307314e-05 0.035126094715847156 0 0.00063944378100670848 0.034431850498110442 0 0.00027824495760353903 0.034684802802245174 0 0.00049558439557777527 0.034817145568434918 0 0.00035648496160480133 0.027718842287275954 0 0.00037426060093173022 0.027706549906649017 0 0.00041948547404453159 0.027784093262049812 0 0.00036604718534504507 0.032654781882352761 0 0.00054729300725971965 0.030788759672304725 0 0.00035648496160480133 0.027718842287275954 0 0.0002872202619507884 0.027867508153212078 0 0.00041948547404453159 0.027784093262049812 0 0.00012869591949436545 0.035012108639233021 0 0.0002199887772631421 0.035034433880248954 0 7.8730246332766224e-05 0.035038726102831895 0 7.3648603280279882e-05 0.03499892111185627 0 0.00012869591949436545 0.035012108639233021 0 7.8730246332766224e-05 0.035038726102831895 0 -7.0048290522656663e-05 0.032913006272955056 0 0.00054729300725971965 0.030788759672304725 0 0.00035564030358849305 0.035113296716685047 0 0.00023317741114918091 0.034932715185904829 0 0.00049558439557777527 0.034817145568434918 0 0.00027824495760353903 0.034684802802245174 0 0.00023317741114918091 0.034932715185904829 0 0.00049558439557777527 0.034817145568434918 0 0.00019904517717590699 0.028078139407685231 0 0.0002872202619507884 0.027867508153212078 0 0.00035239927446703361 0.027944262978995316 0 0.0002872202619507884 0.027867508153212078 0 0.00035239927446703361 0.027944262978995316 0 0.00041948547404453159 0.027784093262049812 0 0.00035239927446703361 0.027944262978995316 0 0.000467662129308208 0.027853340566076825 0 0.00045742653308935785 0.027930192327103105 0 0.00035239927446703361 0.027944262978995316 0 0.000467662129308208 0.027853340566076825 0 0.00041948547404453159 0.027784093262049812 0 0.000467662129308208 0.027853340566076825 0 0.00053225843199933623 0.027851016955086728 0 0.00045742653308935785 0.027930192327103105 0 0.000467662129308208 0.027853340566076825 0 0.00053225843199933623 0.027851016955086728 0 0.00053427619236398952 0.027768369300447807 0 0.00053225843199933623 0.027851016955086728 0 0.00053427619236398952 0.027768369300447807 0 0.00061606419631060096 0.027733841781882072 0 0.00053427619236398952 0.027768369300447807 0 0.0005022197332867005 0.027709033210107932 0 0.00062751384284136225 0.027660776007459316 0 0.00037426060093173022 0.027706549906649017 0 0.0005022197332867005 0.027709033210107932 0 0.00041948547404453159 0.027784093262049812 0 0.000467662129308208 0.027853340566076825 0 0.00053427619236398952 0.027768369300447807 0 0.00041948547404453159 0.027784093262049812 0 0.00053427619236398952 0.027768369300447807 0 0.0005022197332867005 0.027709033210107932 0 0.00041948547404453159 0.027784093262049812 0 0.00025486412723041733 0.02804077331965411 0 0.00054087112407751341 0.027829066703454322 0 0.00047462349171548585 0.027677334898842269 0 0.00042659553446893644 0.031001789880776794 0 0.00039556663770274567 0.031412449165537266 0 0.00037426060093173022 0.027706549906649017 0 0.0005022197332867005 0.027709033210107932 0 0.0005347913936709067 0.027620925517580597 0 0.00042659553446893644 0.031001789880776794 0 0.00068201764740776427 0.027351531139897307 0 0.0005022197332867005 0.027709033210107932 0 0.0005347913936709067 0.027620925517580597 0 0.00062751384284136225 0.027660776007459316 0 0.0005347913936709067 0.027620925517580597 0 0.00070100959996233247 0.027610597749557441 0 0.00062751384284136225 0.027660776007459316 0 0.00054087112407751341 0.027829066703454322 0 0.00047462349171548585 0.027677334898842269 0 0.00070100959996233247 0.027610597749557441 0 0.00068201764740776427 0.027351531139897307 0 0.00059374805871113335 0.027728503691880318 0 0.00024254118856543598 0.034931673212000892 0 0.00039694292810722438 0.034943410544719916 0 0.00030509778996974939 0.034944695040922465 0 0.00039694292810722438 0.034943410544719916 0 0.0003084785816187247 0.034904113085420282 0 0.00030509778996974939 0.034944695040922465 0 0.00077746706580288842 0.027540276542354789 0 0.00075631475011939564 0.027571909532533353 0 0.00070100959996233247 0.027610597749557441 0 0.00075631475011939564 0.027571909532533353 0 0.00070100959996233247 0.027610597749557441 0 0.00062751384284136225 0.027660776007459316 0 0.00075631475011939564 0.027571909532533353 0 0.00062751384284136225 0.027660776007459316 0 0.00073339828635539059 0.027582469696173933 0 0.00062751384284136225 0.027660776007459316 0 0.00061606419631060096 0.027733841781882072 0 0.00073339828635539059 0.027582469696173933 0 0.00061606419631060096 0.027733841781882072 0 0.00067743032451595385 0.027649856646080929 0 0.00073339828635539059 0.027582469696173933 0 0.00053427619236398952 0.027768369300447807 0 0.00062751384284136225 0.027660776007459316 0 0.00061606419631060096 0.027733841781882072 0 0.00053225843199933623 0.027851016955086728 0 0.00061606419631060096 0.027733841781882072 0 0.00057581804225963283 0.027851025510524395 0 0.00061606419631060096 0.027733841781882072 0 0.00057581804225963283 0.027851025510524395 0 0.00062985737953337559 0.027777065044025089 0 0.00061606419631060096 0.027733841781882072 0 0.00062985737953337559 0.027777065044025089 0 0.00067743032451595385 0.027649856646080929 0 0.00058473438144077486 0.027929607060704471 0 0.00057581804225963283 0.027851025510524395 0 0.00062985737953337559 0.027777065044025089 0 0.00058473438144077486 0.027929607060704471 0 0.00057581804225963283 0.027851025510524395 0 0.00051419957815427718 0.027949291117445884 0 0.0017806637505208174 0.033026635013255222 0 0.0012463823447483905 0.033175982228119565 0 0.0015439366667282983 0.033338987110192751 0 0.001189817209550141 0.030493688298041277 0 0.00090076991224660231 0.030484975517907523 0 0.00053225843199933623 0.027851016955086728 0 0.00057581804225963283 0.027851025510524395 0 0.00051419957815427718 0.027949291117445884 0 0.00053225843199933623 0.027851016955086728 0 0.00045742653308935785 0.027930192327103105 0 0.00051419957815427718 0.027949291117445884 0 0.00041697221383077025 0.027986390971062158 0 0.00045742653308935785 0.027930192327103105 0 0.00051419957815427718 0.027949291117445884 0 0.00047908148824053997 0.031127412166451453 0 0.00092347399884808103 0.027634910279241379 0 0.00047908148824053997 0.031127412166451453 0 0.00090076991224660231 0.030484975517907523 0 0.0008827583139305855 0.033404114241543492 0 0.0012463823447483905 0.033175982228119565 0 0.0010388566655820807 0.033518068892439287 0 0.00073949398976301409 0.033207850785194337 0 0.0008827583139305855 0.033404114241543492 0 0.0012463823447483905 0.033175982228119565 0 0.0012463823447483905 0.033175982228119565 0 0.0012677513643998507 0.033436627673777398 0 0.0010388566655820807 0.033518068892439287 0 0.0012463823447483905 0.033175982228119565 0 0.0012677513643998507 0.033436627673777398 0 0.0015439366667282983 0.033338987110192751 0 0.0012677513643998507 0.033436627673777398 0 0.0011201057098397288 0.033648741578982726 0 0.0010388566655820807 0.033518068892439287 0 0.0012677513643998507 0.033436627673777398 0 0.0011201057098397288 0.033648741578982726 0 0.0013535106492824629 0.033655966337150657 0 0.00077980325622523377 0.033675397051121179 0 0.0010388566655820807 0.033518068892439287 0 0.00091228938158851517 0.033800653878148346 0 0.00077980325622523377 0.033675397051121179 0 0.0008827583139305855 0.033404114241543492 0 0.0010388566655820807 0.033518068892439287 0 0.0011201057098397288 0.033648741578982726 0 0.0010388566655820807 0.033518068892439287 0 0.00091228938158851517 0.033800653878148346 0 0.00070472338212171153 0.033966945884093207 0 0.00091228938158851517 0.033800653878148346 0 0.00089557158357997304 0.034028988008605404 0 0.0011201057098397288 0.033648741578982726 0 0.00091228938158851517 0.033800653878148346 0 0.0011397561276060852 0.03386578226673144 0 0.00091228938158851517 0.033800653878148346 0 0.00089557158357997304 0.034028988008605404 0 0.0011397561276060852 0.03386578226673144 0 0.00089557158357997304 0.034028988008605404 0 0.0011397561276060852 0.03386578226673144 0 0.0012217398366547476 0.034093313370142167 0 0.0013535106492824629 0.033655966337150657 0 0.0011397561276060852 0.03386578226673144 0 0.0012217398366547476 0.034093313370142167 0 0.0011201057098397288 0.033648741578982726 0 0.0013535106492824629 0.033655966337150657 0 0.0011397561276060852 0.03386578226673144 0 0.0013535106492824629 0.033655966337150657 0 0.0015344996737989827 0.033856801146892081 0 0.0012217398366547476 0.034093313370142167 0 0.0013535106492824629 0.033655966337150657 0 0.0016411592813386396 0.033524076364267665 0 0.0015344996737989827 0.033856801146892081 0 0.0016411592813386396 0.033524076364267665 0 0.0015344996737989827 0.033856801146892081 0 0.001834261584649471 0.033852128641250687 0 0.0016411592813386396 0.033524076364267665 0 0.0019866456062450568 0.03317303084244199 0 0.001834261584649471 0.033852128641250687 0 0.0017806637505208174 0.033026635013255222 0 0.0019866456062450568 0.03317303084244199 0 0.0015439366667282983 0.033338987110192751 0 0.0016411592813386396 0.033524076364267665 0 0.0019866456062450568 0.03317303084244199 0 0.0015439366667282983 0.033338987110192751 0 0.0013535106492824629 0.033655966337150657 0 0.0016411592813386396 0.033524076364267665 0 0.0015439366667282983 0.033338987110192751 0 0.0012677513643998507 0.033436627673777398 0 0.0013535106492824629 0.033655966337150657 0 0.0015439366667282983 0.033338987110192751 0 0.0020869219385064039 0.03278322496584931 0 0.0020828155036285898 0.032618107418175044 0 0.0021328557126680256 0.032268362953973249 0 0.0020869219385064039 0.03278322496584931 0 0.0020623129064457311 0.032835507726023304 0 0.0020828155036285898 0.032618107418175044 0 0.0017806637505208174 0.033026635013255222 0 0.0019866456062450568 0.03317303084244199 0 0.0020869219385064039 0.03278322496584931 0 0.0019866456062450568 0.03317303084244199 0 0.0020869219385064039 0.03278322496584931 0 0.0020623129064457311 0.032835507726023304 0 0.0020847429827885811 0.033278438814026923 0 0.0023617568311313686 0.03269622339839677 0 0.0019866456062450568 0.03317303084244199 0 0.0027452627461975452 0.033749823859868099 0 0.001834261584649471 0.033852128641250687 0 0.0023617568311313686 0.03269622339839677 0 0.0018794624924578084 0.034040547523444549 0 0.0019866456062450568 0.03317303084244199 0 0.0020763856154677237 0.032718622593875639 0 0.0020623129064457311 0.032835507726023304 0 0.0020763856154677237 0.032718622593875639 0 0.0020828155036285898 0.032618107418175044 0 0.0021179471202630107 0.032412343129523596 0 0.0023617568311313686 0.03269622339839677 0 0.0024614728605380988 0.031665291182083048 0 0.0020763856154677237 0.032718622593875639 0 0.0020623129064457311 0.032835507726023304 0 0.0020828155036285898 0.032618107418175044 0 0.0020828155036285898 0.032618107418175044 0 0.0021179471202630107 0.032412343129523596 0 0.0021328557126680256 0.032268362953973249 0 0.0024614728605380988 0.031665291182083048 0 0.0025256306671442492 0.03148140273254238 0 0.0021179471202630107 0.032412343129523596 0 0.002236486036025432 0.032106713682075821 0 0.0021328557126680256 0.032268362953973249 0 0.0021179471202630107 0.032412343129523596 0 0.002236486036025432 0.032106713682075821 0 0.0023800067055759432 0.031938916345600137 0 0.0027806044610809732 0.031093813462983073 0 0.0027252449005128118 0.03106608178496378 0 0.0027504039275760912 0.031061365741642193 0 0.002236486036025432 0.032106713682075821 0 0.0021328557126680256 0.032268362953973249 0 0.0024998255689794033 0.031529704694326401 0 0.0015054648524563778 0.03031130649506121 0 0.002081359522737062 0.030311019201546763 0 0.0013803980669697359 0.030400587391954392 0 0.0015054648524563778 0.03031130649506121 0 0.00063036752450337937 0.0280126629608679 0 0.00078783311151246532 0.028333508353624866 0 0.00073528312111009633 0.027952595276860091 0 0.00073528312111009633 0.027952595276860091 0 0.0010234575457174191 0.028097666049369915 0 0.00089165385467433809 0.027705565167206219 0 0.00078783311151246532 0.028333508353624866 0 0.00073528312111009633 0.027952595276860091 0 0.0010234575457174191 0.028097666049369915 0 0.00078783311151246532 0.028333508353624866 0 0.0010234575457174191 0.028097666049369915 0 0.001247416309636833 0.028280128371896422 0 0.0010234575457174191 0.028097666049369915 0 0.00089165385467433809 0.027705565167206219 0 0.0013525245641575671 0.027801113170076212 0 0.00073528312111009633 0.027952595276860091 0 0.00089165385467433809 0.027705565167206219 0 0.00073121702798611325 0.027712128831817784 0 0.00073528312111009633 0.027952595276860091 0 0.00073121702798611325 0.027712128831817784 0 0.00064761706079578124 0.027844900234618091 0 0.00063036752450337937 0.0280126629608679 0 0.00073528312111009633 0.027952595276860091 0 0.00064761706079578124 0.027844900234618091 0 0.001189817209550141 0.030493688298041277 0 0.0013803980669697359 0.030400587391954392 0 0.00058473438144077486 0.027929607060704471 0 0.00063036752450337937 0.0280126629608679 0 0.00064761706079578124 0.027844900234618091 0 0.00058473438144077486 0.027929607060704471 0 0.00064761706079578124 0.027844900234618091 0 0.00062985737953337559 0.027777065044025089 0 0.00064761706079578124 0.027844900234618091 0 0.00062985737953337559 0.027777065044025089 0 0.0007176461289564195 0.027554228707113368 0 0.00062985737953337559 0.027777065044025089 0 0.0007176461289564195 0.027554228707113368 0 0.00067743032451595385 0.027649856646080929 0 0.00073121702798611325 0.027712128831817784 0 0.00064761706079578124 0.027844900234618091 0 0.0007176461289564195 0.027554228707113368 0 0.0007176461289564195 0.027554228707113368 0 0.00078437122101540483 0.027483042416430351 0 0.00078084185823855791 0.027371934428217025 0 0.0007176461289564195 0.027554228707113368 0 0.00073339828635539059 0.027582469696173933 0 0.00078437122101540483 0.027483042416430351 0 0.0007176461289564195 0.027554228707113368 0 0.00067743032451595385 0.027649856646080929 0 0.00073339828635539059 0.027582469696173933 0 0.00073339828635539059 0.027582469696173933 0 0.00078437122101540483 0.027483042416430351 0 0.00080005280770078136 0.027527632062466136 0 0.00078437122101540483 0.027483042416430351 0 0.00081239554076553461 0.027484494326446708 0 0.00079188655148054667 0.027411796754111477 0 0.00078437122101540483 0.027483042416430351 0 0.00081239554076553461 0.027484494326446708 0 0.00080005280770078136 0.027527632062466136 0 0.00075631475011939564 0.027571909532533353 0 0.00073339828635539059 0.027582469696173933 0 0.00080005280770078136 0.027527632062466136 0 0.00086865451372602467 0.027506946498701924 0 0.00081239554076553461 0.027484494326446708 0 0.00080005280770078136 0.027527632062466136 0 0.00084135513807866462 0.027522661306436731 0 0.00075631475011939564 0.027571909532533353 0 0.00080005280770078136 0.027527632062466136 0 0.00012661981037591144 0.025445917204854947 0 0.00084706301747917848 0.027062971288814547 0 0.0010685440646525752 0.025299024326345506 0 0.00033880095167691728 0.024679062896947958 0 0.00012661981037591144 0.025445917204854947 0 0.0010685440646525752 0.025299024326345506 0 0.00081672380092160529 0.027452774753679111 0 0.00081239554076553461 0.027484494326446708 0 0.00079188655148054667 0.027411796754111477 0 0.0006793285387377908 0.026073143819372209 0 0.00051385375973015865 0.026473142167253959 0 0.00078437122101540483 0.027483042416430351 0 0.00079188655148054667 0.027411796754111477 0 0.00078084185823855791 0.027371934428217025 0 0.00051385375973015865 0.026473142167253959 0 0.00081737880691414152 0.027036322552124872 0 0.00079188655148054667 0.027411796754111477 0 0.00084706301747917848 0.027062971288814547 0 0.00078084185823855791 0.027371934428217025 0 0.00073121702798611325 0.027712128831817784 0 0.0007176461289564195 0.027554228707113368 0 0.00078084185823855791 0.027371934428217025 0 0.00089165385467433809 0.027705565167206219 0 0.00073121702798611325 0.027712128831817784 0 0.00078084185823855791 0.027371934428217025 0 0.00089165385467433809 0.027705565167206219 0 0.00084706301747917848 0.027062971288814547 0 0.0013525245641575671 0.027801113170076212 0 0.00089165385467433809 0.027705565167206219 0 0.00084706301747917848 0.027062971288814547 0 0.00078084185823855791 0.027371934428217025 0 0.00084706301747917848 0.027062971288814547 0 0.0017790167603994841 0.027185951492745348 0 0.0013525245641575671 0.027801113170076212 0 0.00084706301747917848 0.027062971288814547 0 0.0017790167603994841 0.027185951492745348 0 0.0016865879309279689 0.026230452528413377 0 0.0017790167603994841 0.027185951492745348 0 0.0016865879309279689 0.026230452528413377 0 0.0024071979788359639 0.026502737064088084 0 0.00084706301747917848 0.027062971288814547 0 0.0016865879309279689 0.026230452528413377 0 0.0010685440646525752 0.025299024326345506 0 0.0016865879309279689 0.026230452528413377 0 0.0018811965905426082 0.025431462789812169 0 0.0010685440646525752 0.025299024326345506 0 0.0016865879309279689 0.026230452528413377 0 0.0018811965905426082 0.025431462789812169 0 0.0023100522032677797 0.02584551011930292 0 0.0018138124029371918 0.024591087737480161 0 0.0018811965905426082 0.025431462789812169 0 0.0010685440646525752 0.025299024326345506 0 0.0024677031271517244 0.025162137694551643 0 0.0030078756749575379 0.025811981394206589 0 0.0034709829095809571 0.025247327616764986 0 0.0030878062154464135 0.024536750751983954 0 0.0024677031271517244 0.025162137694551643 0 0.0034709829095809571 0.025247327616764986 0 0.0018138124029371918 0.024591087737480161 0 0.0018811965905426082 0.025431462789812169 0 0.0024677031271517244 0.025162137694551643 0 0.0018811965905426082 0.025431462789812169 0 0.0024677031271517244 0.025162137694551643 0 0.0023100522032677797 0.02584551011930292 0 0.0024677031271517244 0.025162137694551643 0 0.0023100522032677797 0.02584551011930292 0 0.0030078756749575379 0.025811981394206589 0 0.0016865879309279689 0.026230452528413377 0 0.0023100522032677797 0.02584551011930292 0 0.0024071979788359639 0.026502737064088084 0 0.0023100522032677797 0.02584551011930292 0 0.0030078756749575379 0.025811981394206589 0 0.0024071979788359639 0.026502737064088084 0 0.0030078756749575379 0.025811981394206589 0 0.0032752518021451015 0.026551817483527647 0 0.0024071979788359639 0.026502737064088084 0 0.0030078756749575379 0.025811981394206589 0 0.0032752518021451015 0.026551817483527647 0 0.0039264730825366561 0.025714498124572435 0 0.0032752518021451015 0.026551817483527647 0 0.0024071979788359639 0.026502737064088084 0 0.0025913636331621778 0.027314516994035115 0 0.0034369656741852911 0.026011478587832964 0 0.0027666191987209751 0.026764180890590714 0 0.0017790167603994841 0.027185951492745348 0 0.0024071979788359639 0.026502737064088084 0 0.0025913636331621778 0.027314516994035115 0 0.0017790167603994841 0.027185951492745348 0 0.0025913636331621778 0.027314516994035115 0 0.0020170667533470012 0.027853000185096091 0 0.0036091964006208285 0.025493041469235238 0 0.0029294820834406556 0.026216450384586733 0 0.0037112444444935776 0.026154103292880908 0 0.0029294820834406556 0.026216450384586733 0 0.0030873108033224262 0.026939726972768484 0 0.0037112444444935776 0.026154103292880908 0 0.0030873108033224262 0.026939726972768484 0 0.0037112444444935776 0.026154103292880908 0 0.0037231269142615291 0.026952109873002426 0 0.0030873108033224262 0.026939726972768484 0 0.0034087995858236957 0.027264101741199771 0 0.0031445501611444674 0.027563148228219706 0 0.0030873108033224262 0.026939726972768484 0 0.0034087995858236957 0.027264101741199771 0 0.0037231269142615291 0.026952109873002426 0 0.0034087995858236957 0.027264101741199771 0 0.0037154791991898225 0.027496950073225598 0 0.0037231269142615291 0.026952109873002426 0 0.0034087995858236957 0.027264101741199771 0 0.0031445501611444674 0.027563148228219706 0 0.0037154791991898225 0.027496950073225598 0 0.0035402235294599905 0.027948982463057211 0 0.0027797456055868438 0.027948897804481163 0 0.00266030294059969 0.028535187940521775 0 0.0031445501611444674 0.027563148228219706 0 0.0035402235294599905 0.027948982463057211 0 0.0037154791991898225 0.027496950073225598 0 0.0031445501611444674 0.027563148228219706 0 0.0035402235294599905 0.027948982463057211 0 0.0027797456055868438 0.027948897804481163 0 0.0023159439579829868 0.027959172875740023 0 0.0027797456055868438 0.027948897804481163 0 0.0022444611261897792 0.027154776884882263 0 0.0031445501611444674 0.027563148228219706 0 0.0027797456055868438 0.027948897804481163 0 0.0022444611261897792 0.027154776884882263 0 0.0023159439579829868 0.027959172875740023 0 0.0027797456055868438 0.027948897804481163 0 0.00266030294059969 0.028535187940521775 0 0.0029294820834406556 0.026216450384586733 0 0.0030873108033224262 0.026939726972768484 0 0.0022444611261897792 0.027154776884882263 0 0.0027666191987209751 0.026764180890590714 0 0.0021430595096610322 0.027510262589642637 0 0.0030873108033224262 0.026939726972768484 0 0.0031445501611444674 0.027563148228219706 0 0.0022444611261897792 0.027154776884882263 0 0.0017790167603994841 0.027185951492745348 0 0.0020170667533470012 0.027853000185096091 0 0.0013525245641575671 0.027801113170076212 0 0.0010234575457174191 0.028097666049369915 0 0.0013525245641575671 0.027801113170076212 0 0.001247416309636833 0.028280128371896422 0 0.0013525245641575671 0.027801113170076212 0 0.001247416309636833 0.028280128371896422 0 0.0016501831054259485 0.028232394751282933 0 0.0023159439579829868 0.027959172875740023 0 0.0016501831054259485 0.028232394751282933 0 0.00266030294059969 0.028535187940521775 0 0.0023159439579829868 0.027959172875740023 0 0.0022444611261897792 0.027154776884882263 0 0.0016501831054259485 0.028232394751282933 0 0.0021430595096610322 0.027510262589642637 0 0.0016843396218444956 0.028161646788517417 0 0.0020170667533470012 0.027853000185096091 0 0.0013525245641575671 0.027801113170076212 0 0.0016501831054259485 0.028232394751282933 0 0.00136551229178043 0.028737667770293882 0 0.0030807410498928213 0.029510006773353709 0 0.0014487766404370904 0.029052531232369887 0 0.0014253026788812115 0.028815766887403671 0 0.0031871460340667508 0.029533855824212293 0 0.0016501831054259485 0.028232394751282933 0 0.0014253026788812115 0.028815766887403671 0 0.00266030294059969 0.028535187940521775 0 0.00078783311151246532 0.028333508353624866 0 0.001247416309636833 0.028280128371896422 0 0.0014253026788812115 0.028815766887403671 0 0.00078783311151246532 0.028333508353624866 0 0.0014487766404370904 0.029052531232369887 0 0.0014253026788812115 0.028815766887403671 0 0.001247416309636833 0.028280128371896422 0 0.0016501831054259485 0.028232394751282933 0 0.0014253026788812115 0.028815766887403671 0 0.002236486036025432 0.032106713682075821 0 0.0024998255689794033 0.031529704694326401 0 0.0023800067055759432 0.031938916345600137 0 0.0024998255689794033 0.031529704694326401 0 0.0029296556389687201 0.030994625179355056 0 0.0032809177643170376 0.030446739551004506 0 0.0025256306671442492 0.03148140273254238 0 0.0028659248055122608 0.03109646986452181 0 0.0027252449005128118 0.03106608178496378 0 0.002863211553465742 0.031140773444019085 0 0.0029296556389687201 0.030994625179355056 0 0.002081359522737062 0.030311019201546763 0 0.0033083957397135972 0.030472631805925906 0 0.0024998255689794033 0.031529704694326401 0 0.0023800067055759432 0.031938916345600137 0 0.0029296556389687201 0.030994625179355056 0 0.0023851294952214122 0.024578543343988044 0 0.0027755102948720592 0.024065038452792689 0 0.0020480919925308216 0.017916982563938415 0 0.0018570628644916886 0.018110205347625124 0 0.0018431063914995252 0.017892763266443158 0 0.002863211553465742 0.031140773444019085 0 0.0029296556389687201 0.030994625179355056 0 0.0032809177643170376 0.030446739551004506 0 0.002863211553465742 0.031140773444019085 0 0.0032809177643170376 0.030446739551004506 0 0.0036549378777031571 0.030296149415649044 0 0.0018570628644916886 0.018110205347625124 0 0.001645736737344809 0.017968821494092652 0 0.0015729318889285753 0.01819745854269483 0 0.0018570628644916886 0.018110205347625124 0 0.0018431063914995252 0.017892763266443158 0 0.001645736737344809 0.017968821494092652 0 0.0018570628644916886 0.018110205347625124 0 0.0015729318889285753 0.01819745854269483 0 0.0015529034232379586 0.018378557627806272 0 0.0027755102948720592 0.024065038452792689 0 0.0035736886207789016 0.02515713569174647 0 0.0035402235294599905 0.027948982463057211 0 0.00266030294059969 0.028535187940521775 0 0.0040046566058526464 0.028302942504050219 0 0.0030807410498928213 0.029510006773353709 0 0.0035736886207789016 0.02515713569174647 0 0.0036549378777031571 0.030296149415649044 0 0.0031871460340667508 0.029533855824212293 0 0.0049891279171873082 0.029381757549364132 0 0.0014487766404370904 0.029052531232369887 0 0.0032809177643170376 0.030446739551004506 0 0.0031871460340667508 0.029533855824212293 0 0.0032809177643170376 0.030446739551004506 0 0.0036549378777031571 0.030296149415649044 0 0.0031871460340667508 0.029533855824212293 0 0.0019367986620566898 0.017695371031745535 0 0.0019041356419706016 0.017777998863507567 0 0.0020629286555773835 0.017881541709547814 0 0.0019367986620566898 0.017695371031745535 0 0.001780608170793462 0.017572025369971274 0 0.0019854104792542916 0.017528685914227043 0 0.0019367986620566898 0.017695371031745535 0 0.001780608170793462 0.017572025369971274 0 0.0019041356419706016 0.017777998863507567 0 0.001780608170793462 0.017572025369971274 0 0.0016737830707179359 0.017697509546757008 0 0.0015926667441402784 0.017453719800615171 0 0.001780608170793462 0.017572025369971274 0 0.0016737830707179359 0.017697509546757008 0 0.0019041356419706016 0.017777998863507567 0 0.0016737830707179359 0.017697509546757008 0 0.0018431063914995252 0.017892763266443158 0 0.0019041356419706016 0.017777998863507567 0 0.0016737830707179359 0.017697509546757008 0 0.0018431063914995252 0.017892763266443158 0 0.001645736737344809 0.017968821494092652 0 0.0020480919925308216 0.017916982563938415 0 0.0018431063914995252 0.017892763266443158 0 0.0019041356419706016 0.017777998863507567 0 0.0020480919925308216 0.017916982563938415 0 0.0019041356419706016 0.017777998863507567 0 0.0020629286555773835 0.017881541709547814 0 0.0020480919925308216 0.017916982563938415 0 0.0018715888324619733 0.017899939701705198 0 0.0020629286555773835 0.017881541709547814 0 0.0023851294952214122 0.024578543343988044 0 0.0024719113998606791 0.024137303868726319 0 0.0027252449005128118 0.03106608178496378 0 0.002863211553465742 0.031140773444019085 0 0.0027433892538601054 0.031059511209868128 0 0.0027252449005128118 0.03106608178496378 0 0.0027433892538601054 0.031059511209868128 0 0.0027504039275760912 0.031061365741642193 0 0.0018715888324619733 0.017899939701705198 0 0.0018861498524210736 0.018176869418611307 0 0.0016677125222281917 0.018379340282605117 0 0.0018715888324619733 0.017899939701705198 0 0.0018861498524210736 0.018176869418611307 0 0.0020629286555773835 0.017881541709547814 0 0.0018861498524210736 0.018176869418611307 0 0.0020629286555773835 0.017881541709547814 0 0.0019611225900258923 0.018607666370486785 0 0.0019367986620566898 0.017695371031745535 0 0.0020629286555773835 0.017881541709547814 0 0.0019854104792542916 0.017528685914227043 0 0.002292833793641467 0.016682143038142094 0 0.0018349793001727753 0.020911104047715477 0 0.0022251703308337175 0.017474561508684212 0 0.0019994156686948539 0.017313780189639309 0 0.0019854104792542916 0.017528685914227043 0 0.0020629286555773835 0.017881541709547814 0 0.0022251703308337175 0.017474561508684212 0 0.0019854104792542916 0.017528685914227043 0 0.0018861498524210736 0.018176869418611307 0 0.0016677125222281917 0.018379340282605117 0 0.0019611225900258923 0.018607666370486785 0 0.00091794557284040172 0.026327239634761898 0 0.00089305779287043548 0.026289770186177314 0 0.00092273837823795028 0.026321677398292661 0 0.00087831870607659249 0.022098230237140474 0 0.0018349793001727753 0.020911104047715477 0 0.00089305779287043548 0.026289770186177314 0 0.00091241469682270951 0.026298429665939212 0 0.00092273837823795028 0.026321677398292661 0 0.0014872791853898961 0.020159470797024733 0 0.0015579980887325596 0.020635185832994382 0 0.0011876926467877659 0.020978522382145579 0 0.0018349793001727753 0.020911104047715477 0 0.0007547042221157876 0.023761769024196192 0 0.00089305779287043548 0.026289770186177314 0 0.00089738914537171733 0.026257284275475624 0 0.00091241469682270951 0.026298429665939212 0 0.0018349793001727753 0.020911104047715477 0 0.0017768347227081038 0.017980031181596506 0 0.0015579980887325596 0.020635185832994382 0 0.0020297137993931283 0.020565483797835602 0 0.0014227247950240488 0.021009893622438235 0 0.0014872791853898961 0.020159470797024733 0 0.0015579980887325596 0.020635185832994382 0 0.0020297137993931283 0.020565483797835602 0 0.0017768347227081038 0.017980031181596506 0 0.0012887821946199079 0.01694223152289245 0 0.0017768347227081038 0.017980031181596506 0 0.0017179201639080243 0.017046869830465525 0 0.0015669209876336299 0.016844194824621222 0 0.0015358521712225499 0.016879653886264646 0 0.0015419278734878316 0.016821956667441174 0 0.001780608170793462 0.017572025369971274 0 0.0019854104792542916 0.017528685914227043 0 0.0017980617516293383 0.017440088090748537 0 0.0019994156686948539 0.017313780189639309 0 0.0019854104792542916 0.017528685914227043 0 0.0017980617516293383 0.017440088090748537 0 0.001780608170793462 0.017572025369971274 0 0.0017980617516293383 0.017440088090748537 0 0.0015926667441402784 0.017453719800615171 0 0.0015358521712225499 0.016879653886264646 0 0.0014748981215089148 0.017017935940625572 0 0.0014525984160910317 0.016856839211134136 0 0.0017179201639080243 0.017046869830465525 0 0.0014889106202309471 0.017258552843777496 0 0.0015358521712225499 0.016879653886264646 0 0.0014920753185465195 0.016815886301180489 0 0.0015419278734878316 0.016821956667441174 0 0.0015358521712225499 0.016879653886264646 0 0.0014920753185465195 0.016815886301180489 0 0.0014525984160910317 0.016856839211134136 0 0.0014920753185465195 0.016815886301180489 0 0.0015419278734878316 0.016821956667441174 0 0.001479663795325298 0.016761710612389111 0 0.0011023790929329635 0.016634223405109168 0 0.0010230006619168636 0.0167056163992284 0 0.0015419278734878316 0.016821956667441174 0 0.0015431056503717676 0.016807812050514414 0 0.001479663795325298 0.016761710612389111 0 0.0015419278734878316 0.016821956667441174 0 0.0015431056503717676 0.016807812050514414 0 0.0015441240895585127 0.016827520875322865 0 0.0015441827994525984 0.016830310087179935 0 0.0015419278734878316 0.016821956667441174 0 0.0015441240895585127 0.016827520875322865 0 0.00072320009291508612 0.016945754655047576 0 0.00072367647697086854 0.01691245200912667 0 0.00070744036015795136 0.016903192142275369 0 0.00072320009291508612 0.016945754655047576 0 0.00072367647697086854 0.01691245200912667 0 0.00071013057936785806 0.016945598810828768 0 0.00072367647697086854 0.01691245200912667 0 0.00072304709830066849 0.016872244878129758 0 0.00071850666828186609 0.01692515813132436 0 0.00072367647697086854 0.01691245200912667 0 0.00071850666828186609 0.01692515813132436 0 0.00071013057936785806 0.016945598810828768 0 0.00072367647697086854 0.01691245200912667 0 0.00070744036015795136 0.016903192142275369 0 0.00072304709830066849 0.016872244878129758 0 0.0010230006619168636 0.0167056163992284 0 0.00069844797897770526 0.016931523215994369 0 0.00075634556135248507 0.01676578535657702 0 0.00072304709830066849 0.016872244878129758 0 0.00078081511901175057 0.016816344460130171 0 0.00072304709830066849 0.016872244878129758 0 0.00074930743520237951 0.016900604154614474 0 0.00078081511901175057 0.016816344460130171 0 0.00072304709830066849 0.016872244878129758 0 0.00074930743520237951 0.016900604154614474 0 0.00071850666828186609 0.01692515813132436 0 0.00071850666828186609 0.01692515813132436 0 0.00070051828796466754 0.016969320252008882 0 0.00071013057936785806 0.016945598810828768 0 0.00071850666828186609 0.01692515813132436 0 0.00071927972673340378 0.016963136143603098 0 0.00070051828796466754 0.016969320252008882 0 0.00074930743520237951 0.016900604154614474 0 0.00071850666828186609 0.01692515813132436 0 0.00071927972673340378 0.016963136143603098 0 0.00071927972673340378 0.016963136143603098 0 0.00068209923138677912 0.017021912697331526 0 0.00070051828796466754 0.016969320252008882 0 0.00071927972673340378 0.016963136143603098 0 0.00070912742951320521 0.017014089997259139 0 0.00068209923138677912 0.017021912697331526 0 0.00070912742951320521 0.017014089997259139 0 0.00074855727044650803 0.016957630804135693 0 0.00073811197037125151 0.017018230070122417 0 0.00071927972673340378 0.016963136143603098 0 0.00070912742951320521 0.017014089997259139 0 0.00074855727044650803 0.016957630804135693 0 0.00074855727044650803 0.016957630804135693 0 0.00078616456968579561 0.016914628282331683 0 0.00080491245240814347 0.016976012193958886 0 0.00074930743520237951 0.016900604154614474 0 0.00074855727044650803 0.016957630804135693 0 0.00078616456968579561 0.016914628282331683 0 0.00074930743520237951 0.016900604154614474 0 0.00071927972673340378 0.016963136143603098 0 0.00074855727044650803 0.016957630804135693 0 0.0006406245134196872 0.017062608640565951 0 0.0006407222288987857 0.017114494237652555 0 0.00062874606630146737 0.017124141851322862 0 0.0006406245134196872 0.017062608640565951 0 0.00065907004934184223 0.01706840884047706 0 0.00063630403543387553 0.017099633016036692 0 0.0006406245134196872 0.017062608640565951 0 0.00062874606630146737 0.017124141851322862 0 0.00063630403543387553 0.017099633016036692 0 0.0006406245134196872 0.017062608640565951 0 0.00068209923138677912 0.017021912697331526 0 0.00065907004934184223 0.01706840884047706 0 0.00070912742951320521 0.017014089997259139 0 0.00068209923138677912 0.017021912697331526 0 0.00067986960672259181 0.0170664521953122 0 0.00068209923138677912 0.017021912697331526 0 0.00067986960672259181 0.0170664521953122 0 0.00065907004934184223 0.01706840884047706 0 0.0006406245134196872 0.017062608640565951 0 0.00068209923138677912 0.017021912697331526 0 0.0006689698346211253 0.017000741283712567 0 0.00068209923138677912 0.017021912697331526 0 0.0006689698346211253 0.017000741283712567 0 0.00070051828796466754 0.016969320252008882 0 0.0006689698346211253 0.017000741283712567 0 0.00070051828796466754 0.016969320252008882 0 0.00071013057936785806 0.016945598810828768 0 0.0006689698346211253 0.017000741283712567 0 0.00066020207659482286 0.016973038929901853 0 0.00071013057936785806 0.016945598810828768 0 0.0006406245134196872 0.017062608640565951 0 0.00063604447464359396 0.016995786272019711 0 0.00060442757683761819 0.017004818328018558 0 0.0006689698346211253 0.017000741283712567 0 0.00063604447464359396 0.016995786272019711 0 0.00066020207659482286 0.016973038929901853 0 0.0006406245134196872 0.017062608640565951 0 0.0006689698346211253 0.017000741283712567 0 0.00063604447464359396 0.016995786272019711 0 0.00038054768896025778 0.016618634909764389 0 0.00078747366041318303 0.018697574684804277 0 0.00063604447464359396 0.016995786272019711 0 0.00060442757683761819 0.017004818328018558 0 0.00060650420767126322 0.016999175630889291 0 0.00078747366041318303 0.018697574684804277 0 0.00094155788342839867 0.017062580627004279 0 0.00094172904028031726 0.018756811655177254 0 0.0011583843470898466 0.021959010061819145 0 0.00063604447464359396 0.016995786272019711 0 0.00060650420767126322 0.016999175630889291 0 0.00063258448066852359 0.01698326807848588 0 0.00058518983609561653 0.01710095604206692 0 0.00060650420767126322 0.016999175630889291 0 0.00056124774217780843 0.017064342292516282 0 0.00075430227764763024 0.016999885988809468 0 0.00071013057936785806 0.016945598810828768 0 0.00074211094420673898 0.017011199004118314 0 0.00060650420767126322 0.016999175630889291 0 0.00062775105388809078 0.016951970816078649 0 0.00056124774217780843 0.017064342292516282 0 0.00060650420767126322 0.016999175630889291 0 0.00063258448066852359 0.01698326807848588 0 0.00062775105388809078 0.016951970816078649 0 0.00063258448066852359 0.01698326807848588 0 0.00066020207659482286 0.016973038929901853 0 0.00062775105388809078 0.016951970816078649 0 0.00063604447464359396 0.016995786272019711 0 0.00063258448066852359 0.01698326807848588 0 0.00066020207659482286 0.016973038929901853 0 0.00094172904028031726 0.018756811655177254 0 0.0012357906697302537 0.017629251202432975 0 0.0017113456583537892 0.020946544527999721 0 0.00082317072682430682 0.020680348804816274 0 0.00029524137371696001 0.022137592556352316 0 0.00073010225865293094 0.017055363309548408 0 0.00071276197431373409 0.017034859173838582 0 0.00074211094420673898 0.017011199004118314 0 0.00073010225865293094 0.017055363309548408 0 0.00071276197431373409 0.017034859173838582 0 0.00070496062934414171 0.017056965970052927 0 0.00084570166346216295 0.026157879051815932 0 0.00085601487414840437 0.026128218271205671 0 0.00085657115221242841 0.02615304071271057 0 0.00088295298835609857 0.021924873438620672 0 0.00076397580145583504 0.021798955880153743 0 0.00088295298835609857 0.021924873438620672 0 0.00071289026918699126 0.022172378389938643 0 0.00094172904028031726 0.018756811655177254 0 0.00076397580145583504 0.021798955880153743 0 0.00094172904028031726 0.018756811655177254 0 0.00049327080764698214 0.016619201121150638 0 0.00071013057936785806 0.016945598810828768 0 0.00072809485429888889 0.016976340233333949 0 0.00074211094420673898 0.017011199004118314 0 0.00066020207659482286 0.016973038929901853 0 0.00062775105388809078 0.016951970816078649 0 0.00071013057936785806 0.016945598810828768 0 0.00072320009291508612 0.016945754655047576 0 0.00071013057936785806 0.016945598810828768 0 0.00072809485429888889 0.016976340233333949 0 0.0015441827994525984 0.016830310087179935 0 0.0015441240895585127 0.016827520875322865 0 0.001543690327985294 0.016851459121169008 0 0.0017768347227081038 0.017980031181596506 0 0.0011675210495226127 0.019426390826976305 0 0.0015431056503717676 0.016807812050514414 0 0.0015441240895585127 0.016827520875322865 0 0.001543690327985294 0.016851459121169008 0 0.0011023790929329635 0.016634223405109168 0 0.0011675210495226127 0.019426390826976305 0 0.00072320009291508612 0.016945754655047576 0 0.00072809485429888889 0.016976340233333949 0 0.00074061992487136881 0.017009932498739427 0 0.00084298857083612536 0.026161951958641592 0 0.00081508117242494005 0.026235111385453536 0 0.00088016638507525016 0.026204137769369504 0 0.00037688735565089758 0.021707962324700902 0 0.0010672883100949165 0.021218290764485451 0 0.00058277926471539908 0.021144578763364261 0 0.00088295298835609857 0.021924873438620672 0 0.0011675210495226127 0.019426390826976305 0 0.00088295298835609857 0.021924873438620672 0 0.0007547042221157876 0.023761769024196192 0 0.00071276197431373409 0.017034859173838582 0 0.00074211094420673898 0.017011199004118314 0 0.00074061992487136881 0.017009932498739427 0 0.00072809485429888889 0.016976340233333949 0 0.00074211094420673898 0.017011199004118314 0 0.00074061992487136881 0.017009932498739427 0 0.0015579980887325596 0.020635185832994382 0 0.0014227247950240488 0.021009893622438235 0 0.0011876926467877659 0.020978522382145579 0 0.0011675210495226127 0.019426390826976305 0 0.0007547042221157876 0.023761769024196192 0 0.00089738914537171733 0.026257284275475624 0 0.00090970137967350787 0.026269990272809504 0 0.00091241469682270951 0.026298429665939212 0 0.0007547042221157876 0.023761769024196192 0 0.0010998676086287839 0.025484752379665437 0 0.00090970137967350787 0.026269990272809504 0 0.00094763024677485194 0.02628529660837086 0 0.00093842639604198807 0.026321002747357745 0 0.00090970137967350787 0.026269990272809504 0 0.00096280635828492232 0.026206865727311682 0 0.00088016638507525016 0.026204137769369504 0 0.00090970137967350787 0.026269990272809504 0 0.00094763024677485194 0.02628529660837086 0 0.00096280635828492232 0.026206865727311682 0 0.00081508117242494005 0.026235111385453536 0 0.00090970137967350787 0.026269990272809504 0 0.00088016638507525016 0.026204137769369504 0 0.00096280635828492232 0.026206865727311682 0 0.00088016638507525016 0.026204137769369504 0 0.00085657115221242841 0.02615304071271057 0 0.00084298857083612536 0.026161951958641592 0 0.00088016638507525016 0.026204137769369504 0 0.00085657115221242841 0.02615304071271057 0 0.0014413923927009418 0.027210293385715633 0 0.0011834482059003102 0.026873243825178923 0 0.0010048988481719538 0.02708878268986558 0 0.0015383060982982646 0.026313789956050659 0 0.0010001136509745477 0.027119157518196553 0 0.0013651077771621352 0.027237617740476738 0 0.0010918080984706662 0.027408217501601478 0 0.00097314430477315691 0.027123926771139072 0 0.00094763024677485194 0.02628529660837086 0 0.00097554916119572748 0.026333872578764132 0 0.00093842639604198807 0.026321002747357745 0 0.00094763024677485194 0.02628529660837086 0 0.00096280635828492232 0.026206865727311682 0 0.00097554916119572748 0.026333872578764132 0 0.0015383060982982646 0.026313789956050659 0 0.0010789859168923179 0.026608764079378601 0 0.0013651077771621352 0.027237617740476738 0 0.0010918080984706662 0.027408217501601478 0 0.0013358947663485215 0.027571922269581977 0 0.0010918080984706662 0.027408217501601478 0 0.0013358947663485215 0.027571922269581977 0 0.0010184593280423034 0.027695265227034027 0 0.0018018446523542892 0.024637072639891587 0 0.00071404412954335656 0.024293616356616317 0 0.0009864681903769192 0.02355064969585299 0 0.0015383060982982646 0.026313789956050659 0 0.00076397580145583504 0.021798955880153743 0 0.00096280635828492232 0.026206865727311682 0 0.00085601487414840437 0.026128218271205671 0 0.00085657115221242841 0.02615304071271057 0 0.0015383060982982646 0.026313789956050659 0 0.0014078302272762526 0.024156512480999662 0 0.0013651077771621352 0.027237617740476738 0 0.0013358947663485215 0.027571922269581977 0 0.0016266542669113634 0.027563673104083631 0 0.0013358947663485215 0.027571922269581977 0 0.0016266542669113634 0.027563673104083631 0 0.0015965664686328487 0.027653307131244229 0 0.0017113456583537892 0.020946544527999721 0 0.00029524137371696001 0.022137592556352316 0 0.0005420119907069877 0.022463446881100243 0 0.00076397580145583504 0.021798955880153743 0 0.0014078302272762526 0.024156512480999662 0 0.0014078302272762526 0.024156512480999662 0 0.0011583843470898466 0.021959010061819145 0 0.0019697634692473908 0.021976213976576068 0 0.0015134428252776236 0.021373461894118418 0 -0.0017517614531842205 0.025611329067196136 0 0.0016295789257834718 0.027536875487049414 0 0.001674730582152483 0.027607689067628914 0 0.0015965664686328487 0.027653307131244229 0 0.0011583843470898466 0.021959010061819145 0 -0.00012529975853843209 0.029869623932211618 0 0.0013358947663485215 0.027571922269581977 0 0.0015965664686328487 0.027653307131244229 0 0.0012686158688767055 0.028166778522540865 0 0.001674730582152483 0.027607689067628914 0 0.0015965664686328487 0.027653307131244229 0 0.0012686158688767055 0.028166778522540865 0 0.00078747366041318303 0.018697574684804277 0 0.0011583843470898466 0.021959010061819145 0 0.0014078302272762526 0.024156512480999662 0 0.0010896341228227155 0.025658710179597265 0 0.0013358947663485215 0.027571922269581977 0 0.0010184593280423034 0.027695265227034027 0 0.0012686158688767055 0.028166778522540865 0 0.0010184593280423034 0.027695265227034027 0 0.0012686158688767055 0.028166778522540865 0 0.0006843844962627451 0.027875574643154665 0 -0.00012529975853843209 0.029869623932211618 0 -0.0014070275639531176 0.033305058484324419 0 -0.001783946469183853 0.034199780308448335 0 -0.0014665329484710092 0.034235488338294512 0 -0.0011393719646912244 0.034563994721344499 0 -0.001783946469183853 0.034199780308448335 0 -0.0014665329484710092 0.034235488338294512 0 -0.0014126026559851239 0.033360133005616313 0 0.0019697634692473908 0.021976213976576068 0 -0.0017517614531842205 0.025611329067196136 0 0.00027491211544785726 0.026681595112626622 0 -0.00054531408349487896 0.031734557708547495 0 -0.00028188395523385748 0.031860518126605723 0 -0.00054433282742983571 0.032070306035728947 0 -0.00012529975853843209 0.029869623932211618 0 -0.00042741422038891034 0.024575189050555196 0 0.00078747366041318303 0.018697574684804277 0 -0.00042741422038891034 0.024575189050555196 0 -0.00099293119958155556 0.034392846352960117 0 -0.0012831398923776195 0.034246894969941807 0 -0.00092767499078808533 0.034260558615858333 0 -0.0014665329484710092 0.034235488338294512 0 -0.0012831398923776195 0.034246894969941807 0 -0.0011393719646912244 0.034563994721344499 0 -0.00099293119958155556 0.034392846352960117 0 -0.0012831398923776195 0.034246894969941807 0 -0.0011393719646912244 0.034563994721344499 0 -0.0014665329484710092 0.034235488338294512 0 -0.0012831398923776195 0.034246894969941807 0 -0.0011424620773978357 0.034076143028775811 0 0.0010184593280423034 0.027695265227034027 0 0.0006843844962627451 0.027875574643154665 0 0.00071028552507893948 0.027456279168070925 0 -0.00012529975853843209 0.029869623932211618 0 -0.00016892605932309089 0.031452981216710224 0 -0.0011393719646912244 0.034563994721344499 0 -0.00083577579212543726 0.034733238687206722 0 -0.00083190161722008008 0.034546290295736005 0 -0.00016892605932309089 0.031452981216710224 0 -0.00056917252786756948 0.030939528965162177 0 -0.00099293119958155556 0.034392846352960117 0 -0.0011393719646912244 0.034563994721344499 0 -0.00083190161722008008 0.034546290295736005 0 0.00071028552507893948 0.027456279168070925 0 0.00056790439960350408 0.026988312155887775 0 6.7357693871413776e-05 0.027593630857612805 0 0.0006843844962627451 0.027875574643154665 0 0.00071028552507893948 0.027456279168070925 0 6.7357693871413776e-05 0.027593630857612805 0 0.0010918080984706662 0.027408217501601478 0 0.00071028552507893948 0.027456279168070925 0 0.00097314430477315691 0.027123926771139072 0 0.0010918080984706662 0.027408217501601478 0 0.0010184593280423034 0.027695265227034027 0 0.00071028552507893948 0.027456279168070925 0 0.00071028552507893948 0.027456279168070925 0 0.00097314430477315691 0.027123926771139072 0 0.00056790439960350408 0.026988312155887775 0 0.0010001136509745477 0.027119157518196553 0 0.0006044679306854042 0.026995925798808131 0 0.0010048988481719538 0.02708878268986558 0 0.00056790439960350408 0.026988312155887775 0 0.0008202934183395899 0.026793557618840405 0 0.0011834482059003102 0.026873243825178923 0 0.0010048988481719538 0.02708878268986558 0 0.0008202934183395899 0.026793557618840405 0 0.00056790439960350408 0.026988312155887775 0 0.0004938994349107654 0.026541564408904626 0 0.0008202934183395899 0.026793557618840405 0 0.00056790439960350408 0.026988312155887775 0 0.0004938994349107654 0.026541564408904626 0 -5.0639249777146151e-05 0.02693751289120069 0 0.0019709234343007441 0.034552782500834898 0 0.0019610905982822436 0.034252044533788238 0 0.001692174073885721 0.034449530754071783 0 0.0019709234343007441 0.034552782500834898 0 0.0022808872299521186 0.034332296411966681 0 0.0019610905982822436 0.034252044533788238 0 0.0012583963888964922 0.030516256250713896 0 0.0014036161980905753 0.030727768229908733 0 0.0004938994349107654 0.026541564408904626 0 0.0009383196303393885 0.02633664440827066 0 0.00089541619461189909 0.026490172398584973 0 0.0004938994349107654 0.026541564408904626 0 0.00089541619461189909 0.026490172398584973 0 0.0008202934183395899 0.026793557618840405 0 0.0011834482059003102 0.026873243825178923 0 0.00089541619461189909 0.026490172398584973 0 0.0008202934183395899 0.026793557618840405 0 0.0010789859168923179 0.026608764079378601 0 0.00092076903625390395 0.026479089813204862 0 0.00097554916119572748 0.026333872578764132 0 0.00095228213274722146 0.026388624658901579 0 0.00093842639604198807 0.026321002747357745 0 0.00095228213274722146 0.026388624658901579 0 0.00093842639604198807 0.026321002747357745 0 0.00093915382529792914 0.026343435633059666 0 0.00097554916119572748 0.026333872578764132 0 0.00089541619461189909 0.026490172398584973 0 0.00095228213274722146 0.026388624658901579 0 0.00090970137967350787 0.026269990272809504 0 0.00091241469682270951 0.026298429665939212 0 0.00093842639604198807 0.026321002747357745 0 0.00091241469682270951 0.026298429665939212 0 0.00093842639604198807 0.026321002747357745 0 0.00093915382529792914 0.026343435633059666 0 0.00091241469682270951 0.026298429665939212 0 0.00093915382529792914 0.026343435633059666 0 0.00092273837823795028 0.026321677398292661 0 0.00091794557284040172 0.026327239634761898 0 0.00094766909820854226 0.026343506101734016 0 0.00094777314256647214 0.02635266449185256 0 0.00091794557284040172 0.026327239634761898 0 0.00092273837823795028 0.026321677398292661 0 0.00094766909820854226 0.026343506101734016 0 0.00093915382529792914 0.026343435633059666 0 0.00092273837823795028 0.026321677398292661 0 0.00094766909820854226 0.026343506101734016 0 0.0009383196303393885 0.02633664440827066 0 0.00095228213274722146 0.026388624658901579 0 0.00094766909820854226 0.026343506101734016 0 0.0009383196303393885 0.02633664440827066 0 0.00094766909820854226 0.026343506101734016 0 0.00094777314256647214 0.02635266449185256 0 0.0009383196303393885 0.02633664440827066 0 0.00089541619461189909 0.026490172398584973 0 0.00095228213274722146 0.026388624658901579 0 0.00095228213274722146 0.026388624658901579 0 0.00093915382529792914 0.026343435633059666 0 0.00094766909820854226 0.026343506101734016 0 0.0022808872299521186 0.034332296411966681 0 0.0025484278342141182 0.034111161008664521 0 0.0023391699633398882 0.033989422347700207 0 0.0014036161980905753 0.030727768229908733 0 0.0020181677997968398 0.027325332291386763 0 0.0020181677997968398 0.027325332291386763 0 0.0030071595705487945 0.033101435921936082 0 0.0024719113998606791 0.024137303868726319 0 0.0020181677997968398 0.027325332291386763 0 0.0018715888324619733 0.017899939701705198 0 0.0016677125222281917 0.018379340282605117 0 0.0014126262379111083 0.018227256122202475 0 0.00087831870607659249 0.022098230237140474 0 0.0020181677997968398 0.027325332291386763 0 0.0027433892538601054 0.031059511209868128 0 0.0027608867483257422 0.030999947728402602 0 0.0027504039275760912 0.031061365741642193 0 0.0027608867483257422 0.030999947728402602 0 0.0027504039275760912 0.031061365741642193 0 0.0028078368356109422 0.031056222689198408 0 0.0028535296564404342 0.031111598545494671 0 0.0027806044610809732 0.031093813462983073 0 0.0028078368356109422 0.031056222689198408 0 0.0027806044610809732 0.031093813462983073 0 0.0027504039275760912 0.031061365741642193 0 0.0028078368356109422 0.031056222689198408 0 0.0023617568311313686 0.03269622339839677 0 0.0030071595705487945 0.033101435921936082 0 0.0021318196290093967 0.033843072245583181 0 0.0023391699633398882 0.033989422347700207 0 0.0021398806275634754 0.034079618651939599 0 0.0021318196290093967 0.033843072245583181 0 0.0019596246887715217 0.034031872442298668 0 0.0021398806275634754 0.034079618651939599 0 0.0021318196290093967 0.033843072245583181 0 0.0019596246887715217 0.034031872442298668 0 0.001834261584649471 0.033852128641250687 0 0.0019596246887715217 0.034031872442298668 0 0.0019610905982822436 0.034252044533788238 0 0.0021398806275634754 0.034079618651939599 0 0.0022808872299521186 0.034332296411966681 0 0.0023391699633398882 0.033989422347700207 0 0.0021398806275634754 0.034079618651939599 0 0.0022808872299521186 0.034332296411966681 0 0.0019610905982822436 0.034252044533788238 0 0.0021398806275634754 0.034079618651939599 0 0.0014254551175229902 0.034418691132934588 0 0.0016727209913629509 0.034156877436344921 0 0.001692174073885721 0.034449530754071783 0 0.0014254551175229902 0.034418691132934588 0 0.0016727209913629509 0.034156877436344921 0 0.0012217398366547476 0.034093313370142167 0 0.0019596246887715217 0.034031872442298668 0 0.0019610905982822436 0.034252044533788238 0 0.0016727209913629509 0.034156877436344921 0 0.0019610905982822436 0.034252044533788238 0 0.0016727209913629509 0.034156877436344921 0 0.001692174073885721 0.034449530754071783 0 0.0015344996737989827 0.033856801146892081 0 0.0016727209913629509 0.034156877436344921 0 0.001834261584649471 0.033852128641250687 0 0.0019596246887715217 0.034031872442298668 0 0.0016727209913629509 0.034156877436344921 0 0.001834261584649471 0.033852128641250687 0 0.0015344996737989827 0.033856801146892081 0 0.0016727209913629509 0.034156877436344921 0 0.0012217398366547476 0.034093313370142167 0 0.00089557158357997304 0.034028988008605404 0 0.0012217398366547476 0.034093313370142167 0 0.00084105493206533283 0.034283183449228975 0 0.0012217398366547476 0.034093313370142167 0 0.00084105493206533283 0.034283183449228975 0 0.00094070413452759067 0.034469229989134466 0 0.0014254551175229902 0.034418691132934588 0 0.0012217398366547476 0.034093313370142167 0 0.00094070413452759067 0.034469229989134466 0 0.0014254551175229902 0.034418691132934588 0 0.00094070413452759067 0.034469229989134466 0 0.0010094630402587641 0.034766264681188139 0 0.0014254551175229902 0.034418691132934588 0 0.0010094630402587641 0.034766264681188139 0 0.0013455068074832875 0.034964336696388071 0 0.0010094630402587641 0.034766264681188139 0 0.00079839436765578398 0.035133931253650288 0 0.00070869757221318341 0.034758168185108781 0 0.00094070413452759067 0.034469229989134466 0 0.0010094630402587641 0.034766264681188139 0 0.00070869757221318341 0.034758168185108781 0 0.0010094630402587641 0.034766264681188139 0 0.00079839436765578398 0.035133931253650288 0 0.0013455068074832875 0.034964336696388071 0 0.0014463940687244098 0.034928328123074961 0 0.00067157220841706253 0.034293494986007915 0 0.00079839436765578398 0.035133931253650288 0 0.0013455068074832875 0.034964336696388071 0 0.0012814305133258051 0.035383315940542476 0 0.0014516873991210759 0.034584925968284226 0 0.001692174073885721 0.034449530754071783 0 0.0016819695553406374 0.034696294271013978 0 0.0014254551175229902 0.034418691132934588 0 0.0014516873991210759 0.034584925968284226 0 0.001692174073885721 0.034449530754071783 0 0.0014224192502922163 0.034377373451889952 0 0.0014463940687244098 0.034928328123074961 0 0.0019709234343007441 0.034552782500834898 0 0.001692174073885721 0.034449530754071783 0 0.0016819695553406374 0.034696294271013978 0 0.0012583963888964922 0.030516256250713896 0 0.00093702373298969253 0.03066116590887286 0 0.00056790439960350408 0.026988312155887775 0 -5.0639249777146151e-05 0.02693751289120069 0 6.7357693871413776e-05 0.027593630857612805 0 0.00093702373298969253 0.03066116590887286 0 5.4977797020338385e-05 0.03214505380516406 0 -5.0639249777146151e-05 0.02693751289120069 0 6.7357693871413776e-05 0.027593630857612805 0 -0.00055923428524170876 0.027307601931892373 0 0.0014516873991210759 0.034584925968284226 0 0.0016819695553406374 0.034696294271013978 0 0.001456998457602707 0.034811021062223786 0 -0.00064188507626735498 0.034747225553688747 0 -0.00083577579212543726 0.034733238687206722 0 -0.00059188040889832062 0.034849012546986156 0 -0.00056917252786756948 0.030939528965162177 0 5.4977797020338385e-05 0.03214505380516406 0 -0.00083577579212543726 0.034733238687206722 0 -0.00083190161722008008 0.034546290295736005 0 -0.00067144525831855514 0.034595727477281596 0 -0.00064188507626735498 0.034747225553688747 0 -0.00067144525831855514 0.034595727477281596 0 -0.00053879148788615937 0.034694728389832848 0 -0.00064188507626735498 0.034747225553688747 0 -0.00083577579212543726 0.034733238687206722 0 -0.00067144525831855514 0.034595727477281596 0 -0.00067144525831855514 0.034595727477281596 0 -0.00084986664189215608 0.034387523286322011 0 -0.00071500482677828937 0.034397955938270386 0 -0.00067144525831855514 0.034595727477281596 0 -0.00056006577203240144 0.0344507010009708 0 -0.00071500482677828937 0.034397955938270386 0 -0.00099293119958155556 0.034392846352960117 0 -0.00084986664189215608 0.034387523286322011 0 -0.00092767499078808533 0.034260558615858333 0 -0.00099293119958155556 0.034392846352960117 0 -0.00083190161722008008 0.034546290295736005 0 -0.00084986664189215608 0.034387523286322011 0 -0.00083190161722008008 0.034546290295736005 0 -0.00067144525831855514 0.034595727477281596 0 -0.00084986664189215608 0.034387523286322011 0 -0.00018565172782612898 0.034734670940699222 0 -0.00047329947200538426 0.03462159800841054 0 -0.00036725059668064045 0.034515556166829706 0 -0.00047329947200538426 0.03462159800841054 0 -0.00056006577203240144 0.0344507010009708 0 -0.00036725059668064045 0.034515556166829706 0 -0.00067144525831855514 0.034595727477281596 0 -0.00047329947200538426 0.03462159800841054 0 -0.00056006577203240144 0.0344507010009708 0 -0.00046930668786524367 0.034586211633770077 0 -0.00051529771522639824 0.034922081418041352 0 -0.00018565172782612898 0.034734670940699222 0 -0.00047329947200538426 0.03462159800841054 0 -0.00045475128684842005 0.034905337708352177 0 -0.00067144525831855514 0.034595727477281596 0 -0.00047329947200538426 0.03462159800841054 0 -0.00053879148788615937 0.034694728389832848 0 -0.00018565172782612898 0.034734670940699222 0 -0.00045475128684842005 0.034905337708352177 0 -0.00014158157994735546 0.034940714752224107 0 -0.00022407752769984548 0.035182515263971453 0 -0.00027732594003856016 0.034323442115878393 0 -0.00014158157994735546 0.034940714752224107 0 -0.0001381091046555125 0.034988799619943507 0 -6.2964959370277247e-05 0.034991782510392998 0 -0.00014158157994735546 0.034940714752224107 0 -0.00017468116998429668 0.034976706259966718 0 -0.0001381091046555125 0.034988799619943507 0 -0.00045475128684842005 0.034905337708352177 0 -0.00014158157994735546 0.034940714752224107 0 -0.0004833795265133398 0.035151781909282087 0 -0.00064188507626735498 0.034747225553688747 0 -0.00053879148788615937 0.034694728389832848 0 -0.00056125824930273647 0.03483018965004233 0 -0.00051529771522639824 0.034922081418041352 0 -0.00027732594003856016 0.034323442115878393 0 -0.00064188507626735498 0.034747225553688747 0 -0.00059188040889832062 0.034849012546986156 0 -0.00056125824930273647 0.03483018965004233 0 -0.00017468116998429668 0.034976706259966718 0 -0.0001767140128305367 0.034986318697453639 0 -0.0001381091046555125 0.034988799619943507 0 0.0014516873991210759 0.034584925968284226 0 0.001456998457602707 0.034811021062223786 0 0.0014248519600919757 0.034794374101794687 0 5.4977797020338385e-05 0.03214505380516406 0 -0.00027732594003856016 0.034323442115878393 0 0.00034306830581811956 0.03304543141522133 0 -9.9571192402518189e-06 0.033266435138237099 0 3.8439367689051917e-05 0.032884539180876658 0 5.4977797020338385e-05 0.03214505380516406 0 0.00067157220841706253 0.034293494986007915 0 -0.00027732594003856016 0.034323442115878393 0 0.00067157220841706253 0.034293494986007915 0 -0.00010317725166764737 0.035025139913847224 0 -0.0001767140128305367 0.034986318697453639 0 -0.0001381091046555125 0.034988799619943507 0 0.00037215086586193469 0.035214688285340856 0 0.00067157220841706253 0.034293494986007915 0 -0.00010317725166764737 0.035025139913847224 0 -0.0001381091046555125 0.034988799619943507 0 -6.2964959370277247e-05 0.034991782510392998 0 -0.00010317725166764737 0.035025139913847224 0 -6.2964959370277247e-05 0.034991782510392998 0 -4.2423097691179978e-05 0.035026461057392086 0 -6.2964959370277247e-05 0.034991782510392998 0 -2.5807923170085094e-05 0.035005730389329477 0 -4.2423097691179978e-05 0.035026461057392086 0 -6.2964959370277247e-05 0.034991782510392998 0 -2.5807923170085094e-05 0.035005730389329477 0 -1.2714888742524695e-06 0.034962433797920085 0 -6.2964959370277247e-05 0.034991782510392998 0 -1.2714888742524695e-06 0.034962433797920085 0 -1.7376574740097542e-06 0.034886889336631116 0 -0.00014158157994735546 0.034940714752224107 0 -6.2964959370277247e-05 0.034991782510392998 0 -1.7376574740097542e-06 0.034886889336631116 0 -0.00018565172782612898 0.034734670940699222 0 -0.00014158157994735546 0.034940714752224107 0 -1.7376574740097542e-06 0.034886889336631116 0 -1.2714888742524695e-06 0.034962433797920085 0 -1.7376574740097542e-06 0.034886889336631116 0 1.23946259985544e-05 0.034952434250857638 0 -1.7376574740097542e-06 0.034886889336631116 0 2.2512342233579462e-05 0.034882946445457655 0 2.8672418524082269e-05 0.034721722577569253 0 -0.00018565172782612898 0.034734670940699222 0 -1.7376574740097542e-06 0.034886889336631116 0 2.8672418524082269e-05 0.034721722577569253 0 2.7890931852526303e-08 0.034999880686693671 0 1.23946259985544e-05 0.034952434250857638 0 2.2512342233579462e-05 0.034882946445457655 0 -1.7376574740097542e-06 0.034886889336631116 0 1.23946259985544e-05 0.034952434250857638 0 2.2512342233579462e-05 0.034882946445457655 0 2.7890931852526303e-08 0.034999880686693671 0 1.23946259985544e-05 0.034952434250857638 0 2.2589992775128863e-08 0.034999960037690708 0 -1.2714888742524695e-06 0.034962433797920085 0 2.2589992775128863e-08 0.034999960037690708 0 -2.6589358222764239e-06 0.034998644646305491 0 -1.2714888742524695e-06 0.034962433797920085 0 1.23946259985544e-05 0.034952434250857638 0 2.2589992775128863e-08 0.034999960037690708 0 -2.5807923170085094e-05 0.035005730389329477 0 -1.2714888742524695e-06 0.034962433797920085 0 -2.6589358222764239e-06 0.034998644646305491 0 2.2589992775128863e-08 0.034999960037690708 0 -2.6589358222764239e-06 0.034998644646305491 0 -4.606170748079174e-09 0.035000016690900304 0 -4.606170748079174e-09 0.035000016690900304 0 -3.6982959815337251e-06 0.035009518106891215 0 -6.9277359903124358e-06 0.035010484127780093 0 -2.6589358222764239e-06 0.034998644646305491 0 -4.606170748079174e-09 0.035000016690900304 0 -6.9277359903124358e-06 0.035010484127780093 0 -4.606170748079174e-09 0.035000016690900304 0 -3.6982959815337251e-06 0.035009518106891215 0 -5.9133002428527198e-10 0.035000008965902725 0 -3.6982959815337251e-06 0.035009518106891215 0 -6.9277359903124358e-06 0.035010484127780093 0 -2.3329071994268914e-05 0.03502451991060531 0 -1.8042136968872016e-05 0.035002427967012625 0 0.00010388894199568312 0.034993071776781175 0 0.00010388894199568312 0.034993071776781175 0 8.8330505362985444e-05 0.034870932906465701 0 4.5050785279394146e-06 0.035002800676413481 0 1.462466020044542e-05 0.035005895176027188 0 3.9598403400257964e-06 0.034999106064172149 0 -2.6589358222764239e-06 0.034998644646305491 0 -6.9277359903124358e-06 0.035010484127780093 0 -2.3329071994268914e-05 0.03502451991060531 0 -2.5807923170085094e-05 0.035005730389329477 0 -2.6589358222764239e-06 0.034998644646305491 0 -2.3329071994268914e-05 0.03502451991060531 0 -2.5807923170085094e-05 0.035005730389329477 0 -4.2423097691179978e-05 0.035026461057392086 0 -2.3329071994268914e-05 0.03502451991060531 0 -1.5171414574642539e-05 0.034995332837721133 0 0.00010388894199568312 0.034993071776781175 0 0.00079839436765578398 0.035133931253650288 0 0.00070869757221318341 0.034758168185108781 0 0.00040381564891637308 0.034920806573761058 0 -0.00010317725166764737 0.035025139913847224 0 -4.2423097691179978e-05 0.035026461057392086 0 -1.5116881528167215e-05 0.035046185542827568 0 0.00037215086586193469 0.035214688285340856 0 0.00010388894199568312 0.034993071776781175 0 0.00070869757221318341 0.034758168185108781 0 0.00040381564891637308 0.034920806573761058 0 0.00054944042546611351 0.034561787912161468 0 0.00040381564891637308 0.034920806573761058 0 0.00054944042546611351 0.034561787912161468 0 0.0001613197267143428 0.034742722946127833 0 0.00054944042546611351 0.034561787912161468 0 0.00037335963965738942 0.03445836308918418 0 0.0001613197267143428 0.034742722946127833 0 0.00084105493206533283 0.034283183449228975 0 0.00094070413452759067 0.034469229989134466 0 0.00054944042546611351 0.034561787912161468 0 0.00094070413452759067 0.034469229989134466 0 0.00070869757221318341 0.034758168185108781 0 0.00054944042546611351 0.034561787912161468 0 0.0006341757991716149 0.03425025596202743 0 0.00084105493206533283 0.034283183449228975 0 0.00054944042546611351 0.034561787912161468 0 0.0006341757991716149 0.03425025596202743 0 0.00089557158357997304 0.034028988008605404 0 0.00084105493206533283 0.034283183449228975 0 0.0006341757991716149 0.03425025596202743 0 0.00054944042546611351 0.034561787912161468 0 0.00037335963965738942 0.03445836308918418 0 6.1405714602939796e-05 0.03479531183653474 0 0.00019074918460654247 0.034625201636531364 0 0.0001613197267143428 0.034742722946127833 0 0.00037335963965738942 0.03445836308918418 0 0.00019074918460654247 0.034625201636531364 0 0.0001613197267143428 0.034742722946127833 0 -2.1284141258800854e-08 0.034999901685352906 0 8.8330505362985444e-05 0.034870932906465701 0 6.1405714602939796e-05 0.03479531183653474 0 3.0480905366734455e-08 0.034998808234579563 0 0.0001613197267143428 0.034742722946127833 0 4.5050785279394146e-06 0.035002800676413481 0 2.6500873531841543e-09 0.035000003582293722 0 3.9598403400257964e-06 0.034999106064172149 0 -9.8020414040648506e-10 0.034999994699729003 0 2.6500873531841543e-09 0.035000003582293722 0 3.9598403400257964e-06 0.034999106064172149 0 -1.8042136968872016e-05 0.035002427967012625 0 1.7232762802661156e-08 0.035000010372271025 0 0.00055571430292940217 0.00037598730869097972 0 -0.00032983489464939215 -0.00042347240935131276 0 -0.0011143209993954022 0.0005316181761143079 0 -0.00017058952530865613 0.0017267116896584106 0 -0.0013589055099883088 0.0037168010767736426 0 -0.00017058952530865613 0.0017267116896584106 0 0.0017927825687978733 0.0025057840063756939 0 -0.00069120674934977319 0.0036475559764370374 0 0.00029703417718772034 0.0042657625872361436 0 0.00099547783574253077 0.0034771444487049158 0 0.00055571430292940217 0.00037598730869097972 0 0.00084077971655106712 -0.00085255401421329617 0 0.002207208191372414 0.00021346131828585725 0 0.00084077971655106712 -0.00085255401421329617 0 -0.00032983489464939215 -0.00042347240935131276 0 -0.0003010121686815515 -0.0014937573180566687 0 0.00055571430292940217 0.00037598730869097972 0 0.00084077971655106712 -0.00085255401421329617 0 -0.00032983489464939215 -0.00042347240935131276 0 -0.00032983489464939215 -0.00042347240935131276 0 -0.0016289746070507431 -0.00068099844868150594 0 -0.0011143209993954022 0.0005316181761143079 0 -0.00032983489464939215 -0.00042347240935131276 0 -0.0016289746070507431 -0.00068099844868150594 0 -0.0003010121686815515 -0.0014937573180566687 0 -0.00068408505708835127 0.0049331018092410202 0 -0.00087809342116430442 0.0044470980242738867 0 -0.0010352899832994993 0.0049716928713158959 0 -0.00068408505708835127 0.0049331018092410202 0 -0.00084431212504396081 0.0051960387702810387 0 -0.0010352899832994993 0.0049716928713158959 0 -0.00068408505708835127 0.0049331018092410202 0 -0.00084431212504396081 0.0051960387702810387 0 -0.00049532525241534581 0.0054013330515611307 0 -0.0013577990991326162 0.0014881567798071856 0 -0.0013589055099883088 0.0037168010767736426 0 -0.00084431212504396081 0.0051960387702810387 0 -0.00083683063790242933 0.0054436462709188151 0 -0.00049532525241534581 0.0054013330515611307 0 -0.0004087903681748989 0.0056006586204509264 0 -0.0013589055099883088 0.0037168010767736426 0 -0.00064613529947898604 0.0050483085027076069 0 -0.00092882393368733075 0.0050666600325794892 0 -0.0010099525885041503 0.0048775672551205421 0 -0.00069120674934977319 0.0036475559764370374 0 -0.0022997134298316886 0.0037773786500785176 0 -0.0020493099219515499 0.0043813532306571663 0 -0.0013589055099883088 0.0037168010767736426 0 -0.00072538232552723581 0.0053041732399808248 0 0.00010328789602073992 0.0061532990163678733 0 0.00011762375960814591 0.006157059073920992 0 5.3166458959658729e-05 0.0062099596189459745 0 -0.00072538232552723581 0.0053041732399808248 0 -0.00032693426906630187 0.0059532815583612517 0 -6.9912925479227624e-06 0.0061462412190831772 0 0.00010328789602073992 0.0061532990163678733 0 5.3166458959658729e-05 0.0062099596189459745 0 -0.0004087903681748989 0.0056006586204509264 0 -0.00072538232552723581 0.0053041732399808248 0 -6.9912925479227624e-06 0.0061462412190831772 0 5.3166458959658729e-05 0.0062099596189459745 0 -2.9421638661598614e-05 0.0062273627410304021 0 5.3166458959658729e-05 0.0062099596189459745 0 2.3541434203385893e-05 0.0062964392913975372 0 -2.9421638661598614e-05 0.0062273627410304021 0 0.00050655104672212069 0.011005519098535142 0 0.00052698869082676639 0.011083104413092938 0 5.3166458959658729e-05 0.0062099596189459745 0 2.3541434203385893e-05 0.0062964392913975372 0 0.00017879435654221505 0.0062623485068497116 0 0.00011762375960814591 0.006157059073920992 0 5.3166458959658729e-05 0.0062099596189459745 0 0.00017879435654221505 0.0062623485068497116 0 0.00011762375960814591 0.006157059073920992 0 0.00017879435654221505 0.0062623485068497116 0 0.00035409141950834653 0.0060697847648892439 0 -0.00072538232552723581 0.0053041732399808248 0 -0.00011583712704466897 0.0055896079431516591 0 -0.00069120674934977319 0.0036475559764370374 0 -0.0020493099219515499 0.0043813532306571663 0 -0.00054283618875928478 0.0051295725007158618 0 9.2371012447203248e-05 0.0061343921909778748 0 0.00011762375960814591 0.006157059073920992 0 0.00035409141950834653 0.0060697847648892439 0 -0.00069120674934977319 0.0036475559764370374 0 -0.00054283618875928478 0.0051295725007158618 0 0.00029703417718772034 0.0042657625872361436 0 -0.00054283618875928478 0.0051295725007158618 0 0.00029703417718772034 0.0042657625872361436 0 0.00065171623120292746 0.0049682195605341957 0 0.00017879435654221505 0.0062623485068497116 0 0.00035409141950834653 0.0060697847648892439 0 0.00056385518913532366 0.0062537448963709301 0 0.00035409141950834653 0.0060697847648892439 0 0.00080160699488990652 0.0061068637125781759 0 0.00056385518913532366 0.0062537448963709301 0 -0.00054283618875928478 0.0051295725007158618 0 0.0010953437982444249 0.0060001987314930996 0 0.00065171623120292746 0.0049682195605341957 0 0.00035409141950834653 0.0060697847648892439 0 0.00080160699488990652 0.0061068637125781759 0 0.0010953437982444249 0.0060001987314930996 0 -0.00011583712704466897 0.0055896079431516591 0 0.00107289447875518 0.0060142067714115312 0 0.0010953437982444249 0.0060001987314930996 0 0.0012112284311050752 0.0052217511765813001 0 0.00065171623120292746 0.0049682195605341957 0 0.0010953437982444249 0.0060001987314930996 0 0.0017900330858346509 0.0055665350027228984 0 0.0012112284311050752 0.0052217511765813001 0 0.0017900330858346509 0.0055665350027228984 0 0.0012112284311050752 0.0052217511765813001 0 0.0013340652603158071 0.0044639986009972574 0 0.0017900330858346509 0.0055665350027228984 0 0.0013340652603158071 0.0044639986009972574 0 0.0025306727236696128 0.0048327516003470019 0 0.0022128629766481915 0.0053158257653731838 0 0.0012259967884856991 0.00014441167505550802 0 0.0013340652603158071 0.0044639986009972574 0 0.00029703417718772034 0.0042657625872361436 0 0.00065171623120292746 0.0049682195605341957 0 0.0013340652603158071 0.0044639986009972574 0 0.00029703417718772034 0.0042657625872361436 0 0.00099547783574253077 0.0034771444487049158 0 0.0012112284311050752 0.0052217511765813001 0 0.0013340652603158071 0.0044639986009972574 0 0.00065171623120292746 0.0049682195605341957 0 0.00075803074267913513 -0.0018048299891656333 0 0.0003139246261701957 -0.0018905906496789245 0 0.00061915604245359754 -0.0014769451594885072 0 0.00088409198314063459 -0.0013688948654911064 0 0.00075803074267913513 -0.0018048299891656333 0 0.00061915604245359754 -0.0014769451594885072 0 0.0003139246261701957 -0.0018905906496789245 0 0.00061915604245359754 -0.0014769451594885072 0 0.00027491529194098797 -0.001196426658678634 0 0.0012259967884856991 0.00014441167505550802 0 0.00020238293960435702 0.0043564378682028372 0 0.0017900330858346509 0.0055665350027228984 0 0.0025306727236696128 0.0048327516003470019 0 0.0023941392121842029 0.0065388385578143944 0 0.0013340652603158071 0.0044639986009972574 0 0.0026720395182555554 0.0047352247119781324 0 0.0027471727354481568 0.0032724276508064166 0 0.0012259967884856991 0.00014441167505550802 0 0.0024342467060295418 -0.0032542316383591266 0 0.00027248378291183206 -0.0066850102410834014 0 0.00066940070306606122 -0.0070533904233203741 0 0.00030103411300006107 -0.0073977366012161457 0 0.00042637263676702052 -0.0045159380599223671 0 0.0012259967884856991 0.00014441167505550802 0 0.00085922390915416428 -0.0065768519996407416 0 0.00027248378291183206 -0.0066850102410834014 0 0.00066940070306606122 -0.0070533904233203741 0 0.0012305483908060624 -0.0070077656370063019 0 0.00085922390915416428 -0.0065768519996407416 0 0.00066940070306606122 -0.0070533904233203741 0 0.00098743330565265511 -0.0075016187237356138 0 0.00066940070306606122 -0.0070533904233203741 0 0.00041861292194975071 -0.007414273220631983 0 0.0012305483908060624 -0.0070077656370063019 0 0.00098743330565265511 -0.0075016187237356138 0 0.00066940070306606122 -0.0070533904233203741 0 0.00045725042852792417 -0.010210287899855584 0 0.00066532968022181896 -0.0078428406681542457 0 0.0024342467060295418 -0.0032542316383591266 0 0.00066532968022181896 -0.0078428406681542457 0 0.00066940070306606122 -0.0070533904233203741 0 0.00030103411300006107 -0.0073977366012161457 0 0.00041861292194975071 -0.007414273220631983 0 0.0014946621277542242 -0.0066567411258655522 0 0.0017365826588475795 -0.0066787911920095566 0 0.0015612714618096662 -0.0080787346508225787 0 0.0036862984404985436 -2.2397212218356155e-05 0 0.0041357713837658541 -0.0024680376485324658 0 0.0033830406768944415 -0.0025883274021999809 0 0.003659697193461021 -0.00014514326081677492 0 0.0034923309642935964 -0.0020082869238864016 0 0.0036862984404985436 -2.2397212218356155e-05 0 0.0032484672544124292 -0.00054091940418907268 0 0.0035893206179810544 -0.0013643675878199522 0 0.0024342467060295418 -0.0032542316383591266 0 0.002870460861334646 -0.0053328674392723327 0 0.0036862984404985436 -2.2397212218356155e-05 0 0.0039572214323134345 2.5210890639444083e-05 0 0.0041357713837658541 -0.0024680376485324658 0 0.00017582688478973035 -0.012763021540316759 0 -0.00056462145524361176 -0.012667337660468408 0 -5.3060217704115155e-05 -0.013545002574371424 0 0.0017365826588475795 -0.0066787911920095566 0 0.0025169372481691522 -0.0080209763875083214 0 0.0015612714618096662 -0.0080787346508225787 0 0.00066532968022181896 -0.0078428406681542457 0 0.0013144649160507173 -0.011120627815410913 0 0.0036862984404985436 -2.2397212218356155e-05 0 0.0039572214323134345 2.5210890639444083e-05 0 0.002207208191372414 0.00021346131828585725 0 0.0013340652603158071 0.0044639986009972574 0 0.0027471727354481568 0.0032724276508064166 0 0.00099547783574253077 0.0034771444487049158 0 0.0036862984404985436 -2.2397212218356155e-05 0 0.002207208191372414 0.00021346131828585725 0 0.0032484672544124292 -0.00054091940418907268 0 0.0024342467060295418 -0.0032542316383591266 0 0.0017927825687978733 0.0025057840063756939 0 0.002207208191372414 0.00021346131828585725 0 0.0032484672544124292 -0.00054091940418907268 0 0.0027505050081796487 -0.00075310901241035341 0 0.0032484672544124292 -0.00054091940418907268 0 0.003158447910563765 -0.00098721713083391931 0 0.0035893206179810544 -0.0013643675878199522 0 0.0032484672544124292 -0.00054091940418907268 0 0.003158447910563765 -0.00098721713083391931 0 0.0027505050081796487 -0.00075310901241035341 0 0.003158447910563765 -0.00098721713083391931 0 0.0027505050081796487 -0.00075310901241035341 0 0.002870262527785892 -0.0013432987975197951 0 0.0027505050081796487 -0.00075310901241035341 0 0.0020050785584753853 -0.0011330719753244484 0 0.002870262527785892 -0.0013432987975197951 0 0.00084077971655106712 -0.00085255401421329617 0 0.002207208191372414 0.00021346131828585725 0 0.0020050785584753853 -0.0011330719753244484 0 0.002207208191372414 0.00021346131828585725 0 0.0027505050081796487 -0.00075310901241035341 0 0.0020050785584753853 -0.0011330719753244484 0 0.0020050785584753853 -0.0011330719753244484 0 0.0024477779325283492 -0.0019122753230224855 0 0.0013588422779957404 -0.001903399238285851 0 0.0024477779325283492 -0.0019122753230224855 0 0.0019724193945201557 -0.0025104754444430981 0 0.0013588422779957404 -0.001903399238285851 0 0.0020050785584753853 -0.0011330719753244484 0 0.002870262527785892 -0.0013432987975197951 0 0.0024477779325283492 -0.0019122753230224855 0 0.003158447910563765 -0.00098721713083391931 0 0.002870262527785892 -0.0013432987975197951 0 0.0035893206179810544 -0.0013643675878199522 0 0.002870262527785892 -0.0013432987975197951 0 0.0030848916607491401 -0.0019737516724758399 0 0.0035893206179810544 -0.0013643675878199522 0 0.002870262527785892 -0.0013432987975197951 0 0.0030848916607491401 -0.0019737516724758399 0 0.0024477779325283492 -0.0019122753230224855 0 0.0030848916607491401 -0.0019737516724758399 0 0.0024477779325283492 -0.0019122753230224855 0 0.002819461260219383 -0.0025290035552300747 0 0.0030848916607491401 -0.0019737516724758399 0 0.002819461260219383 -0.0025290035552300747 0 0.0035336602617215256 -0.0027832426680807635 0 0.0029593826090351162 -0.002992567806386316 0 0.0035336602617215256 -0.0027832426680807635 0 0.0030440797739724663 -0.0034934728987318095 0 0.002819461260219383 -0.0025290035552300747 0 0.0029593826090351162 -0.002992567806386316 0 0.0035336602617215256 -0.0027832426680807635 0 0.002819461260219383 -0.0025290035552300747 0 0.0029593826090351162 -0.002992567806386316 0 0.0024432472083558022 -0.0031641136524291633 0 0.0019724193945201557 -0.0025104754444430981 0 0.0012673389683669387 -0.0032070661072249769 0 0.0013588422779957404 -0.001903399238285851 0 0.0019724193945201557 -0.0025104754444430981 0 0.0024432472083558022 -0.0031641136524291633 0 0.0012673389683669387 -0.0032070661072249769 0 0.002819461260219383 -0.0025290035552300747 0 0.0019724193945201557 -0.0025104754444430981 0 0.0024432472083558022 -0.0031641136524291633 0 0.0024477779325283492 -0.0019122753230224855 0 0.002819461260219383 -0.0025290035552300747 0 0.0019724193945201557 -0.0025104754444430981 0 0.0025169372481691522 -0.0080209763875083214 0 0.0020982171350657055 -0.0087505121182061153 0 0.0015612714618096662 -0.0080787346508225787 0 0.0032462513955927906 -0.0092772804187733707 0 0.0025169372481691522 -0.0080209763875083214 0 0.0020982171350657055 -0.0087505121182061153 0 0.0020982171350657055 -0.0087505121182061153 0 0.0015612714618096662 -0.0080787346508225787 0 0.0016443056041189506 -0.0094413095962752446 0 0.002870460861334646 -0.0053328674392723327 0 0.002971759115481584 -0.0071938895552753086 0 0.0034923309642935964 -0.0020082869238864016 0 0.0033720911598770715 -0.0039297082851364861 0 0.0041357713837658541 -0.0024680376485324658 0 0.0033830406768944415 -0.0025883274021999809 0 0.0042607528096153006 -0.0053357188228472614 0 0.0030848916607491401 -0.0019737516724758399 0 0.0035893206179810544 -0.0013643675878199522 0 0.0035336602617215256 -0.0027832426680807635 0 0.0033830406768944415 -0.0025883274021999809 0 0.0031557878861195451 -0.005489783425116552 0 0.0042607528096153006 -0.0053357188228472614 0 0.0032462513955927906 -0.0092772804187733707 0 0.0020982171350657055 -0.0087505121182061153 0 0.0024291923552425768 -0.0094748589855298774 0 0.0020982171350657055 -0.0087505121182061153 0 0.0016443056041189506 -0.0094413095962752446 0 0.0024291923552425768 -0.0094748589855298774 0 0.0016443056041189506 -0.0094413095962752446 0 0.0024291923552425768 -0.0094748589855298774 0 0.0022809561317612709 -0.010021041870669739 0 0.0023751683576047383 -0.011620362042180959 0 0.0027268324324579798 -0.010405972013861304 0 0.0028413527631750979 -0.01061074677685463 0 0.0022809561317612709 -0.010021041870669739 0 0.0017163404404006539 -0.010753270954641776 0 0.0028413527631750979 -0.01061074677685463 0 0.0029535333020994556 -0.0099748205794862217 0 0.0022809561317612709 -0.010021041870669739 0 0.0029535333020994556 -0.0099748205794862217 0 0.0024291923552425768 -0.0094748589855298774 0 0.0022809561317612709 -0.010021041870669739 0 0.0033720911598770715 -0.0039297082851364861 0 0.002981114143917339 -0.0073359753122873963 0 0.0016443056041189506 -0.0094413095962752446 0 0.0022809561317612709 -0.010021041870669739 0 0.0017163404404006539 -0.010753270954641776 0 0.0031557878861195451 -0.005489783425116552 0 0.0042607528096153006 -0.0053357188228472614 0 0.0043774956312709178 -0.0082399624169690652 0 0.0031557878861195451 -0.005489783425116552 0 0.0029639552340551389 -0.0084212229896111733 0 0.0043774956312709178 -0.0082399624169690652 0 0.002971759115481584 -0.0071938895552753086 0 0.0027268324324579798 -0.010405972013861304 0 0.0028713370644423554 -0.011733809568249995 0 0.0027869414041559334 -0.012444901391419122 0 0.0024649117481840865 -0.012208982976055152 0 0.002981114143917339 -0.0073359753122873963 0 0.0027268324324579798 -0.010405972013861304 0 0.0025876449625357014 -0.012614849486684038 0 0.0027268324324579798 -0.010405972013861304 0 0.0027869414041559334 -0.012444901391419122 0 0.0024649117481840865 -0.012208982976055152 0 0.0024901883949263902 -0.012482181497168622 0 0.0024649117481840865 -0.012208982976055152 0 0.0024751638094415358 -0.012548627956744489 0 0.0021772799290967586 -0.012403247016052507 0 0.0018901219470896808 -0.012624518791199621 0 0.001966810474540069 -0.012173351580838796 0 0.0021772799290967586 -0.012403247016052507 0 0.0024649117481840865 -0.012208982976055152 0 0.001966810474540069 -0.012173351580838796 0 0.0021772799290967586 -0.012403247016052507 0 0.0018901219470896808 -0.012624518791199621 0 0.0024751638094415358 -0.012548627956744489 0 0.0021772799290967586 -0.012403247016052507 0 0.0019313130054014413 -0.0037662482685037616 0 0.0015084282042532996 -0.004492404987467823 0 0.0012673389683669387 -0.0032070661072249769 0 0.0019313130054014413 -0.0037662482685037616 0 0.0024432472083558022 -0.0031641136524291633 0 0.0024820062393512855 -0.0043428010395075859 0 0.0019313130054014413 -0.0037662482685037616 0 0.0024432472083558022 -0.0031641136524291633 0 0.0012673389683669387 -0.0032070661072249769 0 0.0029593826090351162 -0.002992567806386316 0 0.0024432472083558022 -0.0031641136524291633 0 0.0030440797739724663 -0.0034934728987318095 0 0.0035336602617215256 -0.0027832426680807635 0 0.0034560162435224137 -0.0042246076169220048 0 0.0030440797739724663 -0.0034934728987318095 0 0.0024432472083558022 -0.0031641136524291633 0 0.0030440797739724663 -0.0034934728987318095 0 0.0024820062393512855 -0.0043428010395075859 0 0.0034560162435224137 -0.0042246076169220048 0 0.0030440797739724663 -0.0034934728987318095 0 0.0024820062393512855 -0.0043428010395075859 0 0.0033243425137765986 -0.005923382716419583 0 0.0034306092076365107 -0.0043310135234359117 0 0.0028344610747264806 -0.0050645714389075946 0 0.002981114143917339 -0.0073359753122873963 0 0.0025984498013505376 -0.0044370022558176854 0 0.0031039763699460625 -0.009053963903875098 0 0.002981114143917339 -0.0073359753122873963 0 0.0034306092076365107 -0.0043310135234359117 0 0.0024634099737451832 -0.0044291812581166252 0 0.0028344610747264806 -0.0050645714389075946 0 0.0021191244331220066 -0.00557331561692412 0 0.0024634099737451832 -0.0044291812581166252 0 0.0028344610747264806 -0.0050645714389075946 0 0.0021191244331220066 -0.00557331561692412 0 0.0024634099737451832 -0.0044291812581166252 0 0.0015084282042532996 -0.004492404987467823 0 0.0025984498013505376 -0.0044370022558176854 0 0.001585040131511837 -0.0044931484409731406 0 0.0019313130054014413 -0.0037662482685037616 0 0.0024820062393512855 -0.0043428010395075859 0 0.0015084282042532996 -0.004492404987467823 0 0.0012330404256899598 -0.0053945083135643283 0 0.0015084282042532996 -0.004492404987467823 0 0.00051852672065156127 -0.0043205981192960437 0 0.00027652270268204701 -0.0055150037372322944 0 0.00051852672065156127 -0.0043205981192960437 0 -0.00067221971592521239 -0.0039892596253683285 0 0.00051852672065156127 -0.0043205981192960437 0 8.2272419186363519e-05 -0.0032633469019353752 0 -0.00067221971592521239 -0.0039892596253683285 0 0.0015084282042532996 -0.004492404987467823 0 0.00051852672065156127 -0.0043205981192960437 0 0.0012673389683669387 -0.0032070661072249769 0 0.00051852672065156127 -0.0043205981192960437 0 8.2272419186363519e-05 -0.0032633469019353752 0 0.0012673389683669387 -0.0032070661072249769 0 0.0012673389683669387 -0.0032070661072249769 0 0.00042687605936311639 -0.002253609423061056 0 0.0013588422779957404 -0.001903399238285851 0 8.2272419186363519e-05 -0.0032633469019353752 0 0.0012673389683669387 -0.0032070661072249769 0 0.00042687605936311639 -0.002253609423061056 0 8.2272419186363519e-05 -0.0032633469019353752 0 0.00042687605936311639 -0.002253609423061056 0 -0.001074350489094179 -0.0024388528264035086 0 0.00042687605936311639 -0.002253609423061056 0 -0.0003010121686815515 -0.0014937573180566687 0 -0.001074350489094179 -0.0024388528264035086 0 0.00084077971655106712 -0.00085255401421329617 0 0.00042687605936311639 -0.002253609423061056 0 -0.0003010121686815515 -0.0014937573180566687 0 0.00084077971655106712 -0.00085255401421329617 0 0.0020050785584753853 -0.0011330719753244484 0 0.0013588422779957404 -0.001903399238285851 0 0.00084077971655106712 -0.00085255401421329617 0 0.00042687605936311639 -0.002253609423061056 0 0.0013588422779957404 -0.001903399238285851 0 -0.0016289746070507431 -0.00068099844868150594 0 -0.002146938258909149 -0.0018781424224237802 0 -0.001074350489094179 -0.0024388528264035086 0 -0.0013577990991326162 0.0014881567798071856 0 -0.00045901451446779009 0.0040094049239974405 0 -0.0016289746070507431 -0.00068099844868150594 0 -0.0003010121686815515 -0.0014937573180566687 0 -0.001074350489094179 -0.0024388528264035086 0 0.00057908478187479278 0.0068260728198522684 0 0.00016855817541618521 0.0083969071542090469 0 0.00083074662539503344 0.0073982283605032494 0 -0.00045901451446779009 0.0040094049239974405 0 -0.00075564957644595429 0.0021353165913810886 0 -0.002146938258909149 -0.0018781424224237802 0 -0.001074350489094179 -0.0024388528264035086 0 -0.0016975002624644037 -0.0034624329427004087 0 -0.00045901451446779009 0.0040094049239974405 0 0.0016742182890805743 0.010107074692320422 0 0.00016855817541618521 0.0083969071542090469 0 0.00037101757912403802 0.00866129788177121 0 0.00083074662539503344 0.0073982283605032494 0 0.00039307942725147395 0.0077686947500092488 0 0.0016742182890805743 0.010107074692320422 0 0.00037101757912403802 0.00866129788177121 0 0.00064870888681453577 0.0086865826803819816 0 0.00065074744041206903 0.008013047510717887 0 0.00016855817541618521 0.0083969071542090469 0 0.00037101757912403802 0.00866129788177121 0 0.00035028159589355469 0.0090972467857696835 0 0.00037101757912403802 0.00866129788177121 0 0.00051578950845007241 0.0088901799998064128 0 0.00064870888681453577 0.0086865826803819816 0 -0.001074350489094179 -0.0024388528264035086 0 -0.0016975002624644037 -0.0034624329427004087 0 -0.00067221971592521239 -0.0039892596253683285 0 8.2272419186363519e-05 -0.0032633469019353752 0 -0.001074350489094179 -0.0024388528264035086 0 -0.00067221971592521239 -0.0039892596253683285 0 -0.0012052521968645914 -0.0050774535823727056 0 0.00027652270268204701 -0.0055150037372322944 0 -0.00067221971592521239 -0.0039892596253683285 0 -0.0012052521968645914 -0.0050774535823727056 0 -0.0016975002624644037 -0.0034624329427004087 0 -0.00067221971592521239 -0.0039892596253683285 0 9.7401433198462404e-06 0.0094530094805283793 0 0.00016855817541618521 0.0083969071542090469 0 0.00035028159589355469 0.0090972467857696835 0 0.00038326885169075593 0.0097409760968216394 0 0.00035028159589355469 0.0090972467857696835 0 0.00058849405716216634 0.0092353619516471665 0 -0.0006011431835653032 0.0022477362637983219 0 -0.00075564957644595429 0.0021353165913810886 0 0.00037101757912403802 0.00866129788177121 0 0.00051578950845007241 0.0088901799998064128 0 0.00035028159589355469 0.0090972467857696835 0 0.00051578950845007241 0.0088901799998064128 0 0.00035028159589355469 0.0090972467857696835 0 0.00058849405716216634 0.0092353619516471665 0 0.00058849405716216634 0.0092353619516471665 0 0.00087048762666305291 0.0091584933380835665 0 0.00070560369797355478 0.0089180723101421385 0 0.00074819353701762814 0.0094930004995252351 0 0.00058849405716216634 0.0092353619516471665 0 0.00087048762666305291 0.0091584933380835665 0 0.00087048762666305291 0.0091584933380835665 0 0.0008960175468920317 0.0085687213442640405 0 0.0012189418718572083 0.0092535962298650135 0 0.002174826485767532 0.011119417275974873 0 0.0025444384324985075 0.011439733273278248 0 0.00087048762666305291 0.0091584933380835665 0 0.00070560369797355478 0.0089180723101421385 0 0.0008960175468920317 0.0085687213442640405 0 0.00108547055536891 0.009584849387187299 0 0.00087048762666305291 0.0091584933380835665 0 0.0012189418718572083 0.0092535962298650135 0 0.00108547055536891 0.009584849387187299 0 0.00074819353701762814 0.0094930004995252351 0 0.00087048762666305291 0.0091584933380835665 0 0.0021183401588265221 0.0099517436858828374 0 0.0025444384324985075 0.011439733273278248 0 0.00051578950845007241 0.0088901799998064128 0 0.00058849405716216634 0.0092353619516471665 0 0.00070560369797355478 0.0089180723101421385 0 0.00051578950845007241 0.0088901799998064128 0 0.00070560369797355478 0.0089180723101421385 0 0.00064870888681453577 0.0086865826803819816 0 0.00064870888681453577 0.0086865826803819816 0 0.0008960175468920317 0.0085687213442640405 0 0.00065074744041206903 0.008013047510717887 0 0.00070560369797355478 0.0089180723101421385 0 0.00064870888681453577 0.0086865826803819816 0 0.0008960175468920317 0.0085687213442640405 0 0.0033851694843372053 0.013478606565230143 0 0.0027551065007614382 0.013690306678535033 0 0.00287490890407022 0.012263032278337936 0 0.002174826485767532 0.011119417275974873 0 0.0016742182890805743 0.010107074692320422 0 0.0033851694843372053 0.013478606565230143 0 0.0027551065007614382 0.013690306678535033 0 0.003072454333554654 0.014271311896725805 0 0.0020570473624652247 0.01407182758672677 0 0.0027551065007614382 0.013690306678535033 0 0.00287490890407022 0.012263032278337936 0 0.0032256332248096252 0.014931318209488939 0 0.0025444384324985075 0.011439733273278248 0 0.0041770920265977833 0.01410305641550594 0 0.0041706942025445688 0.013713337622003972 0 0.004087753227072566 0.014021226401411341 0 0.0020570473624652247 0.01407182758672677 0 0.0027551065007614382 0.013690306678535033 0 0.0023846486611458048 0.01436142369467284 0 0.0027551065007614382 0.013690306678535033 0 0.003072454333554654 0.014271311896725805 0 0.0023846486611458048 0.01436142369467284 0 0.0041770920265977833 0.01410305641550594 0 0.0041706942025445688 0.013713337622003972 0 0.0044173319633444546 0.013557550325666537 0 0.0041934279231996717 0.013432783270906157 0 0.0041706942025445688 0.013713337622003972 0 0.0044173319633444546 0.013557550325666537 0 0.0039680992767382704 0.013470032360475755 0 0.0041934279231996717 0.013432783270906157 0 0.0041706942025445688 0.013713337622003972 0 0.0043513340722090878 0.014599972743859272 0 0.0037505516441449982 0.015348497966158737 0 0.0048061832403758975 0.016309802275692429 0 0.0039680992767382704 0.013470032360475755 0 0.0041706942025445688 0.013713337622003972 0 0.004087753227072566 0.014021226401411341 0 0.0041558305192674989 0.013733776315180451 0 0.0041814991858705238 0.016452992336482692 0 0.0050372579800633671 0.021037133338398233 0 0.0045704661197523951 0.020380883094406062 0 0.0047187205325152724 0.020367707607289939 0 0.0050372579800633671 0.021037133338398233 0 0.0043620420564963319 0.020446867649840682 0 0.0045704661197523951 0.020380883094406062 0 0.00492064473277176 0.020744737915700383 0 0.0038323844372604911 0.017645080806602573 0 0.0035300785130695303 0.014253919724042457 0 0.0043513340722090878 0.014599972743859272 0 0.0037505516441449982 0.015348497966158737 0 0.0052143626859566979 0.022865227238821766 0 0.00550821666042196 0.023242719404823895 0 0.0043620420564963319 0.020446867649840682 0 0.0045704661197523951 0.020380883094406062 0 0.0043666517086526149 0.019604181245595327 0 0.0045704661197523951 0.020380883094406062 0 0.0047231681891180726 0.020370094084606303 0 0.0043666517086526149 0.019604181245595327 0 0.00550821666042196 0.023242719404823895 0 0.0050890747986547854 0.022755138525325708 0 0.0038323844372604911 0.017645080806602573 0 0.0041814991858705238 0.016452992336482692 0 0.0043620420564963319 0.020446867649840682 0 0.0036764439514189733 0.019821788552738018 0 0.0043666517086526149 0.019604181245595327 0 0.0041814991858705238 0.016452992336482692 0 0.002866723100285649 0.01610982352115203 0 0.0032463292277081293 0.015768776625508449 0 0.0035209862360266013 0.016012935035209667 0 0.0033734607711391577 0.015493108720874716 0 0.0032256332248096252 0.014931318209488939 0 0.0041814991858705238 0.016452992336482692 0 0.002093098401243177 0.014827100768380282 0 0.0017784448861876577 0.015465408453500796 0 0.0023579075807025076 0.015720733360001033 0 0.003997703492488556 0.01935358094721876 0 0.0043666517086526149 0.019604181245595327 0 0.0040071682065113256 0.0188469587791502 0 0.0036764439514189733 0.019821788552738018 0 0.0035858576904143832 0.019484653771951792 0 0.003997703492488556 0.01935358094721876 0 0.0036764439514189733 0.019821788552738018 0 0.003997703492488556 0.01935358094721876 0 0.0043666517086526149 0.019604181245595327 0 0.0035858576904143832 0.019484653771951792 0 0.003997703492488556 0.01935358094721876 0 0.0038416535717921245 0.018946951379722927 0 0.002866723100285649 0.01610982352115203 0 0.0028536335869448013 0.018220236330928063 0 0.0054862367056927276 0.025378396262516326 0 0.0056446932908119389 0.025750929157780496 0 0.0052131007107351678 0.025717246379870076 0 0.0050890747986547854 0.022755138525325708 0 0.0031732589014223989 0.020513156658167671 0 0.0019247054571708273 0.01653182213631553 0 0.0014124229114291914 0.016874253669578287 0 0.001857386238098723 0.01676884954235059 0 0.0031732589014223989 0.020513156658167671 0 0.0033035929251598825 0.021347673148072718 0 0.0056446932908119389 0.025750929157780496 0 0.0052131007107351678 0.025717246379870076 0 0.0051353951937996778 0.026118556327089568 0 0.0017784448861876577 0.015465408453500796 0 0.0019394611276757432 0.015712005657495445 0 0.0023579075807025076 0.015720733360001033 0 0.0017784448861876577 0.015465408453500796 0 0.001608029659486154 0.015753328010433526 0 0.0019394611276757432 0.015712005657495445 0 0.003997703492488556 0.01935358094721876 0 0.0038416535717921245 0.018946951379722927 0 0.0040071682065113256 0.0188469587791502 0 0.0028536335869448013 0.018220236330928063 0 0.0031732589014223989 0.020513156658167671 0 0.0028536335869448013 0.018220236330928063 0 0.0022246862728276589 0.017268738892210068 0 0.0026779023568396843 0.018465206378274184 0 0.0020175122212895747 0.018873015403363839 0 0.0022469902398931283 0.019373860363934698 0 0.0031732589014223989 0.020513156658167671 0 0.0022246862728276589 0.017268738892210068 0 0.0019247054571708273 0.01653182213631553 0 0.0019519581441246033 0.016593411678875299 0 0.001857386238098723 0.01676884954235059 0 0.0022246862728276589 0.017268738892210068 0 0.0020768662532547263 0.016752335010413139 0 0.001608029659486154 0.015753328010433526 0 0.0019394611276757432 0.015712005657495445 0 0.0021790122795876353 0.016195691212239526 0 0.0023579075807025076 0.015720733360001033 0 0.0029987631199411727 0.015087923719278935 0 0.0031933759885845055 0.016313718079020649 0 0.0023579075807025076 0.015720733360001033 0 0.0031933759885845055 0.016313718079020649 0 0.0021790122795876353 0.016195691212239526 0 0.0019394611276757432 0.015712005657495445 0 0.0023579075807025076 0.015720733360001033 0 0.0021790122795876353 0.016195691212239526 0 -0.00045901451446779009 0.0040094049239974405 0 2.4384262198339997e-05 0.0080183005235346678 0 0.0016742182890805743 0.010107074692320422 0 0.0020952998979444971 0.013452196671917712 0 0.0015753135772017222 0.0087399361082101945 0 0.0013320298317253346 0.0081626650088836451 0 0.00074508992343005735 0.0098401256514651838 0 0.0029987631199411727 0.015087923719278935 0 0.0038554670445027812 0.014671829926705161 0 0.0031933759885845055 0.016313718079020649 0 0.0015753135772017222 0.0087399361082101945 0 0.00074508992343005735 0.0098401256514651838 0 0.001164447785855843 0.010100889688726198 0 0.0029987631199411727 0.015087923719278935 0 0.0038554670445027812 0.014671829926705161 0 0.003072454333554654 0.014271311896725805 0 0.0033851694843372053 0.013478606565230143 0 0.0038554670445027812 0.014671829926705161 0 0.003072454333554654 0.014271311896725805 0 0.002866723100285649 0.01610982352115203 0 0.0021062909541415013 0.01502879085657891 0 0.0029987631199411727 0.015087923719278935 0 0.003072454333554654 0.014271311896725805 0 0.0023846486611458048 0.01436142369467284 0 0.0019395384534339631 0.014390548489302378 0 0.0023579075807025076 0.015720733360001033 0 0.0023846486611458048 0.01436142369467284 0 0.0023579075807025076 0.015720733360001033 0 0.0029987631199411727 0.015087923719278935 0 0.0023846486611458048 0.01436142369467284 0 0.0032256332248096252 0.014931318209488939 0 0.0025283157462670323 0.014365511660699664 0 0.0020824116905113097 0.014094393208153311 0 0.0019395384534339631 0.014390548489302378 0 0.0023846486611458048 0.01436142369467284 0 0.0032256332248096252 0.014931318209488939 0 0.002866723100285649 0.01610982352115203 0 0.0034369656741852911 0.026011478587832964 0 0.0040403319841235529 0.025477107967369021 0 0.0030078756749575379 0.025811981394206589 0 0.0040501860882140202 0.02566719067302933 0 0.0034709829095809571 0.025247327616764986 0 0.0030620431398249814 0.025821116770776472 0 0.0040403319841235529 0.025477107967369021 0 0.0040501860882140202 0.02566719067302933 0 0.0034709829095809571 0.025247327616764986 0 0.0039475520934987227 0.025188413746641505 0 0.0038525339725490621 0.024606777305637657 0 0.0030878062154464135 0.024536750751983954 0 0.0034709829095809571 0.025247327616764986 0 0.0038525339725490621 0.024606777305637657 0 0.0034709829095809571 0.025247327616764986 0 0.0039475520934987227 0.025188413746641505 0 0.0038525339725490621 0.024606777305637657 0 0.0039475520934987227 0.025188413746641505 0 0.0044362396615051734 0.025139470448998544 0 0.0044287544904540333 0.024405929897028431 0 0.0038525339725490621 0.024606777305637657 0 0.0044362396615051734 0.025139470448998544 0 0.0040501860882140202 0.02566719067302933 0 0.0039475520934987227 0.025188413746641505 0 0.0044362396615051734 0.025139470448998544 0 0.0040403319841235529 0.025477107967369021 0 0.0043144392061480437 0.025251308305931718 0 0.0040528502198974295 0.025642957808312879 0 0.0044362396615051734 0.025139470448998544 0 0.0054776483859975619 0.025458461351617147 0 0.0044362396615051734 0.025139470448998544 0 0.0050368560908716749 0.02480705679990684 0 0.0054776483859975619 0.025458461351617147 0 0.0044287544904540333 0.024405929897028431 0 0.0044362396615051734 0.025139470448998544 0 0.0050368560908716749 0.02480705679990684 0 0.0041129431467851404 0.025012242345168557 0 0.0045503864047363347 0.025350033946292486 0 0.0047807203114704168 0.02502244319952495 0 0.0040403319841235529 0.025477107967369021 0 0.0052386394338535189 0.025438574854948728 0 0.0041129431467851404 0.025012242345168557 0 0.0045503864047363347 0.025350033946292486 0 0.004198075666436373 0.025610803327835267 0 0.0045503864047363347 0.025350033946292486 0 0.0047807203114704168 0.02502244319952495 0 0.0049829427730077661 0.025443153763985538 0 0.0050368560908716749 0.02480705679990684 0 0.0054776483859975619 0.025458461351617147 0 0.0057346942527078974 0.024698705099418426 0 0.0064539810205805773 0.024325060746380068 0 0.0068746001785702834 0.025267324341298775 0 0.0057346942527078974 0.024698705099418426 0 0.00550821666042196 0.023242719404823895 0 0.0052386394338535189 0.025438574854948728 0 0.00492064473277176 0.020744737915700383 0 0.00550821666042196 0.023242719404823895 0 0.0068746001785702834 0.025267324341298775 0 0.0054776483859975619 0.025458461351617147 0 0.0057346942527078974 0.024698705099418426 0 0.0053230350481207698 0.024971376806642132 0 0.0054862367056927276 0.025378396262516326 0 0.0049829427730077661 0.025443153763985538 0 0.0053230350481207698 0.024971376806642132 0 0.0047807203114704168 0.02502244319952495 0 0.0049829427730077661 0.025443153763985538 0 0.0049829427730077661 0.025443153763985538 0 0.0052131007107351678 0.025717246379870076 0 0.0047959903542790783 0.025890288441106503 0 0.0054862367056927276 0.025378396262516326 0 0.0049829427730077661 0.025443153763985538 0 0.0052131007107351678 0.025717246379870076 0 0.0052131007107351678 0.025717246379870076 0 0.0047959903542790783 0.025890288441106503 0 0.0051353951937996778 0.026118556327089568 0 0.0049829427730077661 0.025443153763985538 0 0.0047959903542790783 0.025890288441106503 0 0.0045966835194223912 0.025703139509119666 0 0.0045503864047363347 0.025350033946292486 0 0.0049829427730077661 0.025443153763985538 0 0.0045966835194223912 0.025703139509119666 0 0.0045503864047363347 0.025350033946292486 0 0.0045966835194223912 0.025703139509119666 0 0.004198075666436373 0.025610803327835267 0 0.0045966835194223912 0.025703139509119666 0 0.0043888500613537152 0.026048274768344818 0 0.004198075666436373 0.025610803327835267 0 0.0047959903542790783 0.025890288441106503 0 0.0043888500613537152 0.026048274768344818 0 0.0045245071427080707 0.026192138731255664 0 0.0047959903542790783 0.025890288441106503 0 0.0045966835194223912 0.025703139509119666 0 0.0043888500613537152 0.026048274768344818 0 0.0043511593256671107 0.025916247365935782 0 0.004924513846452057 0.027102573146848281 0 0.0043888500613537152 0.026048274768344818 0 0.0041631200904570344 0.026636868187463778 0 0.004809202997667782 0.026849923416241598 0 0.0043888500613537152 0.026048274768344818 0 0.0037112444444935776 0.026154103292880908 0 0.004198075666436373 0.025610803327835267 0 0.0043888500613537152 0.026048274768344818 0 0.0037112444444935776 0.026154103292880908 0 0.0041631200904570344 0.026636868187463778 0 0.0036091964006208285 0.025493041469235238 0 0.0041129431467851404 0.025012242345168557 0 0.004198075666436373 0.025610803327835267 0 0.0036091964006208285 0.025493041469235238 0 0.0037112444444935776 0.026154103292880908 0 0.004198075666436373 0.025610803327835267 0 0.0035402235294599905 0.027948982463057211 0 0.0038381873262730245 0.02779746509947682 0 0.0037154791991898225 0.027496950073225598 0 0.0035402235294599905 0.027948982463057211 0 0.0038381873262730245 0.02779746509947682 0 0.0039678689563935757 0.028034787640071661 0 0.0038381873262730245 0.02779746509947682 0 0.0039678689563935757 0.028034787640071661 0 0.0041244652608715847 0.027706389609214149 0 0.0039678689563935757 0.028034787640071661 0 0.0041244652608715847 0.027706389609214149 0 0.0041037079367265902 0.028222117313660026 0 0.0041244652608715847 0.027706389609214149 0 0.0037154791991898225 0.027496950073225598 0 0.0042843767678608933 0.027231245089912919 0 0.0038381873262730245 0.02779746509947682 0 0.0041244652608715847 0.027706389609214149 0 0.0037154791991898225 0.027496950073225598 0 0.0037112444444935776 0.026154103292880908 0 0.0037231269142615291 0.026952109873002426 0 0.0041631200904570344 0.026636868187463778 0 0.0037154791991898225 0.027496950073225598 0 0.0037231269142615291 0.026952109873002426 0 0.0042843767678608933 0.027231245089912919 0 0.0037231269142615291 0.026952109873002426 0 0.0041631200904570344 0.026636868187463778 0 0.0042843767678608933 0.027231245089912919 0 0.0042843767678608933 0.027231245089912919 0 0.004809202997667782 0.026849923416241598 0 0.0051248722975254547 0.027555318125802884 0 0.0041631200904570344 0.026636868187463778 0 0.0042843767678608933 0.027231245089912919 0 0.004809202997667782 0.026849923416241598 0 0.004924513846452057 0.027102573146848281 0 0.0034239492760237537 0.023370240271103602 0 0.0041244652608715847 0.027706389609214149 0 0.0042843767678608933 0.027231245089912919 0 0.0051248722975254547 0.027555318125802884 0 0.0023028247166590183 0.022087987123257415 0 0.0020668889477323728 0.021568147804619617 0 0.0031574069329351308 0.021576488026702496 0 0.0041244652608715847 0.027706389609214149 0 0.0051248722975254547 0.027555318125802884 0 0.0041037079367265902 0.028222117313660026 0 0.0034239492760237537 0.023370240271103602 0 0.0031908758726173613 0.023561855063429674 0 0.0047959903542790783 0.025890288441106503 0 0.0045245071427080707 0.026192138731255664 0 0.0051353951937996778 0.026118556327089568 0 0.0045245071427080707 0.026192138731255664 0 0.0046463452090189988 0.02643213081214061 0 0.0051353951937996778 0.026118556327089568 0 0.0009450375705411855 0.017236743416107109 0 0.0014124229114291914 0.016874253669578287 0 0.0012990791352584707 0.017212153411866306 0 0.0009450375705411855 0.017236743416107109 0 0.0012990791352584707 0.017212153411866306 0 0.0010486122267656824 0.017453927810624409 0 0.0034239492760237537 0.023370240271103602 0 0.00098567890365206011 0.018165184585632384 0 0.0034239492760237537 0.023370240271103602 0 0.0033035929251598825 0.021347673148072718 0 0.0014124229114291914 0.016874253669578287 0 0.0012990791352584707 0.017212153411866306 0 0.0016472367130167225 0.017090453726419732 0 0.0012990791352584707 0.017212153411866306 0 0.00145776261606083 0.017395503488400531 0 0.0016472367130167225 0.017090453726419732 0 0.0012990791352584707 0.017212153411866306 0 0.00145776261606083 0.017395503488400531 0 0.0010486122267656824 0.017453927810624409 0 0.00074992802555714968 0.015861557394060605 0 0.00074952050091883044 0.015854241311480003 0 0.00077023645225863038 0.015887055561207713 0 0.00075138865864899111 0.015855760040699555 0 0.00074992802555714968 0.015861557394060605 0 0.00077023645225863038 0.015887055561207713 0 0.0010790292419637047 0.01648909215417977 0 0.00098567890365206011 0.018165184585632384 0 0.00074952050091883044 0.015854241311480003 0 0.00076303045967716638 0.015850810476561394 0 0.00077023645225863038 0.015887055561207713 0 0.00074992802555714968 0.015861557394060605 0 0.00074952050091883044 0.015854241311480003 0 0.00073219105135520273 0.015847389262716553 0 0.00034214206563891534 0.016549506512111366 0 0.00084617620333247285 0.01598221108428274 0 0.00066958549233819148 0.016215739438730382 0 0.00082806437020019916 0.016251801914806269 0 0.00077657656387654546 0.016299586719317357 0 0.00074952050091883044 0.015854241311480003 0 0.00076303045967716638 0.015850810476561394 0 0.00072087323623690669 0.015832129609184533 0 0.00064930407931400053 0.016253470490893342 0 0.00051227192168420521 0.016246635048509171 0 0.00057655179069758761 0.016350074523980782 0 0.00034214206563891534 0.016549506512111366 0 0.0011382683464627708 0.017255018389747929 0 -0.00055996461556723199 0.017648683605809099 0 0.00040632737623688486 0.019795444003159395 0 0.0020702589965443654 0.018179783854967164 0 0.00034214206563891534 0.016549506512111366 0 0.00098567890365206011 0.018165184585632384 0 0.00040632737623688486 0.019795444003159395 0 0.0020702589965443654 0.018179783854967164 0 0.0031872078495667508 0.019770126676669157 0 0.00098567890365206011 0.018165184585632384 0 0.0031908758726173613 0.023561855063429674 0 0.0011382683464627708 0.017255018389747929 0 0.00073157436116637082 0.016906117926439715 0 0.0012878155161631165 0.018092344975054901 0 0.0014785656667567753 0.017860419352033301 0 0.0012880251544430141 0.017683026046458453 0 0.0011382683464627708 0.017255018389747929 0 0.0014203451238288026 0.017613456826953644 0 0.0012878155161631165 0.018092344975054901 0 0.0014282917270081272 0.018117209162769186 0 0.0014785656667567753 0.017860419352033301 0 0.0014282917270081272 0.018117209162769186 0 0.0014785656667567753 0.017860419352033301 0 0.001645736737344809 0.017968821494092652 0 0.0014282917270081272 0.018117209162769186 0 0.001645736737344809 0.017968821494092652 0 0.0015729318889285753 0.01819745854269483 0 0.0011382683464627708 0.017255018389747929 0 0.0031908758726173613 0.023561855063429674 0 0.0014282917270081272 0.018117209162769186 0 0.0015729318889285753 0.01819745854269483 0 0.001510249158160352 0.01840964536110146 0 0.0012930403601814065 0.018090053139314517 0 0.0014282917270081272 0.018117209162769186 0 0.001510249158160352 0.01840964536110146 0 0.0031908758726173613 0.023561855063429674 0 0.0035736886207789016 0.02515713569174647 0 0.0043601887444698426 0.025997832206170614 0 0.0031908758726173613 0.023561855063429674 0 0.0039678689563935757 0.028034787640071661 0 0.0041135490895568283 0.0282302751610163 0 0.0040046566058526464 0.028302942504050219 0 0.0035402235294599905 0.027948982463057211 0 0.0039678689563935757 0.028034787640071661 0 0.0040046566058526464 0.028302942504050219 0 0.0015729318889285753 0.01819745854269483 0 0.001510249158160352 0.01840964536110146 0 0.0015529034232379586 0.018378557627806272 0 0.00099937546324263982 0.013702063457102079 0 0.0020952998979444971 0.013452196671917712 0 2.3190718767247676e-05 0.0083543776827763924 0 2.4384262198339997e-05 0.0080183005235346678 0 -0.00084431212504396081 0.0051960387702810387 0 -0.0011772844786181243 0.0054871191819736492 0 -0.0010352899832994993 0.0049716928713158959 0 0.00099937546324263982 0.013702063457102079 0 2.3190718767247676e-05 0.0083543776827763924 0 0.00017775783579155794 0.011486957439858154 0 0.00076799332161116914 0.011436292118062016 0 0.00074508992343005735 0.0098401256514651838 0 -0.00084431212504396081 0.0051960387702810387 0 -0.00083683063790242933 0.0054436462709188151 0 -0.0011772844786181243 0.0054871191819736492 0 -0.0004087903681748989 0.0056006586204509264 0 2.3190718767247676e-05 0.0083543776827763924 0 0.00076799332161116914 0.011436292118062016 0 0.00074508992343005735 0.0098401256514651838 0 0.001164447785855843 0.010100889688726198 0 0.0026283168686793848 0.017446663147561121 0 0.0031933759885845055 0.016313718079020649 0 0.0021510751695040858 0.016866127124525024 0 0.0031933759885845055 0.016313718079020649 0 0.0021790122795876353 0.016195691212239526 0 0.0021510751695040858 0.016866127124525024 0 0.001608029659486154 0.015753328010433526 0 0.0021790122795876353 0.016195691212239526 0 0.0021510751695040858 0.016866127124525024 0 0.0022246862728276589 0.017268738892210068 0 0.0019278194153588219 0.016403072729117833 0 0.0019239627598655138 0.016623306095081006 0 0.001857386238098723 0.01676884954235059 0 0.0021510751695040858 0.016866127124525024 0 0.001857386238098723 0.01676884954235059 0 0.0021510751695040858 0.016866127124525024 0 0.0018802653701242651 0.017012066028048535 0 0.0014124229114291914 0.016874253669578287 0 0.001857386238098723 0.01676884954235059 0 0.0016472367130167225 0.017090453726419732 0 0.001857386238098723 0.01676884954235059 0 0.0016472367130167225 0.017090453726419732 0 0.0018802653701242651 0.017012066028048535 0 0.00145776261606083 0.017395503488400531 0 0.0016472367130167225 0.017090453726419732 0 0.0018849680337604268 0.017388104726895164 0 0.0016472367130167225 0.017090453726419732 0 0.0018802653701242651 0.017012066028048535 0 0.0018849680337604268 0.017388104726895164 0 0.0021510751695040858 0.016866127124525024 0 0.0018802653701242651 0.017012066028048535 0 0.0018849680337604268 0.017388104726895164 0 0.0026283168686793848 0.017446663147561121 0 0.0021510751695040858 0.016866127124525024 0 0.0018849680337604268 0.017388104726895164 0 0.00099937546324263982 0.013702063457102079 0 0.0015023000999545174 0.016839202475662667 0 0.00088982748152328266 0.015928642260519734 0 0.00042763587629131658 0.014130700435065828 0 0.00090983668990588505 0.015767867616994079 0 0.00082552835645150651 0.015802678413915919 0 0.00085491441876787446 0.015819826570234459 0 0.00081651320592668851 0.015844985576957859 0 0.00085491441876787446 0.015819826570234459 0 0.00088346917352993826 0.015839687937026666 0 0.00082552835645150651 0.015802678413915919 0 0.00081651320592668851 0.015844985576957859 0 0.00085491441876787446 0.015819826570234459 0 0.00074992802555714968 0.015861557394060605 0 0.00082552835645150651 0.015802678413915919 0 0.00081651320592668851 0.015844985576957859 0 0.00075138865864899111 0.015855760040699555 0 0.00074992802555714968 0.015861557394060605 0 0.00082552835645150651 0.015802678413915919 0 0.00070156378764896156 0.015842208061324459 0 0.00088982748152328266 0.015928642260519734 0 0.00074992802555714968 0.015861557394060605 0 0.00071455047986620265 0.015848357678407584 0 0.00073219105135520273 0.015847389262716553 0 0.0010790292419637047 0.01648909215417977 0 0.0015023000999545174 0.016839202475662667 0 0.00071455047986620265 0.015848357678407584 0 0.00072087323623690669 0.015832129609184533 0 0.00073219105135520273 0.015847389262716553 0 0.00074952050091883044 0.015854241311480003 0 0.00072087323623690669 0.015832129609184533 0 0.00073219105135520273 0.015847389262716553 0 0.00071455047986620265 0.015848357678407584 0 0.00072087323623690669 0.015832129609184533 0 0.00070798195627054202 0.01583476014016091 0 0.00071455047986620265 0.015848357678407584 0 0.00070798195627054202 0.01583476014016091 0 0.00070846129950825291 0.01581890900744181 0 0.00072087323623690669 0.015832129609184533 0 0.00070798195627054202 0.01583476014016091 0 0.00070308126572654779 0.015861072135005788 0 0.00070918979463045295 0.015837637479516064 0 0.00072176302099728632 0.015834133646493026 0 0.00070308126572654779 0.015861072135005788 0 0.00070798195627054202 0.01583476014016091 0 0.00070918979463045295 0.015837637479516064 0 0.00070308126572654779 0.015861072135005788 0 0.00070918979463045295 0.015837637479516064 0 0.00072176302099728632 0.015834133646493026 0 0.00071567742237626814 0.015819934438537631 0 0.00072176302099728632 0.015834133646493026 0 0.00077370372901968581 0.015848469773487372 0 0.00070308126572654779 0.015861072135005788 0 0.00072176302099728632 0.015834133646493026 0 0.0007319353519749846 0.01581335130146877 0 0.00077370372901968581 0.015848469773487372 0 0.00073037800448002644 0.015798960432445209 0 0.00071567742237626814 0.015819934438537631 0 0.00070846129950825291 0.01581890900744181 0 8.9014902147764866e-06 0.01167272390404764 0 0.00042763587629131658 0.014130700435065828 0 -0.00024495602673223752 0.013821474192598382 0 8.9014902147764866e-06 0.01167272390404764 0 0.0007319353519749846 0.01581335130146877 0 0.00073037800448002644 0.015798960432445209 0 0.00071567742237626814 0.015819934438537631 0 0.00072176302099728632 0.015834133646493026 0 0.0007319353519749846 0.01581335130146877 0 0.00071567742237626814 0.015819934438537631 0 0.00070798195627054202 0.01583476014016091 0 0.00070918979463045295 0.015837637479516064 0 0.00070910509777609052 0.015827921226642002 0 0.00070798195627054202 0.01583476014016091 0 0.00070910509777609052 0.015827921226642002 0 0.00070846129950825291 0.01581890900744181 0 0.00070918979463045295 0.015837637479516064 0 0.00070910509777609052 0.015827921226642002 0 0.00071567742237626814 0.015819934438537631 0 0.00070910509777609052 0.015827921226642002 0 0.00071567742237626814 0.015819934438537631 0 0.00070846129950825291 0.01581890900744181 0 5.6299486415326777e-05 0.011182416573072595 0 0.00028726700495113115 0.01254312765575092 0 -0.00036896341615684839 0.012410464296227962 0 5.6299486415326777e-05 0.011182416573072595 0 0.00070630122962557409 0.011128569937464626 0 0.00028726700495113115 0.01254312765575092 0 0.00099937546324263982 0.013702063457102079 0 0.00042763587629131658 0.014130700435065828 0 0.00090983668990588505 0.015767867616994079 0 0.00085491441876787446 0.015819826570234459 0 0.00088346917352993826 0.015839687937026666 0 -9.4877893144975099e-05 0.0061699372196694488 0 -0.00013119334391354553 0.0063199456297484873 0 -2.9421638661598614e-05 0.0062273627410304021 0 2.3190718767247676e-05 0.0083543776827763924 0 8.9014902147764866e-06 0.01167272390404764 0 -6.9912925479227624e-06 0.0061462412190831772 0 -9.4877893144975099e-05 0.0061699372196694488 0 -2.9421638661598614e-05 0.0062273627410304021 0 0.00090759035524716936 0.01584467547583495 0 0.00077370372901968581 0.015848469773487372 0 0.00086254577386457869 0.015954591490334877 0 0.00090759035524716936 0.01584467547583495 0 0.00074045025726280256 0.015770679970130048 0 0.00077370372901968581 0.015848469773487372 0 2.3541434203385893e-05 0.0062964392913975372 0 -0.00013119334391354553 0.0063199456297484873 0 -2.9421638661598614e-05 0.0062273627410304021 0 0.00050655104672212069 0.011005519098535142 0 8.9014902147764866e-06 0.01167272390404764 0 0.0007319353519749846 0.01581335130146877 0 0.00074045025726280256 0.015770679970130048 0 0.00077370372901968581 0.015848469773487372 0 0.00077263359620639827 0.016022518663362881 0 0.00087544399858511212 0.015970838185104648 0 0.00085330064369243711 0.016067483657021757 0 0.00084535301165194294 0.016113672794600964 0 0.00086254577386457869 0.015954591490334877 0 0.00077370372901968581 0.015848469773487372 0 0.00070308126572654779 0.015861072135005788 0 0.00086254577386457869 0.015954591490334877 0 0.00084535301165194294 0.016113672794600964 0 0.00084508243624922981 0.016180530014460136 0 0.00086254577386457869 0.015954591490334877 0 0.00085330064369243711 0.016067483657021757 0 0.00084489421426146285 0.016169868235188446 0 0.0008557963142936764 0.016151734813323177 0 0.00085330064369243711 0.016067483657021757 0 0.00084489421426146285 0.016169868235188446 0 0.00084535301165194294 0.016113672794600964 0 0.00084489421426146285 0.016169868235188446 0 0.000844129659933262 0.016195796798995334 0 0.00083621211487125793 0.016277468766206719 0 0.00084489421426146285 0.016169868235188446 0 0.00083621211487125793 0.016277468766206719 0 0.00084392846178259879 0.016232426034749302 0 0.00084489421426146285 0.016169868235188446 0 0.000844129659933262 0.016195796798995334 0 0.00084535301165194294 0.016113672794600964 0 0.000844129659933262 0.016195796798995334 0 0.00084535301165194294 0.016113672794600964 0 0.00084508243624922981 0.016180530014460136 0 0.00084617620333247285 0.01598221108428274 0 0.00077263359620639827 0.016022518663362881 0 0.00082806437020019916 0.016251801914806269 0 0.00084508243624922981 0.016180530014460136 0 0.00083754433886901278 0.016245936867095644 0 0.000844129659933262 0.016195796798995334 0 0.00084508243624922981 0.016180530014460136 0 0.00083754433886901278 0.016245936867095644 0 0.00082806437020019916 0.016251801914806269 0 0.00083754433886901278 0.016245936867095644 0 0.00081158069472738955 0.016320980038566354 0 0.00082806437020019916 0.016251801914806269 0 0.00077657656387654546 0.016299586719317357 0 0.00081158069472738955 0.016320980038566354 0 0.00077657656387654546 0.016299586719317357 0 0.00081158069472738955 0.016320980038566354 0 0.00075426662717625317 0.0163959666997643 0 0.00081158069472738955 0.016320980038566354 0 0.00080258121075041464 0.016413785519570321 0 0.00083621211487125793 0.016277468766206719 0 0.00081158069472738955 0.016320980038566354 0 0.00080258121075041464 0.016413785519570321 0 0.00075426662717625317 0.0163959666997643 0 0.000844129659933262 0.016195796798995334 0 0.00083754433886901278 0.016245936867095644 0 0.00083621211487125793 0.016277468766206719 0 0.00083754433886901278 0.016245936867095644 0 0.00081158069472738955 0.016320980038566354 0 0.00083621211487125793 0.016277468766206719 0 0.00083621211487125793 0.016277468766206719 0 0.00082425930469453115 0.016334459755666237 0 0.00084392846178259879 0.016232426034749302 0 0.00082425930469453115 0.016334459755666237 0 0.00085327072202695878 0.016247363478829296 0 0.00084392846178259879 0.016232426034749302 0 0.00080258121075041464 0.016413785519570321 0 0.00083621211487125793 0.016277468766206719 0 0.00082425930469453115 0.016334459755666237 0 0.00080258121075041464 0.016413785519570321 0 0.00082425930469453115 0.016334459755666237 0 0.00079935818872404021 0.016436902821471304 0 0.00082425930469453115 0.016334459755666237 0 0.00079935818872404021 0.016436902821471304 0 0.00082676770360300611 0.016371410885789032 0 0.00079935818872404021 0.016436902821471304 0 0.00082676770360300611 0.016371410885789032 0 0.00083231396720151972 0.016425487764698959 0 0.00082425930469453115 0.016334459755666237 0 0.00085327072202695878 0.016247363478829296 0 0.00083947943154332621 0.016310856534451086 0 0.00082425930469453115 0.016334459755666237 0 0.00082676770360300611 0.016371410885789032 0 0.00083947943154332621 0.016310856534451086 0 0.00085327072202695878 0.016247363478829296 0 0.0009088312907792733 0.016216574501471577 0 0.00083947943154332621 0.016310856534451086 0 0.00085327072202695878 0.016247363478829296 0 0.00087676634602002574 0.016164809671789283 0 0.0008557963142936764 0.016151734813323177 0 0.00085327072202695878 0.016247363478829296 0 0.00087676634602002574 0.016164809671789283 0 0.0009088312907792733 0.016216574501471577 0 0.00085330064369243711 0.016067483657021757 0 0.0008557963142936764 0.016151734813323177 0 0.00086723924668247957 0.016081808779670095 0 0.00087676634602002574 0.016164809671789283 0 0.0008557963142936764 0.016151734813323177 0 0.00086723924668247957 0.016081808779670095 0 0.00085327072202695878 0.016247363478829296 0 0.0008557963142936764 0.016151734813323177 0 0.00084392846178259879 0.016232426034749302 0 0.00084489421426146285 0.016169868235188446 0 0.0008557963142936764 0.016151734813323177 0 0.00084392846178259879 0.016232426034749302 0 0.0015926667441402784 0.017453719800615171 0 0.0014761530988807745 0.017567853599777299 0 0.0012457538581473516 0.017304810782395673 0 0.0016737830707179359 0.017697509546757008 0 0.0015926667441402784 0.017453719800615171 0 0.0014761530988807745 0.017567853599777299 0 0.0014889106202309471 0.017258552843777496 0 0.0012651365296069874 0.017322129992442516 0 0.0016737830707179359 0.017697509546757008 0 0.0014785656667567753 0.017860419352033301 0 0.001645736737344809 0.017968821494092652 0 0.0016737830707179359 0.017697509546757008 0 0.0014785656667567753 0.017860419352033301 0 0.0014761530988807745 0.017567853599777299 0 0.0014785656667567753 0.017860419352033301 0 0.0014761530988807745 0.017567853599777299 0 0.0012880251544430141 0.017683026046458453 0 0.0014761530988807745 0.017567853599777299 0 0.0012880251544430141 0.017683026046458453 0 0.0012457538581473516 0.017304810782395673 0 0.0012878155161631165 0.018092344975054901 0 0.0012880251544430141 0.017683026046458453 0 0.00093749058134750098 0.017529554365888815 0 0.0012880251544430141 0.017683026046458453 0 0.0012457538581473516 0.017304810782395673 0 0.00093749058134750098 0.017529554365888815 0 0.0014748981215089148 0.017017935940625572 0 0.0012457538581473516 0.017304810782395673 0 0.0012520874348135632 0.016832073917134358 0 0.0012457538581473516 0.017304810782395673 0 0.0009582739676572854 0.016960491640537079 0 0.0012520874348135632 0.016832073917134358 0 0.0009582739676572854 0.016960491640537079 0 0.00093749058134750098 0.017529554365888815 0 0.00071202981626011298 0.016610919771404654 0 0.00073157436116637082 0.016906117926439715 0 0.00072421000202294028 0.01667521452265008 0 0.0012457538581473516 0.017304810782395673 0 0.0009582739676572854 0.016960491640537079 0 0.00093749058134750098 0.017529554365888815 0 0.00064930407931400053 0.016253470490893342 0 0.00057655179069758761 0.016350074523980782 0 0.00075426662717625317 0.0163959666997643 0 0.00034214206563891534 0.016549506512111366 0 0.00080887477957095576 0.016291033457357065 0 0.00066958549233819148 0.016215739438730382 0 0.00077657656387654546 0.016299586719317357 0 0.00075426662717625317 0.0163959666997643 0 0.00080258121075041464 0.016413785519570321 0 0.00075426662717625317 0.0163959666997643 0 0.00071202981626011298 0.016610919771404654 0 0.00057655179069758761 0.016350074523980782 0 0.00075426662717625317 0.0163959666997643 0 0.00071202981626011298 0.016610919771404654 0 0.00080258121075041464 0.016413785519570321 0 0.00079935818872404021 0.016436902821471304 0 0.00071202981626011298 0.016610919771404654 0 0.00071202981626011298 0.016610919771404654 0 0.00080085844210703717 0.016495176082922589 0 0.0008626459848843917 0.016535592899135788 0 0.00079935818872404021 0.016436902821471304 0 0.00071202981626011298 0.016610919771404654 0 0.00080085844210703717 0.016495176082922589 0 0.00079935818872404021 0.016436902821471304 0 0.00080085844210703717 0.016495176082922589 0 0.00083231396720151972 0.016425487764698959 0 0.00083231396720151972 0.016425487764698959 0 0.00085824404040738369 0.016455489478681681 0 0.00087556566532172287 0.016432963709232588 0 0.00080085844210703717 0.016495176082922589 0 0.00083231396720151972 0.016425487764698959 0 0.00085824404040738369 0.016455489478681681 0 0.00080085844210703717 0.016495176082922589 0 0.00085824404040738369 0.016455489478681681 0 0.0008626459848843917 0.016535592899135788 0 0.00085824404040738369 0.016455489478681681 0 0.00091027476125794251 0.016477340090743392 0 0.0008626459848843917 0.016535592899135788 0 0.00085824404040738369 0.016455489478681681 0 0.00091027476125794251 0.016477340090743392 0 0.00090466848915325563 0.016454665128624594 0 0.00091027476125794251 0.016477340090743392 0 0.00094184322034388706 0.016469613609005059 0 0.00090466848915325563 0.016454665128624594 0 0.0009582739676572854 0.016960491640537079 0 0.00071202981626011298 0.016610919771404654 0 0.0008626459848843917 0.016535592899135788 0 0.0009582739676572854 0.016960491640537079 0 0.0008626459848843917 0.016535592899135788 0 0.0010283342961383247 0.016540374332690021 0 0.00091027476125794251 0.016477340090743392 0 0.0008626459848843917 0.016535592899135788 0 0.0010283342961383247 0.016540374332690021 0 0.00096080680968972231 0.016948777163992196 0 0.0011194146750447889 0.016719712326740733 0 0.00091027476125794251 0.016477340090743392 0 0.0010283342961383247 0.016540374332690021 0 0.00094184322034388706 0.016469613609005059 0 0.0011194146750447889 0.016719712326740733 0 0.0012202208589235971 0.016614171569882638 0 0.0010283342961383247 0.016540374332690021 0 0.00097051782760921841 0.016485477975933475 0 0.00094184322034388706 0.016469613609005059 0 0.0014920753185465195 0.016815886301180489 0 0.0014525984160910317 0.016856839211134136 0 0.0014147342393694984 0.016789581912939017 0 0.0012520874348135632 0.016832073917134358 0 0.0014525984160910317 0.016856839211134136 0 0.0014147342393694984 0.016789581912939017 0 0.0014748981215089148 0.017017935940625572 0 0.0012520874348135632 0.016832073917134358 0 0.0014525984160910317 0.016856839211134136 0 0.00075634556135248507 0.01676578535657702 0 0.00078081511901175057 0.016816344460130171 0 0.00082667695673616819 0.016711270491320502 0 0.0010230006619168636 0.0167056163992284 0 0.00085935970678723483 0.016582568173057213 0 0.00078081511901175057 0.016816344460130171 0 0.00082667695673616819 0.016711270491320502 0 0.00083787685852630266 0.016789267955200023 0 0.00096907691412831648 0.016474309807216623 0 0.00097051782760921841 0.016485477975933475 0 0.00093665442428543305 0.016472756676835638 0 0.0014920753185465195 0.016815886301180489 0 0.001479663795325298 0.016761710612389111 0 0.0014147342393694984 0.016789581912939017 0 0.0010230006619168636 0.0167056163992284 0 0.0012202208589235971 0.016614171569882638 0 0.00094184322034388706 0.016469613609005059 0 0.00093665442428543305 0.016472756676835638 0 0.00092136862556589216 0.016476359162934825 0 0.00097051782760921841 0.016485477975933475 0 0.00094184322034388706 0.016469613609005059 0 0.00093665442428543305 0.016472756676835638 0 0.00085935970678723483 0.016582568173057213 0 0.00094273195769597139 0.016568382643368903 0 0.00093665442428543305 0.016472756676835638 0 0.00091734757965988042 0.016551416105425282 0 0.00092136862556589216 0.016476359162934825 0 0.00082667695673616819 0.016711270491320502 0 0.00087293977016769436 0.01668993648093944 0 0.00091734757965988042 0.016551416105425282 0 0.00082667695673616819 0.016711270491320502 0 0.00087293977016769436 0.01668993648093944 0 0.00083787685852630266 0.016789267955200023 0 0.00087293977016769436 0.01668993648093944 0 0.00092796601038496677 0.016664959557087636 0 0.00091734757965988042 0.016551416105425282 0 0.00092796601038496677 0.016664959557087636 0 0.00094382086819243391 0.016589737944726454 0 0.00098645018239219232 0.016660829327280236 0 0.00094382086819243391 0.016589737944726454 0 0.00094670393257068562 0.016483782469529758 0 0.00098645018239219232 0.016660829327280236 0 0.00092796601038496677 0.016664959557087636 0 0.00094382086819243391 0.016589737944726454 0 0.00091734757965988042 0.016551416105425282 0 0.00094382086819243391 0.016589737944726454 0 0.00094670393257068562 0.016483782469529758 0 0.00091734757965988042 0.016551416105425282 0 0.00094670393257068562 0.016483782469529758 0 0.00091734757965988042 0.016551416105425282 0 0.00092136862556589216 0.016476359162934825 0 0.00094184322034388706 0.016469613609005059 0 0.00092136862556589216 0.016476359162934825 0 0.00090466848915325563 0.016454665128624594 0 0.00092136862556589216 0.016476359162934825 0 0.00090466848915325563 0.016454665128624594 0 0.00091262157229143675 0.016454706540750201 0 0.00094670393257068562 0.016483782469529758 0 0.00092136862556589216 0.016476359162934825 0 0.00091262157229143675 0.016454706540750201 0 0.00091262157229143675 0.016454706540750201 0 0.00087556566532172287 0.016432963709232588 0 0.00089651493555411232 0.016437635225165611 0 0.00090466848915325563 0.016454665128624594 0 0.00091262157229143675 0.016454706540750201 0 0.00087556566532172287 0.016432963709232588 0 0.00085824404040738369 0.016455489478681681 0 0.00090466848915325563 0.016454665128624594 0 0.00087556566532172287 0.016432963709232588 0 0.00083231396720151972 0.016425487764698959 0 0.00087556566532172287 0.016432963709232588 0 0.00084434954625487292 0.016400575528550218 0 0.00087556566532172287 0.016432963709232588 0 0.00089651493555411232 0.016437635225165611 0 0.00085888179565494702 0.016394511938557101 0 0.00090891332615776683 0.016502193721086553 0 0.0011399239575399934 0.016460079038738522 0 0.00094670393257068562 0.016483782469529758 0 0.00088718281159338736 0.016407343281456818 0 0.00088573377888783269 0.016334944243319598 0 0.00094670393257068562 0.016483782469529758 0 0.00098645018239219232 0.016660829327280236 0 0.0010826520517399144 0.016764340611524094 0 0.00089651493555411232 0.016437635225165611 0 0.00088718281159338736 0.016407343281456818 0 0.00085888179565494702 0.016394511938557101 0 0.00094670393257068562 0.016483782469529758 0 0.00091262157229143675 0.016454706540750201 0 0.00089651493555411232 0.016437635225165611 0 0.00094670393257068562 0.016483782469529758 0 0.00089651493555411232 0.016437635225165611 0 0.00088718281159338736 0.016407343281456818 0 0.00088718281159338736 0.016407343281456818 0 0.00085888179565494702 0.016394511938557101 0 0.00086657953331496275 0.016369851880097337 0 0.00088718281159338736 0.016407343281456818 0 0.00088573377888783269 0.016334944243319598 0 0.00086657953331496275 0.016369851880097337 0 0.00098645018239219232 0.016660829327280236 0 0.001005916974182399 0.016762797084751636 0 0.0010826520517399144 0.016764340611524094 0 0.001005916974182399 0.016762797084751636 0 0.0010826520517399144 0.016764340611524094 0 0.0010297057373244694 0.016812387290390935 0 0.001005916974182399 0.016762797084751636 0 0.0010297057373244694 0.016812387290390935 0 0.00097141468528456052 0.016809626298146873 0 0.0011399239575399934 0.016460079038738522 0 0.0016168321786622568 0.015632980052137257 0 0.0010826520517399144 0.016764340611524094 0 0.0010507648551936605 0.016840073169409133 0 0.0010796793413381386 0.016804431125560609 0 0.0010826520517399144 0.016764340611524094 0 0.0010507648551936605 0.016840073169409133 0 0.0010297057373244694 0.016812387290390935 0 0.0010507648551936605 0.016840073169409133 0 0.0010061342993138865 0.016868117043758672 0 0.0010297057373244694 0.016812387290390935 0 0.0010061342993138865 0.016868117043758672 0 0.0010297057373244694 0.016812387290390935 0 0.00097141468528456052 0.016809626298146873 0 0.0010061342993138865 0.016868117043758672 0 0.00097141468528456052 0.016809626298146873 0 0.00094479550624578673 0.016901327344345532 0 0.00097141468528456052 0.016809626298146873 0 0.0008933128096952033 0.01685521542652638 0 0.00094479550624578673 0.016901327344345532 0 0.00097141468528456052 0.016809626298146873 0 0.00090428656877403484 0.016755968537440488 0 0.0008933128096952033 0.01685521542652638 0 0.001005916974182399 0.016762797084751636 0 0.00097141468528456052 0.016809626298146873 0 0.00095910719190146993 0.016730809383153987 0 0.00097141468528456052 0.016809626298146873 0 0.00090428656877403484 0.016755968537440488 0 0.00095910719190146993 0.016730809383153987 0 0.00098645018239219232 0.016660829327280236 0 0.001005916974182399 0.016762797084751636 0 0.00095910719190146993 0.016730809383153987 0 0.00092796601038496677 0.016664959557087636 0 0.00098645018239219232 0.016660829327280236 0 0.00095910719190146993 0.016730809383153987 0 0.00092796601038496677 0.016664959557087636 0 0.00090428656877403484 0.016755968537440488 0 0.00095910719190146993 0.016730809383153987 0 0.00087293977016769436 0.01668993648093944 0 0.00092796601038496677 0.016664959557087636 0 0.00090428656877403484 0.016755968537440488 0 0.00087293977016769436 0.01668993648093944 0 0.00090428656877403484 0.016755968537440488 0 0.00083787685852630266 0.016789267955200023 0 0.00090428656877403484 0.016755968537440488 0 0.00083787685852630266 0.016789267955200023 0 0.0008933128096952033 0.01685521542652638 0 0.0008933128096952033 0.01685521542652638 0 0.00083158570459213152 0.016894711381263437 0 0.00088170602599750212 0.016950366244558496 0 0.00083787685852630266 0.016789267955200023 0 0.0008933128096952033 0.01685521542652638 0 0.00083158570459213152 0.016894711381263437 0 0.00083158570459213152 0.016894711381263437 0 0.00078616456968579561 0.016914628282331683 0 0.00080491245240814347 0.016976012193958886 0 0.00083158570459213152 0.016894711381263437 0 0.00078616456968579561 0.016914628282331683 0 0.00079857525155553144 0.016852169909047959 0 0.00078081511901175057 0.016816344460130171 0 0.00083787685852630266 0.016789267955200023 0 0.00079857525155553144 0.016852169909047959 0 0.00083787685852630266 0.016789267955200023 0 0.00083158570459213152 0.016894711381263437 0 0.00079857525155553144 0.016852169909047959 0 0.00074930743520237951 0.016900604154614474 0 0.00078616456968579561 0.016914628282331683 0 0.00079857525155553144 0.016852169909047959 0 0.00074930743520237951 0.016900604154614474 0 0.00078081511901175057 0.016816344460130171 0 0.00079857525155553144 0.016852169909047959 0 0.00088090824252840233 0.016347908701773401 0 0.00084500569981390584 0.016334301328239077 0 0.00085377484676218485 0.016352919578611156 0 0.00088090824252840233 0.016347908701773401 0 0.0009088312907792733 0.016216574501471577 0 0.00084500569981390584 0.016334301328239077 0 0.00081370561358910689 0.016547771896858261 0 0.00096965011978934735 0.0160739245624936 0 0.0010316412142247959 0.016056829798600236 0 0.00091513534212921436 0.016108516285617585 0 0.0009088312907792733 0.016216574501471577 0 0.0010316412142247959 0.016056829798600236 0 0.00091513534212921436 0.016108516285617585 0 0.00096704858192897883 0.015997300315614794 0 0.00091513534212921436 0.016108516285617585 0 0.00096704858192897883 0.015997300315614794 0 0.00089945503637795562 0.016035029856579144 0 0.00091513534212921436 0.016108516285617585 0 0.0009088312907792733 0.016216574501471577 0 0.00088367819439021057 0.016150254083021655 0 0.00087676634602002574 0.016164809671789283 0 0.0009088312907792733 0.016216574501471577 0 0.00088367819439021057 0.016150254083021655 0 0.0009088312907792733 0.016216574501471577 0 0.00083947943154332621 0.016310856534451086 0 0.00084500569981390584 0.016334301328239077 0 0.00083947943154332621 0.016310856534451086 0 0.00083760900759662093 0.016366922284867386 0 0.00084500569981390584 0.016334301328239077 0 0.00082676770360300611 0.016371410885789032 0 0.00083947943154332621 0.016310856534451086 0 0.00083760900759662093 0.016366922284867386 0 0.00082676770360300611 0.016371410885789032 0 0.00083231396720151972 0.016425487764698959 0 0.00084434954625487292 0.016400575528550218 0 0.00082676770360300611 0.016371410885789032 0 0.00084434954625487292 0.016400575528550218 0 0.00083760900759662093 0.016366922284867386 0 0.00084434954625487292 0.016400575528550218 0 0.00083760900759662093 0.016366922284867386 0 0.00085888179565494702 0.016394511938557101 0 0.00087556566532172287 0.016432963709232588 0 0.00084434954625487292 0.016400575528550218 0 0.00085888179565494702 0.016394511938557101 0 0.00083760900759662093 0.016366922284867386 0 0.00085888179565494702 0.016394511938557101 0 0.00084445052498556084 0.016360935963149498 0 0.00085888179565494702 0.016394511938557101 0 0.00084445052498556084 0.016360935963149498 0 0.00085246310924990483 0.016356928335503278 0 0.00085888179565494702 0.016394511938557101 0 0.00086657953331496275 0.016369851880097337 0 0.00085246310924990483 0.016356928335503278 0 0.00084500569981390584 0.016334301328239077 0 0.00084445052498556084 0.016360935963149498 0 0.00085377484676218485 0.016352919578611156 0 0.00083760900759662093 0.016366922284867386 0 0.00084500569981390584 0.016334301328239077 0 0.00084445052498556084 0.016360935963149498 0 0.00084445052498556084 0.016360935963149498 0 0.00085377484676218485 0.016352919578611156 0 0.00085246310924990483 0.016356928335503278 0 0.00085377484676218485 0.016352919578611156 0 0.00085678132782709515 0.016342487775208619 0 0.00086477849419297286 0.016347546338160098 0 0.00085377484676218485 0.016352919578611156 0 0.00085246310924990483 0.016356928335503278 0 0.00085678132782709515 0.016342487775208619 0 0.00086335851186247346 0.016344604008373256 0 0.00087264220305463124 0.016330587383180207 0 0.00085678132782709515 0.016342487775208619 0 0.00088573377888783269 0.016334944243319598 0 0.00086657953331496275 0.016369851880097337 0 0.00086335851186247346 0.016344604008373256 0 0.00086657953331496275 0.016369851880097337 0 0.00085246310924990483 0.016356928335503278 0 0.00086335851186247346 0.016344604008373256 0 0.00085246310924990483 0.016356928335503278 0 0.00086335851186247346 0.016344604008373256 0 0.00085678132782709515 0.016342487775208619 0 0.00088573377888783269 0.016334944243319598 0 0.00086335851186247346 0.016344604008373256 0 0.00087264220305463124 0.016330587383180207 0 0.0026924859761934942 0.014522375149776799 0 0.0021475072158226569 0.014516619362702132 0 0.0024235406344660223 0.014090865365533212 0 0.0016168321786622568 0.015632980052137257 0 0.0014406020841936703 0.01542651004209728 0 0.0016168321786622568 0.015632980052137257 0 0.0017351812279741538 0.015944816586623729 0 0.0010507648551936605 0.016840073169409133 0 0.0010796793413381386 0.016804431125560609 0 0.0010943180215880943 0.01685181809819401 0 0.0021475072158226569 0.014516619362702132 0 0.0015999994704254234 0.014510393581767067 0 0.0017834219192470354 0.013940138676329348 0 0.0021475072158226569 0.014516619362702132 0 0.0017834219192470354 0.013940138676329348 0 0.0024235406344660223 0.014090865365533212 0 0.0014406020841936703 0.01542651004209728 0 0.0017900951531722032 0.014554873165109167 0 0.002730771830591029 0.010884272468708598 0 0.0030307458214860182 0.011187099172107395 0 0.0023235941230167882 0.011171640737384976 0 0.0017900951531722032 0.014554873165109167 0 0.0026706415522006616 0.011731880459416612 0 0.002730771830591029 0.010884272468708598 0 0.0030307458214860182 0.011187099172107395 0 0.0032535258258211499 0.010496783159979621 0 0.0017900951531722032 0.014554873165109167 0 0.0017027119295570472 0.013547469049506645 0 0.00081370561358910689 0.016547771896858261 0 0.0017900951531722032 0.014554873165109167 0 0.0010316412142247959 0.016056829798600236 0 0.0010957212312620226 0.015897320064903079 0 0.00096704858192897883 0.015997300315614794 0 0.00088090824252840233 0.016347908701773401 0 0.00085377484676218485 0.016352919578611156 0 0.00086477849419297286 0.016347546338160098 0 0.0010957212312620226 0.015897320064903079 0 0.00096704858192897883 0.015997300315614794 0 0.0009696702189827067 0.015908519444045307 0 0.00096704858192897883 0.015997300315614794 0 0.00091831693316086083 0.015971028000444049 0 0.00089945503637795562 0.016035029856579144 0 0.00096704858192897883 0.015997300315614794 0 0.0009696702189827067 0.015908519444045307 0 0.00091831693316086083 0.015971028000444049 0 0.002730771830591029 0.010884272468708598 0 0.0023235941230167882 0.011171640737384976 0 0.0025179504231096499 0.010497866059348257 0 0.0023235941230167882 0.011171640737384976 0 0.0019025230754035802 0.010791197546575223 0 0.0025179504231096499 0.010497866059348257 0 0.0023235941230167882 0.011171640737384976 0 0.0019025230754035802 0.010791197546575223 0 0.0015879042072620508 0.011173045657819987 0 0.0017027119295570472 0.013547469049506645 0 0.0011960345991215298 0.012237274909456428 0 0.0019025230754035802 0.010791197546575223 0 0.0016190999396717715 0.011116267066124039 0 0.0016711098345688672 0.010558707673843445 0 0.0020527396505705606 0.010768673828882884 0 0.0011960345991215298 0.012237274909456428 0 0.0016190999396717715 0.011116267066124039 0 0.0013345500755739021 0.010612435802138102 0 0.0016711098345688672 0.010558707673843445 0 0.0016190999396717715 0.011116267066124039 0 0.0010398630148786311 0.01110201812835917 0 0.0013345500755739021 0.010612435802138102 0 0.0011960345991215298 0.012237274909456428 0 0.001242635372475796 0.011173499129630048 0 0.0010398630148786311 0.01110201812835917 0 0.00086834491110902054 0.010521283738428101 0 0.0013345500755739021 0.010612435802138102 0 0.0016105224171540315 0.01111616640444269 0 0.0010398630148786311 0.01110201812835917 0 0.0012263238704541136 0.011585869516827128 0 0.0011960345991215298 0.012237274909456428 0 0.00085630638872024483 0.01400461506135278 0 0.0010398630148786311 0.01110201812835917 0 0.00089010622138779784 0.011521773106105863 0 0.0012263238704541136 0.011585869516827128 0 0.00089010622138779784 0.011521773106105863 0 0.0012263238704541136 0.011585869516827128 0 0.0008222629930397748 0.012101138954390103 0 0.0009696702189827067 0.015908519444045307 0 0.00087631485749010301 0.015919780878368602 0 0.00091831693316086083 0.015971028000444049 0 0.00088028055826067748 0.015991677897639372 0 0.00089945503637795562 0.016035029856579144 0 0.00086918278180573964 0.01603408982123445 0 0.00084433428442322268 0.016006870297800679 0 0.00088028055826067748 0.015991677897639372 0 0.00086918278180573964 0.01603408982123445 0 0.00088028055826067748 0.015991677897639372 0 0.00091831693316086083 0.015971028000444049 0 0.00089945503637795562 0.016035029856579144 0 0.00087631485749010301 0.015919780878368602 0 0.00088028055826067748 0.015991677897639372 0 0.00091831693316086083 0.015971028000444049 0 0.00087631485749010301 0.015919780878368602 0 0.00084433428442322268 0.016006870297800679 0 0.00088028055826067748 0.015991677897639372 0 -0.00013320876150347996 0.0109145298698971 0 -0.0004789588073304142 0.01060965098577951 0 -8.2942463287709607e-05 0.010397684208280999 0 -0.00013320876150347996 0.0109145298698971 0 0.00020864818004694559 0.0106693976561345 0 -8.2942463287709607e-05 0.010397684208280999 0 -0.00013320876150347996 0.0109145298698971 0 0.00025689563102846769 0.011087988181831258 0 -5.6879916790632907e-05 0.011432833962349445 0 -0.00013320876150347996 0.0109145298698971 0 0.00020864818004694559 0.0106693976561345 0 0.00025689563102846769 0.011087988181831258 0 0.00025689563102846769 0.011087988181831258 0 0.00055546906152946669 0.010821136651094451 0 0.00062650834492660856 0.011238223924057933 0 0.00020864818004694559 0.0106693976561345 0 0.00025689563102846769 0.011087988181831258 0 0.00055546906152946669 0.010821136651094451 0 0.00020864818004694559 0.0106693976561345 0 0.00055546906152946669 0.010821136651094451 0 0.00038477560200414886 0.010334551708523996 0 0.0010398630148786311 0.01110201812835917 0 0.00055546906152946669 0.010821136651094451 0 0.00086834491110902054 0.010521283738428101 0 0.0010398630148786311 0.01110201812835917 0 0.00055546906152946669 0.010821136651094451 0 0.00062650834492660856 0.011238223924057933 0 0.0010398630148786311 0.01110201812835917 0 0.00089010622138779784 0.011521773106105863 0 0.00062650834492660856 0.011238223924057933 0 0.00089010622138779784 0.011521773106105863 0 0.00062650834492660856 0.011238223924057933 0 0.00059561356091033992 0.011741440451810893 0 0.00062650834492660856 0.011238223924057933 0 0.0003392401227023423 0.011448640696464726 0 0.00059561356091033992 0.011741440451810893 0 0.0003392401227023423 0.011448640696464726 0 0.00019199427007653087 0.011785877227031321 0 0.00059561356091033992 0.011741440451810893 0 0.00025689563102846769 0.011087988181831258 0 0.00062650834492660856 0.011238223924057933 0 0.0003392401227023423 0.011448640696464726 0 0.00025689563102846769 0.011087988181831258 0 0.0003392401227023423 0.011448640696464726 0 -5.6879916790632907e-05 0.011432833962349445 0 0.0003392401227023423 0.011448640696464726 0 -5.6879916790632907e-05 0.011432833962349445 0 0.00019199427007653087 0.011785877227031321 0 -5.6879916790632907e-05 0.011432833962349445 0 -0.00014341810071074324 0.011833641016618764 0 0.00019199427007653087 0.011785877227031321 0 -5.6879916790632907e-05 0.011432833962349445 0 -0.00014341810071074324 0.011833641016618764 0 -0.00055395876175244748 0.011681504809161473 0 -0.00013320876150347996 0.0109145298698971 0 -5.6879916790632907e-05 0.011432833962349445 0 -0.00046085445003524834 0.011309407176795946 0 1.9409865572915369e-05 0.012184373277461113 0 -0.00024459262432775976 0.012558639142283043 0 -0.00038563682218169959 0.012103046470006101 0 1.9409865572915369e-05 0.012184373277461113 0 -0.00014341810071074324 0.011833641016618764 0 -0.00038563682218169959 0.012103046470006101 0 1.9409865572915369e-05 0.012184373277461113 0 -0.00014341810071074324 0.011833641016618764 0 0.00019199427007653087 0.011785877227031321 0 1.9409865572915369e-05 0.012184373277461113 0 0.00019199427007653087 0.011785877227031321 0 0.00039545469959953743 0.012084878380484176 0 1.9409865572915369e-05 0.012184373277461113 0 0.00039545469959953743 0.012084878380484176 0 0.0004651663511859398 0.012640413230618304 0 0.00039545469959953743 0.012084878380484176 0 0.00086214840439235172 0.012040828809930081 0 0.0004651663511859398 0.012640413230618304 0 0.00019199427007653087 0.011785877227031321 0 0.00039545469959953743 0.012084878380484176 0 0.00059561356091033992 0.011741440451810893 0 0.00089010622138779784 0.011521773106105863 0 0.00059561356091033992 0.011741440451810893 0 0.00086214840439235172 0.012040828809930081 0 0.00039545469959953743 0.012084878380484176 0 0.00059561356091033992 0.011741440451810893 0 0.00086214840439235172 0.012040828809930081 0 0.0012702877735000482 0.012019250635302644 0 0.0011754921561050334 0.013022048494017769 0 0.00070245763928197065 0.012684551762833438 0 0.00089015040878732835 0.013184166262802768 0 0.0010468740715901459 0.014734266899872327 0 0.00089015040878732835 0.013184166262802768 0 0.00067092553773413267 0.012516235857075998 0 0.0011754921561050334 0.013022048494017769 0 0.00070245763928197065 0.012684551762833438 0 0.00067507885851411577 0.013270587327137687 0 1.9409865572915369e-05 0.012184373277461113 0 0.0004651663511859398 0.012640413230618304 0 -0.00024459262432775976 0.012558639142283043 0 0.0004651663511859398 0.012640413230618304 0 3.0030035358041214e-05 0.01338214755814634 0 -0.00024459262432775976 0.012558639142283043 0 0.00091513534212921436 0.016108516285617585 0 0.00087640246465274974 0.016095363646045371 0 0.00089945503637795562 0.016035029856579144 0 0.00087640246465274974 0.016095363646045371 0 0.00089945503637795562 0.016035029856579144 0 0.00086918278180573964 0.01603408982123445 0 0.00087640246465274974 0.016095363646045371 0 0.00086918278180573964 0.01603408982123445 0 0.00086182227889764265 0.016063434055579407 0 0.00084433428442322268 0.016006870297800679 0 0.00086918278180573964 0.01603408982123445 0 0.00086182227889764265 0.016063434055579407 0 0.00084433428442322268 0.016006870297800679 0 0.00084647065807709053 0.01606320807018834 0 0.00086182227889764265 0.016063434055579407 0 0.00094256510454316853 0.011302233430918142 0 0.00089015040878732835 0.013184166262802768 0 0.00085630638872024483 0.01400461506135278 0 0.00089015040878732835 0.013184166262802768 0 0.00084647065807709053 0.01606320807018834 0 0.00086182227889764265 0.016063434055579407 0 0.00087107281872548582 0.016092314361381522 0 0.00087640246465274974 0.016095363646045371 0 0.00086182227889764265 0.016063434055579407 0 0.00087107281872548582 0.016092314361381522 0 0.00087640246465274974 0.016095363646045371 0 0.00087107281872548582 0.016092314361381522 0 0.00088061070604011438 0.016113435056064319 0 0.00084647065807709053 0.01606320807018834 0 0.00090808908655333302 0.016103001587694479 0 0.00087107281872548582 0.016092314361381522 0 0.00090808908655333302 0.016103001587694479 0 0.00087107281872548582 0.016092314361381522 0 0.00088061070604011438 0.016113435056064319 0 0.00087640246465274974 0.016095363646045371 0 0.00088061070604011438 0.016113435056064319 0 0.00088367819439021057 0.016150254083021655 0 0.00091513534212921436 0.016108516285617585 0 0.00087640246465274974 0.016095363646045371 0 0.00088367819439021057 0.016150254083021655 0 0.00087676634602002574 0.016164809671789283 0 0.00087551739093679175 0.016105505969653728 0 0.00086723924668247957 0.016081808779670095 0 0.00088061070604011438 0.016113435056064319 0 0.00088367819439021057 0.016150254083021655 0 0.00087551739093679175 0.016105505969653728 0 0.00087676634602002574 0.016164809671789283 0 0.00088367819439021057 0.016150254083021655 0 0.00087551739093679175 0.016105505969653728 0 0.00086723924668247957 0.016081808779670095 0 0.00087873076569381931 0.01601380340398649 0 0.00088240649628126215 0.015968968201044653 0 0.00087551739093679175 0.016105505969653728 0 0.00086723924668247957 0.016081808779670095 0 0.00087873076569381931 0.01601380340398649 0 0.00087873076569381931 0.01601380340398649 0 0.00097963040807854318 0.015989568314208443 0 0.00088557351812411367 0.015851844262694811 0 0.00087873076569381931 0.01601380340398649 0 0.00089764236376523672 0.01607629422018482 0 0.00097963040807854318 0.015989568314208443 0 0.00087551739093679175 0.016105505969653728 0 0.00087873076569381931 0.01601380340398649 0 0.00089764236376523672 0.01607629422018482 0 0.00088061070604011438 0.016113435056064319 0 0.00087551739093679175 0.016105505969653728 0 0.00089764236376523672 0.01607629422018482 0 0.00090808908655333302 0.016103001587694479 0 0.00088061070604011438 0.016113435056064319 0 0.00089764236376523672 0.01607629422018482 0 0.0011754921561050334 0.013022048494017769 0 0.00067507885851411577 0.013270587327137687 0 0.0010935100694614735 0.014190905628876134 0 0.00067507885851411577 0.013270587327137687 0 3.0030035358041214e-05 0.01338214755814634 0 0.0010935100694614735 0.014190905628876134 0 0.00090808908655333302 0.016103001587694479 0 0.00089764236376523672 0.01607629422018482 0 0.00097963040807854318 0.015989568314208443 0 0.0010468740715901459 0.014734266899872327 0 0.0010176536878376259 0.015059794625121794 0 0.00067092553773413267 0.012516235857075998 0 2.3068230646993028e-05 0.013379439270941904 0 0.00070245763928197065 0.012684551762833438 0 0.00067507885851411577 0.013270587327137687 0 3.0030035358041214e-05 0.01338214755814634 0 3.0030035358041214e-05 0.01338214755814634 0 2.1763122617093848e-05 0.014559238468403556 0 -0.00057633381966110987 0.014075588652458029 0 3.0030035358041214e-05 0.01338214755814634 0 2.1763122617093848e-05 0.014559238468403556 0 0.0010935100694614735 0.014190905628876134 0 0.0010176536878376259 0.015059794625121794 0 0.00090246346639500351 0.015564909115825871 0 0.00097963040807854318 0.015989568314208443 0 0.00087375476487837073 0.015576760382539368 0 0.00088557351812411367 0.015851844262694811 0 2.1763122617093848e-05 0.014559238468403556 0 0.0010935100694614735 0.014190905628876134 0 0.00087375476487837073 0.015576760382539368 0 2.1763122617093848e-05 0.014559238468403556 0 0.00087375476487837073 0.015576760382539368 0 0.00011119047604691994 0.015342816818660626 0 2.1763122617093848e-05 0.014559238468403556 0 0.00011119047604691994 0.015342816818660626 0 -0.00056596820480049755 0.01521563024852746 0 0.00087375476487837073 0.015576760382539368 0 0.00011119047604691994 0.015342816818660626 0 9.3198540335584406e-05 0.015946764782159905 0 0.00011119047604691994 0.015342816818660626 0 9.3198540335584406e-05 0.015946764782159905 0 -0.00056596820480049755 0.01521563024852746 0 0.00052698869082676639 0.011083104413092938 0 0.00024127150004685905 0.01130597480152872 0 0.00090660482630691632 0.015938399859912127 0 0.00087375476487837073 0.015576760382539368 0 0.00092952540475037097 0.015859524072305772 0 0.00090660482630691632 0.015938399859912127 0 0.00087375476487837073 0.015576760382539368 0 9.3198540335584406e-05 0.015946764782159905 0 0.00090759035524716936 0.01584467547583495 0 0.00090660482630691632 0.015938399859912127 0 0.00092952540475037097 0.015859524072305772 0 0.00092952540475037097 0.015859524072305772 0 0.00086254577386457869 0.015954591490334877 0 0.00088240649628126215 0.015968968201044653 0 0.00090759035524716936 0.01584467547583495 0 0.00092952540475037097 0.015859524072305772 0 0.00086254577386457869 0.015954591490334877 0 0.00085330064369243711 0.016067483657021757 0 0.00086254577386457869 0.015954591490334877 0 0.00088240649628126215 0.015968968201044653 0 0.00085330064369243711 0.016067483657021757 0 0.00086723924668247957 0.016081808779670095 0 0.00088240649628126215 0.015968968201044653 0 0.00087873076569381931 0.01601380340398649 0 0.00088240649628126215 0.015968968201044653 0 0.00088557351812411367 0.015851844262694811 0 0.00087375476487837073 0.015576760382539368 0 0.00092952540475037097 0.015859524072305772 0 0.00088557351812411367 0.015851844262694811 0 0.00092952540475037097 0.015859524072305772 0 0.00088240649628126215 0.015968968201044653 0 0.00088557351812411367 0.015851844262694811 0 -0.0023469630756441581 0.014855247600037364 0 -0.0019995131001267511 0.015150044785140366 0 -0.0024664689420570885 0.014880139392255971 0 -0.00093759185591740129 0.010326577851502584 0 -0.0013058158430938041 0.0093033113809628046 0 0.00021816131433442223 0.0053991530217004759 0 5.1245182525028933e-05 0.0053013339408657543 0 0.00021439561560511805 0.0054758330625418513 0 -0.0021130539098512487 0.014900967994741674 0 -0.0023469630756441581 0.014855247600037364 0 -0.0019995131001267511 0.015150044785140366 0 -0.0017947671944729699 0.0097960189574536078 0 -0.0013058158430938041 0.0093033113809628046 0 -0.0020068752871011189 0.015191556739495021 0 -0.0019954519171257266 0.014987272872990239 0 -0.0015675963128226379 0.015145695111880225 0 -0.0019954519171257266 0.014987272872990239 0 -0.0018776124107983908 0.01478464526148953 0 -0.0015675963128226379 0.015145695111880225 0 -0.00093759185591740129 0.010326577851502584 0 -0.00113908203585584 0.012319891781778343 0 -0.0021130539098512487 0.014900967994741674 0 -0.0019995131001267511 0.015150044785140366 0 -0.0019954519171257266 0.014987272872990239 0 -0.0019954519171257266 0.014987272872990239 0 -0.0020206144520970386 0.014833952755100601 0 -0.0018776124107983908 0.01478464526148953 0 -0.0021130539098512487 0.014900967994741674 0 -0.0019954519171257266 0.014987272872990239 0 -0.0020206144520970386 0.014833952755100601 0 -0.0018776124107983908 0.01478464526148953 0 -0.0016320934585457591 0.014657782534890392 0 -0.0020343199069974582 0.014415862177010552 0 -0.0020206144520970386 0.014833952755100601 0 -0.0018776124107983908 0.01478464526148953 0 -0.0021091379679790169 0.014701807899419564 0 -0.0018776124107983908 0.01478464526148953 0 -0.0015675963128226379 0.015145695111880225 0 -0.0016320934585457591 0.014657782534890392 0 -0.0018776124107983908 0.01478464526148953 0 -0.0021091379679790169 0.014701807899419564 0 -0.0020343199069974582 0.014415862177010552 0 -0.0023414093192843863 0.014603285817085894 0 -0.0020343199069974582 0.014415862177010552 0 -0.0025466212062575859 0.014362725347550065 0 -0.0021091379679790169 0.014701807899419564 0 -0.0023414093192843863 0.014603285817085894 0 -0.0020343199069974582 0.014415862177010552 0 -0.0021130539098512487 0.014900967994741674 0 -0.0020206144520970386 0.014833952755100601 0 -0.0021091379679790169 0.014701807899419564 0 -0.0021130539098512487 0.014900967994741674 0 -0.0023469630756441581 0.014855247600037364 0 -0.0021091379679790169 0.014701807899419564 0 -0.0023469630756441581 0.014855247600037364 0 -0.0021091379679790169 0.014701807899419564 0 -0.0023414093192843863 0.014603285817085894 0 -0.0023469630756441581 0.014855247600037364 0 -0.0023414093192843863 0.014603285817085894 0 -0.0024706787225749088 0.014876625431898164 0 0.00025844106621946225 0.001727409445972775 0 -0.0013058158430938041 0.0093033113809628046 0 -0.00021550249511329494 0.0053393679327817687 0 5.1245182525028933e-05 0.0053013339408657543 0 0.00021439561560511805 0.0054758330625418513 0 -0.0012649065816761678 0.0065797169416783874 0 -0.0013058158430938041 0.0093033113809628046 0 -0.0023414093192843863 0.014603285817085894 0 -0.0024706787225749088 0.014876625431898164 0 -0.0025466212062575859 0.014362725347550065 0 -0.0032696562045305497 0.014401694055917911 0 -0.0024706787225749088 0.014876625431898164 0 -0.0025466212062575859 0.014362725347550065 0 -0.00033874577474647113 0.0059005560206484868 0 -0.00038623626939693389 0.004961249785074391 0 -0.0015270357372523171 0.0053021774922384548 0 0.00086224596952381809 -0.0011117974222590212 0 0.00061915604245359754 -0.0014769451594885072 0 0.00027491529194098797 -0.001196426658678634 0 0.00025844106621946225 0.001727409445972775 0 0.00020238293960435702 0.0043564378682028372 0 0.00088409198314063459 -0.0013688948654911064 0 0.00086224596952381809 -0.0011117974222590212 0 0.00061915604245359754 -0.0014769451594885072 0 -0.0011998192973072363 0.0075497033375075268 0 -0.0012270445730629574 0.0081854545240538784 0 0.00089676808281946476 0.0086393621090035833 0 -0.00093759185591740129 0.010326577851502584 0 0.00020238293960435702 0.0043564378682028372 0 0.0017900330858346509 0.0055665350027228984 0 0.0023941392121842029 0.0065388385578143944 0 0.001479755598211793 0.0063513038650006909 0 -0.00093759185591740129 0.010326577851502584 0 0.00066777673934750284 0.0091730390745106572 0 -0.001207444867855545 0.015660155026554164 0 -0.00056596820480049755 0.01521563024852746 0 -0.0015675963128226379 0.015145695111880225 0 0.00020238293960435702 0.0043564378682028372 0 0.00066777673934750284 0.0091730390745106572 0 -0.0020068752871011189 0.015191556739495021 0 -0.001207444867855545 0.015660155026554164 0 -0.0015675963128226379 0.015145695111880225 0 0.0010953437982444249 0.0060001987314930996 0 0.0017900330858346509 0.0055665350027228984 0 0.001479755598211793 0.0063513038650006909 0 0.00075870851649202208 0.0058060823891023881 0 0.00066777673934750284 0.0091730390745106572 0 0.00080160699488990652 0.0061068637125781759 0 0.00056385518913532366 0.0062537448963709301 0 0.0013707564153186739 0.0064627035114572977 0 0.00080160699488990652 0.0061068637125781759 0 0.0010953437982444249 0.0060001987314930996 0 0.001479755598211793 0.0063513038650006909 0 0.00024127150004685905 0.01130597480152872 0 0.00066777673934750284 0.0091730390745106572 0 9.3198540335584406e-05 0.015946764782159905 0 -0.001207444867855545 0.015660155026554164 0 -0.00056596820480049755 0.01521563024852746 0 2.1763122617093848e-05 0.014559238468403556 0 -0.00056596820480049755 0.01521563024852746 0 -0.0010143544586671085 0.014594117704124649 0 -0.00056596820480049755 0.01521563024852746 0 -0.0015675963128226379 0.015145695111880225 0 -0.0010143544586671085 0.014594117704124649 0 -0.0015675963128226379 0.015145695111880225 0 -0.0010143544586671085 0.014594117704124649 0 -0.0016320934585457591 0.014657782534890392 0 -0.0010143544586671085 0.014594117704124649 0 -0.0016320934585457591 0.014657782534890392 0 -0.0016204705166130413 0.014259160232825833 0 -0.0010143544586671085 0.014594117704124649 0 -0.0016204705166130413 0.014259160232825833 0 -0.0012229306601823046 0.013971174774859017 0 -0.0010143544586671085 0.014594117704124649 0 -0.0012229306601823046 0.013971174774859017 0 -0.00057633381966110987 0.014075588652458029 0 -0.0012229306601823046 0.013971174774859017 0 -0.0015295685013027155 0.013426402483372703 0 -0.001876137373795238 0.013875888899891664 0 -0.0016204705166130413 0.014259160232825833 0 -0.0012229306601823046 0.013971174774859017 0 -0.001876137373795238 0.013875888899891664 0 2.1763122617093848e-05 0.014559238468403556 0 -0.0010143544586671085 0.014594117704124649 0 -0.00057633381966110987 0.014075588652458029 0 -0.0012229306601823046 0.013971174774859017 0 -0.00057633381966110987 0.014075588652458029 0 -0.00095456076204480348 0.013481426062415008 0 3.0030035358041214e-05 0.01338214755814634 0 -0.00095456076204480348 0.013481426062415008 0 -0.00058249458733547596 0.012972765764333724 0 3.0030035358041214e-05 0.01338214755814634 0 -0.00057633381966110987 0.014075588652458029 0 -0.00095456076204480348 0.013481426062415008 0 -0.00095456076204480348 0.013481426062415008 0 -0.00058249458733547596 0.012972765764333724 0 -0.0012162278792386821 0.01290542616007561 0 -0.0012229306601823046 0.013971174774859017 0 -0.0015295685013027155 0.013426402483372703 0 -0.00095456076204480348 0.013481426062415008 0 -0.0015295685013027155 0.013426402483372703 0 -0.00095456076204480348 0.013481426062415008 0 -0.0012162278792386821 0.01290542616007561 0 -0.0015295685013027155 0.013426402483372703 0 -0.0019823697909152884 0.012879298422357636 0 -0.0012162278792386821 0.01290542616007561 0 -0.0020983408862305319 0.013436702536471036 0 -0.0022795021110507754 0.01386109410585361 0 -0.002860756255747398 0.013284787855963352 0 -0.0020983408862305319 0.013436702536471036 0 -0.002860756255747398 0.013284787855963352 0 -0.0019823697909152884 0.012879298422357636 0 -0.0015295685013027155 0.013426402483372703 0 -0.0020983408862305319 0.013436702536471036 0 -0.0019823697909152884 0.012879298422357636 0 -0.0015295685013027155 0.013426402483372703 0 -0.0020983408862305319 0.013436702536471036 0 -0.001876137373795238 0.013875888899891664 0 -0.001876137373795238 0.013875888899891664 0 -0.0022795021110507754 0.01386109410585361 0 -0.0020343199069974582 0.014415862177010552 0 -0.0020983408862305319 0.013436702536471036 0 -0.001876137373795238 0.013875888899891664 0 -0.0022795021110507754 0.01386109410585361 0 -0.0022795021110507754 0.01386109410585361 0 -0.0020343199069974582 0.014415862177010552 0 -0.0025466212062575859 0.014362725347550065 0 -0.0016204705166130413 0.014259160232825833 0 -0.001876137373795238 0.013875888899891664 0 -0.0020343199069974582 0.014415862177010552 0 -0.0016320934585457591 0.014657782534890392 0 -0.0016204705166130413 0.014259160232825833 0 -0.0020343199069974582 0.014415862177010552 0 -0.0012649065816761678 0.0065797169416783874 0 -0.0028787443687882828 0.0086390338971292519 0 -0.0032696562045305497 0.014401694055917911 0 -0.0025466212062575859 0.014362725347550065 0 -0.002860756255747398 0.013284787855963352 0 -0.0022795021110507754 0.01386109410585361 0 -0.0025466212062575859 0.014362725347550065 0 -0.002860756255747398 0.013284787855963352 0 -0.0028787443687882828 0.0086390338971292519 0 -0.0025045386221088936 0.0077845131407355082 0 -0.0021350598411383022 0.003392220895721713 0 -0.0026489574971461896 0.0037714746939755961 0 -0.0022587734458482354 0.0037528180879275652 0 -0.0021350598411383022 0.003392220895721713 0 -0.0023843516930145406 0.003110737096643305 0 -0.0026489574971461896 0.0037714746939755961 0 -0.002860756255747398 0.013284787855963352 0 -0.0019823697909152884 0.012879298422357636 0 -0.0024852101335683069 0.012089128377209225 0 -0.0019823697909152884 0.012879298422357636 0 -0.0017238688987760145 0.012171477936828547 0 -0.0024852101335683069 0.012089128377209225 0 -0.0024852101335683069 0.012089128377209225 0 -0.0021939301480070937 0.011435890902648663 0 -0.0019770629786898296 0.010480975181302697 0 -0.0017238688987760145 0.012171477936828547 0 -0.0024852101335683069 0.012089128377209225 0 -0.0021939301480070937 0.011435890902648663 0 -0.0025045386221088936 0.0077845131407355082 0 -0.0025117040332830911 0.0076970234648895295 0 -0.0026489574971461896 0.0037714746939755961 0 -0.0024868821744073524 0.0040996982162029528 0 -0.002941618916940282 0.0045243851853345512 0 -0.0017238688987760145 0.012171477936828547 0 -0.0021939301480070937 0.011435890902648663 0 -0.0015244345400250874 0.011512571441067408 0 -0.0024868821744073524 0.0040996982162029528 0 -0.0022587734458482354 0.0037528180879275652 0 -0.0022207959527094224 0.0042899993300881062 0 -0.0026489574971461896 0.0037714746939755961 0 -0.0024868821744073524 0.0040996982162029528 0 -0.0022587734458482354 0.0037528180879275652 0 3.0030035358041214e-05 0.01338214755814634 0 -0.00024459262432775976 0.012558639142283043 0 -0.00058249458733547596 0.012972765764333724 0 -0.00024459262432775976 0.012558639142283043 0 -0.00058249458733547596 0.012972765764333724 0 -0.00099519012079893679 0.012280723949768414 0 -0.00024459262432775976 0.012558639142283043 0 -0.00099519012079893679 0.012280723949768414 0 -0.00038563682218169959 0.012103046470006101 0 -0.00058249458733547596 0.012972765764333724 0 -0.00099519012079893679 0.012280723949768414 0 -0.0012162278792386821 0.01290542616007561 0 -0.0019823697909152884 0.012879298422357636 0 -0.0017238688987760145 0.012171477936828547 0 -0.0012162278792386821 0.01290542616007561 0 -0.0017238688987760145 0.012171477936828547 0 -0.00099519012079893679 0.012280723949768414 0 -0.0012162278792386821 0.01290542616007561 0 -0.00098980106588395108 0.012166850050496699 0 -0.001019265410171498 0.011404172528487241 0 -0.00099519012079893679 0.012280723949768414 0 -0.0015244345400250874 0.011512571441067408 0 -0.0010313645074221198 0.011056242384247525 0 -0.0017238688987760145 0.012171477936828547 0 -0.00099519012079893679 0.012280723949768414 0 -0.0015244345400250874 0.011512571441067408 0 -0.00099519012079893679 0.012280723949768414 0 -0.00055395876175244748 0.011681504809161473 0 -0.0010001363297337514 0.011570979005358181 0 -0.00099519012079893679 0.012280723949768414 0 -0.00038563682218169959 0.012103046470006101 0 -0.00055395876175244748 0.011681504809161473 0 -0.00014341810071074324 0.011833641016618764 0 -0.00038563682218169959 0.012103046470006101 0 -0.00055395876175244748 0.011681504809161473 0 -5.6879916790632907e-05 0.011432833962349445 0 -0.00046085445003524834 0.011309407176795946 0 -0.00055395876175244748 0.011681504809161473 0 -0.00055395876175244748 0.011681504809161473 0 -0.00073139649805028747 0.011276108926470865 0 -0.0010001363297337514 0.011570979005358181 0 -0.00046085445003524834 0.011309407176795946 0 -0.00073139649805028747 0.011276108926470865 0 -0.00058962007184130147 0.010985912831035114 0 -0.00046085445003524834 0.011309407176795946 0 -0.00055395876175244748 0.011681504809161473 0 -0.00073139649805028747 0.011276108926470865 0 -0.00073139649805028747 0.011276108926470865 0 -0.0010001363297337514 0.011570979005358181 0 -0.0010508611771744088 0.010832671853679338 0 -0.0010313645074221198 0.011056242384247525 0 -0.001660886916754911 0.010706154563604039 0 -0.0011136894373913403 0.0099258920939131398 0 -0.001019265410171498 0.011404172528487241 0 -0.0010551474843242853 0.01001888971345986 0 -0.0015244345400250874 0.011512571441067408 0 -0.0010313645074221198 0.011056242384247525 0 -0.001660886916754911 0.010706154563604039 0 -0.0015571421380250433 0.010491659319199631 0 -0.00079517371552390438 0.0093753703757499494 0 -0.0019770629786898296 0.010480975181302697 0 -0.00079517371552390438 0.0093753703757499494 0 -0.0019770629786898296 0.010480975181302697 0 -0.0012910786733623283 0.008538400999973994 0 -0.001581865527514197 0.010558437401836436 0 -0.0010551474843242853 0.01001888971345986 0 -0.0010551474843242853 0.01001888971345986 0 -0.0014963882295588975 0.0084227535533027541 0 -0.0010508611771744088 0.010832671853679338 0 -0.00058962007184130147 0.010985912831035114 0 -0.0004789588073304142 0.01060965098577951 0 -0.00073139649805028747 0.011276108926470865 0 -0.0010508611771744088 0.010832671853679338 0 -0.00058962007184130147 0.010985912831035114 0 -0.00013320876150347996 0.0109145298698971 0 -0.00058962007184130147 0.010985912831035114 0 -0.0004789588073304142 0.01060965098577951 0 -0.00013320876150347996 0.0109145298698971 0 -0.00046085445003524834 0.011309407176795946 0 -0.00058962007184130147 0.010985912831035114 0 -0.0018897994671126721 0.0044414725854306772 0 -0.0022207959527094224 0.0042899993300881062 0 -0.002556847538211812 0.0048654358651354446 0 -0.0022207959527094224 0.0042899993300881062 0 -0.0025209639231909037 0.0044115672773794848 0 -0.002556847538211812 0.0048654358651354446 0 -0.0023145743473248072 0.0012123342609161398 0 -0.0023137572855027816 0.0038970766374240478 0 -0.0024868821744073524 0.0040996982162029528 0 -0.0022207959527094224 0.0042899993300881062 0 -0.0025209639231909037 0.0044115672773794848 0 -0.0024868821744073524 0.0040996982162029528 0 -0.0025209639231909037 0.0044115672773794848 0 -0.002941618916940282 0.0045243851853345512 0 -0.0021939301480070937 0.011435890902648663 0 -0.0015571421380250433 0.010491659319199631 0 -0.0019770629786898296 0.010480975181302697 0 -0.0021398554468025303 0.011358425900263256 0 -0.001581865527514197 0.010558437401836436 0 -0.0021939301480070937 0.011435890902648663 0 -0.0015244345400250874 0.011512571441067408 0 -0.001660886916754911 0.010706154563604039 0 -0.0025209639231909037 0.0044115672773794848 0 -0.002941618916940282 0.0045243851853345512 0 -0.002556847538211812 0.0048654358651354446 0 -0.0023137572855027816 0.0038970766374240478 0 -0.0021013882253809314 0.0060664569923154447 0 -0.0019953987348638293 0.0028139625519751784 0 -0.0021971922112850968 0.0032483143029702838 0 -0.0025778225452676193 0.0032037096780582297 0 -0.002941618916940282 0.0045243851853345512 0 -0.002556847538211812 0.0048654358651354446 0 -0.0032144054815371565 0.0052795595004718901 0 -0.0025117040332830911 0.0076970234648895295 0 -0.0021013882253809314 0.0060664569923154447 0 -0.0014536128620673773 0.0026988774354792357 0 -0.0019953987348638293 0.0028139625519751784 0 -0.0018883540143875448 0.0033961569563206494 0 -0.0024185800684899355 3.8222188900593553e-05 0 -0.0020484289474573571 0.0018685235570068024 0 -0.0025113152082037187 0.00014723129073326748 0 -0.002316232897079616 -0.00016610395263221711 0 -0.0024457515877102831 -0.00013652254298656322 0 -0.0019953987348638293 0.0028139625519751784 0 -0.0018883540143875448 0.0033961569563206494 0 -0.0021971922112850968 0.0032483143029702838 0 -0.0021550607197122072 -0.0035733702246062348 0 -0.0023031839737887205 -0.0026178402433563457 0 -0.0023481370500910144 -0.0025332174770568839 0 -0.0018883540143875448 0.0033961569563206494 0 -0.0021971922112850968 0.0032483143029702838 0 -0.0023221335096464029 0.003572569685951927 0 -0.0021971922112850968 0.0032483143029702838 0 -0.0023221335096464029 0.003572569685951927 0 -0.0025778225452676193 0.0032037096780582297 0 -0.0018883540143875448 0.0033961569563206494 0 -0.0023221335096464029 0.003572569685951927 0 -0.0023069295059420644 0.004044572374104387 0 -0.0023221335096464029 0.003572569685951927 0 -0.0024942543941495528 0.00378789788876369 0 -0.0023069295059420644 0.004044572374104387 0 -0.0020484289474573571 0.0018685235570068024 0 -0.0024550191652703839 0.0017249572375345654 0 -0.002316232897079616 -0.00016610395263221711 0 -0.0023781089375934767 -0.0004279078271080389 0 -0.0021174973933489375 -0.00047837596967307514 0 -0.002316232897079616 -0.00016610395263221711 0 -0.0023781089375934767 -0.0004279078271080389 0 -0.0024457515877102831 -0.00013652254298656322 0 -0.0022570869806743557 -0.0033726206662627631 0 -0.0024002433532159875 -0.0012586542813362949 0 -0.0022570869806743557 -0.0033726206662627631 0 -0.0023578844767360189 -0.0045520590853523491 0 -0.0014479887990431015 0.0099941896924435562 0 -0.0012208275709832501 0.009622748860230481 0 -0.00095274312365886736 0.0097504024714255098 0 -0.0010508611771744088 0.010832671853679338 0 -0.0004789588073304142 0.01060965098577951 0 -0.00045674864111895847 0.0099635277006328189 0 -0.0004789588073304142 0.01060965098577951 0 -0.00045674864111895847 0.0099635277006328189 0 -8.2942463287709607e-05 0.010397684208280999 0 -0.0014963882295588975 0.0084227535533027541 0 -0.00086226769840803356 0.0098285949076510112 0 -0.0010551474843242853 0.01001888971345986 0 -0.00086226769840803356 0.0098285949076510112 0 -0.0010966889740751705 0.0095895123923224659 0 -0.0011033897796170779 0.0095032627783421669 0 -0.00099331640296769475 0.0094408320140692316 0 -0.001881538094114779 0.0065844510316720086 0 -0.0014963882295588975 0.0084227535533027541 0 -0.0014640545022186243 0.0097554478302727191 0 -0.0014479887990431015 0.0099941896924435562 0 -0.0012208275709832501 0.009622748860230481 0 -0.0014963882295588975 0.0084227535533027541 0 -0.0021013882253809314 0.0060664569923154447 0 -0.00079517371552390438 0.0093753703757499494 0 -0.00087278313443957169 0.0082907187648319398 0 -0.0012910786733623283 0.008538400999973994 0 -0.0020651812983020117 0.0069337343796605404 0 -0.0020634137007121273 0.0069323581001798111 0 -0.0020607069420643517 0.006929904535223322 0 -0.0023221335096464029 0.003572569685951927 0 -0.0026937795426194462 0.0035326571286644678 0 -0.0025778225452676193 0.0032037096780582297 0 -0.001881538094114779 0.0065844510316720086 0 -0.0021013882253809314 0.0060664569923154447 0 -0.0026937795426194462 0.0035326571286644678 0 -0.0024942543941495528 0.00378789788876369 0 -0.0026535523474407229 0.0040010339703030967 0 -0.0015726919585047263 0.0066633614891410944 0 -0.0016070903172154133 0.00675413640343664 0 -0.0015667718660338547 0.0067565982151051905 0 -0.0014640545022186243 0.0097554478302727191 0 -0.0012208275709832501 0.009622748860230481 0 -0.0012918264717556756 0.0092875635574620891 0 -0.001881538094114779 0.0065844510316720086 0 -0.0016909361163183242 0.005230929666365714 0 -0.001881538094114779 0.0065844510316720086 0 -0.0015877190152659745 0.0082368740597861864 0 -0.0023221335096464029 0.003572569685951927 0 -0.0026937795426194462 0.0035326571286644678 0 -0.0024942543941495528 0.00378789788876369 0 -0.0012208275709832501 0.009622748860230481 0 -0.0009173659884565363 0.0093448403658555161 0 -0.0012918264717556756 0.0092875635574620891 0 -0.0009173659884565363 0.0093448403658555161 0 -0.00095274312365886736 0.0097504024714255098 0 -0.00050280027828069652 0.009300875312494657 0 -0.0012208275709832501 0.009622748860230481 0 -0.0009173659884565363 0.0093448403658555161 0 -0.00095274312365886736 0.0097504024714255098 0 -0.0015877190152659745 0.0082368740597861864 0 -0.0013341974407664109 0.0084927951694643029 0 -0.00082282453568698186 0.0089923581107587813 0 -0.001524091447423612 0.0092622287075449037 0 -0.0012839037747570592 0.0085399941749676571 0 -0.001636353724480415 0.0084557050135566792 0 -0.0015538133904567969 0.0087962623371787077 0 -0.0013156557088971938 0.0082680184506290135 0 -0.00082282453568698186 0.0089923581107587813 0 -0.0012839037747570592 0.0085399941749676571 0 -0.00055700975132199574 0.0085015882796995648 0 -0.0009173659884565363 0.0093448403658555161 0 -0.00082282453568698186 0.0089923581107587813 0 -0.001524091447423612 0.0092622287075449037 0 -0.00090276637867948571 0.009138810378060155 0 -0.0015877190152659745 0.0082368740597861864 0 -0.0016909361163183242 0.005230929666365714 0 -0.0018100602393953647 0.0045571565630570434 0 -0.001636353724480415 0.0084557050135566792 0 -0.0018166883534983425 0.0087537070419082506 0 -0.0019157184749845292 0.0079414658469376346 0 -0.0016213317732065838 0.0021970229654618843 0 -0.0017045560343516106 0.0010299286341690548 0 -0.0020627357184345848 0.0017040241547305625 0 -0.001636353724480415 0.0084557050135566792 0 -0.0015538133904567969 0.0087962623371787077 0 -0.0018166883534983425 0.0087537070419082506 0 -0.0015877190152659745 0.0082368740597861864 0 -0.0016909361163183242 0.005230929666365714 0 -0.0016909361163183242 0.005230929666365714 0 -0.0024550191652703839 0.0017249572375345654 0 -0.0024942543941495528 0.00378789788876369 0 -0.0026535523474407229 0.0040010339703030967 0 -0.0023069295059420644 0.004044572374104387 0 -0.0019157184749845292 0.0079414658469376346 0 -0.0013156557088971938 0.0082680184506290135 0 -0.0015370631015610666 0.0076292754531292204 0 -0.001636353724480415 0.0084557050135566792 0 -0.0019157184749845292 0.0079414658469376346 0 -0.0013156557088971938 0.0082680184506290135 0 -0.0012839037747570592 0.0085399941749676571 0 -0.0010138987749430018 0.0077104770626820456 0 -0.00055700975132199574 0.0085015882796995648 0 -0.0013156557088971938 0.0082680184506290135 0 -0.0015370631015610666 0.0076292754531292204 0 -0.0010138987749430018 0.0077104770626820456 0 -0.0013341974407664109 0.0084927951694643029 0 -0.0010360315932151551 0.0077501043258875512 0 -0.0023781089375934767 -0.0004279078271080389 0 -0.0023528400545932194 -0.00053272475249867767 0 -0.0021174973933489375 -0.00047837596967307514 0 -0.0031596540581638631 0.0018687613385974669 0 -0.0024602570673782713 0.0017114296906207906 0 -0.0026629840478708221 0.0014846609226798113 0 -0.0031596540581638631 0.0018687613385974669 0 -0.0026629840478708221 0.0014846609226798113 0 -0.0027674323431542249 0.0012860146340372238 0 -0.0022570869806743557 -0.0033726206662627631 0 -0.0024305672038396429 -0.0029528022312215211 0 -0.0024305672038396429 -0.0029528022312215211 0 -0.0024550191652703839 0.0017249572375345654 0 -0.0031596540581638631 0.0018687613385974669 0 -0.0022974183268072252 0.0020275272173371868 0 -0.0024602570673782713 0.0017114296906207906 0 -0.0016213317732065838 0.0021970229654618843 0 -0.0023115628103335113 0.0020871030023958442 0 -0.0020627357184345848 0.0017040241547305625 0 -0.0022974183268072252 0.0020275272173371868 0 -0.0020627357184345848 0.0017040241547305625 0 -0.0024602570673782713 0.0017114296906207906 0 -0.0020627357184345848 0.0017040241547305625 0 -0.0024602570673782713 0.0017114296906207906 0 -0.0022906381120651282 0.0013668877530264559 0 -0.0024550191652703839 0.0017249572375345654 0 -0.0022720648719676503 0.0017343276730609738 0 -0.0024602570673782713 0.0017114296906207906 0 -0.0026629840478708221 0.0014846609226798113 0 -0.0022906381120651282 0.0013668877530264559 0 -0.0026629840478708221 0.0014846609226798113 0 -0.0025395655158679826 0.0012301845906209597 0 -0.0027674323431542249 0.0012860146340372238 0 -0.0026629840478708221 0.0014846609226798113 0 -0.0025395655158679826 0.0012301845906209597 0 -0.0022906381120651282 0.0013668877530264559 0 -0.0025395655158679826 0.0012301845906209597 0 -0.0022906381120651282 0.0013668877530264559 0 -0.0023142637048709923 0.00098742034374865988 0 -0.0025395655158679826 0.0012301845906209597 0 -0.0026113781779973466 0.0009937388598766602 0 -0.0027674323431542249 0.0012860146340372238 0 -0.0017045560343516106 0.0010299286341690548 0 -0.0022906381120651282 0.0013668877530264559 0 -0.0023142637048709923 0.00098742034374865988 0 -0.0017045560343516106 0.0010299286341690548 0 -0.0020627357184345848 0.0017040241547305625 0 -0.0022906381120651282 0.0013668877530264559 0 -0.0017045560343516106 0.0010299286341690548 0 -0.0023142637048709923 0.00098742034374865988 0 -0.002202742794905321 0.00040579590570501026 0 -0.0023142637048709923 0.00098742034374865988 0 -0.0026113781779973466 0.0009937388598766602 0 -0.0025117727348027349 0.00059760725768143749 0 -0.0026113781779973466 0.0009937388598766602 0 -0.0028675214384256071 0.00084508221018215579 0 -0.0025117727348027349 0.00059760725768143749 0 -0.0026113781779973466 0.0009937388598766602 0 -0.0028675214384256071 0.00084508221018215579 0 -0.0027674323431542249 0.0012860146340372238 0 -0.0025395655158679826 0.0012301845906209597 0 -0.0023142637048709923 0.00098742034374865988 0 -0.0026113781779973466 0.0009937388598766602 0 -0.0030632331233614394 -0.007273519769297198 0 -0.0030402063570329693 -0.0076033687783790462 0 -0.0031855441693545389 -0.0075235653721479178 0 -0.0019127940480083523 -0.0026432943825884562 0 -0.0020194431329974309 -0.0021612052583212115 0 -0.0020132592255782075 -0.0020825133021997121 0 -0.0031596540581638631 0.0018687613385974669 0 -0.0028675214384256071 0.00084508221018215579 0 -0.0027674323431542249 0.0012860146340372238 0 -0.0024305672038396429 -0.0029528022312215211 0 -0.0024856202694827582 -0.0052527981136657924 0 -0.0024305672038396429 -0.0029528022312215211 0 -0.0025431624218310842 -0.00015736986034777558 0 -0.0031817029512827611 -0.0077347268630094381 0 -0.0030402063570329693 -0.0076033687783790462 0 -0.0030236547874605657 -0.007805420823994897 0 -0.0031817029512827611 -0.0077347268630094381 0 -0.0030402063570329693 -0.0076033687783790462 0 -0.0031855441693545389 -0.0075235653721479178 0 -0.0031817029512827611 -0.0077347268630094381 0 -0.0031699507110657188 -0.0078332512377366301 0 -0.0030236547874605657 -0.007805420823994897 0 -0.002098095648820685 -0.0015495042882041846 0 -0.0021062856910592969 -0.0016934047814502623 0 -0.0021827076123847699 -0.0012992123001726193 0 -0.0021329930136795459 -0.00070231980031722641 0 -0.0025691935877539423 -0.00026248283194350402 0 -0.0021827076123847699 -0.0012992123001726193 0 -0.002302232666723047 -0.0010895394604880369 0 -0.0022168387428259818 -0.0012318605275359622 0 -0.0021329930136795459 -0.00070231980031722641 0 -0.0025691935877539423 -0.00026248283194350402 0 -0.002199121820401067 -0.00033521607121653717 0 -0.0021329930136795459 -0.00070231980031722641 0 -0.002199121820401067 -0.00033521607121653717 0 -0.0017817903058297694 -0.00014679135847643643 0 -0.002196176968418988 -9.3927035775928807e-05 0 -0.002199121820401067 -0.00033521607121653717 0 -0.0017817903058297694 -0.00014679135847643643 0 -0.0025691935877539423 -0.00026248283194350402 0 -0.002196176968418988 -9.3927035775928807e-05 0 -0.002199121820401067 -0.00033521607121653717 0 -0.0025691935877539423 -0.00026248283194350402 0 -0.002196176968418988 -9.3927035775928807e-05 0 -0.002202742794905321 0.00040579590570501026 0 -0.0025431624218310842 -0.00015736986034777558 0 -0.002302232666723047 -0.0010895394604880369 0 -0.0024856202694827582 -0.0052527981136657924 0 -0.0025656852546167242 -0.0046361781351891519 0 -0.002196176968418988 -9.3927035775928807e-05 0 -0.002202742794905321 0.00040579590570501026 0 -0.0017817903058297694 -0.00014679135847643643 0 -0.0025691935877539423 -0.00026248283194350402 0 -0.0025117727348027349 0.00059760725768143749 0 -0.002202742794905321 0.00040579590570501026 0 -0.0028675214384256071 0.00084508221018215579 0 -0.0025691935877539423 -0.00026248283194350402 0 -0.0025117727348027349 0.00059760725768143749 0 -0.0020194431329974309 -0.0021612052583212115 0 -0.0020132592255782075 -0.0020825133021997121 0 -0.0021062856910592969 -0.0016934047814502623 0 -0.0020132592255782075 -0.0020825133021997121 0 -0.002098095648820685 -0.0015495042882041846 0 -0.0021062856910592969 -0.0016934047814502623 0 -0.0023142637048709923 0.00098742034374865988 0 -0.0025117727348027349 0.00059760725768143749 0 -0.002202742794905321 0.00040579590570501026 0 -0.0018100602393953647 0.0045571565630570434 0 -0.001955417066473552 0.0032353446914413068 0 -0.0019157184749845292 0.0079414658469376346 0 -0.0015370631015610666 0.0076292754531292204 0 -0.0020777477356764594 0.0069290040480745373 0 -0.0017045560343516106 0.0010299286341690548 0 -0.002202742794905321 0.00040579590570501026 0 -0.0017817903058297694 -0.00014679135847643643 0 -0.0015370631015610666 0.0076292754531292204 0 -0.0014280303223386448 0.0071652709293757574 0 -0.0020777477356764594 0.0069290040480745373 0 -0.0014280303223386448 0.0071652709293757574 0 -0.0010980577674313935 0.0067563156876649664 0 -0.00061586455747578248 0.0071858393937753945 0 -0.0010138987749430018 0.0077104770626820456 0 -0.0014280303223386448 0.0071652709293757574 0 -0.00061586455747578248 0.0071858393937753945 0 -0.0015370631015610666 0.0076292754531292204 0 -0.0010138987749430018 0.0077104770626820456 0 -0.0014280303223386448 0.0071652709293757574 0 -0.0010980577674313935 0.0067563156876649664 0 -0.00067069315235856878 0.006692823929540806 0 -0.00061586455747578248 0.0071858393937753945 0 -0.0014280303223386448 0.0071652709293757574 0 -0.0010980577674313935 0.0067563156876649664 0 -0.0017115110484280948 0.0065084252529700624 0 -0.0010980577674313935 0.0067563156876649664 0 -0.0017115110484280948 0.0065084252529700624 0 -0.0010652494820693828 0.006228098013401853 0 -0.0010980577674313935 0.0067563156876649664 0 -0.0010652494820693828 0.006228098013401853 0 -0.00067069315235856878 0.006692823929540806 0 -0.0021329930136795459 -0.00070231980031722641 0 -0.0017817903058297694 -0.00014679135847643643 0 -0.001989435493324144 -0.0012625897418021487 0 -0.0020777477356764594 0.0069290040480745373 0 -0.0017115110484280948 0.0065084252529700624 0 -0.0022052932170904369 0.0056922457356062845 0 -0.001955417066473552 0.0032353446914413068 0 -0.0019248645852806606 0.0029017633743501203 0 -0.0014280303223386448 0.0071652709293757574 0 -0.0020777477356764594 0.0069290040480745373 0 -0.0017115110484280948 0.0065084252529700624 0 -0.0013623247994443749 0.0070646954895442491 0 -0.0019248645852806606 0.0029017633743501203 0 -0.0017115110484280948 0.0065084252529700624 0 -0.0015415927754738542 0.0059016169928973582 0 -0.0021583481870976707 0.0057928059693754322 0 -0.0015415927754738542 0.0059016169928973582 0 -0.0021583481870976707 0.0057928059693754322 0 -0.00164787816253773 0.0053772326743294803 0 -0.0015415927754738542 0.0059016169928973582 0 -0.0010652494820693828 0.006228098013401853 0 -0.00098075889931684189 0.0055195748607283048 0 -0.0017115110484280948 0.0065084252529700624 0 -0.0015415927754738542 0.0059016169928973582 0 -0.0010652494820693828 0.006228098013401853 0 -0.0015415927754738542 0.0059016169928973582 0 -0.00098075889931684189 0.0055195748607283048 0 -0.00164787816253773 0.0053772326743294803 0 -0.00098075889931684189 0.0055195748607283048 0 -0.00164787816253773 0.0053772326743294803 0 -0.0013508395561423149 0.0046359952097049639 0 -0.00164787816253773 0.0053772326743294803 0 -0.0022108773512148979 0.0050349262634838245 0 -0.0013508395561423149 0.0046359952097049639 0 -0.0019248645852806606 0.0029017633743501203 0 -0.0020857300143580846 0.0028317151886300246 0 -0.0021583481870976707 0.0057928059693754322 0 -0.00164787816253773 0.0053772326743294803 0 -0.0022108773512148979 0.0050349262634838245 0 -0.0029481927978498154 -0.0080416618417835824 0 -0.0031329053817740898 -0.0081137582464274396 0 -0.0030697217783573084 -0.0082804964066751172 0 -0.0026126316108636919 -0.0043935571904076881 0 -0.0031696075296751185 -0.0079462264511082487 0 -0.0020626165823223581 -0.00033858575166193557 0 -0.0026719057777517814 4.8168658259439385e-05 0 -0.0021822227432268231 -0.0018875515271002561 0 -0.0026126316108636919 -0.0043935571904076881 0 -0.002166380274860785 -0.0014887166580042062 0 -0.0019366962013908269 0.0012317504529659926 0 -0.0020626165823223581 -0.00033858575166193557 0 -0.0026719057777517814 4.8168658259439385e-05 0 -0.0029481927978498154 -0.0080416618417835824 0 -0.0031329053817740898 -0.0081137582464274396 0 -0.0031621857603102185 -0.0079509809690879538 0 -0.0031329053817740898 -0.0081137582464274396 0 -0.0032263470255669674 -0.0083019604237946163 0 -0.0033434022651513957 -0.0081204085142628276 0 -0.0031329053817740898 -0.0081137582464274396 0 -0.0031621857603102185 -0.0079509809690879538 0 -0.0033434022651513957 -0.0081204085142628276 0 -0.0031699507110657188 -0.0078332512377366301 0 -0.0030236547874605657 -0.007805420823994897 0 -0.0031621857603102185 -0.0079509809690879538 0 -0.0025656852546167242 -0.0046361781351891519 0 -0.0026126316108636919 -0.0043935571904076881 0 -0.0030236547874605657 -0.007805420823994897 0 -0.0029481927978498154 -0.0080416618417835824 0 -0.0031621857603102185 -0.0079509809690879538 0 -0.002098095648820685 -0.0015495042882041846 0 -0.0021957723864117727 -0.0011626420449160125 0 -0.0021827076123847699 -0.0012992123001726193 0 -0.0021329930136795459 -0.00070231980031722641 0 -0.001989435493324144 -0.0012625897418021487 0 -0.0021827076123847699 -0.0012992123001726193 0 -0.0019248645852806606 0.0029017633743501203 0 -0.0026126316108636919 -0.0043935571904076881 0 -0.001989435493324144 -0.0012625897418021487 0 -0.0021957723864117727 -0.0011626420449160125 0 -0.0021827076123847699 -0.0012992123001726193 0 -0.00053497302493365844 0.010323857488861924 0 -0.00095326785418095746 0.010033200684026283 0 -0.00037430705429798423 0.0098357529910933217 0 -0.00053497302493365844 0.010323857488861924 0 -0.00015222381195395239 0.01005854760849819 0 -0.00037430705429798423 0.0098357529910933217 0 -0.00025292678241989179 0.010341617365902934 0 -0.00021495336917706843 0.010595261889694885 0 -2.5513163862292734e-05 0.010270060789838985 0 -0.00053497302493365844 0.010323857488861924 0 -0.00025292678241989179 0.010341617365902934 0 -0.00015222381195395239 0.01005854760849819 0 -0.00053497302493365844 0.010323857488861924 0 -0.00025292678241989179 0.010341617365902934 0 -0.00021495336917706843 0.010595261889694885 0 0.00033623843398322272 0.0080608279225283137 0 -0.00046039514955832254 0.0073291055676501515 0 -0.00098075889931684189 0.0055195748607283048 0 0.00010904899762189322 0.0048374550099557663 0 -9.3427947904473906e-05 0.0059568359519882276 0 -0.00098075889931684189 0.0055195748607283048 0 0.00010904899762189322 0.0048374550099557663 0 -0.0013508395561423149 0.0046359952097049639 0 -0.0010652494820693828 0.006228098013401853 0 -0.00098075889931684189 0.0055195748607283048 0 -9.3427947904473906e-05 0.0059568359519882276 0 0.0011029358511078652 0.005885459714161918 0 0.00010904899762189322 0.0048374550099557663 0 -9.3427947904473906e-05 0.0059568359519882276 0 0.0011029358511078652 0.005885459714161918 0 -9.3427947904473906e-05 0.0059568359519882276 0 0.0006413786394509417 0.0066499341148414381 0 -9.3427947904473906e-05 0.0059568359519882276 0 0.0006413786394509417 0.0066499341148414381 0 -6.0260203313849577e-05 0.0066856094423017338 0 0.0006413786394509417 0.0066499341148414381 0 -6.0260203313849577e-05 0.0066856094423017338 0 0.00027603207743707217 0.0072671712547411806 0 -0.0010652494820693828 0.006228098013401853 0 -9.3427947904473906e-05 0.0059568359519882276 0 -0.00067069315235856878 0.006692823929540806 0 -6.0260203313849577e-05 0.0066856094423017338 0 -0.00061586455747578248 0.0071858393937753945 0 0.00027603207743707217 0.0072671712547411806 0 -9.3427947904473906e-05 0.0059568359519882276 0 -6.0260203313849577e-05 0.0066856094423017338 0 -0.00067069315235856878 0.006692823929540806 0 -6.0260203313849577e-05 0.0066856094423017338 0 -0.00067069315235856878 0.006692823929540806 0 -0.00061586455747578248 0.0071858393937753945 0 -0.0010138987749430018 0.0077104770626820456 0 -0.00061586455747578248 0.0071858393937753945 0 -0.00018641122854541937 0.0079236198249022054 0 -0.00061586455747578248 0.0071858393937753945 0 0.00027603207743707217 0.0072671712547411806 0 -0.00018641122854541937 0.0079236198249022054 0 0.00027603207743707217 0.0072671712547411806 0 0.00096726371798904311 0.0075553363554883152 0 0.00062398348014015826 0.0082269364046547236 0 0.0006413786394509417 0.0066499341148414381 0 0.00027603207743707217 0.0072671712547411806 0 0.00096726371798904311 0.0075553363554883152 0 0.00027603207743707217 0.0072671712547411806 0 -0.00018641122854541937 0.0079236198249022054 0 0.00062398348014015826 0.0082269364046547236 0 0.00096726371798904311 0.0075553363554883152 0 0.001732519634442037 0.007634817607210004 0 0.0012854985976652998 0.0083762931064810565 0 0.00096726371798904311 0.0075553363554883152 0 0.0013271848045272351 0.0069202073687056366 0 0.001732519634442037 0.007634817607210004 0 0.0011029358511078652 0.005885459714161918 0 0.0013271848045272351 0.0069202073687056366 0 0.0021321303113839315 0.0069599720058418331 0 0.0006413786394509417 0.0066499341148414381 0 0.00096726371798904311 0.0075553363554883152 0 0.0013271848045272351 0.0069202073687056366 0 0.0011029358511078652 0.005885459714161918 0 0.0006413786394509417 0.0066499341148414381 0 0.0013271848045272351 0.0069202073687056366 0 0.00033623843398322272 0.0080608279225283137 0 0.00060089300819336658 0.0092021204927925197 0 0.0013271848045272351 0.0069202073687056366 0 0.0021321303113839315 0.0069599720058418331 0 0.001732519634442037 0.007634817607210004 0 0.0022565361101930686 0.008542014376145917 0 0.00085810705625998613 0.010180453835965697 0 0.0018287406629654845 0.0076580266533650748 0 0.0017791348360634974 0.00793643441083027 0 0.0020187857156789397 0.0078710004025174685 0 0.0018287406629654845 0.0076580266533650748 0 0.0015975875232704347 0.0079975921014935267 0 0.0017791348360634974 0.00793643441083027 0 0.00060089300819336658 0.0092021204927925197 0 0.0018329702148534737 0.0075188314906685467 0 0.0015975875232704347 0.0079975921014935267 0 0.0017791348360634974 0.00793643441083027 0 0.001783031524887469 0.0082166100529503048 0 0.0017791348360634974 0.00793643441083027 0 0.001783031524887469 0.0082166100529503048 0 0.0021209672013349731 0.0083431529963277542 0 0.001783031524887469 0.0082166100529503048 0 0.0018378339656497775 0.0086031428145661986 0 0.0021209672013349731 0.0083431529963277542 0 0.0018378339656497775 0.0086031428145661986 0 0.0012854985976652998 0.0083762931064810565 0 0.0014199632136467867 0.0088636753369377951 0 0.001783031524887469 0.0082166100529503048 0 0.0018378339656497775 0.0086031428145661986 0 0.0012854985976652998 0.0083762931064810565 0 0.0015975875232704347 0.0079975921014935267 0 0.001783031524887469 0.0082166100529503048 0 0.0012854985976652998 0.0083762931064810565 0 0.0018329702148534737 0.0075188314906685467 0 0.0012851061730267792 0.0083986551785175147 0 0.00096726371798904311 0.0075553363554883152 0 0.0012854985976652998 0.0083762931064810565 0 0.00062398348014015826 0.0082269364046547236 0 0.0012854985976652998 0.0083762931064810565 0 0.00096601209034520683 0.0089984641666568371 0 0.00062398348014015826 0.0082269364046547236 0 0.0012854985976652998 0.0083762931064810565 0 0.0014199632136467867 0.0088636753369377951 0 0.00096601209034520683 0.0089984641666568371 0 0.00096601209034520683 0.0089984641666568371 0 0.00080904459317974412 0.0096445768560437708 0 0.0014059909158819143 0.0094298780660760102 0 0.0014199632136467867 0.0088636753369377951 0 0.00096601209034520683 0.0089984641666568371 0 0.0014059909158819143 0.0094298780660760102 0 0.0014199632136467867 0.0088636753369377951 0 0.0017518340640768394 0.0090776609177736552 0 0.0014059909158819143 0.0094298780660760102 0 0.0017518340640768394 0.0090776609177736552 0 0.001993508558428139 0.0095222545386675159 0 0.0014059909158819143 0.0094298780660760102 0 0.0017518340640768394 0.0090776609177736552 0 0.001993508558428139 0.0095222545386675159 0 0.002317094033088348 0.0089694019593925603 0 0.0018378339656497775 0.0086031428145661986 0 0.0017518340640768394 0.0090776609177736552 0 0.002317094033088348 0.0089694019593925603 0 0.0018378339656497775 0.0086031428145661986 0 0.0014199632136467867 0.0088636753369377951 0 0.0017518340640768394 0.0090776609177736552 0 -0.0010138987749430018 0.0077104770626820456 0 -0.00055700975132199574 0.0085015882796995648 0 -0.00018641122854541937 0.0079236198249022054 0 -0.00055700975132199574 0.0085015882796995648 0 -0.00018641122854541937 0.0079236198249022054 0 0.0001311312952782568 0.0085363973923057793 0 -0.00018641122854541937 0.0079236198249022054 0 0.0001311312952782568 0.0085363973923057793 0 0.00062398348014015826 0.0082269364046547236 0 0.00096601209034520683 0.0089984641666568371 0 0.0001311312952782568 0.0085363973923057793 0 0.00062398348014015826 0.0082269364046547236 0 0.00096601209034520683 0.0089984641666568371 0 0.0001311312952782568 0.0085363973923057793 0 -0.00013658408351680998 0.0089696531341470816 0 0.00091116478635261194 0.0090261974503712469 0 0.00013242942241914853 0.0095106191639777599 0 0.00096601209034520683 0.0089984641666568371 0 0.00024434511300077386 0.0095165344319424021 0 0.00080904459317974412 0.0096445768560437708 0 0.00096601209034520683 0.0089984641666568371 0 -0.00013658408351680998 0.0089696531341470816 0 -3.6497300484416713e-05 0.0094915453580334055 0 -0.00055700975132199574 0.0085015882796995648 0 0.0001311312952782568 0.0085363973923057793 0 -0.00013658408351680998 0.0089696531341470816 0 -0.00013658408351680998 0.0089696531341470816 0 -0.00050280027828069652 0.009300875312494657 0 -3.6497300484416713e-05 0.0094915453580334055 0 -0.0009173659884565363 0.0093448403658555161 0 -0.00082282453568698186 0.0089923581107587813 0 -0.00050280027828069652 0.009300875312494657 0 -0.00082282453568698186 0.0089923581107587813 0 -0.00013658408351680998 0.0089696531341470816 0 -0.00050280027828069652 0.009300875312494657 0 -0.00082282453568698186 0.0089923581107587813 0 -0.00055700975132199574 0.0085015882796995648 0 -0.00013658408351680998 0.0089696531341470816 0 -0.00086226769840803356 0.0098285949076510112 0 0.00013242942241914853 0.0095106191639777599 0 -0.00045674864111895847 0.0099635277006328189 0 0.00024434511300077386 0.0095165344319424021 0 0.00010982751197135198 0.010016368616702557 0 -0.0010396057607586062 0.010065107983880254 0 -0.00050280027828069652 0.009300875312494657 0 -3.6497300484416713e-05 0.0094915453580334055 0 -0.00086226769840803356 0.0098285949076510112 0 -0.00058573903826811518 0.0093842362450877841 0 0.00047631211560940503 0.00987428489819526 0 0.00024434511300077386 0.0095165344319424021 0 0.00010982751197135198 0.010016368616702557 0 0.00047631211560940503 0.00987428489819526 0 0.00024434511300077386 0.0095165344319424021 0 0.00080904459317974412 0.0096445768560437708 0 0.00047631211560940503 0.00987428489819526 0 0.00080904459317974412 0.0096445768560437708 0 0.00073279293427183146 0.010114650506437485 0 0.00073279293427183146 0.010114650506437485 0 0.00038477560200414886 0.010334551708523996 0 0.00086834491110902054 0.010521283738428101 0 0.00055546906152946669 0.010821136651094451 0 0.00038477560200414886 0.010334551708523996 0 0.00086834491110902054 0.010521283738428101 0 0.00047631211560940503 0.00987428489819526 0 0.00038477560200414886 0.010334551708523996 0 0.00010982751197135198 0.010016368616702557 0 0.00047631211560940503 0.00987428489819526 0 0.00073279293427183146 0.010114650506437485 0 0.00038477560200414886 0.010334551708523996 0 -0.00045674864111895847 0.0099635277006328189 0 0.00010982751197135198 0.010016368616702557 0 -8.2942463287709607e-05 0.010397684208280999 0 0.00038477560200414886 0.010334551708523996 0 0.00010982751197135198 0.010016368616702557 0 -8.2942463287709607e-05 0.010397684208280999 0 0.00020864818004694559 0.0106693976561345 0 0.00038477560200414886 0.010334551708523996 0 -8.2942463287709607e-05 0.010397684208280999 0 0.0016942026626651718 0.0097987481719273278 0 0.0014059909158819143 0.0094298780660760102 0 0.0012103346214622352 0.010066423755825785 0 0.0016942026626651718 0.0097987481719273278 0 0.0012103346214622352 0.010066423755825785 0 0.0017090146455292885 0.010180145981372237 0 0.0016942026626651718 0.0097987481719273278 0 0.0017090146455292885 0.010180145981372237 0 0.0021481753269522322 0.0099917674964247073 0 0.0016942026626651718 0.0097987481719273278 0 0.001993508558428139 0.0095222545386675159 0 0.0021481753269522322 0.0099917674964247073 0 0.0016942026626651718 0.0097987481719273278 0 0.001993508558428139 0.0095222545386675159 0 0.0014059909158819143 0.0094298780660760102 0 0.00080904459317974412 0.0096445768560437708 0 0.0014059909158819143 0.0094298780660760102 0 0.0012103346214622352 0.010066423755825785 0 0.00080904459317974412 0.0096445768560437708 0 0.00073279293427183146 0.010114650506437485 0 0.0012103346214622352 0.010066423755825785 0 0.0012103346214622352 0.010066423755825785 0 0.0013345500755739021 0.010612435802138102 0 0.0017090146455292885 0.010180145981372237 0 0.00073279293427183146 0.010114650506437485 0 0.0012103346214622352 0.010066423755825785 0 0.00086834491110902054 0.010521283738428101 0 0.0012103346214622352 0.010066423755825785 0 0.00086834491110902054 0.010521283738428101 0 0.0013345500755739021 0.010612435802138102 0 0.0013345500755739021 0.010612435802138102 0 0.0016711098345688672 0.010558707673843445 0 0.0017090146455292885 0.010180145981372237 0 0.0017090146455292885 0.010180145981372237 0 0.0019854765888793805 0.010399551970466832 0 0.0021481753269522322 0.0099917674964247073 0 0.0019025230754035802 0.010791197546575223 0 0.0016711098345688672 0.010558707673843445 0 0.0019854765888793805 0.010399551970466832 0 0.0016711098345688672 0.010558707673843445 0 0.0017090146455292885 0.010180145981372237 0 0.0019854765888793805 0.010399551970466832 0 0.0019025230754035802 0.010791197546575223 0 0.0019854765888793805 0.010399551970466832 0 0.0025179504231096499 0.010497866059348257 0 0.0025179504231096499 0.010497866059348257 0 0.0021481753269522322 0.0099917674964247073 0 0.0026678200969380331 0.0099862159530022202 0 0.0019854765888793805 0.010399551970466832 0 0.0025179504231096499 0.010497866059348257 0 0.0021481753269522322 0.0099917674964247073 0 0.0021481753269522322 0.0099917674964247073 0 0.0024920017375561236 0.0095577142910130662 0 0.0026678200969380331 0.0099862159530022202 0 0.001993508558428139 0.0095222545386675159 0 0.0021481753269522322 0.0099917674964247073 0 0.0024920017375561236 0.0095577142910130662 0 0.0024920017375561236 0.0095577142910130662 0 0.002958182392254208 0.0097415533055162287 0 0.003105446509843156 0.0092643500004715249 0 0.002958182392254208 0.0097415533055162287 0 0.0034662256601325353 0.0098250242259196891 0 0.003105446509843156 0.0092643500004715249 0 0.002958182392254208 0.0097415533055162287 0 0.0026678200969380331 0.0099862159530022202 0 0.0030336703580775173 0.010103831432718289 0 0.0024920017375561236 0.0095577142910130662 0 0.002958182392254208 0.0097415533055162287 0 0.0026678200969380331 0.0099862159530022202 0 0.002958182392254208 0.0097415533055162287 0 0.0030336703580775173 0.010103831432718289 0 0.0034662256601325353 0.0098250242259196891 0 0.002730771830591029 0.010884272468708598 0 0.0025179504231096499 0.010497866059348257 0 0.0032535258258211499 0.010496783159979621 0 0.0025179504231096499 0.010497866059348257 0 0.0030336703580775173 0.010103831432718289 0 0.0032535258258211499 0.010496783159979621 0 0.0025179504231096499 0.010497866059348257 0 0.0026678200969380331 0.0099862159530022202 0 0.0030336703580775173 0.010103831432718289 0 0.0030336703580775173 0.010103831432718289 0 0.0032535258258211499 0.010496783159979621 0 0.0034662256601325353 0.0098250242259196891 0 0.0017834219192470354 0.013940138676329348 0 0.0024235406344660223 0.014090865365533212 0 0.0019698771808646935 0.013365865737139559 0 0.0010943180215880943 0.01685181809819401 0 0.0010999539787564371 0.016901435344034332 0 0.0011347517801863676 0.016893211009353863 0 0.0026706415522006616 0.011731880459416612 0 0.0025820618270400233 0.012735728366342729 0 0.0017351812279741538 0.015944816586623729 0 0.0025820618270400233 0.012735728366342729 0 0.0010943180215880943 0.01685181809819401 0 0.0010744291818312692 0.016899805032549075 0 0.0010999539787564371 0.016901435344034332 0 0.0010943180215880943 0.01685181809819401 0 0.0010744291818312692 0.016899805032549075 0 0.0010487124998665508 0.016883240106848229 0 0.0010507648551936605 0.016840073169409133 0 0.0010943180215880943 0.01685181809819401 0 0.0010487124998665508 0.016883240106848229 0 0.0010744291818312692 0.016899805032549075 0 0.0010487124998665508 0.016883240106848229 0 0.0010354673643444363 0.016925533937297829 0 0.0010744291818312692 0.016899805032549075 0 0.0010756404805076787 0.01693380227528974 0 0.0010354673643444363 0.016925533937297829 0 0.0010744291818312692 0.016899805032549075 0 0.0010999539787564371 0.016901435344034332 0 0.0010756404805076787 0.01693380227528974 0 0.0010999539787564371 0.016901435344034332 0 0.0010756404805076787 0.01693380227528974 0 0.0011155502918687664 0.01692794737854721 0 0.0010999539787564371 0.016901435344034332 0 0.0011347517801863676 0.016893211009353863 0 0.0011155502918687664 0.01692794737854721 0 0.0025820618270400233 0.012735728366342729 0 0.0013366864150452676 0.01361511592430574 0 0.0011347517801863676 0.016893211009353863 0 0.0011155502918687664 0.01692794737854721 0 0.0011227732967575474 0.016928854760578226 0 0.0025820618270400233 0.012735728366342729 0 0.0028061479959355386 0.0088014168026861739 0 0.0034944314142462763 0.009945068199289947 0 0.0036615275777895423 0.0094082032850951233 0 0.003105446509843156 0.0092643500004715249 0 0.0013366864150452676 0.01361511592430574 0 0.0018362747339230865 0.010545176956022355 0 0.0013366864150452676 0.01361511592430574 0 0.00094098790353405119 0.015182924736777436 0 0.0011155502918687664 0.01692794737854721 0 0.0011275859525660444 0.016937437160360638 0 0.0010811207170519808 0.016973543652082482 0 0.0017471898976727175 0.014501501929391532 0 0.0013366864150452676 0.01361511592430574 0 0.0010811207170519808 0.016973543652082482 0 0.0010319576946223269 0.016972029018586958 0 0.0010401161096447505 0.017024744765457546 0 0.0011275859525660444 0.016937437160360638 0 0.0010811207170519808 0.016973543652082482 0 0.0010982716968821107 0.017024619507799977 0 0.0010756404805076787 0.01693380227528974 0 0.0010811207170519808 0.016973543652082482 0 0.0010319576946223269 0.016972029018586958 0 0.0010756404805076787 0.01693380227528974 0 0.0011155502918687664 0.01692794737854721 0 0.0010811207170519808 0.016973543652082482 0 0.00094098790353405119 0.015182924736777436 0 0.00094045461836627579 0.016046212002941044 0 0.0010811207170519808 0.016973543652082482 0 0.0010982716968821107 0.017024619507799977 0 0.0010401161096447505 0.017024744765457546 0 0.0010982716968821107 0.017024619507799977 0 0.0010401161096447505 0.017024744765457546 0 0.0010731966964144576 0.017092677717833463 0 0.000792948902733731 0.013376467884669783 0 0.00070880982508123339 0.013043868071416496 0 0.00055138017763891505 0.01311642347576266 0 0.00086250596679927839 0.013141957677575268 0 0.00070880982508123339 0.013043868071416496 0 0.00093411453180441875 0.012916684336261365 0 0.000792948902733731 0.013376467884669783 0 0.00086250596679927839 0.013141957677575268 0 0.00070880982508123339 0.013043868071416496 0 0.00070880982508123339 0.013043868071416496 0 0.00055138017763891505 0.01311642347576266 0 0.00063303797057176025 0.012877133156013638 0 0.0018378339656497775 0.0086031428145661986 0 0.0021209672013349731 0.0083431529963277542 0 0.002317094033088348 0.0089694019593925603 0 0.0028834617809681382 0.0085646397654922275 0 0.0021209672013349731 0.0083431529963277542 0 0.0021480243635011351 0.0078184112114882166 0 0.0028834617809681382 0.0085646397654922275 0 0.0021209672013349731 0.0083431529963277542 0 0.002317094033088348 0.0089694019593925603 0 0.001993508558428139 0.0095222545386675159 0 0.0024920017375561236 0.0095577142910130662 0 0.002317094033088348 0.0089694019593925603 0 0.0036615275777895423 0.0094082032850951233 0 0.0028834617809681382 0.0085646397654922275 0 0.003105446509843156 0.0092643500004715249 0 0.0028834617809681382 0.0085646397654922275 0 0.002317094033088348 0.0089694019593925603 0 0.003105446509843156 0.0092643500004715249 0 0.0024920017375561236 0.0095577142910130662 0 0.002317094033088348 0.0089694019593925603 0 0.003105446509843156 0.0092643500004715249 0 0.00080491245240814347 0.016976012193958886 0 0.00088170602599750212 0.016950366244558496 0 0.0008282357758329764 0.017034314595933311 0 0.00083158570459213152 0.016894711381263437 0 0.00080491245240814347 0.016976012193958886 0 0.00088170602599750212 0.016950366244558496 0 0.0008933128096952033 0.01685521542652638 0 0.00088170602599750212 0.016950366244558496 0 0.00094479550624578673 0.016901327344345532 0 0.00088170602599750212 0.016950366244558496 0 0.00092236360964603737 0.01699606514042527 0 0.0008282357758329764 0.017034314595933311 0 0.00092236360964603737 0.01699606514042527 0 0.00097517047788433055 0.016954122179142949 0 0.00097899707286997839 0.017011857434074597 0 0.00088170602599750212 0.016950366244558496 0 0.00092236360964603737 0.01699606514042527 0 0.00097517047788433055 0.016954122179142949 0 0.00097517047788433055 0.016954122179142949 0 0.00094479550624578673 0.016901327344345532 0 0.0010030766237260581 0.01690742062109277 0 0.00088170602599750212 0.016950366244558496 0 0.00097517047788433055 0.016954122179142949 0 0.00094479550624578673 0.016901327344345532 0 0.0010061342993138865 0.016868117043758672 0 0.00094479550624578673 0.016901327344345532 0 0.0010030766237260581 0.01690742062109277 0 0.0010061342993138865 0.016868117043758672 0 0.0010030766237260581 0.01690742062109277 0 0.0010487124998665508 0.016883240106848229 0 0.0010507648551936605 0.016840073169409133 0 0.0010061342993138865 0.016868117043758672 0 0.0010487124998665508 0.016883240106848229 0 0.0010030766237260581 0.01690742062109277 0 0.0010487124998665508 0.016883240106848229 0 0.0010354673643444363 0.016925533937297829 0 0.00097517047788433055 0.016954122179142949 0 0.0010030766237260581 0.01690742062109277 0 0.0010354673643444363 0.016925533937297829 0 0.00097517047788433055 0.016954122179142949 0 0.0010354673643444363 0.016925533937297829 0 0.0010319576946223269 0.016972029018586958 0 0.0010756404805076787 0.01693380227528974 0 0.0010354673643444363 0.016925533937297829 0 0.0010319576946223269 0.016972029018586958 0 0.00097517047788433055 0.016954122179142949 0 0.0010319576946223269 0.016972029018586958 0 0.00097899707286997839 0.017011857434074597 0 0.0010319576946223269 0.016972029018586958 0 0.0010401161096447505 0.017024744765457546 0 0.00097899707286997839 0.017011857434074597 0 0.00099659375734719 0.017072177472767094 0 0.0010401161096447505 0.017024744765457546 0 0.0010731966964144576 0.017092677717833463 0 0.00099659375734719 0.017072177472767094 0 0.0010401161096447505 0.017024744765457546 0 0.00097899707286997839 0.017011857434074597 0 0.0012387929975525727 0.018172729738756267 0 0.0010986733431759127 0.017913183993151387 0 0.00099659375734719 0.017072177472767094 0 0.00097899707286997839 0.017011857434074597 0 0.00091191494246308262 0.017055126105398097 0 0.0012601133173223158 0.018787129670741583 0 0.0013328212067988748 0.018822889480155165 0 0.0013515068013538573 0.018757596287040143 0 0.00092236360964603737 0.01699606514042527 0 0.00097899707286997839 0.017011857434074597 0 0.00091191494246308262 0.017055126105398097 0 0.00092236360964603737 0.01699606514042527 0 0.00091191494246308262 0.017055126105398097 0 0.0008282357758329764 0.017034314595933311 0 0.0010986733431759127 0.017913183993151387 0 0.00090551644175246272 0.017752370281565694 0 0.0012452098344193922 0.018808265981000133 0 0.0015211543392657848 0.019214756658915342 0 0.0012280783246394107 0.018835451727493128 0 0.001193076521037675 0.019352236499784306 0 0.0017397282265908805 0.019515315457029041 0 0.0013328212067988748 0.018822889480155165 0 0.0012280783246394107 0.018835451727493128 0 0.0013515068013538573 0.018757596287040143 0 0.0012280783246394107 0.018835451727493128 0 0.00098716360102380028 0.019097622217828337 0 0.001193076521037675 0.019352236499784306 0 0.00098716360102380028 0.019097622217828337 0 0.001193076521037675 0.019352236499784306 0 0.00084378765948794746 0.019374706193543409 0 0.0012280783246394107 0.018835451727493128 0 0.00098716360102380028 0.019097622217828337 0 0.00093828604109371381 0.018870426965160256 0 0.0012280783246394107 0.018835451727493128 0 0.00093828604109371381 0.018870426965160256 0 0.001084384515052543 0.018664301040667384 0 0.0013328212067988748 0.018822889480155165 0 0.0012280783246394107 0.018835451727493128 0 0.001084384515052543 0.018664301040667384 0 0.0013287657009182427 0.02008755563637488 0 0.0010939163678508781 0.019890769441853851 0 0.0008827688203200966 0.020196526437686862 0 0.0013287657009182427 0.02008755563637488 0 0.0010939163678508781 0.019890769441853851 0 0.0013903405764919944 0.019755355376910946 0 0.0010939163678508781 0.019890769441853851 0 0.0010192313911195901 0.019613901475666027 0 0.0013903405764919944 0.019755355376910946 0 0.0010939163678508781 0.019890769441853851 0 0.0010192313911195901 0.019613901475666027 0 0.0007832097405565939 0.019893528049938002 0 0.0010192313911195901 0.019613901475666027 0 0.001193076521037675 0.019352236499784306 0 0.00084378765948794746 0.019374706193543409 0 0.0010192313911195901 0.019613901475666027 0 0.001193076521037675 0.019352236499784306 0 0.0013903405764919944 0.019755355376910946 0 0.001193076521037675 0.019352236499784306 0 0.0017397282265908805 0.019515315457029041 0 0.0013903405764919944 0.019755355376910946 0 0.0017397282265908805 0.019515315457029041 0 0.0013903405764919944 0.019755355376910946 0 0.0017388735982060844 0.019819094206242796 0 0.0013903405764919944 0.019755355376910946 0 0.0016224242519939625 0.020003849114329335 0 0.0017388735982060844 0.019819094206242796 0 0.0013287657009182427 0.02008755563637488 0 0.0013903405764919944 0.019755355376910946 0 0.0016224242519939625 0.020003849114329335 0 0.0013515068013538573 0.018757596287040143 0 0.0012295827658669396 0.018676590823081832 0 0.0012625650718806267 0.018555755628870397 0 0.0015211543392657848 0.019214756658915342 0 0.0018746700796986088 0.018901222223492154 0 0.0017397282265908805 0.019515315457029041 0 0.0017388735982060844 0.019819094206242796 0 0.0021425330228684722 0.020139141993078837 0 0.0018747716912570903 0.020041447121758722 0 0.0017388735982060844 0.019819094206242796 0 0.0021425330228684722 0.020139141993078837 0 0.0016224242519939625 0.020003849114329335 0 0.0018747716912570903 0.020041447121758722 0 0.0017770770468817031 0.02016032918594509 0 0.0016224242519939625 0.020003849114329335 0 0.0018747716912570903 0.020041447121758722 0 0.0017388735982060844 0.019819094206242796 0 0.0012601133173223158 0.018787129670741583 0 0.0013515068013538573 0.018757596287040143 0 0.0012295827658669396 0.018676590823081832 0 0.0012601133173223158 0.018787129670741583 0 0.0012295827658669396 0.018676590823081832 0 0.0011089741705933263 0.018693881790292768 0 0.0012387929975525727 0.018172729738756267 0 0.00094045461836627579 0.016046212002941044 0 0.0012295827658669396 0.018676590823081832 0 0.0012625650718806267 0.018555755628870397 0 0.0011466412686553362 0.018576594268826029 0 0.0018746700796986088 0.018901222223492154 0 0.00046999774405321351 0.015820799532135322 0 0.00090749288598132463 0.015561632886179299 0 0.00046999774405321351 0.015820799532135322 0 0.0014612888684981818 0.016868643027784649 0 0.00099868479613851504 0.016233886316016497 0 0.00072371170978905808 0.017083007798637365 0 0.0018746700796986088 0.018901222223492154 0 0.0018676731671103443 0.018969602125490884 0 0.0018746700796986088 0.018901222223492154 0 0.00090749288598132463 0.015561632886179299 0 0.0022722888800618003 0.020467280682915943 0 0.0020388465876234104 0.02047739868870628 0 0.002045907509251526 0.02031457594767231 0 0.0021298756493113502 0.020145521540042309 0 0.0022722888800618003 0.020467280682915943 0 0.002045907509251526 0.02031457594767231 0 0.0022722888800618003 0.020467280682915943 0 0.0020572048035264797 0.020622155597497516 0 0.0021502431550718851 0.020753625570338566 0 0.0022722888800618003 0.020467280682915943 0 0.0020356388327793734 0.0206723629484903 0 0.0021502431550718851 0.020753625570338566 0 0.00090749288598132463 0.015561632886179299 0 -0.00086599241890620399 0.011752493030643001 0 0.00090749288598132463 0.015561632886179299 0 0.001033789864154905 0.016196674045630972 0 -6.6373861273626511e-05 0.012208625480719347 0 -0.0003276373498891446 0.011838641087297201 0 0.00010504647882946461 0.011379415219395384 0 0.0022722888800618003 0.020467280682915943 0 0.0020388465876234104 0.02047739868870628 0 0.0020572048035264797 0.020622155597497516 0 0.0020388465876234104 0.02047739868870628 0 0.0020572048035264797 0.020622155597497516 0 0.0018768835885151335 0.020580193486777025 0 0.0020572048035264797 0.020622155597497516 0 0.0020108438765851569 0.020751588079591234 0 0.0018556047583528953 0.020755247454906235 0 0.0020572048035264797 0.020622155597497516 0 0.0020108438765851569 0.020751588079591234 0 0.0021502431550718851 0.020753625570338566 0 0.0018556047583528953 0.020755247454906235 0 0.0018768835885151335 0.020580193486777025 0 0.001684495015682193 0.020688222369105679 0 0.0020572048035264797 0.020622155597497516 0 0.0018556047583528953 0.020755247454906235 0 0.0018768835885151335 0.020580193486777025 0 0.0018768835885151335 0.020580193486777025 0 0.001690229906149671 0.020513807493195136 0 0.001684495015682193 0.020688222369105679 0 0.0020388465876234104 0.02047739868870628 0 0.0018768835885151335 0.020580193486777025 0 0.0018382738118375721 0.020438264905963274 0 0.0018768835885151335 0.020580193486777025 0 0.0018382738118375721 0.020438264905963274 0 0.001690229906149671 0.020513807493195136 0 0.0018382738118375721 0.020438264905963274 0 0.0018522579671388908 0.020279625266255031 0 0.0016024966212784776 0.020305387012110526 0 0.0018382738118375721 0.020438264905963274 0 0.002045907509251526 0.02031457594767231 0 0.0018522579671388908 0.020279625266255031 0 0.0020388465876234104 0.02047739868870628 0 0.0018382738118375721 0.020438264905963274 0 0.002045907509251526 0.02031457594767231 0 0.0018747716912570903 0.020041447121758722 0 0.0020881741268183934 0.020156626199557853 0 0.001928746753449395 0.020170833041725195 0 0.002045907509251526 0.02031457594767231 0 0.0019907404822817861 0.020228421737015747 0 0.0018522579671388908 0.020279625266255031 0 0.0019907404822817861 0.020228421737015747 0 0.001928746753449395 0.020170833041725195 0 0.0018522579671388908 0.020279625266255031 0 0.0018747716912570903 0.020041447121758722 0 0.0021425330228684722 0.020139141993078837 0 0.0020881741268183934 0.020156626199557853 0 0.0021298756493113502 0.020145521540042309 0 0.002045907509251526 0.02031457594767231 0 0.0020881741268183934 0.020156626199557853 0 0.002045907509251526 0.02031457594767231 0 0.0019907404822817861 0.020228421737015747 0 0.0020881741268183934 0.020156626199557853 0 0.0019907404822817861 0.020228421737015747 0 0.0020881741268183934 0.020156626199557853 0 0.001928746753449395 0.020170833041725195 0 0.0017770770468817031 0.02016032918594509 0 0.0018522579671388908 0.020279625266255031 0 0.0016024966212784776 0.020305387012110526 0 0.0018747716912570903 0.020041447121758722 0 0.001928746753449395 0.020170833041725195 0 0.0017770770468817031 0.02016032918594509 0 0.001928746753449395 0.020170833041725195 0 0.0017770770468817031 0.02016032918594509 0 0.0018522579671388908 0.020279625266255031 0 0.0016224242519939625 0.020003849114329335 0 0.0017770770468817031 0.02016032918594509 0 0.0016024966212784776 0.020305387012110526 0 0.0013287657009182427 0.02008755563637488 0 0.0016224242519939625 0.020003849114329335 0 0.0016024966212784776 0.020305387012110526 0 0.0013287657009182427 0.02008755563637488 0 0.0016024966212784776 0.020305387012110526 0 0.0012184354179336863 0.020401851294329584 0 0.0016024966212784776 0.020305387012110526 0 0.0014926355031342736 0.020575140135545553 0 0.0012184354179336863 0.020401851294329584 0 0.0016024966212784776 0.020305387012110526 0 0.001690229906149671 0.020513807493195136 0 0.0014926355031342736 0.020575140135545553 0 0.0018382738118375721 0.020438264905963274 0 0.0016024966212784776 0.020305387012110526 0 0.001690229906149671 0.020513807493195136 0 0.001690229906149671 0.020513807493195136 0 0.001684495015682193 0.020688222369105679 0 0.0014926355031342736 0.020575140135545553 0 0.0018556047583528953 0.020755247454906235 0 0.001684495015682193 0.020688222369105679 0 0.0016983945713820601 0.020920911156313265 0 0.001684495015682193 0.020688222369105679 0 0.0014795710034090127 0.02079703782414305 0 0.0014926355031342736 0.020575140135545553 0 0.001684495015682193 0.020688222369105679 0 0.0014795710034090127 0.02079703782414305 0 0.0016983945713820601 0.020920911156313265 0 0.0014795710034090127 0.02079703782414305 0 0.0014926355031342736 0.020575140135545553 0 0.0012355248626870498 0.020752572467293583 0 0.0014795710034090127 0.02079703782414305 0 0.0012355248626870498 0.020752572467293583 0 0.0013783210560986872 0.02104585823148495 0 0.0012355248626870498 0.020752572467293583 0 0.0012184354179336863 0.020401851294329584 0 0.00081652292806752699 0.020606725214361892 0 0.0014926355031342736 0.020575140135545553 0 0.0012355248626870498 0.020752572467293583 0 0.0012184354179336863 0.020401851294329584 0 0.0012355248626870498 0.020752572467293583 0 0.00098990919110163969 0.021045573788189872 0 0.00081652292806752699 0.020606725214361892 0 0.0012184354179336863 0.020401851294329584 0 0.00081652292806752699 0.020606725214361892 0 0.0008827688203200966 0.020196526437686862 0 0.0013287657009182427 0.02008755563637488 0 0.0012184354179336863 0.020401851294329584 0 0.0008827688203200966 0.020196526437686862 0 -0.00054822866554735735 0.010957244984030282 0 -0.00057575886533218329 0.010950300208531674 0 -0.00055736525494337597 0.01097584746811666 0 -0.00078522281331232821 0.011007029764588434 0 -6.0487146689552221e-05 0.012020431895314885 0 -0.00054822866554735735 0.010957244984030282 0 -0.00055736525494337597 0.01097584746811666 0 -0.0005198402877196757 0.010977166493038598 0 -0.00022483288755724697 0.011922461064339125 0 -6.0487146689552221e-05 0.012020431895314885 0 -0.00054822866554735735 0.010957244984030282 0 -0.00050299695712021015 0.010997465265410452 0 -0.00050795027301555283 0.010941281254608153 0 -0.00054822866554735735 0.010957244984030282 0 -0.00057575886533218329 0.010950300208531674 0 -0.00055480475281797365 0.010913514366360308 0 0.00060089300819336658 0.0092021204927925197 0 -0.00053270820963182797 0.01093614219734269 0 -0.00059613828804876102 0.010955025580006198 0 -0.00057575886533218329 0.010950300208531674 0 -0.000596384263815938 0.01090510352030338 0 -0.00059613828804876102 0.010955025580006198 0 -0.00057575886533218329 0.010950300208531674 0 -0.00058194559628933816 0.010971576467543933 0 -0.00057575886533218329 0.010950300208531674 0 -0.00058194559628933816 0.010971576467543933 0 -0.00055736525494337597 0.01097584746811666 0 0.0018362747339230865 0.010545176956022355 0 0.00085810705625998613 0.010180453835965697 0 0.00085810705625998613 0.010180453835965697 0 -0.00022483288755724697 0.011922461064339125 0 0.00055138017763891505 0.01311642347576266 0 0.00031129653381710133 0.012846732783497739 0 0.00050393614927863239 0.012806042466278556 0 0.00060089300819336658 0.0092021204927925197 0 0.00085810705625998613 0.010180453835965697 0 0.0017791348360634974 0.00793643441083027 0 0.0021209672013349731 0.0083431529963277542 0 0.0021480243635011351 0.0078184112114882166 0 0.00055138017763891505 0.01311642347576266 0 0.00050393614927863239 0.012806042466278556 0 0.00063303797057176025 0.012877133156013638 0 0.00050393614927863239 0.012806042466278556 0 0.00063303797057176025 0.012877133156013638 0 0.00069537979562893468 0.012761105036013534 0 0.00070880982508123339 0.013043868071416496 0 0.00063303797057176025 0.012877133156013638 0 0.00075746039501016699 0.012879491607427749 0 0.00070880982508123339 0.013043868071416496 0 0.00075746039501016699 0.012879491607427749 0 0.00093411453180441875 0.012916684336261365 0 0.00075746039501016699 0.012879491607427749 0 0.00093411453180441875 0.012916684336261365 0 0.00076758947745363148 0.012815675346257882 0 0.00046200670484136197 0.012913444399245246 0 0.00031918256307513361 0.013137300865957165 0 0.00063303797057176025 0.012877133156013638 0 0.000712801929219771 0.012829778797680205 0 0.00069537979562893468 0.012761105036013534 0 0.00063303797057176025 0.012877133156013638 0 0.00075746039501016699 0.012879491607427749 0 0.000712801929219771 0.012829778797680205 0 0.00075746039501016699 0.012879491607427749 0 0.000712801929219771 0.012829778797680205 0 0.0007690393443957579 0.012800470844713167 0 0.00094045461836627579 0.016046212002941044 0 0.00031918256307513361 0.013137300865957165 0 0.00044554308173052796 0.014872565316713595 0 0.0004087765878932591 0.014801327080328929 0 0.00033236706902331167 0.014803775948688052 0 0.0004087765878932591 0.014801327080328929 0 0.00048971023576145005 0.01472970182355496 0 0.00033859481283509167 0.014763518212564802 0 0.0012295827658669396 0.018676590823081832 0 0.0011089741705933263 0.018693881790292768 0 0.0011466412686553362 0.018576594268826029 0 0.00046999774405321351 0.015820799532135322 0 -0.00027638024183974003 0.012685719336745066 0 0.00044554308173052796 0.014872565316713595 0 0.0004087765878932591 0.014801327080328929 0 0.00048971023576145005 0.01472970182355496 0 -0.00027267270218967479 0.013090771365986799 0 -0.0010996740768972528 0.013334253443561046 0 -0.00068782783276696965 0.012773434760381477 0 0.00094045461836627579 0.016046212002941044 0 0.00046999774405321351 0.015820799532135322 0 -6.0487146689552221e-05 0.012020431895314885 0 -0.00027638024183974003 0.012685719336745066 0 -6.0487146689552221e-05 0.012020431895314885 0 0.00031918256307513361 0.013137300865957165 0 0.000712801929219771 0.012829778797680205 0 0.00069537979562893468 0.012761105036013534 0 0.0007690393443957579 0.012800470844713167 0 8.9217806514700957e-06 0.012431426737177861 0 -4.1047723636534871e-05 0.012406408788622248 0 -4.8891731565562154e-05 0.01245041696061166 0 0.0004087765878932591 0.014801327080328929 0 0.00033236706902331167 0.014803775948688052 0 0.00033859481283509167 0.014763518212564802 0 0.00031918256307513361 0.013137300865957165 0 -0.00027638024183974003 0.012685719336745066 0 -0.00050299695712021015 0.010997465265410452 0 -0.00047677525517464414 0.010993658853394015 0 -0.00050795027301555283 0.010941281254608153 0 -0.00047677525517464414 0.010993658853394015 0 -0.00050795027301555283 0.010941281254608153 0 -0.00045616217979983211 0.010886007521083277 0 -0.0010996740768972528 0.013334253443561046 0 -0.00092554459441587735 0.012235940985709888 0 -0.00068782783276696965 0.012773434760381477 0 -0.00027638024183974003 0.012685719336745066 0 -0.00073407221901639768 0.011460044172059283 0 -0.00050795027301555283 0.010941281254608153 0 -0.00045616217979983211 0.010886007521083277 0 -0.00051747850099197982 0.010869467497171603 0 -1.3321866651739649e-05 0.012254789711203234 0 -0.00027267270218967479 0.013090771365986799 0 -0.00045414794042435483 0.012436843664653838 0 -0.00027267270218967479 0.013090771365986799 0 -0.00068782783276696965 0.012773434760381477 0 -0.00045414794042435483 0.012436843664653838 0 -0.00092554459441587735 0.012235940985709888 0 -0.00068782783276696965 0.012773434760381477 0 -0.00045414794042435483 0.012436843664653838 0 -0.00073407221901639768 0.011460044172059283 0 -0.00054617773782482339 0.01099625935072557 0 -0.00092554459441587735 0.012235940985709888 0 -0.0003276373498891446 0.011838641087297201 0 -0.00070122573591606169 0.01121085048906351 0 -1.3321866651739649e-05 0.012254789711203234 0 -0.00045414794042435483 0.012436843664653838 0 -0.0003276373498891446 0.011838641087297201 0 -0.00092554459441587735 0.012235940985709888 0 -0.00045414794042435483 0.012436843664653838 0 -0.0003276373498891446 0.011838641087297201 0 -0.00045616217979983211 0.010886007521083277 0 -0.00049216393921253478 0.010805752111914809 0 -0.00041769798621305786 0.010731514584496348 0 -0.00045616217979983211 0.010886007521083277 0 -0.00051747850099197982 0.010869467497171603 0 -0.00049216393921253478 0.010805752111914809 0 -0.00051747850099197982 0.010869467497171603 0 -0.00049216393921253478 0.010805752111914809 0 -0.00057991783810018278 0.010782360808451553 0 -0.00053270820963182797 0.01093614219734269 0 -0.00019250589400003425 0.010266770489687419 0 -0.00051747850099197982 0.010869467497171603 0 -0.00055480475281797365 0.010913514366360308 0 -0.00057991783810018278 0.010782360808451553 0 -0.00055480475281797365 0.010913514366360308 0 -0.000596384263815938 0.01090510352030338 0 -0.00057991783810018278 0.010782360808451553 0 -0.00050795027301555283 0.010941281254608153 0 -0.00051747850099197982 0.010869467497171603 0 -0.00055480475281797365 0.010913514366360308 0 -0.00054822866554735735 0.010957244984030282 0 -0.00050795027301555283 0.010941281254608153 0 -0.00055480475281797365 0.010913514366360308 0 -0.00025292678241989179 0.010341617365902934 0 -2.5513163862292734e-05 0.010270060789838985 0 -0.00015222381195395239 0.01005854760849819 0 -0.00057575886533218329 0.010950300208531674 0 -0.00055480475281797365 0.010913514366360308 0 -0.000596384263815938 0.01090510352030338 0 -2.5513163862292734e-05 0.010270060789838985 0 -0.00015222381195395239 0.01005854760849819 0 0.00011670273477541233 0.009904902710686914 0 -0.00015222381195395239 0.01005854760849819 0 7.903547286738188e-05 0.0097484503818465514 0 0.00011670273477541233 0.009904902710686914 0 7.903547286738188e-05 0.0097484503818465514 0 0.00013518153961151802 0.0096011325452675673 0 5.7356605887679205e-05 0.0097932848787372663 0 7.903547286738188e-05 0.0097484503818465514 0 0.00013518153961151802 0.0096011325452675673 0 -0.00026693419107208169 0.0095116424735041238 0 7.903547286738188e-05 0.0097484503818465514 0 -1.4238537961785849e-05 0.009754194607509906 0 5.7356605887679205e-05 0.0097932848787372663 0 -0.00019250589400003425 0.010266770489687419 0 -0.00028079129763639217 0.010203495702079958 0 7.903547286738188e-05 0.0097484503818465514 0 0.00011670273477541233 0.009904902710686914 0 -1.4238537961785849e-05 0.009754194607509906 0 -0.00049216393921253478 0.010805752111914809 0 -0.00057991783810018278 0.010782360808451553 0 -0.000538310245803635 0.01058761864079333 0 -0.00049216393921253478 0.010805752111914809 0 -0.00041769798621305786 0.010731514584496348 0 -0.000538310245803635 0.01058761864079333 0 -0.0003276373498891446 0.011838641087297201 0 -0.00028277667719059699 0.011320158884804275 0 -0.00070122573591606169 0.01121085048906351 0 -0.00028277667719059699 0.011320158884804275 0 -0.00070122573591606169 0.01121085048906351 0 -0.00022246995239800772 0.010883053461930555 0 -0.00054617773782482339 0.01099625935072557 0 -0.00038838078590509113 0.010493972809794597 0 -0.00070122573591606169 0.01121085048906351 0 -0.00035584061616251907 0.010462786896525503 0 -0.00022246995239800772 0.010883053461930555 0 -0.00035584061616251907 0.010462786896525503 0 -0.00022246995239800772 0.010883053461930555 0 -0.00016979570664694274 0.010597977599973921 0 -0.00041769798621305786 0.010731514584496348 0 -0.000538310245803635 0.01058761864079333 0 -0.00035584061616251907 0.010462786896525503 0 -1.4238537961785849e-05 0.009754194607509906 0 -5.1534413759609675e-05 0.0099963320401797069 0 -0.00029478820628506448 0.01021365624112773 0 -0.00028079129763639217 0.010203495702079958 0 -0.00029096725422357188 0.010199262928462216 0 -0.00029478820628506448 0.01021365624112773 0 -0.00017947894111905699 0.010380064949899197 0 -0.00021715791265483535 0.010306576112415556 0 -0.000538310245803635 0.01058761864079333 0 -0.00035584061616251907 0.010462786896525503 0 -0.00029478820628506448 0.01021365624112773 0 -0.00035584061616251907 0.010462786896525503 0 -0.00029478820628506448 0.01021365624112773 0 -0.00017947894111905699 0.010380064949899197 0 -0.00035584061616251907 0.010462786896525503 0 -0.00016979570664694274 0.010597977599973921 0 -0.00017947894111905699 0.010380064949899197 0 -0.00029478820628506448 0.01021365624112773 0 -0.00023374010200540355 0.010281380084812164 0 -0.00013003879295536304 0.010181717715512996 0 -0.00023374010200540355 0.010281380084812164 0 -0.00013003879295536304 0.010181717715512996 0 -0.00015056701788666724 0.010290731657614169 0 -0.00029478820628506448 0.01021365624112773 0 -0.00023374010200540355 0.010281380084812164 0 -0.00021715791265483535 0.010306576112415556 0 -5.1534413759609675e-05 0.0099963320401797069 0 -0.00013003879295536304 0.010181717715512996 0 3.3941934754259306e-05 0.010022199433589618 0 -0.00013003879295536304 0.010181717715512996 0 -1.9125989162785996e-05 0.010197166823118305 0 -0.00015056701788666724 0.010290731657614169 0 -5.1534413759609675e-05 0.0099963320401797069 0 -0.00029478820628506448 0.01021365624112773 0 -0.00013003879295536304 0.010181717715512996 0 -0.00013003879295536304 0.010181717715512996 0 3.3941934754259306e-05 0.010022199433589618 0 -1.9125989162785996e-05 0.010197166823118305 0 3.3941934754259306e-05 0.010022199433589618 0 0.00012720076507566781 0.010086141740021556 0 0.00010442209182846645 0.010152365215292523 0 3.3941934754259306e-05 0.010022199433589618 0 0.00010442209182846645 0.010152365215292523 0 -1.9125989162785996e-05 0.010197166823118305 0 0.00012720076507566781 0.010086141740021556 0 0.00023403168784809348 0.010268731048785402 0 0.00013518153961151802 0.0096011325452675673 0 0.00012720076507566781 0.010086141740021556 0 0.00019645284381328285 0.010151837955717143 0 0.00010442209182846645 0.010152365215292523 0 0.00016092483993780296 0.0094363970347733795 0 0.0001530687244039743 0.0095850541340305774 0 3.3941934754259306e-05 0.010022199433589618 0 0.00012720076507566781 0.010086141740021556 0 0.00013518153961151802 0.0096011325452675673 0 0.00012720076507566781 0.010086141740021556 0 0.00023403168784809348 0.010268731048785402 0 0.00019645284381328285 0.010151837955717143 0 -1.4238537961785849e-05 0.009754194607509906 0 -5.1534413759609675e-05 0.0099963320401797069 0 5.7356605887679205e-05 0.0097932848787372663 0 3.3941934754259306e-05 0.010022199433589618 0 0.00013518153961151802 0.0096011325452675673 0 5.7356605887679205e-05 0.0097932848787372663 0 -5.1534413759609675e-05 0.0099963320401797069 0 3.3941934754259306e-05 0.010022199433589618 0 5.7356605887679205e-05 0.0097932848787372663 0 0.0011690922431942213 0.021443372219452181 0 0.0014637434325556905 0.021685798675792511 0 0.00094101465147928805 0.022046688954131879 0 0.0011690922431942213 0.021443372219452181 0 0.00098990919110163969 0.021045573788189872 0 0.00074677509651323813 0.021489499406982457 0 0.0012355248626870498 0.020752572467293583 0 0.00098990919110163969 0.021045573788189872 0 0.0013783210560986872 0.02104585823148495 0 0.0011690922431942213 0.021443372219452181 0 0.00098990919110163969 0.021045573788189872 0 0.0013783210560986872 0.02104585823148495 0 0.0011690922431942213 0.021443372219452181 0 0.0013783210560986872 0.02104585823148495 0 0.0015864280091504406 0.021244719133065061 0 0.0014795710034090127 0.02079703782414305 0 0.0013783210560986872 0.02104585823148495 0 0.0016983945713820601 0.020920911156313265 0 0.0016983945713820601 0.020920911156313265 0 0.0015864280091504406 0.021244719133065061 0 0.0017919143076245033 0.021094800247084822 0 0.0013783210560986872 0.02104585823148495 0 0.0016983945713820601 0.020920911156313265 0 0.0015864280091504406 0.021244719133065061 0 0.0015864280091504406 0.021244719133065061 0 0.0017844073009824306 0.021271503876550916 0 0.0017919143076245033 0.021094800247084822 0 0.0015864280091504406 0.021244719133065061 0 0.0017362700766298423 0.02148058760181925 0 0.0014637434325556905 0.021685798675792511 0 0.0011690922431942213 0.021443372219452181 0 0.0015864280091504406 0.021244719133065061 0 0.0014637434325556905 0.021685798675792511 0 0.0015864280091504406 0.021244719133065061 0 0.0017362700766298423 0.02148058760181925 0 0.0017844073009824306 0.021271503876550916 0 0.0017362700766298423 0.02148058760181925 0 0.0014637434325556905 0.021685798675792511 0 0.00173230585930821 0.021803783371047467 0 0.0022417269501477056 0.019418386530725248 0 0.0024308378666379245 0.019516798789153883 0 0.002705218214643295 0.01750661430496334 0 0.0017362700766298423 0.02148058760181925 0 0.0018937769974150891 0.021633003633910169 0 0.0019142211943528448 0.021368307856313749 0 0.0018937769974150891 0.021633003633910169 0 0.002088045233670897 0.021473420859774224 0 0.0019142211943528448 0.021368307856313749 0 0.0017362700766298423 0.02148058760181925 0 0.0018937769974150891 0.021633003633910169 0 0.00173230585930821 0.021803783371047467 0 0.002088045233670897 0.021473420859774224 0 0.0019142211943528448 0.021368307856313749 0 0.0020270155949766752 0.021213043271990507 0 0.0019142211943528448 0.021368307856313749 0 0.0017844073009824306 0.021271503876550916 0 0.0019019698743355925 0.021166962184082729 0 0.0019142211943528448 0.021368307856313749 0 0.0019019698743355925 0.021166962184082729 0 0.0020270155949766752 0.021213043271990507 0 0.0017362700766298423 0.02148058760181925 0 0.0019142211943528448 0.021368307856313749 0 0.0017844073009824306 0.021271503876550916 0 0.0022369617996371815 0.021289141857231107 0 0.0022074918638088237 0.020435277954528382 0 0.002088045233670897 0.021473420859774224 0 0.0020270155949766752 0.021213043271990507 0 0.0021502431550718851 0.020753625570338566 0 0.0017844073009824306 0.021271503876550916 0 0.0019019698743355925 0.021166962184082729 0 0.0017919143076245033 0.021094800247084822 0 0.0019019698743355925 0.021166962184082729 0 0.001904313411286974 0.021021369264033096 0 0.0017919143076245033 0.021094800247084822 0 0.0019019698743355925 0.021166962184082729 0 0.001904313411286974 0.021021369264033096 0 0.0020073236610293728 0.021043618851169656 0 0.0016983945713820601 0.020920911156313265 0 0.0017919143076245033 0.021094800247084822 0 0.0018379144631634674 0.020906673009017426 0 0.001904313411286974 0.021021369264033096 0 0.0017919143076245033 0.021094800247084822 0 0.0018379144631634674 0.020906673009017426 0 0.001904313411286974 0.021021369264033096 0 0.0018379144631634674 0.020906673009017426 0 0.001971723049584245 0.020889190212550045 0 0.0018556047583528953 0.020755247454906235 0 0.0018379144631634674 0.020906673009017426 0 0.001971723049584245 0.020889190212550045 0 0.0018556047583528953 0.020755247454906235 0 0.0016983945713820601 0.020920911156313265 0 0.0018379144631634674 0.020906673009017426 0 0.001971723049584245 0.020889190212550045 0 0.0020073236610293728 0.021043618851169656 0 0.0021502431550718851 0.020753625570338566 0 0.0020108438765851569 0.020751588079591234 0 0.001971723049584245 0.020889190212550045 0 0.0021502431550718851 0.020753625570338566 0 0.0020108438765851569 0.020751588079591234 0 0.0018556047583528953 0.020755247454906235 0 0.001971723049584245 0.020889190212550045 0 0.001904313411286974 0.021021369264033096 0 0.001971723049584245 0.020889190212550045 0 0.0020073236610293728 0.021043618851169656 0 0.0020073236610293728 0.021043618851169656 0 0.0020270155949766752 0.021213043271990507 0 0.0021502431550718851 0.020753625570338566 0 0.0019019698743355925 0.021166962184082729 0 0.0020073236610293728 0.021043618851169656 0 0.0020270155949766752 0.021213043271990507 0 9.2283379811737451e-05 0.010704649802098683 0 0.00010504647882946461 0.011379415219395384 0 -0.00022246995239800772 0.010883053461930555 0 0.0024308378666379245 0.019516798789153883 0 0.0020356388327793734 0.0206723629484903 0 0.0021502431550718851 0.020753625570338566 0 0.0012642221551271932 0.014708627669953794 0 0.001033789864154905 0.016196674045630972 0 -0.0003276373498891446 0.011838641087297201 0 -0.00028277667719059699 0.011320158884804275 0 0.00010504647882946461 0.011379415219395384 0 -0.00028277667719059699 0.011320158884804275 0 0.00010504647882946461 0.011379415219395384 0 -0.00022246995239800772 0.010883053461930555 0 9.2283379811737451e-05 0.010704649802098683 0 -0.00022246995239800772 0.010883053461930555 0 -0.00016979570664694274 0.010597977599973921 0 0.0022417269501477056 0.019418386530725248 0 0.0024308378666379245 0.019516798789153883 0 0.0020356388327793734 0.0206723629484903 0 9.2283379811737451e-05 0.010704649802098683 0 -0.00017947894111905699 0.010380064949899197 0 -7.6436941304155835e-05 0.010395750656934126 0 -0.00017947894111905699 0.010380064949899197 0 -0.00017391523963394251 0.010345735433689541 0 -7.6436941304155835e-05 0.010395750656934126 0 9.2283379811737451e-05 0.010704649802098683 0 -0.00016979570664694274 0.010597977599973921 0 -0.00017947894111905699 0.010380064949899197 0 -0.00017947894111905699 0.010380064949899197 0 -0.00021715791265483535 0.010306576112415556 0 -0.00017391523963394251 0.010345735433689541 0 -0.00021715791265483535 0.010306576112415556 0 -0.0002144909288656694 0.010331934373222504 0 -0.00017391523963394251 0.010345735433689541 0 -0.00023374010200540355 0.010281380084812164 0 -0.00021715791265483535 0.010306576112415556 0 -0.0002144909288656694 0.010331934373222504 0 -0.00023374010200540355 0.010281380084812164 0 -0.0002144909288656694 0.010331934373222504 0 -0.0002236940738139121 0.010385434178833442 0 -0.0002144909288656694 0.010331934373222504 0 -0.00017391523963394251 0.010345735433689541 0 -0.00023588537263368839 0.010374945036519931 0 -0.00045259689939141349 0.01118227594612947 0 -0.00042818903510161166 0.01190007759116749 0 -0.00035571552580159225 0.010973197192545399 0 -0.00025775075552128378 0.010013804585151999 0 0.0010187896506793775 0.015669836760094796 0 0.0010187896506793775 0.015669836760094796 0 0.00060923096659858415 0.017066563115115937 0 -0.00017391523963394251 0.010345735433689541 0 -0.00030275731971207481 0.010364210105519377 0 -7.6436941304155835e-05 0.010395750656934126 0 -0.00017391523963394251 0.010345735433689541 0 -0.00023588537263368839 0.010374945036519931 0 -0.00030275731971207481 0.010364210105519377 0 0.0022369617996371815 0.021289141857231107 0 0.0010187896506793775 0.015669836760094796 0 0.0018937769974150891 0.021633003633910169 0 0.002088045233670897 0.021473420859774224 0 0.0019477044713020178 0.02200182407795772 0 0.0012642221551271932 0.014708627669953794 0 0.0010187896506793775 0.015669836760094796 0 0.0018937769974150891 0.021633003633910169 0 0.0019477044713020178 0.02200182407795772 0 0.00173230585930821 0.021803783371047467 0 0.0014637434325556905 0.021685798675792511 0 0.00173230585930821 0.021803783371047467 0 0.0014676072632432012 0.02220291643281801 0 0.0019477044713020178 0.02200182407795772 0 0.00173230585930821 0.021803783371047467 0 0.0014676072632432012 0.02220291643281801 0 0.0019477044713020178 0.02200182407795772 0 0.0014676072632432012 0.02220291643281801 0 0.001733105614977187 0.022572673132050403 0 0.0014676072632432012 0.02220291643281801 0 0.0011091062495915626 0.022480567541356137 0 0.00094101465147928805 0.022046688954131879 0 0.0014676072632432012 0.02220291643281801 0 0.0011091062495915626 0.022480567541356137 0 0.0013711117808760068 0.0227176282561092 0 0.0014637434325556905 0.021685798675792511 0 0.0014676072632432012 0.02220291643281801 0 0.00094101465147928805 0.022046688954131879 0 0.0010913773020473632 0.022927441165237022 0 0.0014892120320069741 0.023095369715373664 0 0.0011226391939259195 0.023306175452803078 0 0.0010913773020473632 0.022927441165237022 0 0.0013711117808760068 0.0227176282561092 0 0.0014892120320069741 0.023095369715373664 0 0.0011091062495915626 0.022480567541356137 0 0.0010913773020473632 0.022927441165237022 0 0.0013711117808760068 0.0227176282561092 0 0.0014676072632432012 0.02220291643281801 0 0.0013711117808760068 0.0227176282561092 0 0.001733105614977187 0.022572673132050403 0 0.0013711117808760068 0.0227176282561092 0 0.0014892120320069741 0.023095369715373664 0 0.001733105614977187 0.022572673132050403 0 -0.00045071049265448529 0.01059502002386409 0 -0.00044187987047340132 0.010692703376436564 0 -0.00035571552580159225 0.010973197192545399 0 0.0005348618794366475 0.016775340381485895 0 0.00060923096659858415 0.017066563115115937 0 -0.00045071049265448529 0.01059502002386409 0 -0.00039351476189242526 0.010641961822607803 0 -0.00044187987047340132 0.010692703376436564 0 -0.00039351476189242526 0.010641961822607803 0 -0.00033396159686185174 0.010591202945368177 0 -0.00029368580705488485 0.010627186449720293 0 -0.00033396159686185174 0.010591202945368177 0 -0.00044187987047340132 0.010692703376436564 0 -0.00031783976848867427 0.010513827508018013 0 -0.00039351476189242526 0.010641961822607803 0 -0.00033396159686185174 0.010591202945368177 0 -0.00044187987047340132 0.010692703376436564 0 -0.00030275731971207481 0.010364210105519377 0 -0.00044187987047340132 0.010692703376436564 0 -0.00031783976848867427 0.010513827508018013 0 -0.00025775075552128378 0.010013804585151999 0 -0.00046906319039908439 0.010968031577009018 0 -0.00045259689939141349 0.01118227594612947 0 -0.00044187987047340132 0.010692703376436564 0 -0.00035571552580159225 0.010973197192545399 0 -0.00030275731971207481 0.010364210105519377 0 -0.00027997639703610639 0.010418027154306597 0 -0.00031783976848867427 0.010513827508018013 0 -0.00023588537263368839 0.010374945036519931 0 -0.00030275731971207481 0.010364210105519377 0 -0.00027997639703610639 0.010418027154306597 0 -0.00023588537263368839 0.010374945036519931 0 -0.00027997639703610639 0.010418027154306597 0 -0.00027070557612520542 0.01046687534504785 0 -0.00033396159686185174 0.010591202945368177 0 -0.00031783976848867427 0.010513827508018013 0 -0.00027070557612520542 0.01046687534504785 0 -0.00027997639703610639 0.010418027154306597 0 -0.00031783976848867427 0.010513827508018013 0 -0.00027070557612520542 0.01046687534504785 0 -0.00027070557612520542 0.01046687534504785 0 -0.0002236940738139121 0.010385434178833442 0 -0.0002564012360283463 0.010523662884591464 0 -0.0002144909288656694 0.010331934373222504 0 -0.00023588537263368839 0.010374945036519931 0 -0.0002236940738139121 0.010385434178833442 0 -0.00023588537263368839 0.010374945036519931 0 -0.00027070557612520542 0.01046687534504785 0 -0.0002236940738139121 0.010385434178833442 0 -0.0002236940738139121 0.010385434178833442 0 -0.0002564012360283463 0.010523662884591464 0 -0.00019428890532643733 0.010448263017055698 0 -0.0002564012360283463 0.010523662884591464 0 -0.00019428890532643733 0.010448263017055698 0 -0.00019563894501471412 0.010594592677143366 0 -0.00033396159686185174 0.010591202945368177 0 -0.0002564012360283463 0.010523662884591464 0 -0.00029368580705488485 0.010627186449720293 0 -0.00033396159686185174 0.010591202945368177 0 -0.00027070557612520542 0.01046687534504785 0 -0.0002564012360283463 0.010523662884591464 0 -0.0002564012360283463 0.010523662884591464 0 -0.00029368580705488485 0.010627186449720293 0 -0.00019563894501471412 0.010594592677143366 0 -0.00029368580705488485 0.010627186449720293 0 -0.00025500931349379223 0.010725241764189736 0 -0.00019563894501471412 0.010594592677143366 0 -0.00029368580705488485 0.010627186449720293 0 -0.00025500931349379223 0.010725241764189736 0 -0.00033933615144869845 0.010705555404978251 0 -0.00025500931349379223 0.010725241764189736 0 -0.00033408352806047793 0.010826957597525602 0 -0.00033933615144869845 0.010705555404978251 0 -0.00024599501315162334 0.010852268822206723 0 -0.00012905037388333466 0.01086568642652321 0 -0.00019500624679414928 0.010932521175443513 0 -0.00025500931349379223 0.010725241764189736 0 -0.00024599501315162334 0.010852268822206723 0 -0.00016009077138204119 0.010746259515104994 0 -0.00024599501315162334 0.010852268822206723 0 -0.00028858102323021625 0.010958466084919126 0 -0.00019500624679414928 0.010932521175443513 0 -0.00024599501315162334 0.010852268822206723 0 -0.00033408352806047793 0.010826957597525602 0 -0.00028858102323021625 0.010958466084919126 0 -0.00025500931349379223 0.010725241764189736 0 -0.00024599501315162334 0.010852268822206723 0 -0.00033408352806047793 0.010826957597525602 0 -0.00033408352806047793 0.010826957597525602 0 -0.00045077071905632986 0.010973779582178744 0 -0.00028858102323021625 0.010958466084919126 0 -0.00033408352806047793 0.010826957597525602 0 -0.00042238407528848279 0.010738038532574724 0 -0.00045077071905632986 0.010973779582178744 0 -0.00033408352806047793 0.010826957597525602 0 -0.00042238407528848279 0.010738038532574724 0 -0.00033933615144869845 0.010705555404978251 0 -0.00039351476189242526 0.010641961822607803 0 -0.00029368580705488485 0.010627186449720293 0 -0.00033933615144869845 0.010705555404978251 0 -0.00045071049265448529 0.01059502002386409 0 -0.00039351476189242526 0.010641961822607803 0 -0.00042238407528848279 0.010738038532574724 0 -0.00039351476189242526 0.010641961822607803 0 -0.00042238407528848279 0.010738038532574724 0 -0.00033933615144869845 0.010705555404978251 0 -0.00045071049265448529 0.01059502002386409 0 -0.00052039473236105231 0.010775814085757304 0 -0.00072562445941946516 0.010863815085282292 0 0.0005348618794366475 0.016775340381485895 0 0.00022132041801811893 0.017226445138519782 0 -0.00045071049265448529 0.01059502002386409 0 -0.00042238407528848279 0.010738038532574724 0 -0.00052039473236105231 0.010775814085757304 0 -0.00052039473236105231 0.010775814085757304 0 -0.00045077071905632986 0.010973779582178744 0 -0.00072562445941946516 0.010863815085282292 0 -0.00042238407528848279 0.010738038532574724 0 -0.00052039473236105231 0.010775814085757304 0 -0.00045077071905632986 0.010973779582178744 0 -0.00045077071905632986 0.010973779582178744 0 -0.00072562445941946516 0.010863815085282292 0 -0.00071606719768036885 0.011283948984684856 0 0.0012028256550097199 0.023402203025725883 0 0.0010832746992262114 0.023425456781020405 0 0.0010995009135129302 0.023371877835882581 0 0.0012028256550097199 0.023402203025725883 0 0.0011226391939259195 0.023306175452803078 0 0.0010832746992262114 0.023425456781020405 0 0.0014892120320069741 0.023095369715373664 0 0.0012028256550097199 0.023402203025725883 0 0.0011226391939259195 0.023306175452803078 0 5.5939299038163204e-05 0.010360564765315265 0 0.00014094274312198866 0.010181668323504664 0 0.00022694746853534493 0.010511492701857725 0 5.5939299038163204e-05 0.010360564765315265 0 -4.0890096889981217e-05 0.010467665945889749 0 7.3636371438186521e-05 0.010566156376853613 0 5.5939299038163204e-05 0.010360564765315265 0 7.3636371438186521e-05 0.010566156376853613 0 0.00022694746853534493 0.010511492701857725 0 0.00021255360364743072 0.0099852309421642471 0 0.00035397578279054698 0.0096794828970112653 0 0.00019417219549280919 0.0099895634576510472 0 0.0005331021016003536 0.0088127996977462996 0 -0.00016093733310538531 0.0093942068886590686 0 0.00014094274312198866 0.010181668323504664 0 0.00019417219549280919 0.0099895634576510472 0 0.00022694746853534493 0.010511492701857725 0 0.00023403168784809348 0.010268731048785402 0 0.00019417219549280919 0.0099895634576510472 0 0.00019645284381328285 0.010151837955717143 0 0.00014094274312198866 0.010181668323504664 0 0.00019645284381328285 0.010151837955717143 0 0.00010442209182846645 0.010152365215292523 0 0.00014094274312198866 0.010181668323504664 0 0.00019417219549280919 0.0099895634576510472 0 0.00019645284381328285 0.010151837955717143 0 0.00014094274312198866 0.010181668323504664 0 0.00010442209182846645 0.010152365215292523 0 4.5934896357004738e-05 0.010239026584981263 0 5.5939299038163204e-05 0.010360564765315265 0 0.00014094274312198866 0.010181668323504664 0 4.5934896357004738e-05 0.010239026584981263 0 5.5939299038163204e-05 0.010360564765315265 0 4.5934896357004738e-05 0.010239026584981263 0 -6.2178495260252039e-05 0.01033054956427259 0 4.5934896357004738e-05 0.010239026584981263 0 -1.9125989162785996e-05 0.010197166823118305 0 -6.2178495260252039e-05 0.01033054956427259 0 0.00010442209182846645 0.010152365215292523 0 4.5934896357004738e-05 0.010239026584981263 0 -1.9125989162785996e-05 0.010197166823118305 0 -1.9125989162785996e-05 0.010197166823118305 0 -0.00015056701788666724 0.010290731657614169 0 -6.2178495260252039e-05 0.01033054956427259 0 -6.2178495260252039e-05 0.01033054956427259 0 -0.00014861990436241157 0.010378536121204993 0 -0.00012744148944246144 0.010474779468903387 0 -0.00015056701788666724 0.010290731657614169 0 -6.2178495260252039e-05 0.01033054956427259 0 -0.00014861990436241157 0.010378536121204993 0 -0.00023374010200540355 0.010281380084812164 0 -0.0002236940738139121 0.010385434178833442 0 -0.00019518034094544975 0.010355155064096842 0 -0.00015056701788666724 0.010290731657614169 0 -0.00019518034094544975 0.010355155064096842 0 -0.00014861990436241157 0.010378536121204993 0 -0.00023374010200540355 0.010281380084812164 0 -0.00015056701788666724 0.010290731657614169 0 -0.00019518034094544975 0.010355155064096842 0 -0.00019518034094544975 0.010355155064096842 0 -0.00014861990436241157 0.010378536121204993 0 -0.00019428890532643733 0.010448263017055698 0 -0.0002236940738139121 0.010385434178833442 0 -0.00019518034094544975 0.010355155064096842 0 -0.00019428890532643733 0.010448263017055698 0 -0.00019428890532643733 0.010448263017055698 0 -0.00012744148944246144 0.010474779468903387 0 -0.00019563894501471412 0.010594592677143366 0 -0.00014861990436241157 0.010378536121204993 0 -0.00019428890532643733 0.010448263017055698 0 -0.00012744148944246144 0.010474779468903387 0 -0.00012744148944246144 0.010474779468903387 0 -9.9558614191431693e-05 0.010626071057013332 0 -0.00019563894501471412 0.010594592677143366 0 5.5939299038163204e-05 0.010360564765315265 0 -6.2178495260252039e-05 0.01033054956427259 0 -4.0890096889981217e-05 0.010467665945889749 0 -6.2178495260252039e-05 0.01033054956427259 0 -0.00012744148944246144 0.010474779468903387 0 -4.0890096889981217e-05 0.010467665945889749 0 -0.00012744148944246144 0.010474779468903387 0 -4.0890096889981217e-05 0.010467665945889749 0 -9.9558614191431693e-05 0.010626071057013332 0 -2.5027118224822079e-06 0.010671927949135521 0 -9.9558614191431693e-05 0.010626071057013332 0 -5.4560185158061741e-05 0.010786439575168271 0 -4.0890096889981217e-05 0.010467665945889749 0 -2.5027118224822079e-06 0.010671927949135521 0 -9.9558614191431693e-05 0.010626071057013332 0 -4.0890096889981217e-05 0.010467665945889749 0 -2.5027118224822079e-06 0.010671927949135521 0 7.3636371438186521e-05 0.010566156376853613 0 -0.00025500931349379223 0.010725241764189736 0 -0.00019563894501471412 0.010594592677143366 0 -0.00016009077138204119 0.010746259515104994 0 -9.9558614191431693e-05 0.010626071057013332 0 -0.00016009077138204119 0.010746259515104994 0 -5.4560185158061741e-05 0.010786439575168271 0 -9.9558614191431693e-05 0.010626071057013332 0 -0.00019563894501471412 0.010594592677143366 0 -0.00016009077138204119 0.010746259515104994 0 -0.00024599501315162334 0.010852268822206723 0 -0.00016009077138204119 0.010746259515104994 0 -0.00012905037388333466 0.01086568642652321 0 -0.00016009077138204119 0.010746259515104994 0 -0.00012905037388333466 0.01086568642652321 0 -5.4560185158061741e-05 0.010786439575168271 0 -2.5027118224822079e-06 0.010671927949135521 0 -5.4560185158061741e-05 0.010786439575168271 0 0.00013894518768643407 0.010791311703905366 0 -5.4560185158061741e-05 0.010786439575168271 0 0.00013894518768643407 0.010791311703905366 0 -3.9752134112038073e-05 0.010905030104284268 0 -0.00012905037388333466 0.01086568642652321 0 -5.4560185158061741e-05 0.010786439575168271 0 -3.9752134112038073e-05 0.010905030104284268 0 0.00013894518768643407 0.010791311703905366 0 7.3636371438186521e-05 0.010566156376853613 0 0.00022694746853534493 0.010511492701857725 0 -2.5027118224822079e-06 0.010671927949135521 0 0.00013894518768643407 0.010791311703905366 0 7.3636371438186521e-05 0.010566156376853613 0 0.00040891305783190577 0.0092018326896029928 0 0.00035397578279054698 0.0096794828970112653 0 0.0005331021016003536 0.0088127996977462996 0 0.0002293558374538034 0.008049972953828163 0 -0.00042543212736213533 0.0081255844649664021 0 0.00067614296935454739 0.0076581477573124911 0 0.0005331021016003536 0.0088127996977462996 0 0.0002293558374538034 0.008049972953828163 0 0.00067614296935454739 0.0076581477573124911 0 0.0002293558374538034 0.008049972953828163 0 2.0960154645065326e-06 0.0074784591670967963 0 -0.00031498977654121556 0.0077476556919594567 0 -0.00039356382241568898 0.0071521244691118814 0 -0.00023640895631427529 0.0073478033609264424 0 -0.00046074911089290081 0.0070961219519718116 0 -0.00038661227111751775 0.0070904306321561599 0 2.0960154645065326e-06 0.0074784591670967963 0 -0.00042543212736213533 0.0081255844649664021 0 -0.00038661227111751775 0.0070904306321561599 0 0.0002293558374538034 0.008049972953828163 0 2.0960154645065326e-06 0.0074784591670967963 0 -0.00042543212736213533 0.0081255844649664021 0 -0.00056668052219018504 0.0073461186465486709 0 -0.00023640895631427529 0.0073478033609264424 0 -0.00046074911089290081 0.0070961219519718116 0 -0.00056668052219018504 0.0073461186465486709 0 -0.00069745182295602979 0.007154664055730499 0 -0.00046074911089290081 0.0070961219519718116 0 -0.00056668052219018504 0.0073461186465486709 0 -0.00048362083585501539 0.0077311346114644023 0 -0.00078472425485528476 0.0075945445987838332 0 -0.00056668052219018504 0.0073461186465486709 0 -0.00023640895631427529 0.0073478033609264424 0 -0.00048362083585501539 0.0077311346114644023 0 0.0005331021016003536 0.0088127996977462996 0 -0.00042543212736213533 0.0081255844649664021 0 -0.00016093733310538531 0.0093942068886590686 0 -0.00031498977654121556 0.0077476556919594567 0 -8.612638904289761e-05 0.0086552429536832717 0 -0.00023640895631427529 0.0073478033609264424 0 -2.5808933982283343e-05 0.0079235464050185136 0 -0.00048362083585501539 0.0077311346114644023 0 -2.5808933982283343e-05 0.0079235464050185136 0 -0.00048362083585501539 0.0077311346114644023 0 -0.00042932664208062809 0.0083304954684913311 0 -0.00048362083585501539 0.0077311346114644023 0 -0.00087234421130433725 0.0079952004959956986 0 -0.00078472425485528476 0.0075945445987838332 0 -0.00048362083585501539 0.0077311346114644023 0 -0.00042932664208062809 0.0083304954684913311 0 -0.00087234421130433725 0.0079952004959956986 0 0.00014510864511765075 0.0086643346181951159 0 -2.5808933982283343e-05 0.0079235464050185136 0 -0.00015658524561043322 0.0084611936244361231 0 0.00023403168784809348 0.010268731048785402 0 0.00019417219549280919 0.0099895634576510472 0 -0.00016093733310538531 0.0093942068886590686 0 0.00016092483993780296 0.0094363970347733795 0 -8.612638904289761e-05 0.0086552429536832717 0 -0.00042932664208062809 0.0083304954684913311 0 -0.00015658524561043322 0.0084611936244361231 0 -0.00033207156613642227 0.0089556411514555168 0 -2.5808933982283343e-05 0.0079235464050185136 0 -0.00042932664208062809 0.0083304954684913311 0 -0.00015658524561043322 0.0084611936244361231 0 -0.0015362402854669733 0.0091056108645384843 0 -0.00073767913492405488 0.0076846598776568846 0 -0.0012492542023212851 0.0079001356728710757 0 -0.00087234421130433725 0.0079952004959956986 0 -0.0012227804372521476 0.0077715701392154692 0 -0.0014525737335008141 0.0085329876318500919 0 -0.00087234421130433725 0.0079952004959956986 0 -0.00096111365221343125 0.0086434897876949968 0 -0.00042932664208062809 0.0083304954684913311 0 -0.00087234421130433725 0.0079952004959956986 0 -0.00096111365221343125 0.0086434897876949968 0 -0.00087234421130433725 0.0079952004959956986 0 -0.0010948868229759727 0.0075728956926922539 0 -0.00078472425485528476 0.0075945445987838332 0 -0.0012227804372521476 0.0077715701392154692 0 -0.0010948868229759727 0.0075728956926922539 0 -0.0014058568994455565 0.0074897321759463857 0 -0.00087234421130433725 0.0079952004959956986 0 -0.0012227804372521476 0.0077715701392154692 0 -0.0010948868229759727 0.0075728956926922539 0 -0.0010948868229759727 0.0075728956926922539 0 -0.0011730321914951659 0.0072756411585949594 0 -0.0014058568994455565 0.0074897321759463857 0 -0.0010948868229759727 0.0075728956926922539 0 -0.00089124539851816935 0.0073254059653405385 0 -0.0011730321914951659 0.0072756411585949594 0 -0.0010948868229759727 0.0075728956926922539 0 -0.00078472425485528476 0.0075945445987838332 0 -0.00089124539851816935 0.0073254059653405385 0 -0.00056668052219018504 0.0073461186465486709 0 -0.00078472425485528476 0.0075945445987838332 0 -0.00089124539851816935 0.0073254059653405385 0 -0.00056668052219018504 0.0073461186465486709 0 -0.00089124539851816935 0.0073254059653405385 0 -0.00069745182295602979 0.007154664055730499 0 -0.00089124539851816935 0.0073254059653405385 0 -0.00096774708113262615 0.0070072175375782177 0 -0.00069745182295602979 0.007154664055730499 0 -0.00096774708113262615 0.0070072175375782177 0 -0.0011730321914951659 0.0072756411585949594 0 -0.0014040322814065185 0.0069276629806366927 0 -0.0011730321914951659 0.0072756411585949594 0 -0.0014058568994455565 0.0074897321759463857 0 -0.0014040322814065185 0.0069276629806366927 0 -0.00089124539851816935 0.0073254059653405385 0 -0.00096774708113262615 0.0070072175375782177 0 -0.0011730321914951659 0.0072756411585949594 0 -0.0013565449643368019 -0.0049688167753471849 0 -0.0014322542768602387 -0.0055234913794045487 0 -0.002103751942494788 -0.0043315902644797243 0 -0.0014481319167314864 0.001079857161412897 0 -0.0017286338769068382 0.0013117136347387695 0 -0.0013565449643368019 -0.0049688167753471849 0 -0.00086725082384450604 -0.004241359011118064 0 -0.002103751942494788 -0.0043315902644797243 0 -0.0013565449643368019 -0.0049688167753471849 0 -0.0010943963017773081 -0.0055864886524827099 0 -0.00086725082384450604 -0.004241359011118064 0 -0.0010943963017773081 -0.0055864886524827099 0 -0.0013940577167555453 -0.0060423360244909229 0 -0.0010427423896462382 -0.0063695958361890265 0 -0.0010573864795694297 -0.0055655350754100956 0 -0.00099454548817141269 -0.005245922037466883 0 -0.0010943963017773081 -0.0055864886524827099 0 -0.0014322542768602387 -0.0055234913794045487 0 -0.0012163534187226335 -0.0054690031317753381 0 -0.0013565449643368019 -0.0049688167753471849 0 -0.0010943963017773081 -0.0055864886524827099 0 -0.0014322542768602387 -0.0055234913794045487 0 -0.0018466330241335004 -0.006352055498153833 0 -0.0016954094343058508 -0.0060323033540439046 0 -0.0015738940223489219 -0.006410429097427145 0 -0.0018466330241335004 -0.006352055498153833 0 -0.0016954094343058508 -0.0060323033540439046 0 -0.0019874305485694829 -0.0061235240040229452 0 -0.0016954094343058508 -0.0060323033540439046 0 -0.0013940577167555453 -0.0060423360244909229 0 -0.0015738940223489219 -0.006410429097427145 0 -0.0013940577167555453 -0.0060423360244909229 0 -0.0015738940223489219 -0.006410429097427145 0 -0.0010427423896462382 -0.0063695958361890265 0 -0.0016954094343058508 -0.0060323033540439046 0 -0.0013940577167555453 -0.0060423360244909229 0 -0.0014889156687220432 -0.005637978736818124 0 -0.0010943963017773081 -0.0055864886524827099 0 -0.0014889156687220432 -0.005637978736818124 0 -0.00133244494949274 -0.0054394179110025739 0 -0.0010943963017773081 -0.0055864886524827099 0 -0.0013940577167555453 -0.0060423360244909229 0 -0.0014889156687220432 -0.005637978736818124 0 -0.0016954094343058508 -0.0060323033540439046 0 -0.0014889156687220432 -0.005637978736818124 0 -0.0018947418724492664 -0.0054667956595748886 0 -0.0014889156687220432 -0.005637978736818124 0 -0.0015389839449735929 -0.005367886938896017 0 -0.0018947418724492664 -0.0054667956595748886 0 -0.0014889156687220432 -0.005637978736818124 0 -0.0015389839449735929 -0.005367886938896017 0 -0.00133244494949274 -0.0054394179110025739 0 -0.0015389839449735929 -0.005367886938896017 0 -0.0013958228323929579 -0.0052024495491326747 0 -0.0015963396513703379 -0.0050878368394822624 0 -0.0015389839449735929 -0.005367886938896017 0 -0.00133244494949274 -0.0054394179110025739 0 -0.0013958228323929579 -0.0052024495491326747 0 -0.0013958228323929579 -0.0052024495491326747 0 -0.0015963396513703379 -0.0050878368394822624 0 -0.0013678557814222117 -0.0049402743177473698 0 -0.0023550760479582621 -0.0073817610745038412 0 -0.0023268584718161285 -0.0067669850631845241 0 -0.0028393395068024244 -0.0084517558884464987 0 -0.0028666477550568789 -0.0084078817913169606 0 -0.0028866078463136357 -0.0083067486682469188 0 -0.0015389839449735929 -0.005367886938896017 0 -0.0015963396513703379 -0.0050878368394822624 0 -0.0018947418724492664 -0.0054667956595748886 0 -0.0014481319167314864 0.001079857161412897 0 -0.0011214570942217584 0.00093360289705035485 0 -0.0012227804372521476 0.0077715701392154692 0 -0.0014058568994455565 0.0074897321759463857 0 -0.0013456894560539005 0.0078049205815136401 0 -0.0014322542768602387 -0.0055234913794045487 0 -0.0012163534187226335 -0.0054690031317753381 0 -0.0010957711557170392 -0.0052867503984479289 0 -0.0010943963017773081 -0.0055864886524827099 0 -0.00133244494949274 -0.0054394179110025739 0 -0.0012163534187226335 -0.0054690031317753381 0 -0.00133244494949274 -0.0054394179110025739 0 -0.0012163534187226335 -0.0054690031317753381 0 -0.0012548325601661305 -0.0053199515344861739 0 -0.0012163534187226335 -0.0054690031317753381 0 -0.0012548325601661305 -0.0053199515344861739 0 -0.0010957711557170392 -0.0052867503984479289 0 -0.0012548325601661305 -0.0053199515344861739 0 -0.0012536542008096971 -0.0050709662798801101 0 -0.0010957711557170392 -0.0052867503984479289 0 -0.00133244494949274 -0.0054394179110025739 0 -0.0013958228323929579 -0.0052024495491326747 0 -0.0012548325601661305 -0.0053199515344861739 0 -0.0013958228323929579 -0.0052024495491326747 0 -0.0012536542008096971 -0.0050709662798801101 0 -0.0013678557814222117 -0.0049402743177473698 0 -0.0013958228323929579 -0.0052024495491326747 0 -0.0012548325601661305 -0.0053199515344861739 0 -0.0012536542008096971 -0.0050709662798801101 0 -0.0012492542023212851 0.0079001356728710757 0 -0.0012227804372521476 0.0077715701392154692 0 -0.0013456894560539005 0.0078049205815136401 0 -0.0012492542023212851 0.0079001356728710757 0 -0.0013456894560539005 0.0078049205815136401 0 -0.0013329594142034624 0.0078157032240890982 0 -0.0014525737335008141 0.0085329876318500919 0 -0.0019788770806596235 0.0088767022392710997 0 -0.0014708293199313484 0.009066937264715965 0 -0.0015362402854669733 0.0091056108645384843 0 -0.0018852194359256515 0.0029921322094263506 0 -0.0012536542008096971 -0.0050709662798801101 0 -0.0012767602622710482 -0.0048222377230293561 0 -0.0011626780466588822 -0.0046958256064284255 0 -0.0011214570942217584 0.00093360289705035485 0 -0.0018852194359256515 0.0029921322094263506 0 -0.0012536542008096971 -0.0050709662798801101 0 -0.0010957711557170392 -0.0052867503984479289 0 -0.0011626780466588822 -0.0046958256064284255 0 -0.0012536542008096971 -0.0050709662798801101 0 -0.0012767602622710482 -0.0048222377230293561 0 -0.0013678557814222117 -0.0049402743177473698 0 -0.0012767602622710482 -0.0048222377230293561 0 -0.0011626780466588822 -0.0046958256064284255 0 -0.0012816925305640275 -0.0046348096655276566 0 -0.0012767602622710482 -0.0048222377230293561 0 -0.0012816925305640275 -0.0046348096655276566 0 -0.0013678557814222117 -0.0049402743177473698 0 -0.0011782777598540962 0.0025650480903166664 0 -0.0020398138013892585 0.0010159353494536177 0 -0.0020018761835906987 -0.0016594264875367331 0 -0.0019704503271648051 -0.0017001590734586748 0 -0.0019733578913458953 -0.0017496386321178533 0 -0.001890594770200006 0.001014362331809825 0 -0.0015455910553646022 -0.00030173333657169726 0 -0.00091662985924952523 0.00034730213855403247 0 -0.0018852194359256515 0.0029921322094263506 0 -0.0011782777598540962 0.0025650480903166664 0 -0.0020018761835906987 -0.0016594264875367331 0 -0.0019847006519035813 -0.0016463751557778885 0 -0.0019704503271648051 -0.0017001590734586748 0 -0.0025514270273166678 -0.0081815175836685416 0 -0.0026664959062188348 -0.0082476020016548322 0 -0.0026607165440232922 -0.0080899082749951896 0 -0.0018852194359256515 0.0029921322094263506 0 -0.002106617013864331 -0.0028303289161130474 0 -0.0011782777598540962 0.0025650480903166664 0 -0.002106617013864331 -0.0028303289161130474 0 -0.002106617013864331 -0.0028303289161130474 0 -0.0025642398280953872 -0.0058940924335427912 0 -0.0019704503271648051 -0.0017001590734586748 0 -0.0019461169223209344 -0.0016838532860238887 0 -0.0019494197132749575 -0.0017577611770566676 0 -0.0019847006519035813 -0.0016463751557778885 0 -0.0019704503271648051 -0.0017001590734586748 0 -0.0019461169223209344 -0.0016838532860238887 0 -0.0020221008851576613 0.0090368234360729029 0 -0.0015047875588374599 0.0095908782561517827 0 -0.0014708293199313484 0.009066937264715965 0 -0.0019788770806596235 0.0088767022392710997 0 -0.0020221008851576613 0.0090368234360729029 0 -0.0014708293199313484 0.009066937264715965 0 -0.0028393395068024244 -0.0084517558884464987 0 -0.0028666477550568789 -0.0084078817913169606 0 -0.0028570144433644742 -0.0084268938698151639 0 -0.0028343274000320428 -0.0084112189167133214 0 -0.0027500691995789258 -0.0083319019685840039 0 -0.0028869710656723104 -0.008465217568571503 0 -0.0027500691995789258 -0.0083319019685840039 0 -0.0030023647175893503 -0.0082131758104520038 0 -0.0033220524596383936 -0.0083114866139801669 0 -0.0027781515520016414 -0.0083522230994356426 0 -0.0030807538116641637 -0.0083850603489436671 0 -0.0028570144433644742 -0.0084268938698151639 0 -0.0028343274000320428 -0.0084112189167133214 0 -0.0028869710656723104 -0.008465217568571503 0 -0.0028570144433644742 -0.0084268938698151639 0 -0.0028659779484453158 -0.008436200582160604 0 -0.0028869710656723104 -0.008465217568571503 0 -0.0028666477550568789 -0.0084078817913169606 0 -0.0028570144433644742 -0.0084268938698151639 0 -0.0028659779484453158 -0.008436200582160604 0 -0.0028393395068024244 -0.0084517558884464987 0 -0.0028570144433644742 -0.0084268938698151639 0 -0.0028343274000320428 -0.0084112189167133214 0 -0.0028393395068024244 -0.0084517558884464987 0 -0.0025514270273166678 -0.0081815175836685416 0 -0.0027500691995789258 -0.0083319019685840039 0 -0.0015963396513703379 -0.0050878368394822624 0 -0.0012816925305640275 -0.0046348096655276566 0 -0.0013678557814222117 -0.0049402743177473698 0 -0.0023550760479582621 -0.0073817610745038412 0 -0.002106617013864331 -0.0028303289161130474 0 -0.0028393395068024244 -0.0084517558884464987 0 -0.0028343274000320428 -0.0084112189167133214 0 -0.0027500691995789258 -0.0083319019685840039 0 -0.0025514270273166678 -0.0081815175836685416 0 -0.0027500691995789258 -0.0083319019685840039 0 -0.0026664959062188348 -0.0082476020016548322 0 -0.0027500691995789258 -0.0083319019685840039 0 -0.0026664959062188348 -0.0082476020016548322 0 -0.0027764394082667536 -0.0081511377331837803 0 -0.0026939213454209581 -0.0082661529348819172 0 -0.0025642398280953872 -0.0058940924335427912 0 -0.0026664959062188348 -0.0082476020016548322 0 -0.0026215817228550115 -0.0080690602955781864 0 -0.0027764394082667536 -0.0081511377331837803 0 -0.0025642398280953872 -0.0058940924335427912 0 -0.0021730211323095941 -0.0074490306190677881 0 -0.0023782195901486682 -0.0081642268445488407 0 -0.0027302203639993491 -0.0079380644016854001 0 -0.0023049630817453762 -0.0075345437970472289 0 -0.0026215817228550115 -0.0080690602955781864 0 -0.0027302203639993491 -0.0079380644016854001 0 -0.0027764394082667536 -0.0081511377331837803 0 -0.0027302203639993491 -0.0079380644016854001 0 -0.0027764394082667536 -0.0081511377331837803 0 -0.0029583711573462406 -0.0080538115769736608 0 -0.0027302203639993491 -0.0079380644016854001 0 -0.0029583711573462406 -0.0080538115769736608 0 -0.0029943659330458803 -0.0078175534180316385 0 -0.0027764394082667536 -0.0081511377331837803 0 -0.0030023647175893503 -0.0082131758104520038 0 -0.0029583711573462406 -0.0080538115769736608 0 -0.0027500691995789258 -0.0083319019685840039 0 -0.0027764394082667536 -0.0081511377331837803 0 -0.0030023647175893503 -0.0082131758104520038 0 -0.0031619312820364426 -0.0080100220442679872 0 -0.0032724624527663321 -0.0076049500240653687 0 -0.0033408775098104442 -0.0083085687821154719 0 -0.0030023647175893503 -0.0082131758104520038 0 -0.0029583711573462406 -0.0080538115769736608 0 -0.0031801309318024952 -0.008187557309581716 0 -0.0029583711573462406 -0.0080538115769736608 0 -0.0031619312820364426 -0.0080100220442679872 0 -0.0031801309318024952 -0.008187557309581716 0 -0.0029583711573462406 -0.0080538115769736608 0 -0.0031619312820364426 -0.0080100220442679872 0 -0.0029943659330458803 -0.0078175534180316385 0 -0.0031619312820364426 -0.0080100220442679872 0 -0.0031801309318024952 -0.008187557309581716 0 -0.0033408775098104442 -0.0083085687821154719 0 -0.0030023647175893503 -0.0082131758104520038 0 -0.0031801309318024952 -0.008187557309581716 0 -0.0033220524596383936 -0.0083114866139801669 0 -0.0032724624527663321 -0.0076049500240653687 0 -0.0027850297027438671 -0.0074456878029411019 0 -0.002919532930463274 -0.0068024815529831332 0 -0.0032824241562233263 -0.0084981218259330502 0 -0.0032263470255669674 -0.0083019604237946163 0 -0.0033349608332421416 -0.0084896766237844094 0 -0.0031619312820364426 -0.0080100220442679872 0 -0.0032724624527663321 -0.0076049500240653687 0 -0.0029943659330458803 -0.0078175534180316385 0 -0.0032724624527663321 -0.0076049500240653687 0 -0.0029943659330458803 -0.0078175534180316385 0 -0.0027850297027438671 -0.0074456878029411019 0 -0.0027302203639993491 -0.0079380644016854001 0 -0.0029943659330458803 -0.0078175534180316385 0 -0.0027850297027438671 -0.0074456878029411019 0 -0.0027302203639993491 -0.0079380644016854001 0 -0.0027850297027438671 -0.0074456878029411019 0 -0.0023049630817453762 -0.0075345437970472289 0 -0.0025642398280953872 -0.0058940924335427912 0 -0.0021706102091642483 -0.0049090231004598976 0 -0.0027850297027438671 -0.0074456878029411019 0 -0.0023049630817453762 -0.0075345437970472289 0 -0.002221503351198599 -0.006870257895137742 0 -0.0021706102091642483 -0.0049090231004598976 0 -0.002166380274860785 -0.0014887166580042062 0 -0.0024372747535730617 -0.0059670638296059125 0 -0.002919532930463274 -0.0068024815529831332 0 -0.002221503351198599 -0.006870257895137742 0 -0.0027850297027438671 -0.0074456878029411019 0 -0.002919532930463274 -0.0068024815529831332 0 -0.002221503351198599 -0.006870257895137742 0 -0.0032824241562233263 -0.0084981218259330502 0 -0.0030697217783573084 -0.0082804964066751172 0 -0.0032263470255669674 -0.0083019604237946163 0 -0.0032098024721834268 -0.0079519700408230143 0 -0.0031696075296751185 -0.0079462264511082487 0 -0.0031329053817740898 -0.0081137582464274396 0 -0.0030697217783573084 -0.0082804964066751172 0 -0.0032263470255669674 -0.0083019604237946163 0 -0.0011782777598540962 0.0025650480903166664 0 -0.0011775770224048334 0.0072728708773647016 0 -0.00087030834917474476 0.0037900411743052621 0 -0.0020552364575958308 0.0035135990041571317 0 -0.0016344300718667433 0.0040529767522946569 0 -0.0018521770512348766 0.0027447999362645637 0 -0.00087030834917474476 0.0037900411743052621 0 -0.0020552364575958308 0.0035135990041571317 0 -0.0020398138013892585 0.0010159353494536177 0 -0.002166380274860785 -0.0014887166580042062 0 -0.0019494197132749575 -0.0017577611770566676 0 -0.0019733578913458953 -0.0017496386321178533 0 -0.0019436115177694409 -0.001814454319114994 0 -0.0019704503271648051 -0.0017001590734586748 0 -0.0019494197132749575 -0.0017577611770566676 0 -0.0019733578913458953 -0.0017496386321178533 0 -0.0016344300718667433 0.0040529767522946569 0 -0.002258178757076585 0.0042733599644679907 0 -0.0013508395561423149 0.0046359952097049639 0 -0.0022108773512148979 0.0050349262634838245 0 -0.002258178757076585 0.0042733599644679907 0 -0.0013508395561423149 0.0046359952097049639 0 -0.0020552364575958308 0.0035135990041571317 0 -0.0016344300718667433 0.0040529767522946569 0 -0.002258178757076585 0.0042733599644679907 0 -0.0020857300143580846 0.0028317151886300246 0 -0.002166380274860785 -0.0014887166580042062 0 -0.00087030834917474476 0.0037900411743052621 0 -0.0016344300718667433 0.0040529767522946569 0 -0.0013508395561423149 0.0046359952097049639 0 -0.00095326785418095746 0.010033200684026283 0 -0.0015047875588374599 0.0095908782561517827 0 -0.00081518399218464242 0.0096292509868378881 0 0.00010904899762189322 0.0048374550099557663 0 -0.00087030834917474476 0.0037900411743052621 0 -0.0013508395561423149 0.0046359952097049639 0 -0.00046039514955832254 0.0073291055676501515 0 -0.0011775770224048334 0.0072728708773647016 0 -0.0015047875588374599 0.0095908782561517827 0 -0.00081518399218464242 0.0096292509868378881 0 -0.0014708293199313484 0.009066937264715965 0 -0.00095326785418095746 0.010033200684026283 0 -0.00081518399218464242 0.0096292509868378881 0 -0.00037430705429798423 0.0098357529910933217 0 -0.00015222381195395239 0.01005854760849819 0 7.903547286738188e-05 0.0097484503818465514 0 -0.00037430705429798423 0.0098357529910933217 0 7.903547286738188e-05 0.0097484503818465514 0 -0.00037430705429798423 0.0098357529910933217 0 -0.00026693419107208169 0.0095116424735041238 0 -0.00081518399218464242 0.0096292509868378881 0 -0.00037430705429798423 0.0098357529910933217 0 -0.00026693419107208169 0.0095116424735041238 0 -0.00081518399218464242 0.0096292509868378881 0 -0.00026693419107208169 0.0095116424735041238 0 -0.00074838065443915943 0.009164757381529897 0 -0.00026693419107208169 0.0095116424735041238 0 -0.00033207156613642227 0.0089556411514555168 0 -0.00074838065443915943 0.009164757381529897 0 0.00013518153961151802 0.0096011325452675673 0 -0.00026693419107208169 0.0095116424735041238 0 -0.00033207156613642227 0.0089556411514555168 0 0.00014510864511765075 0.0086643346181951159 0 0.00013518153961151802 0.0096011325452675673 0 -0.00033207156613642227 0.0089556411514555168 0 0.00014510864511765075 0.0086643346181951159 0 -0.00015658524561043322 0.0084611936244361231 0 -0.00033207156613642227 0.0089556411514555168 0 -0.00042932664208062809 0.0083304954684913311 0 -0.00033207156613642227 0.0089556411514555168 0 -0.00096111365221343125 0.0086434897876949968 0 -0.00033207156613642227 0.0089556411514555168 0 -0.00096111365221343125 0.0086434897876949968 0 -0.00074838065443915943 0.009164757381529897 0 -0.00096111365221343125 0.0086434897876949968 0 -0.0014708293199313484 0.009066937264715965 0 -0.00074838065443915943 0.009164757381529897 0 -0.0014525737335008141 0.0085329876318500919 0 -0.00096111365221343125 0.0086434897876949968 0 -0.0014708293199313484 0.009066937264715965 0 -0.00081518399218464242 0.0096292509868378881 0 -0.0014708293199313484 0.009066937264715965 0 -0.00074838065443915943 0.009164757381529897 0 0.0005959349866239723 0.03393632969768632 0 0.00086522572092897175 0.033595117992613263 0 0.00047133380228547253 0.033550306225741955 0 0.0005959349866239723 0.03393632969768632 0 0.00047133380228547253 0.033550306225741955 0 9.9589078884409053e-05 0.033704093767048894 0 6.713788574467573e-05 0.035000012030943738 0 5.2430658655156504e-08 0.035000112541804761 0 8.8491479188616748e-06 0.035002869635350972 0 5.2430658655156504e-08 0.035000112541804761 0 8.8491479188616748e-06 0.035002869635350972 0 2.8783864809572056e-06 0.034999608023892709 0 0.00025001910112644964 0.03470103005569504 0 0.00022479226912973182 0.034426085200026997 0 8.8491479188616748e-06 0.035002869635350972 0 2.8783864809572056e-06 0.034999608023892709 0 3.773976213897355e-06 0.035000254725918375 0 6.713788574467573e-05 0.035000012030943738 0 8.8491479188616748e-06 0.035002869635350972 0 2.0199883415057348e-05 0.035014626048471262 0 0.00031854912987571457 0.034494235919098525 0 0.00022479226912973182 0.034426085200026997 0 2.8783864809572056e-06 0.034999608023892709 0 3.5242274213127875e-07 0.03499089192940779 0 -7.726909689677315e-09 0.034999961517485065 0 0.00022479226912973182 0.034426085200026997 0 0.00027875111018775008 0.034099571658832539 0 2.8783864809572056e-06 0.034999608023892709 0 2.6716276633239097e-06 0.034999213770287925 0 3.5242274213127875e-07 0.03499089192940779 0 5.2430658655156504e-08 0.035000112541804761 0 2.8783864809572056e-06 0.034999608023892709 0 -7.726909689677315e-09 0.034999961517485065 0 8.6443647338953246e-05 0.034643689518169027 0 0.00022479226912973182 0.034426085200026997 0 0.00086522572092897175 0.033595117992613263 0 0.00047133380228547253 0.033550306225741955 0 0.00051924365807133285 0.033148350805804722 0 0.00047133380228547253 0.033550306225741955 0 0.00021524632473953425 0.033287643433351916 0 0.00051924365807133285 0.033148350805804722 0 0.00021524632473953425 0.033287643433351916 0 9.9589078884409053e-05 0.033704093767048894 0 -0.00014359462260968297 0.033118431368750423 0 0.00043465230883014375 0.032963125934529082 0 0.00014245365338596275 0.032579087449965204 0 0.00047133380228547253 0.033550306225741955 0 0.00021524632473953425 0.033287643433351916 0 9.9589078884409053e-05 0.033704093767048894 0 8.4501231648409909e-05 0.03224788635121266 0 6.6445585378723866e-05 0.031647765559068446 0 0.00040945615040823555 0.031784846223471296 0 8.4501231648409909e-05 0.03224788635121266 0 0.00072600265349302619 0.032413770233227966 0 0.00040945615040823555 0.031784846223471296 0 8.4501231648409909e-05 0.03224788635121266 0 0.00072600265349302619 0.032413770233227966 0 0.00041118056294519001 0.033005924023612986 0 0.00043465230883014375 0.032963125934529082 0 0.00041251416805480006 0.034177370070867248 0 0.00072600265349302619 0.032413770233227966 0 0.00041118056294519001 0.033005924023612986 0 0.0011228522206130913 0.033193762134149561 0 0.00041118056294519001 0.033005924023612986 0 0.00020754680156455325 0.033638105204072573 0 -0.00022194582302420408 0.033031059442740124 0 8.4501231648409909e-05 0.03224788635121266 0 0.00041118056294519001 0.033005924023612986 0 -0.00022194582302420408 0.033031059442740124 0 0.00041118056294519001 0.033005924023612986 0 0.00020754680156455325 0.033638105204072573 0 0.00072881013639779961 0.0338139089898589 0 0.00020754680156455325 0.033638105204072573 0 0.00072881013639779961 0.0338139089898589 0 0.0002207102388073149 0.034082306876123403 0 0.00041118056294519001 0.033005924023612986 0 0.00072881013639779961 0.0338139089898589 0 0.0011228522206130913 0.033193762134149561 0 0.0002144438489781201 0.034690622267800918 0 0.00015218660029289537 0.034760612404048409 0 0.00017298553913700214 0.034793573304132915 0 0.00048185788147955762 0.03421513235322679 0 0.00041251416805480006 0.034177370070867248 0 0.00015218660029289537 0.034760612404048409 0 7.1692406358947485e-05 0.034748104938967794 0 7.9292296171032183e-05 0.034915532431087692 0 0.00015218660029289537 0.034760612404048409 0 7.9292296171032183e-05 0.034915532431087692 0 0.00018786958383581998 0.034922129395720203 0 0.00026578134490739744 0.034885183337815068 0 0.00041251416805480006 0.034177370070867248 0 0.0005959349866239723 0.03393632969768632 0 9.9589078884409053e-05 0.033704093767048894 0 0.00032855743960438164 0.034277454194623053 0 6.713788574467573e-05 0.035000012030943738 0 7.9292296171032183e-05 0.034915532431087692 0 0.00018786958383581998 0.034922129395720203 0 0.00031854912987571457 0.034494235919098525 0 0.00041251416805480006 0.034177370070867248 0 6.713788574467573e-05 0.035000012030943738 0 7.9292296171032183e-05 0.034915532431087692 0 -8.6698354888429512e-08 0.03499967447129132 0 6.713788574467573e-05 0.035000012030943738 0 5.2430658655156504e-08 0.035000112541804761 0 -8.6698354888429512e-08 0.03499967447129132 0 9.7461910570549098e-06 0.035004152210195726 0 6.5620430916911287e-09 0.035000024108263403 0 6.8143101709443337e-10 0.034999976718338634 0 5.1851221562476491e-05 0.034875738535123477 0 1.6152001746673378e-08 0.034999942660221807 0 7.1692406358947485e-05 0.034748104938967794 0 7.9292296171032183e-05 0.034915532431087692 0 -8.6698354888429512e-08 0.03499967447129132 0 9.7461910570549098e-06 0.035004152210195726 0 6.8143101709443337e-10 0.034999976718338634 0 1.2626272193356652e-05 0.034965175790589852 0 0.00015218660029289537 0.034760612404048409 0 7.1692406358947485e-05 0.034748104938967794 0 0.00020884849541920946 0.034614553071099771 0 9.7461910570549098e-06 0.035004152210195726 0 1.2626272193356652e-05 0.034965175790589852 0 4.8492045494235016e-05 0.034979210252526684 0 5.1851221562476491e-05 0.034875738535123477 0 0.00012324010204936767 0.034807489488784565 0 1.2626272193356652e-05 0.034965175790589852 0 2.8249617108547097e-05 0.034919212855347707 0 5.4524883147642698e-05 0.034899412196632881 0 1.2626272193356652e-05 0.034965175790589852 0 5.4524883147642698e-05 0.034899412196632881 0 4.8492045494235016e-05 0.034979210252526684 0 6.8143101709443337e-10 0.034999976718338634 0 1.2626272193356652e-05 0.034965175790589852 0 -4.0513541994310112e-09 0.03499988036039435 0 1.2626272193356652e-05 0.034965175790589852 0 -4.0513541994310112e-09 0.03499988036039435 0 2.8249617108547097e-05 0.034919212855347707 0 -4.0513541994310112e-09 0.03499988036039435 0 2.8249617108547097e-05 0.034919212855347707 0 2.2512342233579462e-05 0.034882946445457655 0 2.8249617108547097e-05 0.034919212855347707 0 2.2512342233579462e-05 0.034882946445457655 0 4.9047004792643997e-05 0.034850912575532599 0 2.7890931852526303e-08 0.034999880686693671 0 -4.0513541994310112e-09 0.03499988036039435 0 2.2512342233579462e-05 0.034882946445457655 0 2.8672418524082269e-05 0.034721722577569253 0 1.8248149810563442e-05 0.034071698686122434 0 -0.00018940756237354625 0.034414971080516457 0 3.9433201658552914e-05 0.034704020321818414 0 3.334202818158034e-05 0.034482627668453475 0 -0.00018565172782612898 0.034734670940699222 0 2.8672418524082269e-05 0.034721722577569253 0 -0.00018940756237354625 0.034414971080516457 0 2.8672418524082269e-05 0.034721722577569253 0 4.9047004792643997e-05 0.034850912575532599 0 7.56791226721366e-05 0.034906080576063057 0 2.2512342233579462e-05 0.034882946445457655 0 2.8672418524082269e-05 0.034721722577569253 0 4.9047004792643997e-05 0.034850912575532599 0 2.8249617108547097e-05 0.034919212855347707 0 4.9047004792643997e-05 0.034850912575532599 0 5.4524883147642698e-05 0.034899412196632881 0 4.9047004792643997e-05 0.034850912575532599 0 0.00013595851730230368 0.034839320731284963 0 5.4524883147642698e-05 0.034899412196632881 0 4.9047004792643997e-05 0.034850912575532599 0 7.56791226721366e-05 0.034906080576063057 0 0.00013595851730230368 0.034839320731284963 0 3.334202818158034e-05 0.034482627668453475 0 -0.00010300092591190976 0.033908880820792402 0 7.56791226721366e-05 0.034906080576063057 0 0.00013595851730230368 0.034839320731284963 0 0.00012592129571497055 0.034532358209762484 0 0.00013595851730230368 0.034839320731284963 0 0.0001696331267694988 0.034649239566864651 0 0.00012592129571497055 0.034532358209762484 0 7.56791226721366e-05 0.034906080576063057 0 0.00012592129571497055 0.034532358209762484 0 -0.00012765602269208733 0.0343521619813177 0 0.00013595851730230368 0.034839320731284963 0 0.0001696331267694988 0.034649239566864651 0 0.00020884849541920946 0.034614553071099771 0 0.00013595851730230368 0.034839320731284963 0 5.4524883147642698e-05 0.034899412196632881 0 4.8492045494235016e-05 0.034979210252526684 0 0.00012556319187752676 0.034836827203618963 0 0.00012324010204936767 0.034807489488784565 0 0.0002144438489781201 0.034690622267800918 0 0.00015218660029289537 0.034760612404048409 0 0.00020884849541920946 0.034614553071099771 0 0.0002144438489781201 0.034690622267800918 0 0.00020884849541920946 0.034614553071099771 0 0.00018615683190503071 0.034623340910677862 0 0.0001696331267694988 0.034649239566864651 0 0.00020884849541920946 0.034614553071099771 0 0.00018615683190503071 0.034623340910677862 0 0.0002144438489781201 0.034690622267800918 0 0.00018615683190503071 0.034623340910677862 0 0.00012592129571497055 0.034532358209762484 0 0.00012592129571497055 0.034532358209762484 0 0.0002207102388073149 0.034082306876123403 0 -0.00012765602269208733 0.0343521619813177 0 0.0001696331267694988 0.034649239566864651 0 0.00018615683190503071 0.034623340910677862 0 0.00012592129571497055 0.034532358209762484 0 0.00048185788147955762 0.03421513235322679 0 0.00015681479292675422 0.034539840519206513 0 0.00072881013639779961 0.0338139089898589 0 0.00012592129571497055 0.034532358209762484 0 0.0002207102388073149 0.034082306876123403 0 0.00020754680156455325 0.033638105204072573 0 0.0002207102388073149 0.034082306876123403 0 -0.00012765602269208733 0.0343521619813177 0 -9.9478631622418686e-05 0.033500113548594841 0 -0.00036041222440892737 0.033547769569888322 0 -0.00040407520827692446 0.033253690311939886 0 -9.9478631622418686e-05 0.033500113548594841 0 -0.00036041222440892737 0.033547769569888322 0 -0.00023815990953636839 0.033818761251725275 0 -0.00036041222440892737 0.033547769569888322 0 -0.00069990789595094618 0.033319134817452099 0 -0.00070515675583806441 0.033777564997971875 0 -0.00036041222440892737 0.033547769569888322 0 -0.00069990789595094618 0.033319134817452099 0 -0.00040407520827692446 0.033253690311939886 0 -0.00036041222440892737 0.033547769569888322 0 -0.00043385190369411554 0.0338312942587643 0 -0.00070515675583806441 0.033777564997971875 0 -0.00043385190369411554 0.0338312942587643 0 -0.0008654368287954829 0.034014998502627625 0 -0.00070515675583806441 0.033777564997971875 0 -0.00044707069739463015 0.033841656102881937 0 -0.00078203949540996489 0.034069495464845431 0 1.8248149810563442e-05 0.034071698686122434 0 -9.9478631622418686e-05 0.033500113548594841 0 -0.00023815990953636839 0.033818761251725275 0 -0.00036041222440892737 0.033547769569888322 0 -0.00043385190369411554 0.0338312942587643 0 -0.00023815990953636839 0.033818761251725275 0 -0.00043385190369411554 0.0338312942587643 0 -0.00023815990953636839 0.033818761251725275 0 -0.00031245651737206063 0.034131160010113855 0 1.8248149810563442e-05 0.034071698686122434 0 -0.00023815990953636839 0.033818761251725275 0 -0.00031245651737206063 0.034131160010113855 0 1.8248149810563442e-05 0.034071698686122434 0 -0.00031245651737206063 0.034131160010113855 0 -0.00018940756237354625 0.034414971080516457 0 -0.00031245651737206063 0.034131160010113855 0 -0.00040311432178782776 0.034353387647181301 0 -0.00018940756237354625 0.034414971080516457 0 -0.00043385190369411554 0.0338312942587643 0 -0.00053111175537294097 0.034224571937199501 0 -0.00072792753811968039 0.034145777367131022 0 -0.00043385190369411554 0.0338312942587643 0 -0.00031245651737206063 0.034131160010113855 0 -0.00053111175537294097 0.034224571937199501 0 -0.00031245651737206063 0.034131160010113855 0 -0.00053111175537294097 0.034224571937199501 0 -0.00040311432178782776 0.034353387647181301 0 -0.00053111175537294097 0.034224571937199501 0 -0.00056006577203240144 0.0344507010009708 0 -0.00068282256928307969 0.034301558383545261 0 -0.00053111175537294097 0.034224571937199501 0 -0.00040311432178782776 0.034353387647181301 0 -0.00056006577203240144 0.0344507010009708 0 -0.00040311432178782776 0.034353387647181301 0 -0.00056006577203240144 0.0344507010009708 0 -0.00036725059668064045 0.034515556166829706 0 -0.00018565172782612898 0.034734670940699222 0 -0.00036725059668064045 0.034515556166829706 0 -0.00018940756237354625 0.034414971080516457 0 -0.00040311432178782776 0.034353387647181301 0 -0.00036725059668064045 0.034515556166829706 0 -0.00018940756237354625 0.034414971080516457 0 -0.00078767785667923794 0.034293964855412341 0 -0.00072792753811968039 0.034145777367131022 0 -0.00092767499078808533 0.034260558615858333 0 -0.00084986664189215608 0.034387523286322011 0 -0.00078767785667923794 0.034293964855412341 0 -0.00092767499078808533 0.034260558615858333 0 -0.00084986664189215608 0.034387523286322011 0 -0.00078767785667923794 0.034293964855412341 0 -0.00071500482677828937 0.034397955938270386 0 -0.00078767785667923794 0.034293964855412341 0 -0.00071500482677828937 0.034397955938270386 0 -0.00068282256928307969 0.034301558383545261 0 -0.00056006577203240144 0.0344507010009708 0 -0.00071500482677828937 0.034397955938270386 0 -0.00068282256928307969 0.034301558383545261 0 -0.00078767785667923794 0.034293964855412341 0 -0.00068282256928307969 0.034301558383545261 0 -0.00072792753811968039 0.034145777367131022 0 -0.00053111175537294097 0.034224571937199501 0 -0.00068282256928307969 0.034301558383545261 0 -0.00072792753811968039 0.034145777367131022 0 -0.0008654368287954829 0.034014998502627625 0 -0.00095199208671151885 0.033990607025024842 0 -0.00090728482184535637 0.033907780091444628 0 -0.00095199208671151885 0.033990607025024842 0 -0.00099199452483481358 0.033921232390955715 0 -0.0010345416264182273 0.034100993399909733 0 -0.00095199208671151885 0.033990607025024842 0 -0.00099199452483481358 0.033921232390955715 0 -0.00090728482184535637 0.033907780091444628 0 -0.0008654368287954829 0.034014998502627625 0 -0.00095199208671151885 0.033990607025024842 0 -0.0010345416264182273 0.034100993399909733 0 -0.00078203949540996489 0.034069495464845431 0 -0.00099793842725345253 0.034179517405413681 0 -0.001131337885368189 0.033892678940167141 0 -0.00090728482184535637 0.033907780091444628 0 -0.00092388969092297812 0.033636797191017274 0 -0.00092635931586930529 0.033400883284407809 0 -0.00095078019516913728 0.033790410722350984 0 -0.00092635931586930529 0.033400883284407809 0 -0.00099437589210971708 0.033623887859107533 0 -0.0012062680080410669 0.033703121707283436 0 -0.0011940712081979566 0.033489208087884872 0 -0.00097209329449664933 0.033493720566485613 0 -0.0012062680080410669 0.033703121707283436 0 -0.0011940712081979566 0.033489208087884872 0 -0.0013945123085880985 0.033516949024938965 0 -0.0008654368287954829 0.034014998502627625 0 -0.00090728482184535637 0.033907780091444628 0 -0.00070515675583806441 0.033777564997971875 0 -0.00090728482184535637 0.033907780091444628 0 -0.00070515675583806441 0.033777564997971875 0 -0.00092388969092297812 0.033636797191017274 0 -0.00069990789595094618 0.033319134817452099 0 -0.00070515675583806441 0.033777564997971875 0 -0.00092388969092297812 0.033636797191017274 0 -0.00069990789595094618 0.033319134817452099 0 -0.00097209329449664933 0.033493720566485613 0 -0.0010761903662128837 0.03319789038297085 0 -0.00070002596224115466 0.033310197610396691 0 -0.00099437589210971708 0.033623887859107533 0 -0.0011940712081979566 0.033489208087884872 0 -0.00097209329449664933 0.033493720566485613 0 -0.0010761903662128837 0.03319789038297085 0 -0.0011940712081979566 0.033489208087884872 0 -0.0010761903662128837 0.03319789038297085 0 -0.001347414370751452 0.033327303218297188 0 -0.0011940712081979566 0.033489208087884872 0 -0.001347414370751452 0.033327303218297188 0 -0.0013945123085880985 0.033516949024938965 0 -0.0010761903662128837 0.03319789038297085 0 -0.0011527866193013776 0.032809273291851494 0 -0.0014743019947603578 0.033053198776984191 0 -0.0010761903662128837 0.03319789038297085 0 -0.0014743019947603578 0.033053198776984191 0 -0.001347414370751452 0.033327303218297188 0 -0.0011527866193013776 0.032809273291851494 0 -0.00068239727927214106 0.032847147361493662 0 -0.0010863252818607279 0.032220835289970974 0 -0.0010761903662128837 0.03319789038297085 0 -0.0011527866193013776 0.032809273291851494 0 -0.00068239727927214106 0.032847147361493662 0 -0.00069990789595094618 0.033319134817452099 0 -0.0010761903662128837 0.03319789038297085 0 -0.00068239727927214106 0.032847147361493662 0 -0.00069990789595094618 0.033319134817452099 0 -0.00040407520827692446 0.033253690311939886 0 -0.00068239727927214106 0.032847147361493662 0 -0.00040407520827692446 0.033253690311939886 0 -0.00022194582302420408 0.033031059442740124 0 -0.00068239727927214106 0.032847147361493662 0 0.00020754680156455325 0.033638105204072573 0 -0.00012765602269208733 0.0343521619813177 0 -0.00022194582302420408 0.033031059442740124 0 -9.9478631622418686e-05 0.033500113548594841 0 -0.00040407520827692446 0.033253690311939886 0 -0.00022194582302420408 0.033031059442740124 0 -0.00010300092591190976 0.033908880820792402 0 -0.0002265961925298282 0.033095799512097263 0 -0.00022194582302420408 0.033031059442740124 0 -0.00068239727927214106 0.032847147361493662 0 -0.00048756599834269749 0.032282348824397657 0 8.4501231648409909e-05 0.03224788635121266 0 -0.00022194582302420408 0.033031059442740124 0 -0.00048756599834269749 0.032282348824397657 0 8.4501231648409909e-05 0.03224788635121266 0 -0.00023842678045351239 0.031789715922869555 0 6.6445585378723866e-05 0.031647765559068446 0 8.4501231648409909e-05 0.03224788635121266 0 -0.00048756599834269749 0.032282348824397657 0 -0.00023842678045351239 0.031789715922869555 0 -0.00048756599834269749 0.032282348824397657 0 -0.00065264829024349875 0.031844246111794365 0 -0.00023842678045351239 0.031789715922869555 0 -0.00048756599834269749 0.032282348824397657 0 -0.0010863252818607279 0.032220835289970974 0 -0.00065264829024349875 0.031844246111794365 0 -0.0011527866193013776 0.032809273291851494 0 -0.0010863252818607279 0.032220835289970974 0 -0.0014699224647115254 0.03262635321239378 0 -0.00068239727927214106 0.032847147361493662 0 -0.00048756599834269749 0.032282348824397657 0 -0.0010863252818607279 0.032220835289970974 0 -0.0011932819811082966 0.026317104139768694 0 -0.0012953483574057367 0.026292157658429308 0 -0.0012202481695931318 0.026424382415409335 0 -0.0014415245394440463 0.029674281080209686 0 -0.0014596577742651891 0.029490521328138588 0 -0.0016340070689888381 0.032260872605220231 0 -0.0017510368112260688 0.032768169907271445 0 -0.0014699224647115254 0.03262635321239378 0 -0.0010863252818607279 0.032220835289970974 0 -0.0016340070689888381 0.032260872605220231 0 -0.0014699224647115254 0.03262635321239378 0 -0.0011932819811082966 0.026317104139768694 0 -0.0012474331801038013 0.026224218852699502 0 -0.0011671967593270942 0.026214550384939504 0 -0.0014415245394440463 0.029674281080209686 0 -0.0016205391457699747 0.027065351018054285 0 -0.0010863252818607279 0.032220835289970974 0 -0.0016340070689888381 0.032260872605220231 0 -0.0014746821453044128 0.031712533896650921 0 -0.0011932819811082966 0.026317104139768694 0 -0.0012953483574057367 0.026292157658429308 0 -0.0012474331801038013 0.026224218852699502 0 -0.0016252250177682575 0.022116124577336204 0 -0.0017773727923815767 0.022375054760905899 0 -0.0014908460010752489 0.023846383652513799 0 -0.0017773727923815767 0.022375054760905899 0 -0.001674016807329375 0.021020648744205912 0 -0.0014069913553593984 0.020557126925025235 0 -0.0017939633477787912 0.021057498456215833 0 -0.001674016807329375 0.021020648744205912 0 -0.0014755498656727954 0.020877332770989677 0 -0.0014438025161972044 0.021061866254302244 0 -0.001674016807329375 0.021020648744205912 0 -0.0014755498656727954 0.020877332770989677 0 -0.0014069913553593984 0.020557126925025235 0 -0.0014755498656727954 0.020877332770989677 0 -0.0013076871180551564 0.020908403359200359 0 -0.0014438025161972044 0.021061866254302244 0 -0.0013076871180551564 0.020908403359200359 0 -0.0012021642407991186 0.02109647351202968 0 -0.0014438025161972044 0.021061866254302244 0 -0.0014755498656727954 0.020877332770989677 0 -0.0013076871180551564 0.020908403359200359 0 -0.001350933444977754 0.020755958815257994 0 -0.0013076871180551564 0.020908403359200359 0 -0.001350933444977754 0.020755958815257994 0 -0.0012148652902393988 0.020682758428411316 0 -0.0014755498656727954 0.020877332770989677 0 -0.001350933444977754 0.020755958815257994 0 -0.0014069913553593984 0.020557126925025235 0 -0.001350933444977754 0.020755958815257994 0 -0.0012148652902393988 0.020682758428411316 0 -0.0014069913553593984 0.020557126925025235 0 -0.0010635072934372868 0.020885541384879646 0 -0.00073152846034229039 0.020866930418415211 0 -0.00095972387000790448 0.021089251716097979 0 -0.0013076871180551564 0.020908403359200359 0 -0.0012148652902393988 0.020682758428411316 0 -0.0010635072934372868 0.020885541384879646 0 -0.0013076871180551564 0.020908403359200359 0 -0.0010635072934372868 0.020885541384879646 0 -0.0012021642407991186 0.02109647351202968 0 -0.0010635072934372868 0.020885541384879646 0 -0.00095972387000790448 0.021089251716097979 0 -0.0012021642407991186 0.02109647351202968 0 -0.0012148652902393988 0.020682758428411316 0 -0.0010635072934372868 0.020885541384879646 0 -0.00096717783920889557 0.020672935747605471 0 -0.0012148652902393988 0.020682758428411316 0 -0.00096717783920889557 0.020672935747605471 0 -0.0010858929331476592 0.020554984621484307 0 -0.00096717783920889557 0.020672935747605471 0 -0.00064303007869976031 0.020553938462400147 0 -0.00073152846034229039 0.020866930418415211 0 -0.0010635072934372868 0.020885541384879646 0 -0.00096717783920889557 0.020672935747605471 0 -0.00073152846034229039 0.020866930418415211 0 -0.00096717783920889557 0.020672935747605471 0 -0.00091888229363941865 0.020382861387171887 0 -0.00064303007869976031 0.020553938462400147 0 -0.0010858929331476592 0.020554984621484307 0 -0.00091888229363941865 0.020382861387171887 0 -0.0012432602961155842 0.020468189406692039 0 -0.0012148652902393988 0.020682758428411316 0 -0.0010858929331476592 0.020554984621484307 0 -0.0012432602961155842 0.020468189406692039 0 -0.00096717783920889557 0.020672935747605471 0 -0.0010858929331476592 0.020554984621484307 0 -0.00091888229363941865 0.020382861387171887 0 -0.0009909447473215162 0.020036773652371182 0 -0.0012100261546709049 0.021731069448513406 0 -0.00091888229363941865 0.020382861387171887 0 -0.0012432602961155842 0.020468189406692039 0 -0.0010553644163019294 0.02006790061130613 0 -0.00091888229363941865 0.020382861387171887 0 -0.00077119067914971969 0.020109031757820833 0 -0.00065837335521039568 0.020270982023618041 0 -0.00091888229363941865 0.020382861387171887 0 -0.00077119067914971969 0.020109031757820833 0 -0.0010553644163019294 0.02006790061130613 0 -0.0014069913553593984 0.020557126925025235 0 -0.0012432602961155842 0.020468189406692039 0 -0.0010813588748803703 0.020186135150600509 0 -0.0014908460010752489 0.023846383652513799 0 -0.0012100261546709049 0.021731069448513406 0 -0.0012148652902393988 0.020682758428411316 0 -0.0014069913553593984 0.020557126925025235 0 -0.0012432602961155842 0.020468189406692039 0 -0.0012953483574057367 0.026292157658429308 0 -0.001293257565452538 0.026411834378757722 0 -0.0013473250277156676 0.026362320843236069 0 -0.0012953483574057367 0.026292157658429308 0 -0.001293257565452538 0.026411834378757722 0 -0.0012202481695931318 0.026424382415409335 0 -0.0010553644163019294 0.02006790061130613 0 -0.00068310896217575507 0.019551120168499671 0 -0.00068733740517359031 0.019825780991478425 0 -0.0012100261546709049 0.021731069448513406 0 -0.00053365988459774111 0.019048824603914841 0 -0.0013473250277156676 0.026362320843236069 0 -0.0013506138199350858 0.02640444706071101 0 -0.0013676994976888855 0.026417042418733792 0 -0.0012100261546709049 0.021731069448513406 0 -0.0011677965132342854 0.023964749690331671 0 -0.00077119067914971969 0.020109031757820833 0 -0.0010553644163019294 0.02006790061130613 0 -0.00068733740517359031 0.019825780991478425 0 -0.001293257565452538 0.026411834378757722 0 -0.0013473250277156676 0.026362320843236069 0 -0.0013506138199350858 0.02640444706071101 0 -0.0013911413016818688 0.026444645396532806 0 -0.0013709064004858056 0.026514100326953231 0 -0.0014243235933269491 0.026543923923911628 0 -0.0011693922060260207 0.020337581058462784 0 -0.00092906357023798936 0.019705655133140411 0 -0.00068310896217575507 0.019551120168499671 0 -0.0019306766980213155 0.02593789742431802 0 -0.0011677965132342854 0.023964749690331671 0 -0.0013506138199350858 0.02640444706071101 0 -0.0013911413016818688 0.026444645396532806 0 -0.0013272498590805924 0.026489758421622885 0 -0.0013911413016818688 0.026444645396532806 0 -0.0013272498590805924 0.026489758421622885 0 -0.0013709064004858056 0.026514100326953231 0 -0.001293257565452538 0.026411834378757722 0 -0.0013272498590805924 0.026489758421622885 0 -0.0012521345735287954 0.026550114004464814 0 -0.001293257565452538 0.026411834378757722 0 -0.0013506138199350858 0.02640444706071101 0 -0.0013272498590805924 0.026489758421622885 0 -0.001293257565452538 0.026411834378757722 0 -0.0012202481695931318 0.026424382415409335 0 -0.0012521345735287954 0.026550114004464814 0 -0.0017510368112260688 0.032768169907271445 0 -0.0014743019947603578 0.033053198776984191 0 -0.0018562256871211646 0.033201204044453661 0 -0.0014596577742651891 0.029490521328138588 0 -0.001602709543815936 0.029993541203167134 0 -0.0017510368112260688 0.032768169907271445 0 -0.0014699224647115254 0.03262635321239378 0 -0.0014743019947603578 0.033053198776984191 0 -0.0011527866193013776 0.032809273291851494 0 -0.0014699224647115254 0.03262635321239378 0 -0.0014743019947603578 0.033053198776984191 0 -0.0014743019947603578 0.033053198776984191 0 -0.001347414370751452 0.033327303218297188 0 -0.0016099990397662313 0.033380349784862109 0 -0.001347414370751452 0.033327303218297188 0 -0.0016099990397662313 0.033380349784862109 0 -0.0013945123085880985 0.033516949024938965 0 -0.0018562256871211646 0.033201204044453661 0 -0.0016099990397662313 0.033380349784862109 0 -0.0019808934616382745 0.033580455167970973 0 -0.0014743019947603578 0.033053198776984191 0 -0.0018562256871211646 0.033201204044453661 0 -0.0016099990397662313 0.033380349784862109 0 -0.0016099990397662313 0.033380349784862109 0 -0.0016038371168423415 0.03364554075582727 0 -0.0019808934616382745 0.033580455167970973 0 -0.00080757599996270188 0.032478392452216183 0 -0.00076679687353230729 0.032506634750474162 0 -0.00068474964597820616 0.032590937001211018 0 -0.0011067094821520522 0.033326638778295038 0 -0.0014259692463066092 0.029661259449571473 0 -0.0012062680080410669 0.033703121707283436 0 -0.0016038371168423415 0.03364554075582727 0 -0.0013945123085880985 0.033516949024938965 0 -0.00092635931586930529 0.033400883284407809 0 -0.0011067094821520522 0.033326638778295038 0 -0.0016099990397662313 0.033380349784862109 0 -0.0016038371168423415 0.03364554075582727 0 -0.0013945123085880985 0.033516949024938965 0 -0.00025682418016719465 0.032421621409900667 0 -0.00083950092046854348 0.032607053224700873 0 -0.00065984985612277153 0.033066809467752686 0 -0.00025682418016719465 0.032421621409900667 0 -0.00080757599996270188 0.032478392452216183 0 -0.00083950092046854348 0.032607053224700873 0 -0.00092635931586930529 0.033400883284407809 0 -0.00085444014112513874 0.033531097355055134 0 -0.00099199452483481358 0.033921232390955715 0 -0.0011424620773978357 0.034076143028775811 0 -0.0010345416264182273 0.034100993399909733 0 -0.00080757599996270188 0.032478392452216183 0 -0.00083950092046854348 0.032607053224700873 0 -0.00076679687353230729 0.032506634750474162 0 -0.00083950092046854348 0.032607053224700873 0 -0.00076679687353230729 0.032506634750474162 0 -0.00079815119929492419 0.032198739809467233 0 -0.0014770968901404982 0.034238788600597508 0 -0.00085444014112513874 0.033531097355055134 0 -0.0014665329484710092 0.034235488338294512 0 -0.0014126026559851239 0.033360133005616313 0 -0.00065984985612277153 0.033066809467752686 0 -0.00073165037748437701 0.032409044154637065 0 -0.0014070275639531176 0.033305058484324419 0 -0.00083950092046854348 0.032607053224700873 0 -0.0014126026559851239 0.033360133005616313 0 -0.00065984985612277153 0.033066809467752686 0 -0.0012831398923776195 0.034246894969941807 0 -0.0011424620773978357 0.034076143028775811 0 -0.0010345416264182273 0.034100993399909733 0 -0.0012655462374717582 0.034260835270832637 0 -0.00099793842725345253 0.034179517405413681 0 -0.00028188395523385748 0.031860518126605723 0 -0.00054433282742983571 0.032070306035728947 0 -0.00049623191132148906 0.032353768580613049 0 -0.0017987244558744682 0.02495373340654913 0 -0.0005948182024295988 0.025265343480394782 0 -0.0004136313410754278 0.024225871084397128 0 -0.0013590172810496429 0.023739467124970322 0 -0.0017987244558744682 0.02495373340654913 0 -0.0004136313410754278 0.024225871084397128 0 -0.00042741422038891034 0.024575189050555196 0 -0.0013033838651637616 0.029178733601496431 0 -0.00042741422038891034 0.024575189050555196 0 -0.00012004460081329079 0.020511946390513743 0 -0.00076679687353230729 0.032506634750474162 0 -0.00079815119929492419 0.032198739809467233 0 -0.00049623191132148906 0.032353768580613049 0 -0.00079815119929492419 0.032198739809467233 0 -0.00054433282742983571 0.032070306035728947 0 -0.00049623191132148906 0.032353768580613049 0 -0.00054531408349487896 0.031734557708547495 0 -0.00079815119929492419 0.032198739809467233 0 -0.00054433282742983571 0.032070306035728947 0 -0.00076679687353230729 0.032506634750474162 0 -0.00049623191132148906 0.032353768580613049 0 -0.00068474964597820616 0.032590937001211018 0 -0.0013033838651637616 0.029178733601496431 0 -0.0014259692463066092 0.029661259449571473 0 -0.0017987244558744682 0.02495373340654913 0 -0.0011769994596206232 0.026202081976141482 0 -0.0005948182024295988 0.025265343480394782 0 -0.0017987244558744682 0.02495373340654913 0 -0.0011769994596206232 0.026202081976141482 0 -0.0022346768607964117 0.026173809001669747 0 -0.001365419363552252 0.026417082705381678 0 -0.0014259692463066092 0.029661259449571473 0 -0.0013789884592422541 0.026643306288211679 0 -0.0012958176252350177 0.026673661942719772 0 -0.0013409586754389627 0.02657534103710053 0 -0.0013272498590805924 0.026489758421622885 0 -0.0012521345735287954 0.026550114004464814 0 -0.0013409586754389627 0.02657534103710053 0 -0.0012521345735287954 0.026550114004464814 0 -0.0012958176252350177 0.026673661942719772 0 -0.0013409586754389627 0.02657534103710053 0 -0.001602709543815936 0.029993541203167134 0 -0.0014259692463066092 0.029661259449571473 0 -0.0013409586754389627 0.02657534103710053 0 -0.0013709064004858056 0.026514100326953231 0 -0.0014243235933269491 0.026543923923911628 0 -0.0013789884592422541 0.026643306288211679 0 -0.0013409586754389627 0.02657534103710053 0 -0.0014243235933269491 0.026543923923911628 0 -0.0013272498590805924 0.026489758421622885 0 -0.0013409586754389627 0.02657534103710053 0 -0.0013709064004858056 0.026514100326953231 0 -0.0014815691130264416 0.023835460947083609 0 -0.0010498705434110783 0.022855039532349491 0 -0.00057147857767440239 0.022947353884625449 0 -0.0010498705434110783 0.022855039532349491 0 -0.00057147857767440239 0.022947353884625449 0 -0.00040389077502356628 0.02231553385916504 0 -0.00057147857767440239 0.022947353884625449 0 0.00035954355112248785 0.022040468082133332 0 -0.00040389077502356628 0.02231553385916504 0 -0.00033674125299508115 0.020716687841574939 0 0.00010764727307834942 0.020624423538649166 0 -0.00040116443660092395 0.019167487284693467 0 -2.3656106562826927e-05 0.019271906577215447 0 4.4959101997533142e-05 0.01875174569202355 0 -0.00040116443660092395 0.019167487284693467 0 -2.3656106562826927e-05 0.019271906577215447 0 -0.00031222318179409088 0.019480341324752605 0 0.00035954355112248785 0.022040468082133332 0 -0.00040389077502356628 0.02231553385916504 0 -0.00013021188980843267 0.021873702046909811 0 -0.00040389077502356628 0.02231553385916504 0 -0.00013021188980843267 0.021873702046909811 0 -0.00061579611174716615 0.021859506799630283 0 -0.00036606726431724933 0.023177461285158567 0 -0.00067179233277764338 0.024474027930329514 0 -0.0010498705434110783 0.022855039532349491 0 -0.00040389077502356628 0.02231553385916504 0 -0.00061579611174716615 0.021859506799630283 0 -0.0013249458459054734 0.024880654838352535 0 -0.00067179233277764338 0.024474027930329514 0 -0.001365419363552252 0.026417082705381678 0 -0.00067179233277764338 0.024474027930329514 0 -0.0013789884592422541 0.026643306288211679 0 -0.0014243235933269491 0.026543923923911628 0 -0.0014512111670762777 0.026618054098872593 0 -0.0011769994596206232 0.026202081976141482 0 -0.00012101073387039484 0.026234856654793276 0 -0.0005948182024295988 0.025265343480394782 0 -0.00012101073387039484 0.026234856654793276 0 -0.0005948182024295988 0.025265343480394782 0 0.00053635370121247821 0.024710718502849616 0 -0.00013021188980843267 0.021873702046909811 0 -0.00063307840625019096 0.021853899561427928 0 -5.8588723127431209e-06 0.020408029700662276 0 -0.00067179233277764338 0.024474027930329514 0 0.00049839935869670695 0.020528486684576099 0 0.00035954355112248785 0.022040468082133332 0 -0.00013021188980843267 0.021873702046909811 0 -5.8588723127431209e-06 0.020408029700662276 0 0.00066675562569439267 0.017085911069185715 0 0.00067986960672259181 0.0170664521953122 0 0.00070438323374564322 0.01705156872252056 0 0.00049839935869670695 0.020528486684576099 0 0.0012332301853693896 0.017352079336164911 0 0.0006682049911113971 0.017106702392074808 0 0.00067986960672259181 0.0170664521953122 0 0.00065907004934184223 0.01706840884047706 0 0.0006682049911113971 0.017106702392074808 0 0.00065907004934184223 0.01706840884047706 0 0.00063630403543387553 0.017099633016036692 0 -0.0005948182024295988 0.025265343480394782 0 0.00053635370121247821 0.024710718502849616 0 -0.0004136313410754278 0.024225871084397128 0 0.00049839935869670695 0.020528486684576099 0 -0.00012004460081329079 0.020511946390513743 0 0.00074855727044650803 0.016957630804135693 0 0.00080491245240814347 0.016976012193958886 0 0.00073811197037125151 0.017018230070122417 0 0.00080491245240814347 0.016976012193958886 0 0.00073811197037125151 0.017018230070122417 0 0.00073682002689606156 0.017110935327002464 0 0.00073811197037125151 0.017018230070122417 0 0.00070438323374564322 0.01705156872252056 0 0.00073682002689606156 0.017110935327002464 0 0.00066675562569439267 0.017085911069185715 0 0.00070438323374564322 0.01705156872252056 0 0.00073682002689606156 0.017110935327002464 0 0.00070912742951320521 0.017014089997259139 0 0.00073811197037125151 0.017018230070122417 0 0.00070438323374564322 0.01705156872252056 0 0.00070912742951320521 0.017014089997259139 0 0.00067986960672259181 0.0170664521953122 0 0.00070438323374564322 0.01705156872252056 0 0.00049839935869670695 0.020528486684576099 0 0.00072948264054979576 0.018405155081311613 0 0.00035954355112248785 0.022040468082133332 0 -5.8588723127431209e-06 0.020408029700662276 0 0.0013068805399190431 0.02109289023756138 0 0.00090551644175246272 0.017752370281565694 0 0.00072948264054979576 0.018405155081311613 0 0.00094539985273109231 0.016558880849386254 0 0.00072948264054979576 0.018405155081311613 0 0.00080491245240814347 0.016976012193958886 0 0.0008282357758329764 0.017034314595933311 0 0.00077662859564326617 0.017021046265528687 0 0.001084384515052543 0.018664301040667384 0 0.00048853073213095443 0.018320813173866194 0 0.00065752574039445923 0.018715731558828091 0 0.00093828604109371381 0.018870426965160256 0 0.001084384515052543 0.018664301040667384 0 0.00065752574039445923 0.018715731558828091 0 0.00093828604109371381 0.018870426965160256 0 0.00065752574039445923 0.018715731558828091 0 0.0007264169822552162 0.019069617390648132 0 4.4959101997533142e-05 0.01875174569202355 0 0.00048853073213095443 0.018320813173866194 0 0.00065752574039445923 0.018715731558828091 0 4.4959101997533142e-05 0.01875174569202355 0 0.00065752574039445923 0.018715731558828091 0 0.00036067592574474001 0.019038818150132558 0 0.00010764727307834942 0.020624423538649166 0 0.00072948264054979576 0.018405155081311613 0 -2.3656106562826927e-05 0.019271906577215447 0 4.4959101997533142e-05 0.01875174569202355 0 0.00036067592574474001 0.019038818150132558 0 0.00036067592574474001 0.019038818150132558 0 0.0007264169822552162 0.019069617390648132 0 0.00038835941437310632 0.019387304946814624 0 -2.3656106562826927e-05 0.019271906577215447 0 0.00036067592574474001 0.019038818150132558 0 0.00038835941437310632 0.019387304946814624 0 0.0007264169822552162 0.019069617390648132 0 0.00084378765948794746 0.019374706193543409 0 0.00038835941437310632 0.019387304946814624 0 0.00098716360102380028 0.019097622217828337 0 0.00093828604109371381 0.018870426965160256 0 0.0007264169822552162 0.019069617390648132 0 0.00065752574039445923 0.018715731558828091 0 0.00036067592574474001 0.019038818150132558 0 0.0007264169822552162 0.019069617390648132 0 0.00098716360102380028 0.019097622217828337 0 0.0007264169822552162 0.019069617390648132 0 0.00084378765948794746 0.019374706193543409 0 0.00084378765948794746 0.019374706193543409 0 0.0006745231443583019 0.019653028030374015 0 0.00038835941437310632 0.019387304946814624 0 0.0010192313911195901 0.019613901475666027 0 0.00084378765948794746 0.019374706193543409 0 0.0006745231443583019 0.019653028030374015 0 0.0010192313911195901 0.019613901475666027 0 0.0006745231443583019 0.019653028030374015 0 0.0007832097405565939 0.019893528049938002 0 0.0006745231443583019 0.019653028030374015 0 0.0007832097405565939 0.019893528049938002 0 0.00040481620548955057 0.019803841773155775 0 0.0007832097405565939 0.019893528049938002 0 0.0008827688203200966 0.020196526437686862 0 0.00049122871570264994 0.020180400774067454 0 0.0007832097405565939 0.019893528049938002 0 0.00040481620548955057 0.019803841773155775 0 0.00049122871570264994 0.020180400774067454 0 0.0010939163678508781 0.019890769441853851 0 0.0007832097405565939 0.019893528049938002 0 0.0008827688203200966 0.020196526437686862 0 0.00012415329570615466 0.02008492925715729 0 0.00040481620548955057 0.019803841773155775 0 -5.077173197540371e-05 0.019662754848300046 0 0.00012415329570615466 0.02008492925715729 0 0.00040481620548955057 0.019803841773155775 0 0.00049122871570264994 0.020180400774067454 0 0.0006745231443583019 0.019653028030374015 0 0.00040481620548955057 0.019803841773155775 0 0.00038835941437310632 0.019387304946814624 0 0.00040481620548955057 0.019803841773155775 0 0.00038835941437310632 0.019387304946814624 0 -5.077173197540371e-05 0.019662754848300046 0 -2.3656106562826927e-05 0.019271906577215447 0 0.00038835941437310632 0.019387304946814624 0 -5.077173197540371e-05 0.019662754848300046 0 -2.3656106562826927e-05 0.019271906577215447 0 -0.00031222318179409088 0.019480341324752605 0 -5.077173197540371e-05 0.019662754848300046 0 -0.00031222318179409088 0.019480341324752605 0 -5.077173197540371e-05 0.019662754848300046 0 -0.00042828186337116522 0.019741477605368828 0 -0.0011677965132342854 0.023964749690331671 0 -0.0013249458459054734 0.024880654838352535 0 -0.00092906357023798936 0.019705655133140411 0 -0.00040116443660092395 0.019167487284693467 0 -0.00068310896217575507 0.019551120168499671 0 -0.0011677965132342854 0.023964749690331671 0 -0.00033674125299508115 0.020716687841574939 0 -0.00040116443660092395 0.019167487284693467 0 -0.00031222318179409088 0.019480341324752605 0 -0.00068310896217575507 0.019551120168499671 0 -0.00031222318179409088 0.019480341324752605 0 -0.00068310896217575507 0.019551120168499671 0 -0.00042828186337116522 0.019741477605368828 0 -0.00068310896217575507 0.019551120168499671 0 -0.00042828186337116522 0.019741477605368828 0 -0.00068733740517359031 0.019825780991478425 0 -0.00042828186337116522 0.019741477605368828 0 -0.00068733740517359031 0.019825780991478425 0 -0.00053855771588022386 0.02001548228086714 0 -0.00042828186337116522 0.019741477605368828 0 -0.00053855771588022386 0.02001548228086714 0 -0.00023838938254659128 0.020026006132178368 0 -0.00053855771588022386 0.02001548228086714 0 -0.00023838938254659128 0.020026006132178368 0 -0.00038635504199029038 0.020389745656427288 0 -0.00077119067914971969 0.020109031757820833 0 -0.00053855771588022386 0.02001548228086714 0 -0.00065837335521039568 0.020270982023618041 0 -0.00077119067914971969 0.020109031757820833 0 -0.00068733740517359031 0.019825780991478425 0 -0.00053855771588022386 0.02001548228086714 0 0.00012415329570615466 0.02008492925715729 0 -5.077173197540371e-05 0.019662754848300046 0 -0.00023838938254659128 0.020026006132178368 0 -5.077173197540371e-05 0.019662754848300046 0 -0.00042828186337116522 0.019741477605368828 0 -0.00023838938254659128 0.020026006132178368 0 0.00012415329570615466 0.02008492925715729 0 -0.00023838938254659128 0.020026006132178368 0 -0.00010502481101711435 0.020308332252582485 0 0.00012415329570615466 0.02008492925715729 0 -0.00010502481101711435 0.020308332252582485 0 0.00024052794598677246 0.020529345814181896 0 -0.00010502481101711435 0.020308332252582485 0 -0.00025493535017484948 0.020721065247430556 0 0.00024052794598677246 0.020529345814181896 0 -0.00023838938254659128 0.020026006132178368 0 -0.00010502481101711435 0.020308332252582485 0 -0.00038635504199029038 0.020389745656427288 0 -0.00010502481101711435 0.020308332252582485 0 -0.00038635504199029038 0.020389745656427288 0 -0.00025493535017484948 0.020721065247430556 0 -0.00053855771588022386 0.02001548228086714 0 -0.00065837335521039568 0.020270982023618041 0 -0.00038635504199029038 0.020389745656427288 0 -0.00038635504199029038 0.020389745656427288 0 -0.00064303007869976031 0.020553938462400147 0 -0.00025493535017484948 0.020721065247430556 0 -0.00091888229363941865 0.020382861387171887 0 -0.00065837335521039568 0.020270982023618041 0 -0.00064303007869976031 0.020553938462400147 0 -0.00065837335521039568 0.020270982023618041 0 -0.00038635504199029038 0.020389745656427288 0 -0.00064303007869976031 0.020553938462400147 0 -0.00073152846034229039 0.020866930418415211 0 -0.00025493535017484948 0.020721065247430556 0 -0.0004574988592701691 0.021036221658007125 0 -0.00064303007869976031 0.020553938462400147 0 -0.00073152846034229039 0.020866930418415211 0 -0.00025493535017484948 0.020721065247430556 0 -0.00025493535017484948 0.020721065247430556 0 0.00017079089851544701 0.020940266497536577 0 -0.00011117420114629448 0.021206380385999524 0 -0.00025493535017484948 0.020721065247430556 0 0.00017079089851544701 0.020940266497536577 0 0.00024052794598677246 0.020529345814181896 0 -0.00025493535017484948 0.020721065247430556 0 -0.00011117420114629448 0.021206380385999524 0 -0.0004574988592701691 0.021036221658007125 0 0.00017079089851544701 0.020940266497536577 0 0.00024052794598677246 0.020529345814181896 0 0.00056948038431943644 0.020961410252802026 0 0.00098990919110163969 0.021045573788189872 0 0.00081652292806752699 0.020606725214361892 0 0.00056948038431943644 0.020961410252802026 0 0.00081652292806752699 0.020606725214361892 0 0.00024052794598677246 0.020529345814181896 0 0.00056948038431943644 0.020961410252802026 0 0.00081652292806752699 0.020606725214361892 0 0.0008827688203200966 0.020196526437686862 0 0.00049122871570264994 0.020180400774067454 0 0.00081652292806752699 0.020606725214361892 0 0.00024052794598677246 0.020529345814181896 0 0.00049122871570264994 0.020180400774067454 0 0.00012415329570615466 0.02008492925715729 0 0.00024052794598677246 0.020529345814181896 0 0.00049122871570264994 0.020180400774067454 0 0.0002927930477070877 0.021359748422638759 0 -3.2451245006421691e-05 0.021685944531423852 0 0.00044924644521270117 0.02192531085715593 0 0.00074677509651323813 0.021489499406982457 0 0.0002927930477070877 0.021359748422638759 0 0.00044924644521270117 0.02192531085715593 0 0.0011690922431942213 0.021443372219452181 0 0.00074677509651323813 0.021489499406982457 0 0.00094101465147928805 0.022046688954131879 0 0.00098990919110163969 0.021045573788189872 0 0.00074677509651323813 0.021489499406982457 0 0.00056948038431943644 0.020961410252802026 0 0.00017079089851544701 0.020940266497536577 0 0.00056948038431943644 0.020961410252802026 0 0.0002927930477070877 0.021359748422638759 0 0.00074677509651323813 0.021489499406982457 0 0.00056948038431943644 0.020961410252802026 0 0.0002927930477070877 0.021359748422638759 0 0.00017079089851544701 0.020940266497536577 0 0.0002927930477070877 0.021359748422638759 0 -0.00011117420114629448 0.021206380385999524 0 -0.00011117420114629448 0.021206380385999524 0 -0.0004574988592701691 0.021036221658007125 0 -0.00035362428702021513 0.021481377166125901 0 -0.0004574988592701691 0.021036221658007125 0 -0.00072222709600442726 0.021293914389831071 0 -0.00035362428702021513 0.021481377166125901 0 -0.00073152846034229039 0.020866930418415211 0 -0.0004574988592701691 0.021036221658007125 0 -0.00072222709600442726 0.021293914389831071 0 -0.00035362428702021513 0.021481377166125901 0 -0.00066575314803532016 0.021702493875798524 0 -0.00037358911410849242 0.021929775738311976 0 -0.00072222709600442726 0.021293914389831071 0 -0.00035362428702021513 0.021481377166125901 0 -0.00066575314803532016 0.021702493875798524 0 0.0002927930477070877 0.021359748422638759 0 -0.00011117420114629448 0.021206380385999524 0 -3.2451245006421691e-05 0.021685944531423852 0 -0.00035362428702021513 0.021481377166125901 0 -3.2451245006421691e-05 0.021685944531423852 0 -0.00037358911410849242 0.021929775738311976 0 -0.00011117420114629448 0.021206380385999524 0 -0.00035362428702021513 0.021481377166125901 0 -3.2451245006421691e-05 0.021685944531423852 0 -3.2451245006421691e-05 0.021685944531423852 0 -1.6727199753016266e-05 0.02216933377543695 0 -0.00037358911410849242 0.021929775738311976 0 -1.6727199753016266e-05 0.02216933377543695 0 -0.00037358911410849242 0.021929775738311976 0 -0.00043025052131086386 0.022372243634964348 0 -0.00066575314803532016 0.021702493875798524 0 -0.00037358911410849242 0.021929775738311976 0 -0.00076773410953130184 0.022112194841898448 0 -0.00037358911410849242 0.021929775738311976 0 -0.00043025052131086386 0.022372243634964348 0 -0.00076773410953130184 0.022112194841898448 0 -0.00043025052131086386 0.022372243634964348 0 -6.8619488394156404e-05 0.022704973260858241 0 -0.00052266337201802775 0.022794726958887783 0 -0.00043025052131086386 0.022372243634964348 0 -0.00084737435464062049 0.022559867150416694 0 -0.00076773410953130184 0.022112194841898448 0 -0.00043025052131086386 0.022372243634964348 0 -0.00052266337201802775 0.022794726958887783 0 -0.00084737435464062049 0.022559867150416694 0 -1.6727199753016266e-05 0.02216933377543695 0 -0.00043025052131086386 0.022372243634964348 0 -6.8619488394156404e-05 0.022704973260858241 0 -1.6727199753016266e-05 0.02216933377543695 0 -6.8619488394156404e-05 0.022704973260858241 0 0.00052889668947030078 0.022735827279894493 0 -1.6727199753016266e-05 0.02216933377543695 0 0.00052889668947030078 0.022735827279894493 0 0.00044924644521270117 0.02192531085715593 0 -3.2451245006421691e-05 0.021685944531423852 0 -1.6727199753016266e-05 0.02216933377543695 0 0.00044924644521270117 0.02192531085715593 0 0.00052889668947030078 0.022735827279894493 0 0.00044924644521270117 0.02192531085715593 0 0.00094101465147928805 0.022046688954131879 0 0.00074677509651323813 0.021489499406982457 0 0.00044924644521270117 0.02192531085715593 0 0.00094101465147928805 0.022046688954131879 0 0.00061546221517261139 0.022597240306212286 0 0.00092837992547314919 0.022086330557816523 0 0.0011091062495915626 0.022480567541356137 0 0.00070384181658243164 0.022483542670751564 0 0.00094101465147928805 0.022046688954131879 0 0.0011091062495915626 0.022480567541356137 0 0.0010913773020473632 0.022927441165237022 0 0.00070384181658243164 0.022483542670751564 0 0.0010913773020473632 0.022927441165237022 0 0.00070384181658243164 0.022483542670751564 0 0.00081007767881254023 0.023119996227920134 0 0.00070384181658243164 0.022483542670751564 0 0.00081007767881254023 0.023119996227920134 0 0.00032150250801249274 0.022983252859410889 0 -6.8619488394156404e-05 0.022704973260858241 0 0.00052889668947030078 0.022735827279894493 0 0.00011570725296363711 0.023352056820704483 0 0.00061546221517261139 0.022597240306212286 0 0.00021242547835734335 0.023186195595119218 0 0.00081007767881254023 0.023119996227920134 0 0.00035326754336395164 0.023567802463145781 0 0.00032150250801249274 0.022983252859410889 0 0.0010913773020473632 0.022927441165237022 0 0.0011226391939259195 0.023306175452803078 0 0.00081007767881254023 0.023119996227920134 0 0.0011226391939259195 0.023306175452803078 0 0.00081007767881254023 0.023119996227920134 0 0.00086344700967915758 0.023525617660843653 0 0.0011226391939259195 0.023306175452803078 0 0.00086344700967915758 0.023525617660843653 0 0.0010832746992262114 0.023425456781020405 0 0.00081007767881254023 0.023119996227920134 0 0.00035326754336395164 0.023567802463145781 0 0.00086344700967915758 0.023525617660843653 0 0.00035326754336395164 0.023567802463145781 0 0.00086344700967915758 0.023525617660843653 0 0.00040275559782982658 0.024220926138889039 0 0.00086344700967915758 0.023525617660843653 0 0.00040275559782982658 0.024220926138889039 0 0.0012165532010099843 0.024666740548377919 0 0.00086344700967915758 0.023525617660843653 0 0.0011110664797207418 0.023419467081330782 0 0.0010832746992262114 0.023425456781020405 0 0.00093146942611087573 0.023623761299920689 0 0.0010831147270580549 0.023826759164674482 0 0.0011110664797207418 0.023419467081330782 0 0.0010832746992262114 0.023425456781020405 0 0.0010995009135129302 0.023371877835882581 0 0.00040275559782982658 0.024220926138889039 0 -0.00044843620234933236 0.024432117789149926 0 -3.2557546595298754e-05 0.025055622801531938 0 0.00040275559782982658 0.024220926138889039 0 -0.00044843620234933236 0.024432117789149926 0 -0.0002430754439967935 0.023888565077365944 0 0.00035326754336395164 0.023567802463145781 0 0.00040275559782982658 0.024220926138889039 0 -0.0002430754439967935 0.023888565077365944 0 0.00035326754336395164 0.023567802463145781 0 -0.0002430754439967935 0.023888565077365944 0 0.00032150250801249274 0.022983252859410889 0 -0.00044843620234933236 0.024432117789149926 0 -0.0002430754439967935 0.023888565077365944 0 -0.00063144377761271508 0.023769400901819983 0 -0.00044843620234933236 0.024432117789149926 0 -0.00063144377761271508 0.023769400901819983 0 -0.0010073596365635948 0.024072386804269229 0 -0.0002430754439967935 0.023888565077365944 0 -0.00063144377761271508 0.023769400901819983 0 -0.00038684273167645096 0.023340063067935905 0 -0.00063144377761271508 0.023769400901819983 0 -0.00038684273167645096 0.023340063067935905 0 -0.00090305785158469824 0.023470493103847034 0 -0.00038684273167645096 0.023340063067935905 0 -0.00090645393334133205 0.02302125832350015 0 -0.00090305785158469824 0.023470493103847034 0 -0.00021626783802170628 0.023836731301779733 0 0.00021242547835734335 0.023186195595119218 0 -0.0002430754439967935 0.023888565077365944 0 -0.00038684273167645096 0.023340063067935905 0 0.00011570725296363711 0.023352056820704483 0 -6.8619488394156404e-05 0.022704973260858241 0 -0.00038684273167645096 0.023340063067935905 0 0.00011570725296363711 0.023352056820704483 0 -0.00038684273167645096 0.023340063067935905 0 -0.00052266337201802775 0.022794726958887783 0 -0.00090645393334133205 0.02302125832350015 0 -6.8619488394156404e-05 0.022704973260858241 0 -0.00038684273167645096 0.023340063067935905 0 -0.00052266337201802775 0.022794726958887783 0 -0.00052266337201802775 0.022794726958887783 0 -0.00090645393334133205 0.02302125832350015 0 -0.00084737435464062049 0.022559867150416694 0 -0.0015136105632600474 0.023318422273083159 0 -0.0017979754864363862 0.02278047846635475 0 -0.001270659104777675 0.022736987363903848 0 -0.00090645393334133205 0.02302125832350015 0 -0.0015136105632600474 0.023318422273083159 0 -0.001270659104777675 0.022736987363903848 0 -0.0015136105632600474 0.023318422273083159 0 -0.00090305785158469824 0.023470493103847034 0 -0.0012477164310100307 0.023725564470926584 0 -0.0015136105632600474 0.023318422273083159 0 -0.0012477164310100307 0.023725564470926584 0 -0.0015687369092499386 0.024040752917833318 0 -0.00090645393334133205 0.02302125832350015 0 -0.0015136105632600474 0.023318422273083159 0 -0.00090305785158469824 0.023470493103847034 0 -0.00090305785158469824 0.023470493103847034 0 -0.0010073596365635948 0.024072386804269229 0 -0.0012477164310100307 0.023725564470926584 0 -0.00063144377761271508 0.023769400901819983 0 -0.00090305785158469824 0.023470493103847034 0 -0.0010073596365635948 0.024072386804269229 0 -0.0010073596365635948 0.024072386804269229 0 -0.0012477164310100307 0.023725564470926584 0 -0.0015687369092499386 0.024040752917833318 0 -0.0010073596365635948 0.024072386804269229 0 -0.0015687369092499386 0.024040752917833318 0 -0.0012957249623040306 0.02450449838705571 0 -0.0015687369092499386 0.024040752917833318 0 -0.0012957249623040306 0.02450449838705571 0 -0.0016991031635187768 0.024797868705750414 0 -0.0010073596365635948 0.024072386804269229 0 -0.0012957249623040306 0.02450449838705571 0 -0.00093810089233846081 0.02463475727192847 0 -0.0012957249623040306 0.02450449838705571 0 -0.00093810089233846081 0.02463475727192847 0 -0.0012495579467148086 0.024945519670192949 0 -0.00044843620234933236 0.024432117789149926 0 -0.0010073596365635948 0.024072386804269229 0 -0.00093810089233846081 0.02463475727192847 0 -0.0021619178868039625 0.024300535190232449 0 -0.002893194069269015 0.024551694922590111 0 -0.0021327472314656621 0.024851095782626297 0 -0.0015687369092499386 0.024040752917833318 0 -0.0021619178868039625 0.024300535190232449 0 -0.0016991031635187768 0.024797868705750414 0 -0.0021619178868039625 0.024300535190232449 0 -0.0016991031635187768 0.024797868705750414 0 -0.0021327472314656621 0.024851095782626297 0 -0.0015687369092499386 0.024040752917833318 0 -0.0021619178868039625 0.024300535190232449 0 -0.0020410451583886676 0.023767237111860896 0 -0.0021619178868039625 0.024300535190232449 0 -0.0020410451583886676 0.023767237111860896 0 -0.002656096127780051 0.023800305053476831 0 -0.0021619178868039625 0.024300535190232449 0 -0.002656096127780051 0.023800305053476831 0 -0.002893194069269015 0.024551694922590111 0 -0.0021593816988698181 0.023255030385069916 0 -0.0026493751938602345 0.023283919414352552 0 -0.002656096127780051 0.023800305053476831 0 -0.0020410451583886676 0.023767237111860896 0 -0.0021593816988698181 0.023255030385069916 0 -0.002656096127780051 0.023800305053476831 0 -0.0015136105632600474 0.023318422273083159 0 -0.0020410451583886676 0.023767237111860896 0 -0.0021593816988698181 0.023255030385069916 0 -0.0015136105632600474 0.023318422273083159 0 -0.0015687369092499386 0.024040752917833318 0 -0.0020410451583886676 0.023767237111860896 0 -0.0015136105632600474 0.023318422273083159 0 -0.0021593816988698181 0.023255030385069916 0 -0.0017979754864363862 0.02278047846635475 0 -0.0021593816988698181 0.023255030385069916 0 -0.0023041086634676107 0.022742758662286776 0 -0.0017979754864363862 0.02278047846635475 0 -0.0021593816988698181 0.023255030385069916 0 -0.0023041086634676107 0.022742758662286776 0 -0.0026493751938602345 0.023283919414352552 0 -0.0023041086634676107 0.022742758662286776 0 -0.0023734225646486994 0.022303352452348317 0 -0.0028873551946899307 0.022546788069434689 0 -0.0023041086634676107 0.022742758662286776 0 -0.0023734225646486994 0.022303352452348317 0 -0.0019640825055549788 0.022355357444728812 0 -0.0023734225646486994 0.022303352452348317 0 -0.0020928401200271834 0.021970617910256986 0 -0.0026245606858161033 0.021920419014246764 0 -0.0023734225646486994 0.022303352452348317 0 -0.0020928401200271834 0.021970617910256986 0 -0.0019640825055549788 0.022355357444728812 0 -0.0016831867377692699 0.022071537188138271 0 -0.0020928401200271834 0.021970617910256986 0 -0.0019640825055549788 0.022355357444728812 0 -0.0016831867377692699 0.022071537188138271 0 -0.0019640825055549788 0.022355357444728812 0 -0.0015548788097571721 0.02248839499000687 0 -0.0023041086634676107 0.022742758662286776 0 -0.0019640825055549788 0.022355357444728812 0 -0.0017979754864363862 0.02278047846635475 0 -0.0019640825055549788 0.022355357444728812 0 -0.0017979754864363862 0.02278047846635475 0 -0.0015548788097571721 0.02248839499000687 0 -0.001270659104777675 0.022736987363903848 0 -0.0015548788097571721 0.02248839499000687 0 -0.0013095566514530813 0.022212623557338496 0 -0.0017979754864363862 0.02278047846635475 0 -0.001270659104777675 0.022736987363903848 0 -0.0015548788097571721 0.02248839499000687 0 -0.00090645393334133205 0.02302125832350015 0 -0.001270659104777675 0.022736987363903848 0 -0.00084737435464062049 0.022559867150416694 0 -0.001270659104777675 0.022736987363903848 0 -0.00084737435464062049 0.022559867150416694 0 -0.0013095566514530813 0.022212623557338496 0 -0.00084737435464062049 0.022559867150416694 0 -0.00076773410953130184 0.022112194841898448 0 -0.0013095566514530813 0.022212623557338496 0 -0.00076773410953130184 0.022112194841898448 0 -0.0013095566514530813 0.022212623557338496 0 -0.0010571714089818998 0.021857597925215549 0 -0.0013095566514530813 0.022212623557338496 0 -0.0014001903293915736 0.021747299827160629 0 -0.0010571714089818998 0.021857597925215549 0 -0.0016831867377692699 0.022071537188138271 0 -0.0013095566514530813 0.022212623557338496 0 -0.0014001903293915736 0.021747299827160629 0 -0.0016831867377692699 0.022071537188138271 0 -0.0015548788097571721 0.02248839499000687 0 -0.0013095566514530813 0.022212623557338496 0 -0.0016831867377692699 0.022071537188138271 0 -0.0014001903293915736 0.021747299827160629 0 -0.0017613870557963616 0.021691090730997474 0 -0.0014001903293915736 0.021747299827160629 0 -0.0012493692165014112 0.021476995318973315 0 -0.0010571714089818998 0.021857597925215549 0 -0.0014001903293915736 0.021747299827160629 0 -0.0012493692165014112 0.021476995318973315 0 -0.0014908504118827442 0.021506311844656834 0 -0.0014001903293915736 0.021747299827160629 0 -0.0014908504118827442 0.021506311844656834 0 -0.0017613870557963616 0.021691090730997474 0 -0.0014908504118827442 0.021506311844656834 0 -0.0016894951283958433 0.021373394028996878 0 -0.0017613870557963616 0.021691090730997474 0 -0.00066575314803532016 0.021702493875798524 0 -0.0010571714089818998 0.021857597925215549 0 -0.00091384584683498586 0.021541899462673649 0 -0.00066575314803532016 0.021702493875798524 0 -0.00076773410953130184 0.022112194841898448 0 -0.0010571714089818998 0.021857597925215549 0 -0.0012493692165014112 0.021476995318973315 0 -0.0010571714089818998 0.021857597925215549 0 -0.00091384584683498586 0.021541899462673649 0 -0.00072222709600442726 0.021293914389831071 0 -0.00066575314803532016 0.021702493875798524 0 -0.00091384584683498586 0.021541899462673649 0 -0.00072222709600442726 0.021293914389831071 0 -0.00091384584683498586 0.021541899462673649 0 -0.0010666678866587084 0.021311385354660817 0 -0.0012493692165014112 0.021476995318973315 0 -0.00091384584683498586 0.021541899462673649 0 -0.0010666678866587084 0.021311385354660817 0 -0.0010666678866587084 0.021311385354660817 0 -0.00095972387000790448 0.021089251716097979 0 -0.0012021642407991186 0.02109647351202968 0 -0.00072222709600442726 0.021293914389831071 0 -0.0010666678866587084 0.021311385354660817 0 -0.00095972387000790448 0.021089251716097979 0 -0.00073152846034229039 0.020866930418415211 0 -0.00072222709600442726 0.021293914389831071 0 -0.00095972387000790448 0.021089251716097979 0 -0.0014908504118827442 0.021506311844656834 0 -0.0013819013633097215 0.021283484662627122 0 -0.0016894951283958433 0.021373394028996878 0 -0.0013819013633097215 0.021283484662627122 0 -0.0015998378160430105 0.021164165763515569 0 -0.0016894951283958433 0.021373394028996878 0 -0.0012493692165014112 0.021476995318973315 0 -0.0010666678866587084 0.021311385354660817 0 -0.0013819013633097215 0.021283484662627122 0 -0.0012493692165014112 0.021476995318973315 0 -0.0014908504118827442 0.021506311844656834 0 -0.0013819013633097215 0.021283484662627122 0 -0.0010666678866587084 0.021311385354660817 0 -0.0013819013633097215 0.021283484662627122 0 -0.0012021642407991186 0.02109647351202968 0 -0.0013819013633097215 0.021283484662627122 0 -0.0012021642407991186 0.02109647351202968 0 -0.0014438025161972044 0.021061866254302244 0 -0.0013819013633097215 0.021283484662627122 0 -0.0014438025161972044 0.021061866254302244 0 -0.0015998378160430105 0.021164165763515569 0 -0.001674016807329375 0.021020648744205912 0 -0.0014438025161972044 0.021061866254302244 0 -0.0015998378160430105 0.021164165763515569 0 -0.001674016807329375 0.021020648744205912 0 -0.0015998378160430105 0.021164165763515569 0 -0.0017963743814771312 0.021055659144531287 0 -0.0015998378160430105 0.021164165763515569 0 -0.0017963743814771312 0.021055659144531287 0 -0.0016894951283958433 0.021373394028996878 0 -0.0017773727923815767 0.022375054760905899 0 -0.0016205391457699747 0.027065351018054285 0 -0.0018885132029545114 0.021239734278636988 0 -0.0023757896342387948 0.021367571790138293 0 -0.0021190684581782072 0.021542992633866279 0 -0.0017963743814771312 0.021055659144531287 0 -0.0016894951283958433 0.021373394028996878 0 -0.0021190684581782072 0.021542992633866279 0 -0.0017773727923815767 0.022375054760905899 0 -0.001924360945231196 0.02120102807119404 0 -0.0020928401200271834 0.021970617910256986 0 -0.0021190684581782072 0.021542992633866279 0 -0.0026245606858161033 0.021920419014246764 0 -0.0016205391457699747 0.027065351018054285 0 -0.0020923251757518756 0.024502897172663084 0 -0.0023757896342387948 0.021367571790138293 0 -0.0021190684581782072 0.021542992633866279 0 -0.0026245606858161033 0.021920419014246764 0 -0.0020928401200271834 0.021970617910256986 0 -0.0021190684581782072 0.021542992633866279 0 -0.0017613870557963616 0.021691090730997474 0 -0.0016831867377692699 0.022071537188138271 0 -0.0020928401200271834 0.021970617910256986 0 -0.0017613870557963616 0.021691090730997474 0 -0.0016894951283958433 0.021373394028996878 0 -0.0021190684581782072 0.021542992633866279 0 -0.0017613870557963616 0.021691090730997474 0 -0.0016355873255160186 0.027932968129905068 0 -0.0013275856744737712 0.028246695812093981 0 -0.0011726475485824678 0.027840537599689113 0 -0.0013275856744737712 0.028246695812093981 0 -0.00084531143306510305 0.028135274730193581 0 -0.0011726475485824678 0.027840537599689113 0 -0.0012518021414683481 0.03024419661624397 0 -0.00058598714445485438 0.02961375500182125 0 -0.0017851986709781693 0.028360782291741993 0 -0.0016355873255160186 0.027932968129905068 0 -0.0013275856744737712 0.028246695812093981 0 -0.0016205391457699747 0.027065351018054285 0 -0.0012518021414683481 0.03024419661624397 0 -0.0010863252818607279 0.032220835289970974 0 -0.0014746821453044128 0.031712533896650921 0 -0.0009743063595799912 0.031552052572975199 0 -0.0010863252818607279 0.032220835289970974 0 -0.0009743063595799912 0.031552052572975199 0 -0.00065264829024349875 0.031844246111794365 0 -0.00065264829024349875 0.031844246111794365 0 -0.00023842678045351239 0.031789715922869555 0 -0.00043662102921367157 0.031355704663719619 0 -0.0009743063595799912 0.031552052572975199 0 -0.00065264829024349875 0.031844246111794365 0 -0.00043662102921367157 0.031355704663719619 0 -0.00023842678045351239 0.031789715922869555 0 -0.00012244775249968374 0.031313885276707074 0 6.6445585378723866e-05 0.031647765559068446 0 -0.00023842678045351239 0.031789715922869555 0 -0.00012244775249968374 0.031313885276707074 0 -0.00043662102921367157 0.031355704663719619 0 -0.00012244775249968374 0.031313885276707074 0 0.00015577332718396132 0.031200789680411508 0 6.6445585378723866e-05 0.031647765559068446 0 -0.00012244775249968374 0.031313885276707074 0 -0.00043662102921367157 0.031355704663719619 0 0.00013856032947714452 0.031154997225281783 0 -0.00058598714445485438 0.02961375500182125 0 -8.054845875484233e-05 0.030396048230060237 0 -0.00084531143306510305 0.028135274730193581 0 -0.00068856594310871171 0.027783893677883757 0 -0.00034357594424453791 0.028019214487962647 0 -0.00012244775249968374 0.031313885276707074 0 0.00013856032947714452 0.031154997225281783 0 0.00015329555928960743 0.031192475656004071 0 -3.277442212610725e-05 0.031274776611861503 0 -2.5038695036414825e-05 0.031268495983588926 0 -0.00084531143306510305 0.028135274730193581 0 -0.00068856594310871171 0.027783893677883757 0 -0.0011726475485824678 0.027840537599689113 0 -0.00068856594310871171 0.027783893677883757 0 -0.00098959531926532686 0.027441970482978622 0 -0.0011726475485824678 0.027840537599689113 0 -0.00068856594310871171 0.027783893677883757 0 -0.00038746384021651003 0.027806909129625079 0 -0.00034357594424453791 0.028019214487962647 0 -0.00068856594310871171 0.027783893677883757 0 -0.00044082742757849868 0.027477287518113767 0 -0.00038746384021651003 0.027806909129625079 0 -0.00068856594310871171 0.027783893677883757 0 -0.00044082742757849868 0.027477287518113767 0 -0.00098959531926532686 0.027441970482978622 0 -0.00044082742757849868 0.027477287518113767 0 -0.00098959531926532686 0.027441970482978622 0 -0.00080218658266416071 0.027022343254843418 0 -0.00098959531926532686 0.027441970482978622 0 -0.0014860853995352864 0.027488451048632744 0 -0.0013309346274051476 0.027032256876198899 0 -0.00098959531926532686 0.027441970482978622 0 -0.0011726475485824678 0.027840537599689113 0 -0.0014860853995352864 0.027488451048632744 0 -0.0020923251757518756 0.024502897172663084 0 -0.0022171113125678938 0.025146687438260935 0 -0.0023734225646486994 0.022303352452348317 0 -0.0026245606858161033 0.021920419014246764 0 -0.0028873551946899307 0.022546788069434689 0 -0.0016355873255160186 0.027932968129905068 0 -0.0011726475485824678 0.027840537599689113 0 -0.0014860853995352864 0.027488451048632744 0 -0.0023041086634676107 0.022742758662286776 0 -0.0028873551946899307 0.022546788069434689 0 -0.0026493751938602345 0.023283919414352552 0 -0.0028873551946899307 0.022546788069434689 0 -0.0026493751938602345 0.023283919414352552 0 -0.0031481165972874997 0.023203356967805708 0 -0.0022171113125678938 0.025146687438260935 0 -0.0022097903129779011 0.024883495539150743 0 -0.0013309346274051476 0.027032256876198899 0 -0.0011706764949343711 0.026566403177794656 0 -0.00080218658266416071 0.027022343254843418 0 -0.0031481165972874997 0.023203356967805708 0 -0.0029641465801376818 0.023541581743859088 0 -0.0034023662788346754 0.023878449435705704 0 -0.0022097903129779011 0.024883495539150743 0 -0.0021018896445727849 0.026360948427247729 0 -0.0026493751938602345 0.023283919414352552 0 -0.0029641465801376818 0.023541581743859088 0 -0.002656096127780051 0.023800305053476831 0 -0.0029641465801376818 0.023541581743859088 0 -0.002656096127780051 0.023800305053476831 0 -0.0034023662788346754 0.023878449435705704 0 -0.0026493751938602345 0.023283919414352552 0 -0.0031481165972874997 0.023203356967805708 0 -0.0029641465801376818 0.023541581743859088 0 -0.002656096127780051 0.023800305053476831 0 -0.0034023662788346754 0.023878449435705704 0 -0.002893194069269015 0.024551694922590111 0 -0.0023120585416856569 0.025711251241795928 0 -0.0023003958095107837 0.02562949793232519 0 -0.0022893823414941446 0.025635986482280018 0 -0.0023120585416856569 0.025711251241795928 0 -0.002330547465945344 0.025615227689600523 0 -0.0023003958095107837 0.02562949793232519 0 -0.0021018896445727849 0.026360948427247729 0 -0.0017100603491051495 0.028951719485331099 0 -0.0021018896445727849 0.026360948427247729 0 -0.0028320021832581878 0.024726154472679382 0 -0.0023120585416856569 0.025711251241795928 0 -0.002330547465945344 0.025615227689600523 0 -0.0023733227545696556 0.02558968708803841 0 -0.002330547465945344 0.025615227689600523 0 -0.0023003958095107837 0.02562949793232519 0 -0.0023158253002975278 0.025607180769090715 0 -0.0023003958095107837 0.02562949793232519 0 -0.0023158253002975278 0.025607180769090715 0 -0.0023108234531994771 0.025612522368795607 0 -0.0023158253002975278 0.025607180769090715 0 -0.0023080145783193804 0.025602382364323138 0 -0.0023303748845532974 0.025579409050932228 0 -0.0023158253002975278 0.025607180769090715 0 -0.0023080145783193804 0.025602382364323138 0 -0.0023108234531994771 0.025612522368795607 0 -0.002330547465945344 0.025615227689600523 0 -0.0023733227545696556 0.02558968708803841 0 -0.0023303748845532974 0.025579409050932228 0 -0.002330547465945344 0.025615227689600523 0 -0.0023158253002975278 0.025607180769090715 0 -0.0023303748845532974 0.025579409050932228 0 -0.00065750966609739742 0.031630063731700853 0 -0.00084251782849709426 0.031584201492217238 0 -0.00075406449702116406 0.031834697580108082 0 -0.00065750966609739742 0.031630063731700853 0 -0.00084251782849709426 0.031584201492217238 0 -0.00067543125794050185 0.031465615065260147 0 -0.00084251782849709426 0.031584201492217238 0 -0.0010979184979831224 0.031678067087452862 0 -0.00075406449702116406 0.031834697580108082 0 -0.00084251782849709426 0.031584201492217238 0 -0.0010979184979831224 0.031678067087452862 0 -0.0010194994341725758 0.031470958497645876 0 -0.0023080145783193804 0.025602382364323138 0 -0.0023108234531994771 0.025612522368795607 0 -0.0023594063507852798 0.025598055078399348 0 -0.0017100603491051495 0.028951719485331099 0 -0.0015317439106959088 0.028297879723431518 0 -0.0023108234531994771 0.025612522368795607 0 -0.0022946577701868547 0.025629176919216585 0 -0.0023594063507852798 0.025598055078399348 0 -0.0023003958095107837 0.02562949793232519 0 -0.0023108234531994771 0.025612522368795607 0 -0.0022946577701868547 0.025629176919216585 0 -0.0019563001707603674 0.028699617805909131 0 -0.0017100603491051495 0.028951719485331099 0 -0.0017100603491051495 0.028951719485331099 0 -0.00090456531649321279 0.030950460627498236 0 -0.0022175915788569564 0.029859910356941223 0 -0.0020195552786740133 0.029326071735628862 0 -0.0016579614267834585 0.029976656454286543 0 -0.0020195552786740133 0.029326071735628862 0 -0.0012690080630170565 0.029653957940377194 0 -0.0016579614267834585 0.029976656454286543 0 -0.0012690080630170565 0.029653957940377194 0 -0.0016579614267834585 0.029976656454286543 0 -0.0010474089671782562 0.030254582459576799 0 -0.0016579614267834585 0.029976656454286543 0 -0.0016492161807675808 0.030579589782736099 0 -0.0010474089671782562 0.030254582459576799 0 -0.0022175915788569564 0.029859910356941223 0 -0.0016579614267834585 0.029976656454286543 0 -0.0016492161807675808 0.030579589782736099 0 -0.0021018896445727849 0.026360948427247729 0 -0.0010482364567901486 0.029198801297320373 0 -0.00098959531926532686 0.027441970482978622 0 -0.0013309346274051476 0.027032256876198899 0 -0.00080218658266416071 0.027022343254843418 0 -0.00088190815316077653 0.029110828529279733 0 -0.0010482364567901486 0.029198801297320373 0 -0.0010897911218106942 0.031270864747746749 0 -0.0016492161807675808 0.030579589782736099 0 -0.0007687417349994312 0.030839013626795909 0 -0.0016492161807675808 0.030579589782736099 0 -0.0007687417349994312 0.030839013626795909 0 -0.0010474089671782562 0.030254582459576799 0 -0.0007687417349994312 0.030839013626795909 0 -0.00039572629021859351 0.030448897919134837 0 -0.0010474089671782562 0.030254582459576799 0 -0.0007687417349994312 0.030839013626795909 0 5.0331222121899476e-05 0.030771450503621518 0 -0.00035833165356041649 0.031134086431243588 0 -0.0007687417349994312 0.030839013626795909 0 -0.00039572629021859351 0.030448897919134837 0 0.00012171340356330414 0.0307474651333874 0 -0.00062203006574741845 0.030428597607286459 0 -7.6250759093143727e-05 0.032382947091831774 0 -0.00056486792727928573 0.03076760228774534 0 -3.6406187828839352e-05 0.032722959792339884 0 -0.00039572629021859351 0.030448897919134837 0 -0.00052894900054362474 0.029981457243185513 0 0.00021083044645616177 0.030305512472447612 0 -0.00044394733999282278 0.031957784631674126 0 -0.00029249938614704473 0.031862364492975075 0 -0.00018659442492957446 0.032057845550353917 0 -0.00039572629021859351 0.030448897919134837 0 -0.0010474089671782562 0.030254582459576799 0 -0.00052894900054362474 0.029981457243185513 0 -0.00090456531649321279 0.030950460627498236 0 -0.00056486792727928573 0.03076760228774534 0 -0.0012690080630170565 0.029653957940377194 0 -0.0010474089671782562 0.030254582459576799 0 -0.00052894900054362474 0.029981457243185513 0 -0.00075406449702116406 0.031834697580108082 0 -0.00044394733999282278 0.031957784631674126 0 -0.00047548203713255978 0.031757132288876916 0 -0.00044394733999282278 0.031957784631674126 0 -0.00029249938614704473 0.031862364492975075 0 -0.00047548203713255978 0.031757132288876916 0 -0.00023201045379314406 0.031731007756333689 0 -0.00025032992668065423 0.031731697224186346 0 -0.00023649186860048057 0.031721307035689136 0 -0.00047548203713255978 0.031757132288876916 0 -0.00023201045379314406 0.031731007756333689 0 -0.00055763749058939673 0.031486995241925823 0 -0.00029249938614704473 0.031862364492975075 0 -0.00047548203713255978 0.031757132288876916 0 -0.00023201045379314406 0.031731007756333689 0 -0.00042983509522955579 0.031424098137153411 0 -8.4663063667437274e-05 0.032519279791103452 0 -0.00065750966609739742 0.031630063731700853 0 -0.00047548203713255978 0.031757132288876916 0 -0.00055763749058939673 0.031486995241925823 0 -0.00065750966609739742 0.031630063731700853 0 -0.00075406449702116406 0.031834697580108082 0 -0.00047548203713255978 0.031757132288876916 0 -3.6823320884823919e-08 0.034994536167643461 0 -1.0702227732001757e-09 0.034999981382985122 0 -6.145047747350201e-10 0.034999984003490171 0 -3.6823320884823919e-08 0.034994536167643461 0 8.8070248455504354e-07 0.034986804140100858 0 -3.4764575676830227e-07 0.034991228156284818 0 -3.6823320884823919e-08 0.034994536167643461 0 -3.4764575676830227e-07 0.034991228156284818 0 -6.145047747350201e-10 0.034999984003490171 0 -8.010500419809892e-05 0.033441998870282257 0 -0.00021189464752228833 0.0339525819425247 0 -0.00023201045379314406 0.031731007756333689 0 -0.00017424194663694407 0.031705815975108437 0 -0.00023649186860048057 0.031721307035689136 0 -0.00023201045379314406 0.031731007756333689 0 -0.0001578942785427483 0.031818510001837053 0 -0.00017424194663694407 0.031705815975108437 0 -8.010500419809892e-05 0.033441998870282257 0 -3.6406187828839352e-05 0.032722959792339884 0 -0.00029249938614704473 0.031862364492975075 0 -0.0001578942785427483 0.031818510001837053 0 -0.00018659442492957446 0.032057845550353917 0 -0.00029249938614704473 0.031862364492975075 0 -0.00023201045379314406 0.031731007756333689 0 -0.0001578942785427483 0.031818510001837053 0 8.8070248455504354e-07 0.034986804140100858 0 -1.0702227732001757e-09 0.034999981382985122 0 -3.5043930079086551e-07 0.034979224388719254 0 -3.6823320884823919e-08 0.034994536167643461 0 8.8070248455504354e-07 0.034986804140100858 0 -1.0702227732001757e-09 0.034999981382985122 0 -1.0702227732001757e-09 0.034999981382985122 0 -3.5043930079086551e-07 0.034979224388719254 0 -1.2649992054082148e-09 0.034999977067358565 0 -3.6406187828839352e-05 0.032722959792339884 0 0.00012867258642259267 0.034432617426586098 0 -0.00039572629021859351 0.030448897919134837 0 0.00021083044645616177 0.030305512472447612 0 0.00012171340356330414 0.0307474651333874 0 -5.8194229576273457e-05 0.033155750368862952 0 -8.4912963647968757e-05 0.033288355925266341 0 0.00017941781045352752 0.033268395734544702 0 -7.6250759093143727e-05 0.032382947091831774 0 -1.3116100371608407e-05 0.033151419072243449 0 -3.6406187828839352e-05 0.032722959792339884 0 -7.6250759093143727e-05 0.032382947091831774 0 2.7646817590240683e-05 0.034979064254179779 0 1.1820817774870316e-08 0.035000024772826439 0 1.3387722045963464e-05 0.034982046822994543 0 -7.6250759093143727e-05 0.032382947091831774 0 0.00012867258642259267 0.034432617426586098 0 -2.7472533697029035e-09 0.03499990411570672 0 1.3387722045963464e-05 0.034982046822994543 0 1.5625099519057014e-05 0.034954783385091531 0 7.047918047186347e-08 0.034999958396924977 0 -5.430560173193641e-05 0.035018353263835914 0 1.1820817774870316e-08 0.035000024772826439 0 -2.7472533697029035e-09 0.03499990411570672 0 1.3387722045963464e-05 0.034982046822994543 0 4.8172644889756333e-07 0.034993692220770166 0 2.223652796036081e-09 0.034999994455716964 0 9.1668127284438817e-07 0.034989879372215441 0 -8.9613755692855127e-10 0.034999993390624269 0 4.8172644889756333e-07 0.034993692220770166 0 2.223652796036081e-09 0.034999994455716964 0 1.5625099519057014e-05 0.034954783385091531 0 3.8487622238461805e-05 0.03496212490947051 0 4.890881110206858e-05 0.0349223392694454 0 -5.430560173193641e-05 0.035018353263835914 0 -2.9682849498064955e-05 0.033619312337987352 0 4.8172644889756333e-07 0.034993692220770166 0 2.4878653553255666e-06 0.034983309817039447 0 9.1668127284438817e-07 0.034989879372215441 0 2.7646817590240683e-05 0.034979064254179779 0 1.3387722045963464e-05 0.034982046822994543 0 3.8487622238461805e-05 0.03496212490947051 0 1.3387722045963464e-05 0.034982046822994543 0 1.5625099519057014e-05 0.034954783385091531 0 3.8487622238461805e-05 0.03496212490947051 0 5.0331222121899476e-05 0.030771450503621518 0 -5.0328687549005837e-05 0.031274887563439706 0 -0.00035833165356041649 0.031134086431243588 0 -0.00035833165356041649 0.031134086431243588 0 -0.00060200451893362822 0.031395999991492597 0 -0.00034247046010962764 0.031570926872518418 0 -5.0328687549005837e-05 0.031274887563439706 0 -0.00035833165356041649 0.031134086431243588 0 -0.00034247046010962764 0.031570926872518418 0 -0.0010897911218106942 0.031270864747746749 0 -0.0007687417349994312 0.030839013626795909 0 -0.00060200451893362822 0.031395999991492597 0 -0.0007687417349994312 0.030839013626795909 0 -0.00035833165356041649 0.031134086431243588 0 -0.00060200451893362822 0.031395999991492597 0 -0.00088190815316077653 0.029110828529279733 0 -0.00013258116271265108 0.030929216405678136 0 -0.00044082742757849868 0.027477287518113767 0 -0.00038746384021651003 0.027806909129625079 0 -6.3811890901407378e-05 0.027962141987088393 0 -0.0010897911218106942 0.031270864747746749 0 -0.00060200451893362822 0.031395999991492597 0 -0.00054300409162237628 0.031942207939383391 0 -0.00038746384021651003 0.027806909129625079 0 -6.3811890901407378e-05 0.027962141987088393 0 -0.00034357594424453791 0.028019214487962647 0 -1.3116100371608407e-05 0.033151419072243449 0 -2.9682849498064955e-05 0.033619312337987352 0 3.3896815243738838e-05 0.032621319241516469 0 0.00013547366287055355 0.03258307942369338 0 8.0148664345534347e-05 0.032873546947924916 0 -0.00060200451893362822 0.031395999991492597 0 -0.00034247046010962764 0.031570926872518418 0 -0.00054300409162237628 0.031942207939383391 0 -5.0328687549005837e-05 0.031274887563439706 0 -0.00034247046010962764 0.031570926872518418 0 -0.00015098586400046632 0.031792081983921132 0 -0.00034247046010962764 0.031570926872518418 0 -0.00033157618122152811 0.031860600104349837 0 -0.00015098586400046632 0.031792081983921132 0 -0.00034247046010962764 0.031570926872518418 0 -0.00033157618122152811 0.031860600104349837 0 -0.00054300409162237628 0.031942207939383391 0 -0.00012588357063814408 0.032363125938650712 0 -0.00013258116271265108 0.030929216405678136 0 -0.00012588357063814408 0.032363125938650712 0 -2.9682849498064955e-05 0.033619312337987352 0 -2.9682849498064955e-05 0.033619312337987352 0 0.00021819870821799547 0.0335416089705435 0 3.3896815243738838e-05 0.032621319241516469 0 -8.5370359139301757e-05 0.032665187678126782 0 8.0148664345534347e-05 0.032873546947924916 0 -7.8481248529681504e-05 0.032336138152111046 0 -6.7085082449562991e-05 0.032700657165148736 0 0.00017746293138780564 0.032662064881043312 0 -0.00013258116271265108 0.030929216405678136 0 0.00021819870821799547 0.0335416089705435 0 -6.7085082449562991e-05 0.032700657165148736 0 0.00017746293138780564 0.032662064881043312 0 0.000123347634635927 0.032906362436858259 0 0.00021819870821799547 0.0335416089705435 0 0.00024385353897356086 0.032834388270243951 0 -6.7085082449562991e-05 0.032700657165148736 0 -0.00040868306843915855 0.032469447316079265 0 -0.00014359462260968297 0.033118431368750423 0 -2.5038695036414825e-05 0.031268495983588926 0 0.00014245365338596275 0.032579087449965204 0 -8.054845875484233e-05 0.030396048230060237 0 -2.5038695036414825e-05 0.031268495983588926 0 -0.00013258116271265108 0.030929216405678136 0 -8.054845875484233e-05 0.030396048230060237 0 -0.00013258116271265108 0.030929216405678136 0 -2.5038695036414825e-05 0.031268495983588926 0 -7.8481248529681504e-05 0.032336138152111046 0 -6.7085082449562991e-05 0.032700657165148736 0 -0.00040868306843915855 0.032469447316079265 0 -0.00025996142312150334 0.030887910357561568 0 0.00018042859765445674 0.030770633472565093 0 0.00015993563686087436 0.030719267816462816 0 0.00015577332718396132 0.031200789680411508 0 6.6445585378723866e-05 0.031647765559068446 0 0.00040945615040823555 0.031784846223471296 0 0.00021524632473953425 0.033287643433351916 0 0.000123347634635927 0.032906362436858259 0 0.00051924365807133285 0.033148350805804722 0 -6.7085082449562991e-05 0.032700657165148736 0 -0.00014359462260968297 0.033118431368750423 0 0.000123347634635927 0.032906362436858259 0 0.00016619646540940597 0.032695715105415593 0 0.000123347634635927 0.032906362436858259 0 0.00051924365807133285 0.033148350805804722 0 0.00021524632473953425 0.033287643433351916 0 -0.00014359462260968297 0.033118431368750423 0 0.000123347634635927 0.032906362436858259 0 3.5242274213127875e-07 0.03499089192940779 0 5.0968567095989212e-07 0.034995079087477579 0 9.1668127284438817e-07 0.034989879372215441 0 0.00021819870821799547 0.0335416089705435 0 0.00027875111018775008 0.034099571658832539 0 3.5242274213127875e-07 0.03499089192940779 0 -7.726909689677315e-09 0.034999961517485065 0 5.0968567095989212e-07 0.034995079087477579 0 -7.726909689677315e-09 0.034999961517485065 0 5.0968567095989212e-07 0.034995079087477579 0 2.223652796036081e-09 0.034999994455716964 0 5.0968567095989212e-07 0.034995079087477579 0 2.223652796036081e-09 0.034999994455716964 0 9.1668127284438817e-07 0.034989879372215441 0 1.2291451203563383e-06 0.034981058237687213 0 3.5242274213127875e-07 0.03499089192940779 0 9.1668127284438817e-07 0.034989879372215441 0 2.4878653553255666e-06 0.034983309817039447 0 1.2291451203563383e-06 0.034981058237687213 0 9.1668127284438817e-07 0.034989879372215441 0 -5.2809771796585309e-05 0.034984935899710315 0 -2.8996436618339303e-08 0.035000134572973005 0 -3.9312454080125931e-07 0.034998944858681671 0 -2.0975474123228286e-05 0.034971175187734536 0 -5.2809771796585309e-05 0.034984935899710315 0 -2.8996436618339303e-08 0.035000134572973005 0 -2.0975474123228286e-05 0.034971175187734536 0 -5.2809771796585309e-05 0.034984935899710315 0 -4.1265428712003823e-05 0.034971622768259769 0 -5.2809771796585309e-05 0.034984935899710315 0 -4.1265428712003823e-05 0.034971622768259769 0 -0.00019932763611780872 0.03489194398927601 0 0.00037057161789330758 0.030592654760817392 0 0.00087878017692582394 0.03068143591230028 0 0.00084471037931663922 0.031158949129295586 0 0.00037057161789330758 0.030592654760817392 0 0.00073315574279522028 0.030439562072085289 0 0.00087878017692582394 0.03068143591230028 0 0.00014025355246031853 0.032868236552102283 0 0.00039087176388730204 0.032127486382603002 0 0.00037057161789330758 0.030592654760817392 0 0.00073315574279522028 0.030439562072085289 0 0.00063442046024676671 0.030137211624808313 0 -4.1265428712003823e-05 0.034971622768259769 0 1.913595162684595e-05 0.034940042732188037 0 8.8845295635788684e-05 0.034914921257641805 0 -2.0975474123228286e-05 0.034971175187734536 0 -4.1265428712003823e-05 0.034971622768259769 0 1.913595162684595e-05 0.034940042732188037 0 1.913595162684595e-05 0.034940042732188037 0 3.6885503857063531e-05 0.034893908834923534 0 -1.2118059322418959e-05 0.034945449725456844 0 1.913595162684595e-05 0.034940042732188037 0 8.8845295635788684e-05 0.034914921257641805 0 6.8315906241092652e-05 0.034896831183550754 0 1.913595162684595e-05 0.034940042732188037 0 3.6885503857063531e-05 0.034893908834923534 0 6.8315906241092652e-05 0.034896831183550754 0 -4.1265428712003823e-05 0.034971622768259769 0 8.8845295635788684e-05 0.034914921257641805 0 9.2889375136862652e-05 0.034915893656219443 0 8.8845295635788684e-05 0.034914921257641805 0 0.00011480661472302324 0.034874811171826343 0 6.8315906241092652e-05 0.034896831183550754 0 8.8845295635788684e-05 0.034914921257641805 0 0.00010874732798045945 0.034922524231844505 0 0.00011480661472302324 0.034874811171826343 0 0.00063313930630585146 0.032624236125247584 0 0.00039087176388730204 0.032127486382603002 0 0.00039087176388730204 0.032127486382603002 0 0.00045147226358190355 0.032726418710768299 0 0.00088763189498777871 0.030320996272651314 0 0.00084225306451085656 0.03044140885998833 0 0.00079870932040321935 0.030376000464375042 0 0.00010874732798045945 0.034922524231844505 0 0.00011480661472302324 0.034874811171826343 0 0.00017794016446045076 0.034844662117855286 0 0.00011480661472302324 0.034874811171826343 0 9.1581566869392141e-05 0.034850676300315728 0 6.8315906241092652e-05 0.034896831183550754 0 0.00011480661472302324 0.034874811171826343 0 9.1581566869392141e-05 0.034850676300315728 0 0.00015109961116594058 0.034810254152096848 0 9.1581566869392141e-05 0.034850676300315728 0 0.00015109961116594058 0.034810254152096848 0 0.00011637098541296641 0.034792514981356493 0 0.00011480661472302324 0.034874811171826343 0 0.00015109961116594058 0.034810254152096848 0 0.00017794016446045076 0.034844662117855286 0 0.00015109961116594058 0.034810254152096848 0 0.00017794016446045076 0.034844662117855286 0 0.0002282029751444189 0.034745566304269462 0 9.1581566869392141e-05 0.034850676300315728 0 3.6885503857063531e-05 0.034893908834923534 0 6.8315906241092652e-05 0.034896831183550754 0 9.1581566869392141e-05 0.034850676300315728 0 6.0466357639714359e-05 0.034831949982787415 0 0.00011637098541296641 0.034792514981356493 0 9.1581566869392141e-05 0.034850676300315728 0 3.6885503857063531e-05 0.034893908834923534 0 6.0466357639714359e-05 0.034831949982787415 0 3.6885503857063531e-05 0.034893908834923534 0 1.6598236425116893e-05 0.034874406332088305 0 6.0466357639714359e-05 0.034831949982787415 0 -2.8996436618339303e-08 0.035000134572973005 0 -1.1463270935137007e-05 0.034993037353280576 0 -3.296578692108969e-08 0.034999916058299101 0 1.6598236425116893e-05 0.034874406332088305 0 -1.2118059322418959e-05 0.034945449725456844 0 -2.2262244271485036e-05 0.034896767554693925 0 3.6885503857063531e-05 0.034893908834923534 0 1.6598236425116893e-05 0.034874406332088305 0 -1.2118059322418959e-05 0.034945449725456844 0 -2.0975474123228286e-05 0.034971175187734536 0 1.913595162684595e-05 0.034940042732188037 0 -1.2118059322418959e-05 0.034945449725456844 0 -2.0975474123228286e-05 0.034971175187734536 0 -1.2118059322418959e-05 0.034945449725456844 0 -2.8996436618339303e-08 0.035000134572973005 0 -1.2118059322418959e-05 0.034945449725456844 0 -2.8996436618339303e-08 0.035000134572973005 0 -1.1463270935137007e-05 0.034993037353280576 0 -1.2118059322418959e-05 0.034945449725456844 0 -1.1463270935137007e-05 0.034993037353280576 0 -2.2262244271485036e-05 0.034896767554693925 0 -2.6984199361644741e-05 0.034985320830588633 0 -4.9940383513525048e-05 0.034851211488981695 0 -1.1463270935137007e-05 0.034993037353280576 0 -0.00011968703674616584 0.034772535625416899 0 -2.2262244271485036e-05 0.034896767554693925 0 -1.1463270935137007e-05 0.034993037353280576 0 -3.9111126011897074e-06 0.034997675288431417 0 -3.296578692108969e-08 0.034999916058299101 0 -5.2620904995442925e-05 0.034784149383900127 0 -0.00011968703674616584 0.034772535625416899 0 -2.2262244271485036e-05 0.034896767554693925 0 1.6598236425116893e-05 0.034874406332088305 0 -2.2262244271485036e-05 0.034896767554693925 0 2.8278923936804783e-05 0.034805227879710653 0 -2.2262244271485036e-05 0.034896767554693925 0 -8.3036047317523972e-06 0.034756480886197955 0 2.8278923936804783e-05 0.034805227879710653 0 -5.2620904995442925e-05 0.034784149383900127 0 -2.2262244271485036e-05 0.034896767554693925 0 -8.3036047317523972e-06 0.034756480886197955 0 -8.3036047317523972e-06 0.034756480886197955 0 5.0054303855657953e-05 0.034726281849008139 0 2.8278923936804783e-05 0.034805227879710653 0 -6.3999733716971194e-05 0.034712281690303444 0 -2.3797721610085775e-05 0.034649296272831337 0 -0.00012285336571310671 0.034568651297982152 0 -8.3036047317523972e-06 0.034756480886197955 0 -2.3797721610085775e-05 0.034649296272831337 0 4.9482075248515208e-05 0.034654860168044345 0 -5.2620904995442925e-05 0.034784149383900127 0 -8.3036047317523972e-06 0.034756480886197955 0 -6.3999733716971194e-05 0.034712281690303444 0 -8.3036047317523972e-06 0.034756480886197955 0 -6.3999733716971194e-05 0.034712281690303444 0 -2.3797721610085775e-05 0.034649296272831337 0 -2.3797721610085775e-05 0.034649296272831337 0 1.5065641303719349e-05 0.034534466375650413 0 4.9482075248515208e-05 0.034654860168044345 0 -3.9111126011897074e-06 0.034997675288431417 0 -3.296578692108969e-08 0.034999916058299101 0 -9.0560053699816871e-07 0.034998927979981075 0 -0.00011968703674616584 0.034772535625416899 0 -6.3999733716971194e-05 0.034712281690303444 0 -0.00012285336571310671 0.034568651297982152 0 -4.9940383513525048e-05 0.034851211488981695 0 -6.4660425805485768e-05 0.034929213195298556 0 -5.2620904995442925e-05 0.034784149383900127 0 -0.00011968703674616584 0.034772535625416899 0 -6.3999733716971194e-05 0.034712281690303444 0 -3.296578692108969e-08 0.034999916058299101 0 -9.0560053699816871e-07 0.034998927979981075 0 1.1945364017648908e-08 0.035000027958181218 0 -2.3797721610085775e-05 0.034649296272831337 0 -0.00012285336571310671 0.034568651297982152 0 1.5065641303719349e-05 0.034534466375650413 0 -0.00012285336571310671 0.034568651297982152 0 1.5065641303719349e-05 0.034534466375650413 0 -9.723634751831007e-05 0.034389551020729846 0 1.5065641303719349e-05 0.034534466375650413 0 -9.723634751831007e-05 0.034389551020729846 0 4.7556580947641437e-05 0.034388716390921018 0 -0.00021189464752228833 0.0339525819425247 0 -6.9924905111642621e-05 0.033036692289036579 0 -9.0560053699816871e-07 0.034998927979981075 0 -9.60693255006304e-07 0.034994713772605719 0 1.1945364017648908e-08 0.035000027958181218 0 -6.4660425805485768e-05 0.034929213195298556 0 -0.00021189464752228833 0.0339525819425247 0 -0.00021189464752228833 0.0339525819425247 0 1.6397201209790888e-07 0.034999860642096162 0 0.00017487336430160129 0.034377715319164143 0 0.000127604722153849 0.034490250336534162 0 0.00023015677183750536 0.034485657182805628 0 -0.00065750966609739742 0.031630063731700853 0 -0.00055763749058939673 0.031486995241925823 0 -0.00067543125794050185 0.031465615065260147 0 -8.4663063667437274e-05 0.032519279791103452 0 -0.000630419791466777 0.032017727321018485 0 0.00017487336430160129 0.034377715319164143 0 4.7556580947641437e-05 0.034388716390921018 0 0.000127604722153849 0.034490250336534162 0 1.5065641303719349e-05 0.034534466375650413 0 4.7556580947641437e-05 0.034388716390921018 0 0.000127604722153849 0.034490250336534162 0 -8.4663063667437274e-05 0.032519279791103452 0 -6.9924905111642621e-05 0.033036692289036579 0 1.5065641303719349e-05 0.034534466375650413 0 0.00010339132371455179 0.034586411832772744 0 0.000127604722153849 0.034490250336534162 0 1.5065641303719349e-05 0.034534466375650413 0 0.00010339132371455179 0.034586411832772744 0 4.9482075248515208e-05 0.034654860168044345 0 0.000127604722153849 0.034490250336534162 0 0.00018479264715792808 0.034582344842155013 0 0.00023015677183750536 0.034485657182805628 0 0.00010339132371455179 0.034586411832772744 0 0.000127604722153849 0.034490250336534162 0 0.00018479264715792808 0.034582344842155013 0 0.00018479264715792808 0.034582344842155013 0 0.00013623511239228749 0.034665323557708121 0 0.00021287495016761377 0.034664098044013644 0 0.00010339132371455179 0.034586411832772744 0 0.00018479264715792808 0.034582344842155013 0 0.00013623511239228749 0.034665323557708121 0 0.00013623511239228749 0.034665323557708121 0 0.00021287495016761377 0.034664098044013644 0 0.0001766328875541913 0.034747283993023702 0 0.00010339132371455179 0.034586411832772744 0 0.00013623511239228749 0.034665323557708121 0 4.9482075248515208e-05 0.034654860168044345 0 0.00013623511239228749 0.034665323557708121 0 5.0054303855657953e-05 0.034726281849008139 0 8.1990259155429666e-05 0.034762341182400021 0 0.00013623511239228749 0.034665323557708121 0 4.9482075248515208e-05 0.034654860168044345 0 5.0054303855657953e-05 0.034726281849008139 0 -8.3036047317523972e-06 0.034756480886197955 0 4.9482075248515208e-05 0.034654860168044345 0 5.0054303855657953e-05 0.034726281849008139 0 5.0054303855657953e-05 0.034726281849008139 0 8.1990259155429666e-05 0.034762341182400021 0 2.8278923936804783e-05 0.034805227879710653 0 8.1990259155429666e-05 0.034762341182400021 0 6.0466357639714359e-05 0.034831949982787415 0 0.00011637098541296641 0.034792514981356493 0 8.1990259155429666e-05 0.034762341182400021 0 6.0466357639714359e-05 0.034831949982787415 0 2.8278923936804783e-05 0.034805227879710653 0 1.6598236425116893e-05 0.034874406332088305 0 6.0466357639714359e-05 0.034831949982787415 0 2.8278923936804783e-05 0.034805227879710653 0 0.00021287495016761377 0.034664098044013644 0 0.0001766328875541913 0.034747283993023702 0 0.00025224489869503071 0.034747257326898782 0 0.00013623511239228749 0.034665323557708121 0 8.1990259155429666e-05 0.034762341182400021 0 0.00012711897476788261 0.034742528080332853 0 8.1990259155429666e-05 0.034762341182400021 0 0.00012711897476788261 0.034742528080332853 0 0.00011637098541296641 0.034792514981356493 0 0.0001766328875541913 0.034747283993023702 0 0.00012711897476788261 0.034742528080332853 0 0.00011637098541296641 0.034792514981356493 0 0.00013623511239228749 0.034665323557708121 0 0.0001766328875541913 0.034747283993023702 0 0.00012711897476788261 0.034742528080332853 0 0.00015109961116594058 0.034810254152096848 0 0.0001766328875541913 0.034747283993023702 0 0.00011637098541296641 0.034792514981356493 0 0.00015109961116594058 0.034810254152096848 0 0.0001766328875541913 0.034747283993023702 0 0.0002282029751444189 0.034745566304269462 0 0.00038502226324818513 0.033639392193165245 0 5.5535454021653846e-05 0.032238956323375006 0 5.5535454021653846e-05 0.032238956323375006 0 -0.0001547275898737138 0.03024413770237078 0 0.00079537315750893151 0.030562353926091305 0 0.0005640285951774111 0.030501239704286677 0 0.00072725601105819789 0.030422411583495474 0 -0.00084741497911493225 0.030382692567074886 0 -0.00087074338031296037 0.030369145383023124 0 -0.00086884924878741134 0.03035582673097964 0 0.00021287495016761377 0.034664098044013644 0 0.00025224489869503071 0.034747257326898782 0 0.00030436113991681978 0.034592868937629868 0 0.00018479264715792808 0.034582344842155013 0 0.00021287495016761377 0.034664098044013644 0 0.00030436113991681978 0.034592868937629868 0 -0.00084741497911493225 0.030382692567074886 0 -0.00087074338031296037 0.030369145383023124 0 -0.00085942559608217747 0.03038533085991902 0 5.5535454021653846e-05 0.032238956323375006 0 -0.00034540389929999329 0.032844164391908598 0 0.00018479264715792808 0.034582344842155013 0 0.00030436113991681978 0.034592868937629868 0 0.00023015677183750536 0.034485657182805628 0 0.00030436113991681978 0.034592868937629868 0 0.00023015677183750536 0.034485657182805628 0 0.00034469557153484056 0.034433599480240183 0 -0.00034540389929999329 0.032844164391908598 0 -0.00092613546009124518 0.030626997974333662 0 -0.00087074338031296037 0.030369145383023124 0 -0.00085942559608217747 0.03038533085991902 0 -0.00086741938281796832 0.03038545829380072 0 -0.00087074338031296037 0.030369145383023124 0 -0.00086741938281796832 0.03038545829380072 0 -0.00088546264453292156 0.03036065314244105 0 -0.00092613546009124518 0.030626997974333662 0 -0.0015317439106959088 0.028297879723431518 0 -0.0024942504882868115 0.025797863805030831 0 -0.0023594063507852798 0.025598055078399348 0 -0.0022895725172915032 0.02562026723037758 0 -0.0023080145783193804 0.025602382364323138 0 -0.0023594063507852798 0.025598055078399348 0 -0.0022895725172915032 0.02562026723037758 0 -0.00084251782849709426 0.031584201492217238 0 -0.0010194994341725758 0.031470958497645876 0 -0.00087029697615880538 0.031444309360721977 0 -0.00094363347739134763 0.031253895114569691 0 -0.0010194994341725758 0.031470958497645876 0 -0.00087029697615880538 0.031444309360721977 0 -0.00084251782849709426 0.031584201492217238 0 -0.00087029697615880538 0.031444309360721977 0 -0.00067543125794050185 0.031465615065260147 0 -8.4663063667437274e-05 0.032519279791103452 0 -0.00092613546009124518 0.030626997974333662 0 0.00017487336430160129 0.034377715319164143 0 0.00023015677183750536 0.034485657182805628 0 0.00034469557153484056 0.034433599480240183 0 -0.0005447799297069809 0.031475580775973733 0 -0.00094363347739134763 0.031253895114569691 0 -0.00067543125794050185 0.031465615065260147 0 -0.00094363347739134763 0.031253895114569691 0 -0.00087029697615880538 0.031444309360721977 0 -0.00067543125794050185 0.031465615065260147 0 -0.0028320021832581878 0.024726154472679382 0 -0.0022230298829169692 0.025512297333958989 0 -0.0023733227545696556 0.02558968708803841 0 -0.0023303748845532974 0.025579409050932228 0 -0.0023654625149730065 0.025495265575616492 0 -0.0023733227545696556 0.02558968708803841 0 -0.0023654625149730065 0.025495265575616492 0 -0.0023072254406195127 0.025365066530602217 0 -0.0023303748845532974 0.025579409050932228 0 -0.0022895725172915032 0.02562026723037758 0 -0.0023759160400097122 0.025540291514931021 0 -0.0023080145783193804 0.025602382364323138 0 -0.0023303748845532974 0.025579409050932228 0 -0.0022895725172915032 0.02562026723037758 0 -0.0025066010005973683 0.025097153891340592 0 -0.0018584997328706082 0.027220533299443857 0 -0.00092613546009124518 0.030626997974333662 0 -0.0018584997328706082 0.027220533299443857 0 -0.0024942504882868115 0.025797863805030831 0 -0.0022895725172915032 0.02562026723037758 0 -0.0020569957418181948 0.026040133286932814 0 -0.0023759160400097122 0.025540291514931021 0 -0.0023654625149730065 0.025495265575616492 0 -0.0023585566769684912 0.025653379071344667 0 -0.0023303748845532974 0.025579409050932228 0 -0.0023759160400097122 0.025540291514931021 0 -0.0023654625149730065 0.025495265575616492 0 -0.0023654625149730065 0.025495265575616492 0 -0.0023585566769684912 0.025653379071344667 0 -0.0023190494539525163 0.025548138578053051 0 -0.0018584997328706082 0.027220533299443857 0 -0.001206378221181275 0.029362767411749195 0 -0.001929730371825701 0.027466520515140584 0 -0.0014238378980960976 0.027710480091129558 0 -0.0016268600052277236 0.028013551649177289 0 -0.0018584997328706082 0.027220533299443857 0 -0.0019220816050643465 0.026655343230088835 0 -0.0014238378980960976 0.027710480091129558 0 -0.0016268600052277236 0.028013551649177289 0 -0.0013081788965840526 0.02805130530642172 0 -0.00087074338031296037 0.030369145383023124 0 -0.00088546264453292156 0.03036065314244105 0 -0.00088499175924091191 0.030353274863487996 0 -0.00087074338031296037 0.030369145383023124 0 -0.00088499175924091191 0.030353274863487996 0 -0.00086884924878741134 0.03035582673097964 0 -0.001206378221181275 0.029362767411749195 0 -0.00041886157253435372 0.029918606133444946 0 -0.0001547275898737138 0.03024413770237078 0 -0.00041886157253435372 0.029918606133444946 0 -0.0016268600052277236 0.028013551649177289 0 -0.001323709816052489 0.028552812706768679 0 -0.0013081788965840526 0.02805130530642172 0 -0.00088499175924091191 0.030353274863487996 0 -0.00086884924878741134 0.03035582673097964 0 -0.00088519293778796038 0.030340335232536042 0 0.0003734098432377999 0.03029064498723319 0 0.00047605162418215145 0.030337304879854286 0 0.0003237479149237895 0.030452598673114523 0 0.0005640285951774111 0.030501239704286677 0 0.00047605162418215145 0.030337304879854286 0 0.0003237479149237895 0.030452598673114523 0 0.0003734098432377999 0.03029064498723319 0 0.00048887118375437553 0.030175675703031129 0 0.00035460179769337155 0.030161165074482427 0 0.0003734098432377999 0.03029064498723319 0 0.00047605162418215145 0.030337304879854286 0 0.00048887118375437553 0.030175675703031129 0 0.00047605162418215145 0.030337304879854286 0 0.00061387187673752263 0.030329477958956991 0 0.00048887118375437553 0.030175675703031129 0 0.0005640285951774111 0.030501239704286677 0 0.00047605162418215145 0.030337304879854286 0 0.00061387187673752263 0.030329477958956991 0 0.0005640285951774111 0.030501239704286677 0 0.00072725601105819789 0.030422411583495474 0 0.00061387187673752263 0.030329477958956991 0 0.00084225306451085656 0.03044140885998833 0 0.00079537315750893151 0.030562353926091305 0 0.00072725601105819789 0.030422411583495474 0 0.00045147226358190355 0.032726418710768299 0 5.5535454021653846e-05 0.032238956323375006 0 0.00072725601105819789 0.030422411583495474 0 0.00079870932040321935 0.030376000464375042 0 0.00073766150717718677 0.030319233721939468 0 0.00084225306451085656 0.03044140885998833 0 0.00072725601105819789 0.030422411583495474 0 0.00079870932040321935 0.030376000464375042 0 0.00088763189498777871 0.030320996272651314 0 0.00073766150717718677 0.030319233721939468 0 0.00069670202883996384 0.030162112094908274 0 0.00088763189498777871 0.030320996272651314 0 0.00079870932040321935 0.030376000464375042 0 0.00073766150717718677 0.030319233721939468 0 0.00039087176388730204 0.032127486382603002 0 0.00086168369092480578 0.030003788926584944 0 0.00072725601105819789 0.030422411583495474 0 0.00073766150717718677 0.030319233721939468 0 0.00061387187673752263 0.030329477958956991 0 0.00073766150717718677 0.030319233721939468 0 0.00061387187673752263 0.030329477958956991 0 0.00069670202883996384 0.030162112094908274 0 0.00061387187673752263 0.030329477958956991 0 0.00069670202883996384 0.030162112094908274 0 0.00048887118375437553 0.030175675703031129 0 0.00073315574279522028 0.030439562072085289 0 0.0010401749775268787 0.030464592578969756 0 0.00087878017692582394 0.03068143591230028 0 0.00073315574279522028 0.030439562072085289 0 0.00063442046024676671 0.030137211624808313 0 0.0010401749775268787 0.030464592578969756 0 0.0010401749775268787 0.030464592578969756 0 0.001207759520330256 0.030621967168512242 0 0.0011141395448970145 0.030744627724927316 0 0.0010401749775268787 0.030464592578969756 0 0.00087878017692582394 0.03068143591230028 0 0.0011141395448970145 0.030744627724927316 0 0.00086168369092480578 0.030003788926584944 0 0.00087173823686868769 0.030358105156116401 0 0.00051178493975740052 0.030023176576185483 0 0.00043489007728922722 0.030022833040052103 0 0.00057925809476578379 0.029968495441925775 0 0.00051178493975740052 0.030023176576185483 0 0.00048887118375437553 0.030175675703031129 0 0.00043489007728922722 0.030022833040052103 0 0.00048887118375437553 0.030175675703031129 0 0.00035460179769337155 0.030161165074482427 0 0.00043489007728922722 0.030022833040052103 0 0.00069670202883996384 0.030162112094908274 0 0.00051178493975740052 0.030023176576185483 0 0.00048887118375437553 0.030175675703031129 0 7.2830287586985671e-05 0.030119970028207481 0 0.00019288975557617732 0.030185479977785337 0 0.00013391788436874262 0.03027712562847535 0 7.2830287586985671e-05 0.030119970028207481 0 0.00019288975557617732 0.030185479977785337 0 0.00023436377106882578 0.030087554946023741 0 0.00019288975557617732 0.030185479977785337 0 0.00035460179769337155 0.030161165074482427 0 0.00023436377106882578 0.030087554946023741 0 0.00019288975557617732 0.030185479977785337 0 0.00035460179769337155 0.030161165074482427 0 0.00025886690657958962 0.030257955866835645 0 0.00035460179769337155 0.030161165074482427 0 0.00023436377106882578 0.030087554946023741 0 0.00043489007728922722 0.030022833040052103 0 0.00043489007728922722 0.030022833040052103 0 0.00015415528149940148 0.029900866690568267 0 0.00057925809476578379 0.029968495441925775 0 0.00023436377106882578 0.030087554946023741 0 0.00043489007728922722 0.030022833040052103 0 0.00015415528149940148 0.029900866690568267 0 -0.00086471123907325663 0.029423198300699015 0 0.00012515897486023472 0.030095579082647168 0 7.2830287586985671e-05 0.030119970028207481 0 0.00023436377106882578 0.030087554946023741 0 0.00015415528149940148 0.029900866690568267 0 -0.00045006277734763596 0.030531359794260651 0 0.00015415528149940148 0.029900866690568267 0 -0.0006149415332943537 0.029737557978549198 0 -0.00086471123907325663 0.029423198300699015 0 -0.00066658785750841286 0.029851981220946629 0 0.00015415528149940148 0.029900866690568267 0 -0.0006149415332943537 0.029737557978549198 0 -0.00020745029858554821 0.029656618506922614 0 -0.0006149415332943537 0.029737557978549198 0 -0.00074486242384271353 0.029433606829036767 0 -0.0008092735215681153 0.029358054995023638 0 -0.0006149415332943537 0.029737557978549198 0 -0.00074486242384271353 0.029433606829036767 0 -0.00054142278165322192 0.029524048168523415 0 -0.0011184364078578332 0.029190403463080012 0 -0.0006149415332943537 0.029737557978549198 0 -0.0008092735215681153 0.029358054995023638 0 -0.00074486242384271353 0.029433606829036767 0 -0.00077314610816838565 0.029344903996406685 0 -0.0007227243544525951 0.029378035029168043 0 -0.00074486242384271353 0.029433606829036767 0 -0.00068791861032924887 0.029093906197690436 0 -0.00077314610816838565 0.029344903996406685 0 -0.00074486242384271353 0.029433606829036767 0 -0.00068791861032924887 0.029093906197690436 0 -0.00086697802686060415 0.029010382781830404 0 -0.00068791861032924887 0.029093906197690436 0 -0.00086697802686060415 0.029010382781830404 0 -0.00073682017149168534 0.028550345601311665 0 -0.0011184364078578332 0.029190403463080012 0 -0.00086697802686060415 0.029010382781830404 0 -0.0008092735215681153 0.029358054995023638 0 -0.00074486242384271353 0.029433606829036767 0 -0.00086697802686060415 0.029010382781830404 0 -0.0008092735215681153 0.029358054995023638 0 -0.0011184364078578332 0.029190403463080012 0 -0.00086697802686060415 0.029010382781830404 0 -0.0011451520287266315 0.028428773552806506 0 -0.00086471123907325663 0.029423198300699015 0 -0.0012613026656937869 0.027807623487910552 0 -0.00086697802686060415 0.029010382781830404 0 -0.0011451520287266315 0.028428773552806506 0 -0.00073682017149168534 0.028550345601311665 0 -0.0011451520287266315 0.028428773552806506 0 -0.00073682017149168534 0.028550345601311665 0 -0.0010142252496085876 0.027538894749902173 0 -0.0012613026656937869 0.027807623487910552 0 -0.00091991350818976508 0.027072106914336147 0 -0.0012875668833876881 0.027426803950868137 0 -0.0014236424816494975 0.02653997342398615 0 -0.00085316331755670488 0.026586609616242523 0 -0.0012875668833876881 0.027426803950868137 0 -0.0017474351986791277 0.026986908911354319 0 -0.0019412458376212678 0.027620634585142058 0 -0.0012875668833876881 0.027426803950868137 0 -0.0017474351986791277 0.026986908911354319 0 -0.0014236424816494975 0.02653997342398615 0 -0.0017474351986791277 0.026986908911354319 0 -0.0020526994834679196 0.026939571904605185 0 -0.0018636210714641261 0.026567240672811757 0 -0.0017474351986791277 0.026986908911354319 0 -0.0020729127784897576 0.026944313070371189 0 -0.0019412458376212678 0.027620634585142058 0 -0.00096981383145702935 0.028352847877139362 0 -0.000900111378540551 0.028968816993625846 0 0.00016879104129483783 0.030407986075844013 0 0.00013391788436874262 0.03027712562847535 0 0.00027420310445686594 0.030363691923690362 0 -0.001958673716176525 0.027557639950292395 0 -0.00096981383145702935 0.028352847877139362 0 -0.0017907451263361913 0.028323214275195453 0 -0.0012875668833876881 0.027426803950868137 0 -0.0019412458376212678 0.027620634585142058 0 -0.00086471123907325663 0.029423198300699015 0 -0.000900111378540551 0.028968816993625846 0 0.00019288975557617732 0.030185479977785337 0 0.00013391788436874262 0.03027712562847535 0 0.00025886690657958962 0.030257955866835645 0 0.00013391788436874262 0.03027712562847535 0 0.00025886690657958962 0.030257955866835645 0 0.00027420310445686594 0.030363691923690362 0 0.0003734098432377999 0.03029064498723319 0 0.00035460179769337155 0.030161165074482427 0 0.00025886690657958962 0.030257955866835645 0 0.0003734098432377999 0.03029064498723319 0 0.00025886690657958962 0.030257955866835645 0 0.00027420310445686594 0.030363691923690362 0 0.00016879104129483783 0.030407986075844013 0 0.00027420310445686594 0.030363691923690362 0 0.00030739630461405093 0.030428286438324317 0 -0.00096981383145702935 0.028352847877139362 0 -0.00041886157253435372 0.029918606133444946 0 0.0003734098432377999 0.03029064498723319 0 0.00027420310445686594 0.030363691923690362 0 0.0003237479149237895 0.030452598673114523 0 0.00024975751083061129 0.030556487266436012 0 -0.00041886157253435372 0.029918606133444946 0 -0.001323709816052489 0.028552812706768679 0 -0.0013081788965840526 0.02805130530642172 0 -0.00092197271745143188 0.027948700009171507 0 -0.00077842605819369523 0.028628944443101736 0 -0.001323709816052489 0.028552812706768679 0 -0.00092197271745143188 0.027948700009171507 0 -0.0020526994834679196 0.026939571904605185 0 -0.0018636210714641261 0.026567240672811757 0 -0.0022094206395850634 0.026113506736913782 0 -0.00096981383145702935 0.028352847877139362 0 -0.0017236615832453461 0.026604937544136523 0 -0.0017474351986791277 0.026986908911354319 0 -0.0018636210714641261 0.026567240672811757 0 -0.0014236424816494975 0.02653997342398615 0 -0.0018636210714641261 0.026567240672811757 0 -0.0019014228883505954 0.026256665457547824 0 -0.0022094206395850634 0.026113506736913782 0 -0.0018636210714641261 0.026567240672811757 0 -0.0019014228883505954 0.026256665457547824 0 -0.0014236424816494975 0.02653997342398615 0 -0.0019014228883505954 0.026256665457547824 0 -0.0018307173048958184 0.025808833183252684 0 -0.0012762645960888968 0.025984370998624568 0 -0.0019014228883505954 0.026256665457547824 0 -0.0018307173048958184 0.025808833183252684 0 -0.0021534015285534116 0.026099056478164344 0 -0.0020585726296909355 0.02629321340476547 0 -0.0017236615832453461 0.026604937544136523 0 -0.0018307173048958184 0.025808833183252684 0 -0.0021534015285534116 0.026099056478164344 0 -0.002191349469558789 0.025708184863250463 0 -0.0014238378980960976 0.027710480091129558 0 -0.0013081788965840526 0.02805130530642172 0 -0.00092197271745143188 0.027948700009171507 0 -0.0019220816050643465 0.026655343230088835 0 -0.0017236615832453461 0.026604937544136523 0 -0.0023585566769684912 0.025653379071344667 0 -0.0021635223950145226 0.025831890037540366 0 -0.002191349469558789 0.025708184863250463 0 -0.0017236615832453461 0.026604937544136523 0 -0.0021195729546502114 0.025647363963115621 0 -0.0023585566769684912 0.025653379071344667 0 -0.002191349469558789 0.025708184863250463 0 -0.0023190494539525163 0.025548138578053051 0 -0.0023654625149730065 0.025495265575616492 0 -0.0023190494539525163 0.025548138578053051 0 -0.0023072254406195127 0.025365066530602217 0 -0.0023190494539525163 0.025548138578053051 0 -0.0019763748720062228 0.025461589385414915 0 -0.0023072254406195127 0.025365066530602217 0 -0.002191349469558789 0.025708184863250463 0 -0.0023190494539525163 0.025548138578053051 0 -0.0019763748720062228 0.025461589385414915 0 -0.0018307173048958184 0.025808833183252684 0 -0.0019763748720062228 0.025461589385414915 0 -0.0014267039769982307 0.025405465590187883 0 -0.0018307173048958184 0.025808833183252684 0 -0.002191349469558789 0.025708184863250463 0 -0.0019763748720062228 0.025461589385414915 0 -0.0019763748720062228 0.025461589385414915 0 -0.0016991031635187768 0.024797868705750414 0 -0.0021327472314656621 0.024851095782626297 0 -0.0019763748720062228 0.025461589385414915 0 -0.0016991031635187768 0.024797868705750414 0 -0.0014267039769982307 0.025405465590187883 0 -0.0019763748720062228 0.025461589385414915 0 -0.0021327472314656621 0.024851095782626297 0 -0.0023072254406195127 0.025365066530602217 0 -0.002893194069269015 0.024551694922590111 0 -0.0021327472314656621 0.024851095782626297 0 -0.0023072254406195127 0.025365066530602217 0 -0.00044843620234933236 0.024432117789149926 0 -0.00093810089233846081 0.02463475727192847 0 -0.00079635270339428949 0.02522736348788205 0 -0.00093810089233846081 0.02463475727192847 0 -0.0012495579467148086 0.024945519670192949 0 -0.00079635270339428949 0.02522736348788205 0 -0.0012495579467148086 0.024945519670192949 0 -0.0014267039769982307 0.025405465590187883 0 -0.00079635270339428949 0.02522736348788205 0 -0.0016991031635187768 0.024797868705750414 0 -0.0012495579467148086 0.024945519670192949 0 -0.0014267039769982307 0.025405465590187883 0 -0.0012957249623040306 0.02450449838705571 0 -0.0016991031635187768 0.024797868705750414 0 -0.0012495579467148086 0.024945519670192949 0 -0.0014267039769982307 0.025405465590187883 0 -0.00079635270339428949 0.02522736348788205 0 -0.0012762645960888968 0.025984370998624568 0 -0.00079635270339428949 0.02522736348788205 0 -0.0012762645960888968 0.025984370998624568 0 -0.0004497363360982489 0.02581879917902731 0 -0.0012762645960888968 0.025984370998624568 0 -0.00085316331755670488 0.026586609616242523 0 -0.0004497363360982489 0.02581879917902731 0 -0.00091991350818976508 0.027072106914336147 0 -0.00056211189987640756 0.026163830604890245 0 -0.0018307173048958184 0.025808833183252684 0 -0.0014267039769982307 0.025405465590187883 0 -0.0012762645960888968 0.025984370998624568 0 -0.0012762645960888968 0.025984370998624568 0 -0.0014236424816494975 0.02653997342398615 0 -0.00085316331755670488 0.026586609616242523 0 -0.0019014228883505954 0.026256665457547824 0 -0.0012762645960888968 0.025984370998624568 0 -0.0014236424816494975 0.02653997342398615 0 -0.0010142252496085876 0.027538894749902173 0 -9.3604502831231128e-05 0.027278981655580806 0 -0.00068700918768095317 0.026521205869018846 0 -9.3604502831231128e-05 0.027278981655580806 0 -0.00068700918768095317 0.026521205869018846 0 0.0003140452605983453 0.026400305019581519 0 -0.00079635270339428949 0.02522736348788205 0 -0.0004497363360982489 0.02581879917902731 0 -3.2557546595298754e-05 0.025055622801531938 0 -0.00056211189987640756 0.026163830604890245 0 -0.00011497592095725729 0.025223954605734421 0 -0.00068700918768095317 0.026521205869018846 0 -0.00021926108457568099 0.025426843247381335 0 0.0003140452605983453 0.026400305019581519 0 -0.00021926108457568099 0.025426843247381335 0 0.00070439410031889577 0.025479898151837269 0 0.0003140452605983453 0.026400305019581519 0 0.0003814970446053388 0.024283205602539392 0 -0.00011497592095725729 0.025223954605734421 0 -0.00044843620234933236 0.024432117789149926 0 -0.00079635270339428949 0.02522736348788205 0 -3.2557546595298754e-05 0.025055622801531938 0 0.0012165532010099843 0.024666740548377919 0 0.00070439410031889577 0.025479898151837269 0 0.0014184156699582689 0.025686284574525996 0 0.0011110664797207418 0.023419467081330782 0 0.0011849213506971879 0.023227095458955252 0 0.0010995009135129302 0.023371877835882581 0 0.0010831147270580549 0.023826759164674482 0 0.0015570449485298979 0.025376645738155623 0 0.00040275559782982658 0.024220926138889039 0 0.0012165532010099843 0.024666740548377919 0 0.00070439410031889577 0.025479898151837269 0 0.00040275559782982658 0.024220926138889039 0 -0.00021926108457568099 0.025426843247381335 0 0.00070439410031889577 0.025479898151837269 0 0.00070439410031889577 0.025479898151837269 0 0.0010559906087478912 0.026280694713738492 0 0.0003140452605983453 0.026400305019581519 0 0.00070439410031889577 0.025479898151837269 0 0.0014184156699582689 0.025686284574525996 0 0.0010559906087478912 0.026280694713738492 0 0.0015570449485298979 0.025376645738155623 0 5.1038690374449809e-05 0.020070955387033195 0 0.0014184156699582689 0.025686284574525996 0 0.0010559906087478912 0.026280694713738492 0 0.0015841728965325288 0.026567334984886604 0 0.0010559906087478912 0.026280694713738492 0 0.00077855014379741596 0.027019909199024611 0 0.0015841728965325288 0.026567334984886604 0 -9.3604502831231128e-05 0.027278981655580806 0 0.0003140452605983453 0.026400305019581519 0 0.00077855014379741596 0.027019909199024611 0 0.0010559906087478912 0.026280694713738492 0 0.0003140452605983453 0.026400305019581519 0 0.00077855014379741596 0.027019909199024611 0 0.00077855014379741596 0.027019909199024611 0 0.0011102140920116628 0.027631236631496789 0 0.00034522269760009749 0.027898219821232972 0 -9.3604502831231128e-05 0.027278981655580806 0 0.00077855014379741596 0.027019909199024611 0 0.00034522269760009749 0.027898219821232972 0 0.00028824863727334446 0.022583181174147673 0 5.1038690374449809e-05 0.020070955387033195 0 0.00077855014379741596 0.027019909199024611 0 0.0011102140920116628 0.027631236631496789 0 0.0015841728965325288 0.026567334984886604 0 -0.00051222345090859054 0.016733404513558481 0 -0.00086966075641997155 0.016817581830168498 0 -0.00068326584891135859 0.01750443231111503 0 0.00028824863727334446 0.022583181174147673 0 -3.284405656729131e-05 0.022375718427122708 0 -0.00051222345090859054 0.016733404513558481 0 -0.00066371230312481009 0.016459913831979679 0 -0.00072113712880147237 0.016544780860649276 0 -0.00051222345090859054 0.016733404513558481 0 -0.00066371230312481009 0.016459913831979679 0 -0.00063697390397764436 0.016335942186271504 0 -0.00066371230312481009 0.016459913831979679 0 -0.00067281275658402835 0.016369226702489106 0 -0.00072607095881326662 0.016379921250071872 0 -0.00066371230312481009 0.016459913831979679 0 -0.00067281275658402835 0.016369226702489106 0 -0.00063697390397764436 0.016335942186271504 0 0.0005848827965084008 0.028506846517283715 0 0.00034522269760009749 0.027898219821232972 0 -4.406894370500551e-05 0.028635911583215771 0 0.0011102140920116628 0.027631236631496789 0 0.0005848827965084008 0.028506846517283715 0 0.00034522269760009749 0.027898219821232972 0 -9.3604502831231128e-05 0.027278981655580806 0 0.00034522269760009749 0.027898219821232972 0 -0.00031791559327948928 0.028176588029028914 0 -0.00073682017149168534 0.028550345601311665 0 -0.0010142252496085876 0.027538894749902173 0 -0.00031791559327948928 0.028176588029028914 0 -0.0010142252496085876 0.027538894749902173 0 -9.3604502831231128e-05 0.027278981655580806 0 -0.00031791559327948928 0.028176588029028914 0 -0.00073682017149168534 0.028550345601311665 0 -0.00031791559327948928 0.028176588029028914 0 -0.00045170616305051126 0.028760027175517764 0 0.00034522269760009749 0.027898219821232972 0 -0.00031791559327948928 0.028176588029028914 0 -4.406894370500551e-05 0.028635911583215771 0 -0.00031791559327948928 0.028176588029028914 0 -4.406894370500551e-05 0.028635911583215771 0 -0.00045170616305051126 0.028760027175517764 0 -4.406894370500551e-05 0.028635911583215771 0 -0.00045170616305051126 0.028760027175517764 0 -0.00048682190176534975 0.029093395409874278 0 -4.406894370500551e-05 0.028635911583215771 0 -0.00048682190176534975 0.029093395409874278 0 7.0250853349183539e-05 0.02910900623587313 0 -0.00068791861032924887 0.029093906197690436 0 -0.00045170616305051126 0.028760027175517764 0 -0.00048682190176534975 0.029093395409874278 0 -0.00068791861032924887 0.029093906197690436 0 -0.00073682017149168534 0.028550345601311665 0 -0.00045170616305051126 0.028760027175517764 0 -0.00077314610816838565 0.029344903996406685 0 -0.00048682190176534975 0.029093395409874278 0 -0.00088812981279742342 0.029426032325192853 0 -0.00068791861032924887 0.029093906197690436 0 -0.00077314610816838565 0.029344903996406685 0 -0.00048682190176534975 0.029093395409874278 0 -0.00048682190176534975 0.029093395409874278 0 7.0250853349183539e-05 0.02910900623587313 0 -0.00088812981279742342 0.029426032325192853 0 -0.00094752269204106 0.016524315774991801 0 -0.00081679481370981039 0.016706417545484038 0 -0.00094723368699895806 0.016978519617519665 0 -0.00094752269204106 0.016524315774991801 0 -0.00081679481370981039 0.016706417545484038 0 -0.00072678211131776548 0.016453474589634174 0 -0.00072678211131776548 0.016453474589634174 0 -0.00064441038278503229 0.016902286143898559 0 -0.00047684518802458689 0.016439304108211098 0 -0.00081679481370981039 0.016706417545484038 0 -0.00072678211131776548 0.016453474589634174 0 -0.00064441038278503229 0.016902286143898559 0 -0.00044847012276018734 0.016447177520499096 0 -0.0005627254101726333 0.016596363645403744 0 -0.00072678211131776548 0.016453474589634174 0 -0.00064217694798441769 0.016293921639071819 0 -0.00047684518802458689 0.016439304108211098 0 -0.00063697390397764436 0.016335942186271504 0 -0.00072678211131776548 0.016453474589634174 0 -0.00064217694798441769 0.016293921639071819 0 -0.00067281275658402835 0.016369226702489106 0 -0.00063697390397764436 0.016335942186271504 0 -0.00064217694798441769 0.016293921639071819 0 -0.00063697390397764436 0.016335942186271504 0 -0.00094752269204106 0.016524315774991801 0 -0.00072678211131776548 0.016453474589634174 0 0.0005848827965084008 0.028506846517283715 0 -4.406894370500551e-05 0.028635911583215771 0 7.0250853349183539e-05 0.02910900623587313 0 -3.284405656729131e-05 0.022375718427122708 0 -0.00035599354081246553 0.022654031996556051 0 -0.0012559995800442113 0.019860941944979876 0 -0.0011376100347432229 0.019910631187289148 0 -0.0012261611205641924 0.01999296506698988 0 -0.00096276069529399599 0.017417024210009187 0 -0.00094723368699895806 0.016978519617519665 0 -0.0012845266845788236 0.017268796389602065 0 -0.00060594849331240615 0.022718207816537755 0 -0.001437558886783341 0.022316984308193906 0 -0.0013189248510049201 0.023015258246825709 0 -0.0011279804919403977 0.019492310541626104 0 -0.001212258802582987 0.024274979820178334 0 -0.00060594849331240615 0.022718207816537755 0 -0.0013189248510049201 0.023015258246825709 0 -0.0014105269087989921 0.023723927184444701 0 -0.0011279804919403977 0.019492310541626104 0 -0.0013045211132524689 0.02177794758147111 0 -0.00055074929564189053 0.017218075004167294 0 -0.00054228047854821984 0.016791276084665522 0 -0.00013855936972265122 0.017428773697986122 0 -0.0011279804919403977 0.019492310541626104 0 -0.00088266248048891546 0.018544225296410217 0 -0.00093515372670895385 0.017013335448689392 0 -0.00055074929564189053 0.017218075004167294 0 -0.00054228047854821984 0.016791276084665522 0 -0.00093515372670895385 0.017013335448689392 0 -0.00054228047854821984 0.016791276084665522 0 -0.00060317902089894438 0.016641779765045439 0 -0.00048718447166539548 0.01666458368942271 0 -0.00060317902089894438 0.016641779765045439 0 -0.00047684518802458689 0.016439304108211098 0 -0.00054228047854821984 0.016791276084665522 0 -0.00048718447166539548 0.01666458368942271 0 -0.00038586676486251903 0.016795188232825033 0 -0.00054228047854821984 0.016791276084665522 0 -0.00048718447166539548 0.01666458368942271 0 -0.00060317902089894438 0.016641779765045439 0 -0.00035599354081246553 0.022654031996556051 0 -0.001212258802582987 0.024274979820178334 0 -0.00094752269204106 0.016524315774991801 0 -0.00094723368699895806 0.016978519617519665 0 -0.0012845266845788236 0.017268796389602065 0 -0.00081679481370981039 0.016706417545484038 0 -0.00064441038278503229 0.016902286143898559 0 -0.00094723368699895806 0.016978519617519665 0 -0.0011279804919403977 0.019492310541626104 0 -0.00044847012276018734 0.016447177520499096 0 -0.00096276069529399599 0.017417024210009187 0 -0.00064441038278503229 0.016902286143898559 0 -0.00094723368699895806 0.016978519617519665 0 -0.00023636237061343753 0.029926886493643074 0 -0.001212258802582987 0.024274979820178334 0 7.0250853349183539e-05 0.02910900623587313 0 -0.00088812981279742342 0.029426032325192853 0 -0.00034736444015232552 0.029686190929159809 0 -0.00077314610816838565 0.029344903996406685 0 -0.00088812981279742342 0.029426032325192853 0 -0.00084348425189938897 0.029319788233076457 0 -0.00088812981279742342 0.029426032325192853 0 -0.00097400545507256308 0.029051904203260086 0 -0.00084348425189938897 0.029319788233076457 0 -0.00097400545507256308 0.029051904203260086 0 -0.0012829960917772442 0.028562539854874315 0 -0.00084612143463377225 0.028745222617155706 0 -0.00088812981279742342 0.029426032325192853 0 -0.00097400545507256308 0.029051904203260086 0 -0.0012830020066608755 0.028943470736053308 0 -0.00097400545507256308 0.029051904203260086 0 -0.0012830020066608755 0.028943470736053308 0 -0.0012829960917772442 0.028562539854874315 0 -0.0012830020066608755 0.028943470736053308 0 -0.0016824435551588315 0.028607151783331029 0 -0.0012829960917772442 0.028562539854874315 0 -0.00088812981279742342 0.029426032325192853 0 -0.0012830020066608755 0.028943470736053308 0 -0.0017917078789274864 0.029142101005453652 0 -0.0012830020066608755 0.028943470736053308 0 -0.0017917078789274864 0.029142101005453652 0 -0.0016824435551588315 0.028607151783331029 0 -0.001437558886783341 0.022316984308193906 0 -0.0013189248510049201 0.023015258246825709 0 -0.0018295234563408082 0.023519715514803457 0 -0.001212258802582987 0.024274979820178334 0 -0.0019127885452723589 0.026482837624352464 0 -0.0013389344278376656 0.019975030496132442 0 -0.0014199941123573393 0.020096150229996595 0 -0.0012580449949253724 0.020110406818501948 0 -0.0018295234563408082 0.023519715514803457 0 -0.0014105269087989921 0.023723927184444701 0 -0.0022223287369042403 0.024726828801593648 0 -0.0013189248510049201 0.023015258246825709 0 -0.0018295234563408082 0.023519715514803457 0 -0.0014105269087989921 0.023723927184444701 0 -0.0016824435551588315 0.028607151783331029 0 -0.0012829960917772442 0.028562539854874315 0 -0.0017325735944453068 0.028108083742413557 0 -0.0019127885452723589 0.026482837624352464 0 -0.0017052306269136157 0.024964036508425904 0 -0.0013045211132524689 0.02177794758147111 0 -0.0017052306269136157 0.024964036508425904 0 -0.0012829960917772442 0.028562539854874315 0 -0.0013868375987849111 0.028063760277595409 0 -0.0017325735944453068 0.028108083742413557 0 -0.0012829960917772442 0.028562539854874315 0 -0.0013868375987849111 0.028063760277595409 0 -0.0010800295615522248 0.028313085267946445 0 -0.0016196986276303391 0.027496169613322491 0 -0.0020824683265603041 0.028117803460591628 0 -0.0018181186129089847 0.026902259441424749 0 -0.0017052306269136157 0.024964036508425904 0 -0.0017017868658172014 0.023532363596241661 0 -0.0013868375987849111 0.028063760277595409 0 -0.0010875456369416221 0.02778570507958756 0 -0.0010800295615522248 0.028313085267946445 0 -0.0013868375987849111 0.028063760277595409 0 -0.0016196986276303391 0.027496169613322491 0 -0.0017325735944453068 0.028108083742413557 0 -0.0021561744576237664 0.028211144867227582 0 -0.0017052306269136157 0.024964036508425904 0 -0.0013868375987849111 0.028063760277595409 0 -0.0016196986276303391 0.027496169613322491 0 -0.0010875456369416221 0.02778570507958756 0 -0.0016196986276303391 0.027496169613322491 0 -0.0011519260410975331 0.027074114194928802 0 -0.0010875456369416221 0.02778570507958756 0 -0.0014199941123573393 0.020096150229996595 0 -0.0012580449949253724 0.020110406818501948 0 -0.0013645932879199545 0.020202090941323404 0 -0.0014199941123573393 0.020096150229996595 0 -0.0013645932879199545 0.020202090941323404 0 -0.0014671346097232631 0.020285979660677814 0 -0.0013389344278376656 0.019975030496132442 0 -0.0012580449949253724 0.020110406818501948 0 -0.0012261611205641924 0.01999296506698988 0 -0.0012580449949253724 0.020110406818501948 0 -0.0012261611205641924 0.01999296506698988 0 -0.0011362208229046729 0.020028299810325553 0 -0.0012559995800442113 0.019860941944979876 0 -0.0013389344278376656 0.019975030496132442 0 -0.0012261611205641924 0.01999296506698988 0 -0.0011376100347432229 0.019910631187289148 0 -0.0011362208229046729 0.020028299810325553 0 -0.0010244590905355586 0.019950698510710487 0 -0.0011376100347432229 0.019910631187289148 0 -0.0012261611205641924 0.01999296506698988 0 -0.0011362208229046729 0.020028299810325553 0 -0.0012580449949253724 0.020110406818501948 0 -0.0011362208229046729 0.020028299810325553 0 -0.0011254899254622901 0.020178636496832915 0 -0.0011362208229046729 0.020028299810325553 0 -0.0011254899254622901 0.020178636496832915 0 -0.0010643576955765791 0.0200443610580349 0 -0.0021658603253058408 0.013967885094669376 0 -0.002153377545620695 0.013840424932511208 0 -0.0023333841817194351 0.013856212685835503 0 -0.0021658603253058408 0.013967885094669376 0 -0.002153377545620695 0.013840424932511208 0 -0.0019814562432828829 0.013824660524681624 0 -0.0012580449949253724 0.020110406818501948 0 -0.0011254899254622901 0.020178636496832915 0 -0.0012836627845926015 0.02032804456993783 0 -0.0016773081006712571 0.017204848111660013 0 -0.0016973414526326221 0.016914826346497977 0 -0.0012580449949253724 0.020110406818501948 0 -0.0012836627845926015 0.02032804456993783 0 -0.0013645932879199545 0.020202090941323404 0 -0.0019814562432828829 0.013824660524681624 0 -0.0021142613380810979 0.01373323032269233 0 -0.0020435949522624201 0.01361485836418457 0 -0.002153377545620695 0.013840424932511208 0 -0.0019814562432828829 0.013824660524681624 0 -0.0021142613380810979 0.01373323032269233 0 -0.002153377545620695 0.013840424932511208 0 -0.0021142613380810979 0.01373323032269233 0 -0.002209112423885409 0.013752295323914776 0 -0.0021142613380810979 0.01373323032269233 0 -0.0022299343846267335 0.013673204374003352 0 -0.002209112423885409 0.013752295323914776 0 -0.0021763536242185542 0.01367905877414077 0 -0.0020435949522624201 0.01361485836418457 0 -0.0022774125196003119 0.013656155074009789 0 -0.0020435949522624201 0.01361485836418457 0 -0.0024240440605622789 0.013646256630820216 0 -0.0022774125196003119 0.013656155074009789 0 -0.00093854974837669547 0.016133565764446234 0 -0.0010600629915459754 0.015405130953016304 0 -0.0021763536242185542 0.01367905877414077 0 -0.0022299343846267335 0.013673204374003352 0 -0.0022774125196003119 0.013656155074009789 0 -0.0021142613380810979 0.01373323032269233 0 -0.0021763536242185542 0.01367905877414077 0 -0.0022299343846267335 0.013673204374003352 0 -0.0021142613380810979 0.01373323032269233 0 -0.0021763536242185542 0.01367905877414077 0 -0.0020435949522624201 0.01361485836418457 0 -0.0019814562432828829 0.013824660524681624 0 -0.0020435949522624201 0.01361485836418457 0 -0.0017826824808845328 0.013723559287833146 0 9.3991088904119244e-05 0.019005586361591841 0 2.3678148862737341e-07 0.018103919832823018 0 7.9490681320317085e-07 0.020176670513668289 0 9.3991088904119244e-05 0.019005586361591841 0 2.3678148862737341e-07 0.018103919832823018 0 -1.6384175234513983e-05 0.017171025192825824 0 5.8168027335682799e-05 0.020453790309025995 0 -2.7713974166033679e-05 0.02094484232135416 0 -1.4500138055992742e-06 0.022247099400569997 0 5.8168027335682799e-05 0.020453790309025995 0 7.9490681320317085e-07 0.020176670513668289 0 -1.4500138055992742e-06 0.022247099400569997 0 9.3991088904119244e-05 0.019005586361591841 0 5.8168027335682799e-05 0.020453790309025995 0 7.9490681320317085e-07 0.020176670513668289 0 9.3991088904119244e-05 0.019005586361591841 0 5.8168027335682799e-05 0.020453790309025995 0 3.5196772965142596e-05 0.020155471228228448 0 -0.00093854974837669547 0.016133565764446234 0 -0.00086825472885562272 0.018199115953695236 0 -0.00086825472885562272 0.018199115953695236 0 -0.0010071482519807831 0.022559574130176122 0 5.8168027335682799e-05 0.020453790309025995 0 -2.7713974166033679e-05 0.02094484232135416 0 3.5196772965142596e-05 0.020155471228228448 0 4.509879011601534e-05 0.020899565552227516 0 -0.00086825472885562272 0.018199115953695236 0 -2.7713974166033679e-05 0.02094484232135416 0 0.00090814376284407755 0.019763047161770245 0 -0.00018893770858758419 0.019562048981700293 0 -0.0010071482519807831 0.022559574130176122 0 -0.0017017868658172014 0.023532363596241661 0 -0.0015563541289894565 0.025691093001200694 0 -0.0018181186129089847 0.026902259441424749 0 -0.0011935015972920732 0.026409347112814677 0 -0.0014274338656924076 0.020463557390799633 0 -0.001512284823880252 0.020460493027627914 0 -0.0014671346097232631 0.020285979660677814 0 -0.0016973414526326221 0.016914826346497977 0 -0.00086825472885562272 0.018199115953695236 0 -0.0012836627845926015 0.02032804456993783 0 -0.0014274338656924076 0.020463557390799633 0 -0.0014671346097232631 0.020285979660677814 0 -0.0012836627845926015 0.02032804456993783 0 -0.0013645932879199545 0.020202090941323404 0 -0.0014671346097232631 0.020285979660677814 0 -0.0018181186129089847 0.026902259441424749 0 -0.0011519260410975331 0.027074114194928802 0 -0.0011935015972920732 0.026409347112814677 0 -0.0016196986276303391 0.027496169613322491 0 -0.0018181186129089847 0.026902259441424749 0 -0.0011519260410975331 0.027074114194928802 0 -0.0011519260410975331 0.027074114194928802 0 -0.00067328482477193663 0.026563313654285027 0 -0.00054488960958037371 0.027464269939747175 0 -0.0011519260410975331 0.027074114194928802 0 -0.00067328482477193663 0.026563313654285027 0 -0.0011935015972920732 0.026409347112814677 0 -0.00067328482477193663 0.026563313654285027 0 -1.4008137000534239e-05 0.02682198198698044 0 -0.00054488960958037371 0.027464269939747175 0 -1.4008137000534239e-05 0.02682198198698044 0 -2.5653134212762774e-05 0.027534339168097367 0 -0.00054488960958037371 0.027464269939747175 0 -0.00067328482477193663 0.026563313654285027 0 -0.00076557103806474205 0.025799057986660493 0 6.5565998392974373e-05 0.025685429749481219 0 -0.00067328482477193663 0.026563313654285027 0 6.5565998392974373e-05 0.025685429749481219 0 -1.4008137000534239e-05 0.02682198198698044 0 -0.00051876963750099739 0.025532873683733623 0 7.5089241086214562e-05 0.025647275353721924 0 -0.0015563541289894565 0.025691093001200694 0 -0.0011935015972920732 0.026409347112814677 0 -0.00076557103806474205 0.025799057986660493 0 -0.00067328482477193663 0.026563313654285027 0 -0.0011935015972920732 0.026409347112814677 0 -0.00076557103806474205 0.025799057986660493 0 -0.0014964622512619083 0.02472523527361634 0 -0.00028075674441347483 0.025112464019229563 0 -3.0418367323953222e-06 0.022253546164101318 0 -0.0010071482519807831 0.022559574130176122 0 -0.00051876963750099739 0.025532873683733623 0 -0.00028075674441347483 0.025112464019229563 0 7.9519597063140813e-05 0.024391037639506799 0 6.5565998392974373e-05 0.025685429749481219 0 7.9519597063140813e-05 0.024391037639506799 0 -3.0418367323953222e-06 0.022253546164101318 0 1.6047635487825737e-06 0.02422094823241993 0 -0.00028075674441347483 0.025112464019229563 0 7.9519597063140813e-05 0.024391037639506799 0 -3.0418367323953222e-06 0.022253546164101318 0 -2.7713974166033679e-05 0.02094484232135416 0 -0.00018893770858758419 0.019562048981700293 0 -1.4500138055992742e-06 0.022247099400569997 0 -0.0010071482519807831 0.022559574130176122 0 -1.3292188353172208e-08 0.022248887712107979 0 0.00024737479742788118 0.02556885524541759 0 -4.9167682708515561e-07 0.02619218988354672 0 1.6047635487825737e-06 0.02422094823241993 0 0.00024737479742788118 0.02556885524541759 0 -4.9167682708515561e-07 0.02619218988354672 0 -0.00032159255787937951 0.025991948998782391 0 0.00024737479742788118 0.02556885524541759 0 1.6047635487825737e-06 0.02422094823241993 0 0.00025361689632864311 0.024960003190091683 0 7.9519597063140813e-05 0.024391037639506799 0 1.6047635487825737e-06 0.02422094823241993 0 0.00025361689632864311 0.024960003190091683 0 7.9519597063140813e-05 0.024391037639506799 0 0.00025361689632864311 0.024960003190091683 0 6.5565998392974373e-05 0.025685429749481219 0 0.00025361689632864311 0.024960003190091683 0 0.00049488572232561461 0.02535137371324795 0 6.5565998392974373e-05 0.025685429749481219 0 0.00024737479742788118 0.02556885524541759 0 0.00049488572232561461 0.02535137371324795 0 -0.00025381909742526058 0.025598331543371572 0 0.00049488572232561461 0.02535137371324795 0 -0.00014380587850664365 0.025048778335087982 0 -0.00025381909742526058 0.025598331543371572 0 0.00024737479742788118 0.02556885524541759 0 0.00025361689632864311 0.024960003190091683 0 0.00049488572232561461 0.02535137371324795 0 0.00058992099541823955 0.025429195793943069 0 0.00040317728424711679 0.02531304994807251 0 0.00049488572232561461 0.02535137371324795 0 0.00058671267451075506 0.026291852571308089 0 0.0013703078904191578 0.025889330972503864 0 0.00058671267451075506 0.026291852571308089 0 0.0012592787029576014 0.026933258497636364 0 0.0013703078904191578 0.025889330972503864 0 0.00058671267451075506 0.026291852571308089 0 6.5565998392974373e-05 0.025685429749481219 0 -1.4008137000534239e-05 0.02682198198698044 0 0.00049488572232561461 0.02535137371324795 0 0.00058671267451075506 0.026291852571308089 0 6.5565998392974373e-05 0.025685429749481219 0 0.00058671267451075506 0.026291852571308089 0 -1.4008137000534239e-05 0.02682198198698044 0 0.00052161013905637258 0.027183884298482602 0 -1.4008137000534239e-05 0.02682198198698044 0 0.00052161013905637258 0.027183884298482602 0 -2.5653134212762774e-05 0.027534339168097367 0 0.00052161013905637258 0.027183884298482602 0 0.00091534510509152351 0.027942243161066568 0 0.0012592787029576014 0.026933258497636364 0 0.00058671267451075506 0.026291852571308089 0 0.00052161013905637258 0.027183884298482602 0 0.0012592787029576014 0.026933258497636364 0 0.00052161013905637258 0.027183884298482602 0 0.00091534510509152351 0.027942243161066568 0 0.00032335870353181759 0.027914868806051107 0 0.00091534510509152351 0.027942243161066568 0 0.0003945889585815115 0.028677843425220669 0 0.00032335870353181759 0.027914868806051107 0 0.00091534510509152351 0.027942243161066568 0 0.0003945889585815115 0.028677843425220669 0 0.0009170803266661862 0.028879939886253488 0 0.0003945889585815115 0.028677843425220669 0 0.0009170803266661862 0.028879939886253488 0 0.00040387971957233228 0.029421431965538179 0 0.0003945889585815115 0.028677843425220669 0 -0.00017741141060999074 0.028203299408990832 0 -0.0001014312949251163 0.028987822653342113 0 0.0003945889585815115 0.028677843425220669 0 0.00040387971957233228 0.029421431965538179 0 -0.0001014312949251163 0.028987822653342113 0 -0.00017741141060999074 0.028203299408990832 0 0.00032335870353181759 0.027914868806051107 0 -2.5653134212762774e-05 0.027534339168097367 0 0.0003945889585815115 0.028677843425220669 0 -0.00017741141060999074 0.028203299408990832 0 0.00032335870353181759 0.027914868806051107 0 0.00052161013905637258 0.027183884298482602 0 0.00032335870353181759 0.027914868806051107 0 -2.5653134212762774e-05 0.027534339168097367 0 -0.00017741141060999074 0.028203299408990832 0 -0.00054488960958037371 0.027464269939747175 0 -0.00070728200998949995 0.028223939637271708 0 -0.00017741141060999074 0.028203299408990832 0 -2.5653134212762774e-05 0.027534339168097367 0 -0.00054488960958037371 0.027464269939747175 0 -0.0011519260410975331 0.027074114194928802 0 -0.00054488960958037371 0.027464269939747175 0 -0.0010875456369416221 0.02778570507958756 0 -0.00054488960958037371 0.027464269939747175 0 -0.0010875456369416221 0.02778570507958756 0 -0.00070728200998949995 0.028223939637271708 0 -0.0010875456369416221 0.02778570507958756 0 -0.0010800295615522248 0.028313085267946445 0 -0.00070728200998949995 0.028223939637271708 0 -0.0012829960917772442 0.028562539854874315 0 -0.0010800295615522248 0.028313085267946445 0 -0.00084612143463377225 0.028745222617155706 0 -0.0010800295615522248 0.028313085267946445 0 -0.00070728200998949995 0.028223939637271708 0 -0.00084612143463377225 0.028745222617155706 0 -0.00070728200998949995 0.028223939637271708 0 -0.00084612143463377225 0.028745222617155706 0 -0.00053225485720457882 0.028784263709053442 0 -0.00017741141060999074 0.028203299408990832 0 -0.00053225485720457882 0.028784263709053442 0 -0.0001014312949251163 0.028987822653342113 0 -0.00017741141060999074 0.028203299408990832 0 -0.00070728200998949995 0.028223939637271708 0 -0.00053225485720457882 0.028784263709053442 0 -0.00053225485720457882 0.028784263709053442 0 -0.00051060463754811316 0.029232565474967293 0 -0.0001014312949251163 0.028987822653342113 0 -0.00053225485720457882 0.028784263709053442 0 -0.00051060463754811316 0.029232565474967293 0 -0.0007503775250903038 0.029116877414079645 0 -0.00051060463754811316 0.029232565474967293 0 -0.00017708970137566901 0.029433260871536696 0 -0.0001014312949251163 0.028987822653342113 0 -0.00097400545507256308 0.029051904203260086 0 -0.00084612143463377225 0.028745222617155706 0 -0.0007503775250903038 0.029116877414079645 0 -0.00084612143463377225 0.028745222617155706 0 -0.00053225485720457882 0.028784263709053442 0 -0.0007503775250903038 0.029116877414079645 0 -0.00051060463754811316 0.029232565474967293 0 -0.0007503775250903038 0.029116877414079645 0 -0.0007227243544525951 0.029378035029168043 0 -0.00097400545507256308 0.029051904203260086 0 -0.0007503775250903038 0.029116877414079645 0 -0.00084348425189938897 0.029319788233076457 0 -0.0007503775250903038 0.029116877414079645 0 -0.00084348425189938897 0.029319788233076457 0 -0.0007227243544525951 0.029378035029168043 0 -0.00077314610816838565 0.029344903996406685 0 -0.00084348425189938897 0.029319788233076457 0 -0.0007227243544525951 0.029378035029168043 0 -0.00074486242384271353 0.029433606829036767 0 -0.0007227243544525951 0.029378035029168043 0 -0.00054142278165322192 0.029524048168523415 0 -0.00051060463754811316 0.029232565474967293 0 -0.00054142278165322192 0.029524048168523415 0 -0.00017708970137566901 0.029433260871536696 0 -0.00051060463754811316 0.029232565474967293 0 -0.0007227243544525951 0.029378035029168043 0 -0.00054142278165322192 0.029524048168523415 0 -0.00054142278165322192 0.029524048168523415 0 -0.00020745029858554821 0.029656618506922614 0 -0.00017708970137566901 0.029433260871536696 0 -0.0006149415332943537 0.029737557978549198 0 -0.00054142278165322192 0.029524048168523415 0 -0.00020745029858554821 0.029656618506922614 0 -0.00020745029858554821 0.029656618506922614 0 -0.00017708970137566901 0.029433260871536696 0 0.00015412521226943762 0.029703090466855753 0 0.00015415528149940148 0.029900866690568267 0 -0.00020745029858554821 0.029656618506922614 0 0.00015412521226943762 0.029703090466855753 0 0.00015415528149940148 0.029900866690568267 0 0.00015412521226943762 0.029703090466855753 0 0.00057925809476578379 0.029968495441925775 0 0.00015412521226943762 0.029703090466855753 0 0.00057925809476578379 0.029968495441925775 0 0.00040387971957233228 0.029421431965538179 0 0.00057925809476578379 0.029968495441925775 0 0.00040387971957233228 0.029421431965538179 0 0.0013096290986498449 0.030070659841913056 0 0.0009170803266661862 0.028879939886253488 0 0.00040387971957233228 0.029421431965538179 0 0.0013096290986498449 0.030070659841913056 0 -0.00017708970137566901 0.029433260871536696 0 0.00015412521226943762 0.029703090466855753 0 0.00040387971957233228 0.029421431965538179 0 -0.00017708970137566901 0.029433260871536696 0 0.00040387971957233228 0.029421431965538179 0 -0.0001014312949251163 0.028987822653342113 0 0.0011755415016948118 0.030573727291242497 0 0.0013096290986498449 0.030070659841913056 0 0.0010657464354094199 0.030799303130506051 0 0.00087173823686868769 0.030358105156116401 0 0.00058077330775925832 0.029985778639369579 0 0.001207759520330256 0.030621967168512242 0 0.00057925809476578379 0.029968495441925775 0 0.0013096290986498449 0.030070659841913056 0 0.001207759520330256 0.030621967168512242 0 0.0011755415016948118 0.030573727291242497 0 0.0011141395448970145 0.030744627724927316 0 0.001207759520330256 0.030621967168512242 0 0.0011755415016948118 0.030573727291242497 0 0.0013096290986498449 0.030070659841913056 0 0.0011141395448970145 0.030744627724927316 0 0.00084471037931663922 0.031158949129295586 0 0.00097069316219501871 0.031105933641413442 0 0.00087878017692582394 0.03068143591230028 0 0.0011141395448970145 0.030744627724927316 0 0.00084471037931663922 0.031158949129295586 0 0.00084471037931663922 0.031158949129295586 0 0.00085168326517564316 0.031606014814193124 0 0.00097069316219501871 0.031105933641413442 0 0.0011755415016948118 0.030573727291242497 0 0.0011141395448970145 0.030744627724927316 0 0.00097069316219501871 0.031105933641413442 0 0.0011755415016948118 0.030573727291242497 0 0.00097069316219501871 0.031105933641413442 0 0.0010657464354094199 0.030799303130506051 0 0.00097069316219501871 0.031105933641413442 0 0.00072407422555589699 0.031552879575265327 0 0.00085049194948599329 0.03126799873229702 0 0.00097069316219501871 0.031105933641413442 0 0.00085049194948599329 0.03126799873229702 0 0.0010657464354094199 0.030799303130506051 0 0.00085168326517564316 0.031606014814193124 0 0.00097069316219501871 0.031105933641413442 0 0.00072407422555589699 0.031552879575265327 0 0.00072407422555589699 0.031552879575265327 0 0.00054532080763954429 0.031348958954038365 0 0.00085049194948599329 0.03126799873229702 0 0.00085168326517564316 0.031606014814193124 0 0.00072407422555589699 0.031552879575265327 0 0.00094848360492236477 0.032189303609309119 0 0.00072407422555589699 0.031552879575265327 0 0.0008014192672117016 0.031538013134751984 0 0.00094848360492236477 0.032189303609309119 0 0.00054532080763954429 0.031348958954038365 0 0.00030369819089097385 0.030505844890116138 0 0.00080028807114747823 0.030820006942178218 0 0.00072407422555589699 0.031552879575265327 0 0.00054532080763954429 0.031348958954038365 0 0.0008014192672117016 0.031538013134751984 0 0.00046847606359388906 0.031254839220648895 0 0.00028626283083429011 0.031445073332638719 0 0.00054532080763954429 0.031348958954038365 0 0.00085049194948599329 0.03126799873229702 0 0.00088461834860511558 0.031604496357828235 0 0.00085049194948599329 0.03126799873229702 0 0.0013659501927086105 0.031323088007401211 0 0.00088461834860511558 0.031604496357828235 0 0.00085049194948599329 0.03126799873229702 0 0.0010657464354094199 0.030799303130506051 0 0.0013659501927086105 0.031323088007401211 0 0.0013096290986498449 0.030070659841913056 0 0.0010657464354094199 0.030799303130506051 0 0.0013659501927086105 0.031323088007401211 0 0.0013227449647418899 0.029982370132200665 0 0.0018107383417835998 0.029823804974944836 0 0.0009170803266661862 0.028879939886253488 0 0.0013096290986498449 0.030070659841913056 0 0.0019502956543938532 0.028018559633402624 0 0.00091534510509152351 0.027942243161066568 0 0.0009170803266661862 0.028879939886253488 0 0.0019502956543938532 0.028018559633402624 0 0.00091534510509152351 0.027942243161066568 0 0.0019502956543938532 0.028018559633402624 0 0.0012592787029576014 0.026933258497636364 0 0.0019502956543938532 0.028018559633402624 0 0.0012592787029576014 0.026933258497636364 0 0.0021552903785752348 0.02644634100136254 0 0.0013659501927086105 0.031323088007401211 0 0.0012562750796980637 0.031820601491156508 0 0.00088461834860511558 0.031604496357828235 0 0.0018107383417835998 0.029823804974944836 0 0.00030190447140985286 0.02838487951041109 0 -0.0016013759052685072 0.029974089392545533 0 -0.00080198434610432591 0.029632432873648862 0 -0.00044642647103873925 0.030681270391341581 0 0.00030190447140985286 0.02838487951041109 0 0.00028626283083429011 0.031445073332638719 0 -0.0016013759052685072 0.029974089392545533 0 -0.00080198434610432591 0.029632432873648862 0 -0.0016015253669672107 0.028878902448986481 0 0.00030190447140985286 0.02838487951041109 0 -0.0012300998634418663 0.026969123584429579 0 -0.00080198434610432591 0.029632432873648862 0 -0.0016015253669672107 0.028878902448986481 0 -0.00064947628926414959 0.028680812118201476 0 -0.00098101313681124352 0.024493787481644807 0 -0.00014380587850664365 0.025048778335087982 0 -0.0011123413492922076 0.025343674199633227 0 0.0012592787029576014 0.026933258497636364 0 0.0021552903785752348 0.02644634100136254 0 0.0013703078904191578 0.025889330972503864 0 0.00030190447140985286 0.02838487951041109 0 0.00040317728424711679 0.02531304994807251 0 -0.00014380587850664365 0.025048778335087982 0 -0.00025381909742526058 0.025598331543371572 0 -0.0011123413492922076 0.025343674199633227 0 0.00024737479742788118 0.02556885524541759 0 -0.00025381909742526058 0.025598331543371572 0 -0.00032159255787937951 0.025991948998782391 0 -0.00025381909742526058 0.025598331543371572 0 -0.00065721684489436049 0.026129794712257112 0 -0.00032159255787937951 0.025991948998782391 0 -0.00025381909742526058 0.025598331543371572 0 -0.00065721684489436049 0.026129794712257112 0 -0.0011123413492922076 0.025343674199633227 0 -0.00064947628926414959 0.028680812118201476 0 -0.0011937373854748242 0.026983856838391058 0 -0.00013042291896222627 0.028107533904418509 0 -0.0016015253669672107 0.028878902448986481 0 -0.00064947628926414959 0.028680812118201476 0 -0.0011937373854748242 0.026983856838391058 0 -0.0012300998634418663 0.026969123584429579 0 -0.0012501595780744659 0.027050371394509692 0 -0.00065721684489436049 0.026129794712257112 0 -0.0011123413492922076 0.025343674199633227 0 -0.0011937373854748242 0.026983856838391058 0 -0.00050612471255300807 0.027317552427204649 0 -2.9380490750572564e-05 0.028662728836773708 0 -0.0011937373854748242 0.026983856838391058 0 -0.0011476800905446324 0.026637529119786382 0 -0.00073240921116621001 0.026354924427528927 0 -2.0344207060756278e-07 0.027982482406940273 0 -4.7932731863679897e-05 0.027953887031250162 0 0.00012047556389403551 0.029306331299473864 0 -0.0011937373854748242 0.026983856838391058 0 -0.0011476800905446324 0.026637529119786382 0 -0.00013042291896222627 0.028107533904418509 0 -1.8778774218920782e-07 0.026193531513815607 0 -2.0344207060756278e-07 0.027982482406940273 0 -4.7932731863679897e-05 0.027953887031250162 0 -4.9167682708515561e-07 0.02619218988354672 0 -0.0011476800905446324 0.026637529119786382 0 -0.00073240921116621001 0.026354924427528927 0 -1.3039464730581279e-07 0.026193314013924381 0 -0.00050612471255300807 0.027317552427204649 0 -4.9167682708515561e-07 0.02619218988354672 0 -0.00032159255787937951 0.025991948998782391 0 -0.00073240921116621001 0.026354924427528927 0 -0.00065721684489436049 0.026129794712257112 0 -0.0011937373854748242 0.026983856838391058 0 -0.00073240921116621001 0.026354924427528927 0 -0.00065721684489436049 0.026129794712257112 0 -0.00032159255787937951 0.025991948998782391 0 -0.00073240921116621001 0.026354924427528927 0 1.1894206662729231e-06 0.029772513015185006 0 0.00049200033985464207 0.029671818110488694 0 -7.9268357779122891e-07 0.031557008877123746 0 1.1894206662729231e-06 0.029772513015185006 0 0.00012047556389403551 0.029306331299473864 0 0.00049200033985464207 0.029671818110488694 0 -2.0344207060756278e-07 0.027982482406940273 0 1.1894206662729231e-06 0.029772513015185006 0 0.00012047556389403551 0.029306331299473864 0 -0.00064947628926414959 0.028680812118201476 0 -0.00013042291896222627 0.028107533904418509 0 5.9829326033312116e-05 0.029617335025407591 0 -2.9380490750572564e-05 0.028662728836773708 0 0.00042967677494101629 0.029465378297914475 0 -0.00013042291896222627 0.028107533904418509 0 0.00049200033985464207 0.029671818110488694 0 5.9829326033312116e-05 0.029617335025407591 0 0.00049200033985464207 0.029671818110488694 0 5.9829326033312116e-05 0.029617335025407591 0 0.00050488298957664861 0.029775972415046238 0 0.00049041705297170064 0.030149603647111493 0 5.9829326033312116e-05 0.029617335025407591 0 0.00030369819089097385 0.030505844890116138 0 0.00049041705297170064 0.030149603647111493 0 5.9829326033312116e-05 0.029617335025407591 0 0.00050488298957664861 0.029775972415046238 0 -0.00080198434610432591 0.029632432873648862 0 5.9829326033312116e-05 0.029617335025407591 0 -0.00044642647103873925 0.030681270391341581 0 -0.00080198434610432591 0.029632432873648862 0 -0.00064947628926414959 0.028680812118201476 0 5.9829326033312116e-05 0.029617335025407591 0 5.9829326033312116e-05 0.029617335025407591 0 -0.00044642647103873925 0.030681270391341581 0 0.00030369819089097385 0.030505844890116138 0 0.00054532080763954429 0.031348958954038365 0 -0.00044642647103873925 0.030681270391341581 0 0.00030369819089097385 0.030505844890116138 0 0.00049041705297170064 0.030149603647111493 0 0.00030369819089097385 0.030505844890116138 0 0.00080028807114747823 0.030820006942178218 0 1.0396386520454929e-06 0.034996609589848744 0 -7.2134866907800954e-05 0.034591290405291901 0 -3.9312454080125931e-07 0.034998944858681671 0 0.00080028807114747823 0.030820006942178218 0 0.0013273173610587892 0.03064527954784951 0 0.00072135781789189933 0.030145546437491365 0 0.00049041705297170064 0.030149603647111493 0 0.00080028807114747823 0.030820006942178218 0 0.00072135781789189933 0.030145546437491365 0 0.00011142442330777594 0.034425707707265225 0 -7.2134866907800954e-05 0.034591290405291901 0 6.7829538797983555e-05 0.034137393882551971 0 0.00011142442330777594 0.034425707707265225 0 -6.441672572637323e-05 0.034537117368931919 0 -7.2134866907800954e-05 0.034591290405291901 0 0.00025795581701855652 0.033392219642025614 0 -0.0001264281809831297 0.034520338030408729 0 -0.0002796769163102104 0.034485657872883518 0 -0.0004490249688136361 0.034002480967559534 0 -2.2036712978267165e-05 0.034028725938596419 0 0.00025795581701855652 0.033392219642025614 0 5.051542210124448e-05 0.031717160524626434 0 0.00072135781789189933 0.030145546437491365 0 0.00050488298957664861 0.029775972415046238 0 0.00039888647909301162 0.029651388513519603 0 0.0013273173610587892 0.03064527954784951 0 0.00072135781789189933 0.030145546437491365 0 0.00039888647909301162 0.029651388513519603 0 0.00049041705297170064 0.030149603647111493 0 0.00072135781789189933 0.030145546437491365 0 0.00050488298957664861 0.029775972415046238 0 0.00049200033985464207 0.029671818110488694 0 0.00050488298957664861 0.029775972415046238 0 0.00039888647909301162 0.029651388513519603 0 0.00049200033985464207 0.029671818110488694 0 0.00039888647909301162 0.029651388513519603 0 -7.9268357779122891e-07 0.031557008877123746 0 1.0304451197880659e-05 0.033733499385895975 0 -1.8508530542916291e-06 0.031567076433097738 0 3.7532697382459126e-05 0.034370138905259598 0 1.0304451197880659e-05 0.033733499385895975 0 -0.0004490249688136361 0.034002480967559534 0 -2.2036712978267165e-05 0.034028725938596419 0 1.0304451197880659e-05 0.033733499385895975 0 -0.0004490249688136361 0.034002480967559534 0 -1.8508530542916291e-06 0.031567076433097738 0 5.051542210124448e-05 0.031717160524626434 0 -1.1043115831964422e-08 0.031561683555714259 0 1.0396386520454929e-06 0.034996609589848744 0 3.7532697382459126e-05 0.034370138905259598 0 -7.2134866907800954e-05 0.034591290405291901 0 -1.8508530542916291e-06 0.031567076433097738 0 1.0396386520454929e-06 0.034996609589848744 0 3.7532697382459126e-05 0.034370138905259598 0 6.8562962336182352e-05 0.034250341729060239 0 -0.0001264281809831297 0.034520338030408729 0 1.0304451197880659e-05 0.033733499385895975 0 3.7532697382459126e-05 0.034370138905259598 0 -2.2036712978267165e-05 0.034028725938596419 0 3.7532697382459126e-05 0.034370138905259598 0 -6.441672572637323e-05 0.034537117368931919 0 -7.2134866907800954e-05 0.034591290405291901 0 -7.2134866907800954e-05 0.034591290405291901 0 -0.00027372307495104485 0.034246716429497989 0 -3.9312454080125931e-07 0.034998944858681671 0 -7.2134866907800954e-05 0.034591290405291901 0 -0.00027372307495104485 0.034246716429497989 0 6.7829538797983555e-05 0.034137393882551971 0 0.00025795581701855652 0.033392219642025614 0 0.00094553857048594917 0.032581972747483284 0 0.00018685704163301449 0.035061033460791445 0 6.7829538797983555e-05 0.034137393882551971 0 0.00072190721616947418 0.034067094272766205 0 0.00025795581701855652 0.033392219642025614 0 0.00016352669187969806 0.034573827391849693 0 6.7829538797983555e-05 0.034137393882551971 0 0.00072190721616947418 0.034067094272766205 0 0.00027611187924267563 0.033419958249810727 0 0.00080028807114747823 0.030820006942178218 0 0.0013273173610587892 0.03064527954784951 0 0.0012038793347871339 0.031324415696281104 0 0.00054532080763954429 0.031348958954038365 0 0.00080028807114747823 0.030820006942178218 0 0.0008014192672117016 0.031538013134751984 0 0.00080028807114747823 0.030820006942178218 0 0.0012038793347871339 0.031324415696281104 0 0.0008014192672117016 0.031538013134751984 0 0.0012038793347871339 0.031324415696281104 0 0.0008014192672117016 0.031538013134751984 0 0.00094848360492236477 0.032189303609309119 0 0.00094553857048594917 0.032581972747483284 0 0.00094384631693648143 0.032387774254936288 0 0.00072190721616947418 0.034067094272766205 0 0.00094848360492236477 0.032189303609309119 0 0.00027611187924267563 0.033419958249810727 0 0.00094848360492236477 0.032189303609309119 0 0.00033499762523664904 0.032628071519814707 0 0.00067645188492692601 0.031813926912041095 0 0.00094848360492236477 0.032189303609309119 0 0.00027611187924267563 0.033419958249810727 0 0.00033499762523664904 0.032628071519814707 0 -0.00027372307495104485 0.034246716429497989 0 0.00027611187924267563 0.033419958249810727 0 0.00033499762523664904 0.032628071519814707 0 -0.00027372307495104485 0.034246716429497989 0 6.7829538797983555e-05 0.034137393882551971 0 0.00027611187924267563 0.033419958249810727 0 0.00033499762523664904 0.032628071519814707 0 0.00067645188492692601 0.031813926912041095 0 -6.8200967678896409e-05 0.031402583116974601 0 -0.00028177175479915232 0.034135270904489902 0 -9.4970442422154407e-05 0.033142535015060967 0 -0.00027372307495104485 0.034246716429497989 0 0.00033499762523664904 0.032628071519814707 0 -6.8200967678896409e-05 0.031402583116974601 0 0.00084471037931663922 0.031158949129295586 0 0.00067645188492692601 0.031813926912041095 0 -6.8200967678896409e-05 0.031402583116974601 0 0.00084471037931663922 0.031158949129295586 0 0.00085168326517564316 0.031606014814193124 0 0.00067645188492692601 0.031813926912041095 0 0.00085168326517564316 0.031606014814193124 0 0.00094848360492236477 0.032189303609309119 0 0.00067645188492692601 0.031813926912041095 0 0.00037057161789330758 0.030592654760817392 0 0.00084471037931663922 0.031158949129295586 0 -6.8200967678896409e-05 0.031402583116974601 0 0.00014025355246031853 0.032868236552102283 0 -9.4970442422154407e-05 0.033142535015060967 0 -0.00027372307495104485 0.034246716429497989 0 -0.00019932763611780872 0.03489194398927601 0 -3.9312454080125931e-07 0.034998944858681671 0 -5.2809771796585309e-05 0.034984935899710315 0 -0.00019932763611780872 0.03489194398927601 0 -3.9312454080125931e-07 0.034998944858681671 0 -0.00054328080989681957 0.0057994574009949361 0 -0.00032827277305227763 0.0056896483036006111 0 -0.00042739300537558429 0.0054683742926566452 0 -0.00023164751185241988 0.0051594578362622011 0 -0.00021198042421820252 0.0050163029300839797 0 7.3667488573632219e-05 0.0043296448724038658 0 -2.175581583406322e-05 0.0045787714717024745 0 0.00016505593790952435 0.0044885148400920036 0 -0.00054328080989681957 0.0057994574009949361 0 -0.00038019303949147571 0.0058859156902199969 0 -0.00032827277305227763 0.0056896483036006111 0 0.00024452278823441345 0.0042504926225446901 0 0.00033454760184679862 0.004571193490960716 0 0.00023359554356342202 0.0043266505624179868 0 0.00016505593790952435 0.0044885148400920036 0 0.00035171731045841303 0.0045699863432768391 0 7.3667488573632219e-05 0.0043296448724038658 0 0.00023359554356342202 0.0043266505624179868 0 0.00016505593790952435 0.0044885148400920036 0 0.00024452278823441345 0.0042504926225446901 0 -0.00056314628279004273 0.0045421987825660544 0 0.00018572476623452563 0.0043054717141706531 0 5.0997943662795542e-05 0.0040227559902402867 0 3.7658512577262989e-06 0.0039558700256119373 0 7.3667488573632219e-05 0.0043296448724038658 0 0.00023359554356342202 0.0043266505624179868 0 0.00012913463310572414 0.0041096265446945515 0 0.00018572476623452563 0.0043054717141706531 0 5.0997943662795542e-05 0.0040227559902402867 0 0.00029520713668446683 0.0041077169978726508 0 0.00037818616834225434 0.0039803790685720361 0 -0.00038452150222285898 0.0028173280047526449 0 5.0997943662795542e-05 0.0040227559902402867 0 0.00025243901285318469 0.0040766984674626512 0 3.1549784509290652e-05 0.003863267843481677 0 -0.00023164751185241988 0.0051594578362622011 0 -0.00056314628279004273 0.0045421987825660544 0 -0.00054328080989681957 0.0057994574009949361 0 -0.00045437315674948161 0.0060215103045045239 0 -0.00061375930698963127 0.0060806735678152436 0 -0.00054328080989681957 0.0057994574009949361 0 -0.00045437315674948161 0.0060215103045045239 0 -0.00038019303949147571 0.0058859156902199969 0 -0.00045437315674948161 0.0060215103045045239 0 -0.00028921714521955294 0.0060312350767442839 0 -0.00038019303949147571 0.0058859156902199969 0 -0.00028921714521955294 0.0060312350767442839 0 -0.00024775923252795675 0.0058646731973068765 0 -5.6022287160671415e-05 0.0059515634187945129 0 -0.00028921714521955294 0.0060312350767442839 0 -0.00024775923252795675 0.0058646731973068765 0 -0.00038019303949147571 0.0058859156902199969 0 -0.00028921714521955294 0.0060312350767442839 0 -5.6022287160671415e-05 0.0059515634187945129 0 -0.00012192964642620318 0.0062110268309291394 0 -5.6022287160671415e-05 0.0059515634187945129 0 2.1310274097589456e-06 0.0057000231400621158 0 -0.00015468633172214686 0.0057102693537329973 0 -5.6022287160671415e-05 0.0059515634187945129 0 2.1310274097589456e-06 0.0057000231400621158 0 8.0614945929637338e-05 0.0058719773952668223 0 -0.00024775923252795675 0.0058646731973068765 0 -5.6022287160671415e-05 0.0059515634187945129 0 -0.00015468633172214686 0.0057102693537329973 0 -0.00024775923252795675 0.0058646731973068765 0 -0.00038019303949147571 0.0058859156902199969 0 -0.00032827277305227763 0.0056896483036006111 0 -0.00024775923252795675 0.0058646731973068765 0 -0.00015468633172214686 0.0057102693537329973 0 -0.00032827277305227763 0.0056896483036006111 0 -0.00015468633172214686 0.0057102693537329973 0 -0.00032827277305227763 0.0056896483036006111 0 -0.00015828550347285323 0.0054404001824627356 0 -0.00032827277305227763 0.0056896483036006111 0 -0.00015828550347285323 0.0054404001824627356 0 -0.00042739300537558429 0.0054683742926566452 0 2.1310274097589456e-06 0.0057000231400621158 0 -0.00015828550347285323 0.0054404001824627356 0 -5.3746918997798157e-06 0.0054391918917060739 0 2.1310274097589456e-06 0.0057000231400621158 0 -0.00015468633172214686 0.0057102693537329973 0 -0.00015828550347285323 0.0054404001824627356 0 -0.00015828550347285323 0.0054404001824627356 0 -0.00017361502370592176 0.0051645690110875284 0 -5.3746918997798157e-06 0.0054391918917060739 0 -0.00017361502370592176 0.0051645690110875284 0 -5.3746918997798157e-06 0.0054391918917060739 0 -0.00021742286896252812 0.0051770784814653319 0 -0.00015828550347285323 0.0054404001824627356 0 -0.00014154508887953516 0.0050385793514100092 0 -0.00042739300537558429 0.0054683742926566452 0 -0.00015828550347285323 0.0054404001824627356 0 -0.00017361502370592176 0.0051645690110875284 0 -0.00014154508887953516 0.0050385793514100092 0 -0.00016787628426485069 0.0050507013673087619 0 -0.00021198042421820252 0.0050163029300839797 0 -0.00014154508887953516 0.0050385793514100092 0 0.00021612726947373251 0.0047410628438802884 0 0.00033086986914100734 0.0049602342705614361 0 -0.00014154508887953516 0.0050385793514100092 0 -2.175581583406322e-05 0.0045787714717024745 0 0.00021612726947373251 0.0047410628438802884 0 -2.175581583406322e-05 0.0045787714717024745 0 0.00016505593790952435 0.0044885148400920036 0 0.00021612726947373251 0.0047410628438802884 0 0.00016505593790952435 0.0044885148400920036 0 0.00021612726947373251 0.0047410628438802884 0 0.00035171731045841303 0.0045699863432768391 0 0.00021612726947373251 0.0047410628438802884 0 0.00043326243916399387 0.0047595456357489626 0 0.00035171731045841303 0.0045699863432768391 0 0.00021612726947373251 0.0047410628438802884 0 0.00043326243916399387 0.0047595456357489626 0 0.00033086986914100734 0.0049602342705614361 0 0.00043326243916399387 0.0047595456357489626 0 0.00051268038989223542 0.0046177814340300823 0 0.00035171731045841303 0.0045699863432768391 0 0.00043326243916399387 0.0047595456357489626 0 0.00051268038989223542 0.0046177814340300823 0 0.00056624047123783334 0.004685079255264713 0 0.00051268038989223542 0.0046177814340300823 0 0.00061282670472854745 0.0045804950749232017 0 0.00056624047123783334 0.004685079255264713 0 0.00051268038989223542 0.0046177814340300823 0 0.00061282670472854745 0.0045804950749232017 0 0.00052807203964458425 0.0043865554129785822 0 0.00051268038989223542 0.0046177814340300823 0 0.00035171731045841303 0.0045699863432768391 0 0.00052807203964458425 0.0043865554129785822 0 -0.00058365955335074689 0.0021271612544893838 0 -0.00058563894564094378 0.0020866218080107649 0 -0.00054719113712616214 0.0020809351897315121 0 0.00061282670472854745 0.0045804950749232017 0 0.00060982398252312948 0.0046031206785453896 0 0.00056624047123783334 0.004685079255264713 0 0.00057300417028468718 0.0046212117391820828 0 0.00061282670472854745 0.0045804950749232017 0 0.00060982398252312948 0.0046031206785453896 0 1.7593625970322213e-05 0.0034868026643241012 0 -2.6416442206699748e-05 0.0032963591351834525 0 -0.0020383301494218539 -0.00016732163184619625 0 -0.0018025309995593852 -0.00042184378663236871 0 -0.001715480519931713 0.00010264954382351131 0 -0.00058365955335074689 0.0021271612544893838 0 -0.00061632174099089557 0.0020807348865304089 0 -0.00058563894564094378 0.0020866218080107649 0 -0.00061632174099089557 0.0020807348865304089 0 -0.00058563894564094378 0.0020866218080107649 0 -0.00058531666106264517 0.0020604526013421093 0 -0.00090496682349518848 0.00079857523120492797 0 -0.0015385551244552862 0.00027035031484479958 0 -0.0015751971469794039 4.8856945501535729e-05 0 -0.0010215650567418661 0.0010274047378748181 0 -0.0012743903926125929 8.8314900238617154e-05 0 -0.0010215650567418661 0.0010274047378748181 0 -0.0016863086307583746 -3.8965260423050113e-05 0 -0.00058563894564094378 0.0020866218080107649 0 -0.00058531666106264517 0.0020604526013421093 0 -0.00054719113712616214 0.0020809351897315121 0 -0.0026442086817435088 -0.0011587346202741953 0 -0.0025638480075924363 -0.00079476399353324307 0 -0.0030121137140981685 -0.0018496332851690154 0 -0.0030028964574630649 -0.0018524369032368864 0 -0.0030108261088209183 -0.0018490876345097005 0 -0.0020383301494218539 -0.00016732163184619625 0 -0.0018025309995593852 -0.00042184378663236871 0 -0.0024318384117506218 -0.00060999616587202263 0 -0.0010215650567418661 0.0010274047378748181 0 -0.0025638480075924363 -0.00079476399353324307 0 -0.00116671294670125 0.00085410335271081134 0 -0.0018928498347106696 2.9631870603580806e-05 0 -0.0022787821157246786 -8.7311451648101058e-05 0 -0.0010215650567418661 0.0010274047378748181 0 -0.0018021924934680605 0.00035755053430784476 0 -0.00061632174099089557 0.0020807348865304089 0 -0.00058531666106264517 0.0020604526013421093 0 -0.00062160837448205968 0.0020518429358157161 0 -0.0025638480075924363 -0.00079476399353324307 0 -0.0018021924934680605 0.00035755053430784476 0 -0.0029938769216920338 -0.0018417074036725838 0 -0.0029969336086929032 -0.0018540587030964817 0 -0.0029979593020823315 -0.0018523642300369021 0 -0.0025638480075924363 -0.00079476399353324307 0 -0.0028858959636739539 -0.0012538604417695455 0 -0.0029969336086929032 -0.0018540587030964817 0 -0.0029927019291872913 -0.00185570373669592 0 -0.0030010101738649785 -0.001853544373953453 0 -0.0029927019291872913 -0.00185570373669592 0 -0.0030118483157150124 -0.0018509340447667637 0 -0.0030010101738649785 -0.001853544373953453 0 -0.0030118483157150124 -0.0018509340447667637 0 -0.0030010101738649785 -0.001853544373953453 0 -0.0030062984648874958 -0.0018515651825057177 0 -0.0030010101738649785 -0.001853544373953453 0 -0.0029979593020823315 -0.0018523642300369021 0 -0.0030062984648874958 -0.0018515651825057177 0 -0.0029969336086929032 -0.0018540587030964817 0 -0.0030010101738649785 -0.001853544373953453 0 -0.0029979593020823315 -0.0018523642300369021 0 -0.0030028964574630649 -0.0018524369032368864 0 -0.0029979593020823315 -0.0018523642300369021 0 -0.0030062984648874958 -0.0018515651825057177 0 -0.0030121137140981685 -0.0018496332851690154 0 -0.0030108261088209183 -0.0018490876345097005 0 -0.0030204932239199043 -0.0018431057405079347 0 -0.0026442086817435088 -0.0011587346202741953 0 -0.0031016268720845653 -0.0020508558894445704 0 -0.0030118483157150124 -0.0018509340447667637 0 -0.0030062984648874958 -0.0018515651825057177 0 -0.0030108261088209183 -0.0018490876345097005 0 -0.0030028964574630649 -0.0018524369032368864 0 -0.0030062984648874958 -0.0018515651825057177 0 -0.0030108261088209183 -0.0018490876345097005 0 -0.0030118483157150124 -0.0018509340447667637 0 -0.0030108261088209183 -0.0018490876345097005 0 -0.0030204932239199043 -0.0018431057405079347 0 0.00018572476623452563 0.0043054717141706531 0 0.00052807203964458425 0.0043865554129785822 0 0.00029520713668446683 0.0041077169978726508 0 0.00018572476623452563 0.0043054717141706531 0 0.00035171731045841303 0.0045699863432768391 0 0.00052807203964458425 0.0043865554129785822 0 -0.00061632174099089557 0.0020807348865304089 0 -0.00062160837448205968 0.0020518429358157161 0 -0.00062058350625045797 0.0020653828347085498 0 -0.00062160837448205968 0.0020518429358157161 0 -0.00062058350625045797 0.0020653828347085498 0 -0.00062075336236290589 0.0020717066549665983 0 -2.6416442206699748e-05 0.0032963591351834525 0 4.4583231970927479e-06 0.0032833610556415871 0 -0.0018021924934680605 0.00035755053430784476 0 -0.0012049795513581181 0.0014559582156358443 0 -0.002142557238386235 0.00074029079669732845 0 -0.0017256008862794275 0.00086948428292689471 0 -0.0017823476804378492 0.0010467015352296064 0 -0.0018021924934680605 0.00035755053430784476 0 -0.002525280282074281 -0.00050865004308028373 0 -0.0029969336086929032 -0.0018540587030964817 0 -0.0029927019291872913 -0.00185570373669592 0 -0.0029567133266480265 -0.0018571458081650058 0 -0.0017823476804378492 0.0010467015352296064 0 -0.0013018535773175696 0.0010040016416366909 0 -0.0014160274615601137 0.0013562559247561736 0 -0.0012049795513581181 0.0014559582156358443 0 -0.00038452150222285898 0.0028173280047526449 0 4.4583231970927479e-06 0.0032833610556415871 0 -0.00038452150222285898 0.0028173280047526449 0 -0.0017256008862794275 0.00086948428292689471 0 -0.0017823476804378492 0.0010467015352296064 0 -0.0013018535773175696 0.0010040016416366909 0 -0.00062058350625045797 0.0020653828347085498 0 -0.00062075336236290589 0.0020717066549665983 0 -0.00059271430797944332 0.0020859777148142114 0 -0.0018224901059058559 -0.00087588161704398558 0 -0.0015444427049968678 -0.0013040607129151719 0 -0.0011436786941447456 -0.00089077477256068415 0 -0.0018853683555672136 -0.00080956657533643773 0 -0.0022778718415987997 -0.0033552452581514383 0 -0.0015444427049968678 -0.0013040607129151719 0 -0.0011436786941447456 -0.00089077477256068415 0 -0.0014377597858710235 -0.0016926889848221396 0 -0.0028909428631246036 -0.0018240585077296837 0 -0.0029327970661659499 -0.001834176306399644 0 -0.0029328406887304996 -0.0018231074035959984 0 -0.002525280282074281 -0.00050865004308028373 0 -0.0018853683555672136 -0.00080956657533643773 0 -0.0029567133266480265 -0.0018571458081650058 0 -0.0028909428631246036 -0.0018240585077296837 0 -0.0029327970661659499 -0.001834176306399644 0 -0.0029927019291872913 -0.00185570373669592 0 -0.0029353674038989108 -0.0018271885064481599 0 -0.0030230410830811884 -0.0018589866572807016 0 -0.0022778718415987997 -0.0033552452581514383 0 -0.002207596303855257 -0.0047188390155820433 0 -0.0010643695252780623 -0.0072467010138900006 0 -0.0012798099079974316 -0.0070882058943661655 0 -0.0015258965971861401 -0.0072769155562441819 0 -0.0029927019291872913 -0.00185570373669592 0 -0.0029567133266480265 -0.0018571458081650058 0 -0.0029353674038989108 -0.0018271885064481599 0 -0.0029567133266480265 -0.0018571458081650058 0 -0.0029327970661659499 -0.001834176306399644 0 -0.0029353674038989108 -0.0018271885064481599 0 -0.0023908371122447845 -0.0028086617342874039 0 -0.0022778718415987997 -0.0033552452581514383 0 -0.0022778718415987997 -0.0033552452581514383 0 -0.00087583858606120942 -0.0048815307578532379 0 -0.0010643695252780623 -0.0072467010138900006 0 -0.0012798099079974316 -0.0070882058943661655 0 -0.0010714012877016603 -0.0068518056794255582 0 -0.0012798099079974316 -0.0070882058943661655 0 -0.0014927818112761809 -0.0069741188588142485 0 -0.0010714012877016603 -0.0068518056794255582 0 -0.0011436786941447456 -0.00089077477256068415 0 -0.0014377597858710235 -0.0016926889848221396 0 -0.00095795850446792931 -0.0025813891492764613 0 -0.0018224901059058559 -0.00087588161704398558 0 -0.0015444427049968678 -0.0013040607129151719 0 -0.0020412943199633786 -0.0020136979951854094 0 -0.0020412943199633786 -0.0020136979951854094 0 -0.0014377597858710235 -0.0016926889848221396 0 -0.00095795850446792931 -0.0025813891492764613 0 -0.0015444427049968678 -0.0013040607129151719 0 -0.0020412943199633786 -0.0020136979951854094 0 -0.0014377597858710235 -0.0016926889848221396 0 -0.002207596303855257 -0.0047188390155820433 0 -0.0024775640684733427 -0.0045965415899743055 0 -0.0030204932239199043 -0.0018431057405079347 0 -0.0030230410830811884 -0.0018589866572807016 0 -0.0029460125353833006 -0.0019643641816414568 0 -0.0030118483157150124 -0.0018509340447667637 0 -0.0030204932239199043 -0.0018431057405079347 0 -0.0030230410830811884 -0.0018589866572807016 0 -0.0029927019291872913 -0.00185570373669592 0 -0.0030118483157150124 -0.0018509340447667637 0 -0.0030230410830811884 -0.0018589866572807016 0 -0.0012798099079974316 -0.0070882058943661655 0 -0.0015258965971861401 -0.0072769155562441819 0 -0.0014927818112761809 -0.0069741188588142485 0 -0.0015258965971861401 -0.0072769155562441819 0 -0.0017545059255496902 -0.0069926214249726474 0 -0.0020000657842241445 -0.0072716947860118463 0 -0.0015258965971861401 -0.0072769155562441819 0 -0.0014927818112761809 -0.0069741188588142485 0 -0.0017545059255496902 -0.0069926214249726474 0 -0.0017545059255496902 -0.0069926214249726474 0 -0.0018336702261395586 -0.0066703782285480826 0 -0.001974358358053002 -0.0069057822146521546 0 -0.0017545059255496902 -0.0069926214249726474 0 -0.0014453349996189501 -0.0067198852849271228 0 -0.0018336702261395586 -0.0066703782285480826 0 -0.0014927818112761809 -0.0069741188588142485 0 -0.0014453349996189501 -0.0067198852849271228 0 -0.0010714012877016603 -0.0068518056794255582 0 -0.0014927818112761809 -0.0069741188588142485 0 -0.0017545059255496902 -0.0069926214249726474 0 -0.0014453349996189501 -0.0067198852849271228 0 -0.0014453349996189501 -0.0067198852849271228 0 -0.0015738940223489219 -0.006410429097427145 0 -0.0010427423896462382 -0.0063695958361890265 0 -0.0014453349996189501 -0.0067198852849271228 0 -0.0015738940223489219 -0.006410429097427145 0 -0.0018336702261395586 -0.0066703782285480826 0 -0.0018466330241335004 -0.006352055498153833 0 -0.0015738940223489219 -0.006410429097427145 0 -0.0018336702261395586 -0.0066703782285480826 0 -0.0020412943199633786 -0.0020136979951854094 0 -0.0017449957396685066 -0.0032513921106499745 0 -0.00095795850446792931 -0.0025813891492764613 0 -0.0020412943199633786 -0.0020136979951854094 0 -0.0017449957396685066 -0.0032513921106499745 0 -0.0026247929081896731 -0.0026022701175034643 0 -0.0017449957396685066 -0.0032513921106499745 0 -0.00095795850446792931 -0.0025813891492764613 0 -0.00086725082384450604 -0.004241359011118064 0 -0.0014453349996189501 -0.0067198852849271228 0 -0.0010714012877016603 -0.0068518056794255582 0 -0.0010427423896462382 -0.0063695958361890265 0 -0.00087583858606120942 -0.0048815307578532379 0 -0.00099454548817141269 -0.005245922037466883 0 -0.0017449957396685066 -0.0032513921106499745 0 -0.00086725082384450604 -0.004241359011118064 0 -0.002103751942494788 -0.0043315902644797243 0 -0.0017449957396685066 -0.0032513921106499745 0 -0.002103751942494788 -0.0043315902644797243 0 -0.0026247929081896731 -0.0026022701175034643 0 -0.00096774708113262615 0.0070072175375782177 0 -0.0014040322814065185 0.0069276629806366927 0 -0.0010057005437773779 0.0065592279313482459 0 -0.0014040322814065185 0.0069276629806366927 0 -0.0010057005437773779 0.0065592279313482459 0 -0.0013308011784904012 0.0061609690303596303 0 -0.0017286338769068382 0.0013117136347387695 0 -0.002070610098978555 0.0016590704842418056 0 -0.00096774708113262615 0.0070072175375782177 0 -0.0010057005437773779 0.0065592279313482459 0 -0.00074917618743391924 0.0068405288461589773 0 -0.00096774708113262615 0.0070072175375782177 0 -0.00069745182295602979 0.007154664055730499 0 -0.00074917618743391924 0.0068405288461589773 0 -0.0010057005437773779 0.0065592279313482459 0 -0.00059951545105037826 0.0062690919571919993 0 -0.00098794465825208146 0.0059315076544601423 0 -0.0010057005437773779 0.0065592279313482459 0 -0.00074917618743391924 0.0068405288461589773 0 -0.00059951545105037826 0.0062690919571919993 0 -0.0010057005437773779 0.0065592279313482459 0 -0.0013308011784904012 0.0061609690303596303 0 -0.00098794465825208146 0.0059315076544601423 0 -0.0018224901059058559 -0.00087588161704398558 0 -0.0020412943199633786 -0.0020136979951854094 0 -0.0027841246182382577 -0.0016169498010486386 0 -0.002070610098978555 0.0016590704842418056 0 -0.0013250738961249849 0.0028883318707516943 0 -0.0026247929081896731 -0.0026022701175034643 0 -0.0027841246182382577 -0.0016169498010486386 0 -0.0031054375821476946 -0.0006580223476787356 0 -0.0013308011784904012 0.0061609690303596303 0 -0.00098794465825208146 0.0059315076544601423 0 -0.0011231534914835403 0.0052092204960463529 0 -0.0020412943199633786 -0.0020136979951854094 0 -0.0026247929081896731 -0.0026022701175034643 0 -0.0027841246182382577 -0.0016169498010486386 0 -0.0006427026515838949 0.0065952617464889963 0 -0.00058602785851669375 0.0055081612501251646 0 -0.00098794465825208146 0.0059315076544601423 0 -0.00089546367062582363 0.0054262985493152924 0 -0.0011231534914835403 0.0052092204960463529 0 -0.00062384369239196799 0.0067932022874119587 0 -0.00071702794513592988 0.0064095558195417469 0 -0.00083491710964341144 0.006298064949613642 0 -0.00059951545105037826 0.0062690919571919993 0 -0.00098794465825208146 0.0059315076544601423 0 -0.00089546367062582363 0.0054262985493152924 0 -0.00062384369239196799 0.0067932022874119587 0 -0.00071702794513592988 0.0064095558195417469 0 -0.00049198391950223182 0.0064144349304182009 0 -0.00049026404593943554 0.006044636489699249 0 -0.00058602785851669375 0.0055081612501251646 0 -0.00083188184227511882 0.0062962227451289713 0 -0.0008724513556391079 0.0061945663432625125 0 -0.00050801379524102535 0.0061995432137330834 0 -0.00069315787181373114 0.0047925577945389401 0 -0.00042348668443174353 0.0062126666309894156 0 -0.00071702794513592988 0.0064095558195417469 0 -0.00083188184227511882 0.0062962227451289713 0 -0.00050801379524102535 0.0061995432137330834 0 -0.00057409507850975973 0.0061728131131847394 0 -0.00049388532895753385 0.0061144304221174397 0 -0.00033445842259245944 0.006182298893543962 0 -0.00058602785851669375 0.0055081612501251646 0 -0.00069315787181373114 0.0047925577945389401 0 -0.0002793018344470686 0.0049070110709938204 0 -0.00061232797207256379 0.0040990240501315245 0 -0.0013360586156383207 0.0039039082325729988 0 -0.00058602785851669375 0.0055081612501251646 0 -0.0013250738961249849 0.0028883318707516943 0 -0.00069315787181373114 0.0047925577945389401 0 -0.0013250738961249849 0.0028883318707516943 0 -0.00045437315674948161 0.0060215103045045239 0 -0.00049388532895753385 0.0061144304221174397 0 -0.00033445842259245944 0.006182298893543962 0 -0.00057409507850975973 0.0061728131131847394 0 -0.00049388532895753385 0.0061144304221174397 0 -0.00061375930698963127 0.0060806735678152436 0 -0.00045437315674948161 0.0060215103045045239 0 -0.00049388532895753385 0.0061144304221174397 0 -0.00061375930698963127 0.0060806735678152436 0 -0.00069315787181373114 0.0047925577945389401 0 -0.00056314628279004273 0.0045421987825660544 0 -0.0017459736164569194 -0.00075498125774985092 0 -0.0027841246182382577 -0.0016169498010486386 0 -0.0031054375821476946 -0.0006580223476787356 0 5.0997943662795542e-05 0.0040227559902402867 0 3.7658512577262989e-06 0.0039558700256119373 0 3.1549784509290652e-05 0.003863267843481677 0 -0.0018853683555672136 -0.00080956657533643773 0 -0.0013250738961249849 0.0028883318707516943 0 -0.0013018535773175696 0.0010040016416366909 0 -0.0014160274615601137 0.0013562559247561736 0 -0.00096137954308319793 0.001336296383211352 0 -0.00056314628279004273 0.0045421987825660544 0 -0.0013250738961249849 0.0028883318707516943 0 -0.0010957617404199406 0.0038868226640003611 0 -0.0010074407585284168 0.0041051823734864707 0 -0.00096025579375577782 0.003922000635926539 0 -0.00038452150222285898 0.0028173280047526449 0 -0.0013250738961249849 0.0028883318707516943 0 -0.0018853683555672136 -0.00080956657533643773 0 -0.0026663968639636941 -0.0015329362340906413 0 -0.00012192964642620318 0.0062110268309291394 0 -1.7296941440654409e-05 0.0064739965725917614 0 0.00015924712585181435 0.0062399108837426723 0 -5.6022287160671415e-05 0.0059515634187945129 0 -0.00012192964642620318 0.0062110268309291394 0 0.00015924712585181435 0.0062399108837426723 0 -0.00015052641585526941 0.006203291498587735 0 -0.00042348668443174353 0.0062126666309894156 0 -0.00012192964642620318 0.0062110268309291394 0 -0.00050801379524102535 0.0061995432137330834 0 -0.00049198391950223182 0.0064144349304182009 0 -0.00028921714521955294 0.0060312350767442839 0 -0.00012192964642620318 0.0062110268309291394 0 -0.00033445842259245944 0.006182298893543962 0 -0.00045437315674948161 0.0060215103045045239 0 -0.00028921714521955294 0.0060312350767442839 0 -0.00033445842259245944 0.006182298893543962 0 -0.00071702794513592988 0.0064095558195417469 0 -0.00050801379524102535 0.0061995432137330834 0 -0.00049198391950223182 0.0064144349304182009 0 -0.00062384369239196799 0.0067932022874119587 0 -0.00031206887541864316 0.0065283212458326998 0 -0.00049198391950223182 0.0064144349304182009 0 -0.00012192964642620318 0.0062110268309291394 0 -0.00031206887541864316 0.0065283212458326998 0 -0.00049198391950223182 0.0064144349304182009 0 -0.00031206887541864316 0.0065283212458326998 0 -1.7296941440654409e-05 0.0064739965725917614 0 -0.00026410176859339768 0.0067952796814085264 0 -0.00012192964642620318 0.0062110268309291394 0 -0.00031206887541864316 0.0065283212458326998 0 -1.7296941440654409e-05 0.0064739965725917614 0 -1.7296941440654409e-05 0.0064739965725917614 0 -0.00026410176859339768 0.0067952796814085264 0 6.4824493006362569e-05 0.0067595844047001249 0 -0.00026410176859339768 0.0067952796814085264 0 -9.2945500495505038e-05 0.0070091649909926734 0 6.4824493006362569e-05 0.0067595844047001249 0 -0.00062384369239196799 0.0067932022874119587 0 -0.00026410176859339768 0.0067952796814085264 0 -0.00038661227111751775 0.0070904306321561599 0 -0.00062384369239196799 0.0067932022874119587 0 -0.00031206887541864316 0.0065283212458326998 0 -0.00026410176859339768 0.0067952796814085264 0 -0.00074917618743391924 0.0068405288461589773 0 -0.00059951545105037826 0.0062690919571919993 0 -0.00046074911089290081 0.0070961219519718116 0 -0.0006427026515838949 0.0065952617464889963 0 -0.00046172410804319391 0.0070258690618955205 0 -0.00062384369239196799 0.0067932022874119587 0 -0.00046074911089290081 0.0070961219519718116 0 -0.00038661227111751775 0.0070904306321561599 0 -0.00069745182295602979 0.007154664055730499 0 -0.00074917618743391924 0.0068405288461589773 0 -0.00046074911089290081 0.0070961219519718116 0 -0.00026410176859339768 0.0067952796814085264 0 -9.2945500495505038e-05 0.0070091649909926734 0 -0.00038661227111751775 0.0070904306321561599 0 2.0960154645065326e-06 0.0074784591670967963 0 -9.2945500495505038e-05 0.0070091649909926734 0 -0.00038661227111751775 0.0070904306321561599 0 0.00067614296935454739 0.0076581477573124911 0 2.0960154645065326e-06 0.0074784591670967963 0 0.00026476913830819453 0.0070753098743827963 0 2.0960154645065326e-06 0.0074784591670967963 0 -9.2945500495505038e-05 0.0070091649909926734 0 0.00026476913830819453 0.0070753098743827963 0 -9.2945500495505038e-05 0.0070091649909926734 0 0.00026476913830819453 0.0070753098743827963 0 6.4824493006362569e-05 0.0067595844047001249 0 0.00026476913830819453 0.0070753098743827963 0 6.4824493006362569e-05 0.0067595844047001249 0 0.00035094094512727852 0.006771851410421378 0 6.4824493006362569e-05 0.0067595844047001249 0 0.00035094094512727852 0.006771851410421378 0 0.00025824097077942936 0.0065006310815950794 0 0.00067405830744814111 0.0069619529488068755 0 0.00035094094512727852 0.006771851410421378 0 0.00048822696983669172 0.0065951265661875237 0 0.00026476913830819453 0.0070753098743827963 0 0.00067405830744814111 0.0069619529488068755 0 0.00035094094512727852 0.006771851410421378 0 0.00040891305783190577 0.0092018326896029928 0 0.00036804585175052444 0.0091788408877895994 0 0.00067614296935454739 0.0076581477573124911 0 0.00026476913830819453 0.0070753098743827963 0 0.00067405830744814111 0.0069619529488068755 0 0.00013894518768643407 0.010791311703905366 0 5.0549828536250282e-05 0.01098810734532122 0 -3.9752134112038073e-05 0.010905030104284268 0 5.0549828536250282e-05 0.01098810734532122 0 -3.9752134112038073e-05 0.010905030104284268 0 -7.6339048402579324e-05 0.010997041879690174 0 -0.00012905037388333466 0.01086568642652321 0 -0.00013053932654929278 0.010965164773209161 0 -0.00019500624679414928 0.010932521175443513 0 -0.00012905037388333466 0.01086568642652321 0 -3.9752134112038073e-05 0.010905030104284268 0 -0.00013053932654929278 0.010965164773209161 0 -3.9752134112038073e-05 0.010905030104284268 0 -0.00013053932654929278 0.010965164773209161 0 -7.6339048402579324e-05 0.010997041879690174 0 -0.00013053932654929278 0.010965164773209161 0 -0.00019500624679414928 0.010932521175443513 0 -0.00020672781381315925 0.011028509791947666 0 -0.00013053932654929278 0.010965164773209161 0 -0.00013882618632251895 0.011044718733979716 0 -0.00020672781381315925 0.011028509791947666 0 -0.00013882618632251895 0.011044718733979716 0 -0.00014705323665171704 0.011093519207062943 0 -0.00020672781381315925 0.011028509791947666 0 -0.00013882618632251895 0.011044718733979716 0 -7.6339048402579324e-05 0.010997041879690174 0 -8.1647555240104043e-05 0.011049358986534022 0 -0.00013053932654929278 0.010965164773209161 0 -0.00013882618632251895 0.011044718733979716 0 -7.6339048402579324e-05 0.010997041879690174 0 -0.00013882618632251895 0.011044718733979716 0 -8.1647555240104043e-05 0.011049358986534022 0 -0.00013546218691725325 0.011064140127121912 0 0.00041085254051650961 0.011169688969393705 0 0.00085557176635497293 0.011116061499639585 0 5.0549828536250282e-05 0.01098810734532122 0 -7.6339048402579324e-05 0.010997041879690174 0 -3.6735116633294527e-05 0.011035736671402972 0 5.0549828536250282e-05 0.01098810734532122 0 -3.6735116633294527e-05 0.011035736671402972 0 -1.9622577141024322e-05 0.011098452943969836 0 0.00036804585175052444 0.0091788408877895994 0 4.6268769111199714e-05 0.0077841807285483492 0 -7.6339048402579324e-05 0.010997041879690174 0 -8.1647555240104043e-05 0.011049358986534022 0 -3.6735116633294527e-05 0.011035736671402972 0 -8.1647555240104043e-05 0.011049358986534022 0 -3.6735116633294527e-05 0.011035736671402972 0 -1.9622577141024322e-05 0.011098452943969836 0 0.00085557176635497293 0.011116061499639585 0 4.6268769111199714e-05 0.0077841807285483492 0 0.00091337475276446719 0.008245849759992905 0 -0.00011599382924746831 0.0076201939420454503 0 0.00060991157192564029 0.0076647447362833314 0 -8.1647555240104043e-05 0.011049358986534022 0 -0.00013546218691725325 0.011064140127121912 0 -1.9622577141024322e-05 0.011098452943969836 0 -0.00011599382924746831 0.0076201939420454503 0 0.00060991157192564029 0.0076647447362833314 0 0.00057298270505734073 0.0072624491340006411 0 0.00085557176635497293 0.011116061499639585 0 0.001515355055618032 0.010519630799170428 0 0.00091337475276446719 0.008245849759992905 0 0.00060991157192564029 0.0076647447362833314 0 0.001064122549623871 0.007532179099919452 0 0.00060991157192564029 0.0076647447362833314 0 0.00057298270505734073 0.0072624491340006411 0 0.001064122549623871 0.007532179099919452 0 0.00057298270505734073 0.0072624491340006411 0 0.001064122549623871 0.007532179099919452 0 0.00099668280984197282 0.0069719251338792093 0 0.00057298270505734073 0.0072624491340006411 0 0.00064373445779889382 0.0068665973190967927 0 0.00099668280984197282 0.0069719251338792093 0 0.00057298270505734073 0.0072624491340006411 0 0.00064373445779889382 0.0068665973190967927 0 0.00020677698952025462 0.0068163678551094167 0 0.00064373445779889382 0.0068665973190967927 0 0.00020677698952025462 0.0068163678551094167 0 0.0006802451414719662 0.0065160053027684484 0 0.00064373445779889382 0.0068665973190967927 0 0.00099668280984197282 0.0069719251338792093 0 0.00087596870689628627 0.006640810353253394 0 -0.00011599382924746831 0.0076201939420454503 0 0.00057298270505734073 0.0072624491340006411 0 0.00020677698952025462 0.0068163678551094167 0 4.6268769111199714e-05 0.0077841807285483492 0 0.00044310344619574537 0.0063822891196564733 0 0.00056160771457452736 0.0062239938264735473 0 0.00043278218556122534 0.0063176969118199453 0 0.00040542347987403306 0.0061324320770261868 0 0.00051968047887632175 0.0063729535506719783 0 0.00056160771457452736 0.0062239938264735473 0 0.00043278218556122534 0.0063176969118199453 0 0.00043278218556122534 0.0063176969118199453 0 0.00030258503394547264 0.0061757683104403166 0 0.00015924712585181435 0.0062399108837426723 0 0.00043278218556122534 0.0063176969118199453 0 0.00030258503394547264 0.0061757683104403166 0 0.00040542347987403306 0.0061324320770261868 0 0.00030258503394547264 0.0061757683104403166 0 0.00015924712585181435 0.0062399108837426723 0 0.00020001238192934279 0.00602190772508783 0 0.00043278218556122534 0.0063176969118199453 0 0.00015924712585181435 0.0062399108837426723 0 0.00025824097077942936 0.0065006310815950794 0 -1.7296941440654409e-05 0.0064739965725917614 0 0.00015924712585181435 0.0062399108837426723 0 0.00025824097077942936 0.0065006310815950794 0 -1.7296941440654409e-05 0.0064739965725917614 0 6.4824493006362569e-05 0.0067595844047001249 0 0.00025824097077942936 0.0065006310815950794 0 0.00067405830744814111 0.0069619529488068755 0 0.00073614944023861245 0.0064611164770247819 0 0.00048822696983669172 0.0065951265661875237 0 0.00035094094512727852 0.006771851410421378 0 0.00025824097077942936 0.0065006310815950794 0 0.00048822696983669172 0.0065951265661875237 0 4.6268769111199714e-05 0.0077841807285483492 0 0.00032713253491064117 0.0064823024148530353 0 0.00073614944023861245 0.0064611164770247819 0 0.00043278218556122534 0.0063176969118199453 0 0.00048822696983669172 0.0065951265661875237 0 0.00043278218556122534 0.0063176969118199453 0 0.00025824097077942936 0.0065006310815950794 0 0.00048822696983669172 0.0065951265661875237 0 -6.3718282645741504e-05 0.017290856804985311 0 5.1038690374449809e-05 0.020070955387033195 0 -0.0012155171952446019 0.012069530247540386 0 -0.00058233983215739645 0.013136293104808147 0 -0.0017039165254488003 0.013610601717383427 0 0.0011849213506971879 0.023227095458955252 0 0.0010260618031234531 0.023264626923627973 0 0.0010815638873542561 0.022853300639787744 0 0.00022132041801811893 0.017226445138519782 0 -6.3718282645741504e-05 0.017290856804985311 0 0.0012028256550097199 0.023402203025725883 0 0.0010995009135129302 0.023371877835882581 0 0.0010260618031234531 0.023264626923627973 0 0.0011849213506971879 0.023227095458955252 0 0.0010995009135129302 0.023371877835882581 0 0.0010260618031234531 0.023264626923627973 0 -0.00072562445941946516 0.010863815085282292 0 -0.0012155171952446019 0.012069530247540386 0 -0.00071606719768036885 0.011283948984684856 0 -0.00071606719768036885 0.011283948984684856 0 -0.00028902323241261949 0.012304416242531315 0 0.00072265112555884039 0.012093041591734667 0 -0.00045077071905632986 0.010973779582178744 0 -0.00071606719768036885 0.011283948984684856 0 -0.00032751923236821388 0.011102586076195445 0 -0.0012155171952446019 0.012069530247540386 0 -0.00071606719768036885 0.011283948984684856 0 -0.00028902323241261949 0.012304416242531315 0 -0.00070994289024082851 0.011221869999157546 0 0.0002420514918206767 0.011745564738924984 0 -0.0012155171952446019 0.012069530247540386 0 -0.00028902323241261949 0.012304416242531315 0 -0.00058233983215739645 0.013136293104808147 0 -0.00028902323241261949 0.012304416242531315 0 0.00034502537212666916 0.01297060499309801 0 -0.00058233983215739645 0.013136293104808147 0 -0.00028902323241261949 0.012304416242531315 0 0.00034502537212666916 0.01297060499309801 0 0.00072265112555884039 0.012093041591734667 0 0.00034502537212666916 0.01297060499309801 0 0.00072265112555884039 0.012093041591734667 0 0.0012135611467346053 0.013119858644197721 0 -0.00045077071905632986 0.010973779582178744 0 -0.00032751923236821388 0.011102586076195445 0 -0.00028858102323021625 0.010958466084919126 0 -0.00032751923236821388 0.011102586076195445 0 -0.00028858102323021625 0.010958466084919126 0 -0.00020672781381315925 0.011028509791947666 0 -0.00028858102323021625 0.010958466084919126 0 -0.00019500624679414928 0.010932521175443513 0 -0.00020672781381315925 0.011028509791947666 0 0.0021495359159167263 0.012904448695312029 0 0.00072265112555884039 0.012093041591734667 0 0.0012135611467346053 0.013119858644197721 0 -0.00014705323665171704 0.011093519207062943 0 -0.00032751923236821388 0.011102586076195445 0 -0.00020672781381315925 0.011028509791947666 0 0.00085557176635497293 0.011116061499639585 0 0.0002420514918206767 0.011745564738924984 0 0.0021495359159167263 0.012904448695312029 0 0.0016858457174656293 0.013389844561935635 0 0.0012135611467346053 0.013119858644197721 0 0.0021495359159167263 0.012904448695312029 0 0.0016858457174656293 0.013389844561935635 0 0.0019469448996447011 0.013814482162417277 0 0.0016858457174656293 0.013389844561935635 0 0.0012135611467346053 0.013119858644197721 0 0.0013156842956388772 0.013726918411152981 0 0.0012135611467346053 0.013119858644197721 0 0.0013156842956388772 0.013726918411152981 0 0.00072643139970166926 0.013565230959249728 0 0.0013156842956388772 0.013726918411152981 0 0.0019469448996447011 0.013814482162417277 0 0.0014501126332455148 0.014225566593142303 0 0.0016858457174656293 0.013389844561935635 0 0.0013156842956388772 0.013726918411152981 0 0.0019469448996447011 0.013814482162417277 0 0.0019469448996447011 0.013814482162417277 0 0.0017402826866166755 0.01474164490767783 0 0.0014501126332455148 0.014225566593142303 0 0.001064122549623871 0.007532179099919452 0 0.00099668280984197282 0.0069719251338792093 0 0.0011912483207595498 0.0068173684830904451 0 0.001515355055618032 0.010519630799170428 0 0.0012676652292133678 0.011101882506427276 0 0.0020072404923416149 0.0093949969618779081 0 0.0012676652292133678 0.011101882506427276 0 0.00099668280984197282 0.0069719251338792093 0 0.0011143187912384649 0.0067898530417308334 0 0.00087596870689628627 0.006640810353253394 0 0.0017402826866166755 0.01474164490767783 0 0.001239252689767068 0.014529394123344251 0 0.0014501126332455148 0.014225566593142303 0 0.0017402826866166755 0.01474164490767783 0 0.001239252689767068 0.014529394123344251 0 0.00090029785072672647 0.014903559246069625 0 0.001239252689767068 0.014529394123344251 0 0.0014501126332455148 0.014225566593142303 0 0.00087021100652477667 0.014250486952558504 0 0.0013156842956388772 0.013726918411152981 0 0.0014501126332455148 0.014225566593142303 0 0.00087021100652477667 0.014250486952558504 0 0.001239252689767068 0.014529394123344251 0 0.00087021100652477667 0.014250486952558504 0 0.00090029785072672647 0.014903559246069625 0 0.00087021100652477667 0.014250486952558504 0 0.00090029785072672647 0.014903559246069625 0 0.00018438824681271188 0.014831841764349058 0 0.00087021100652477667 0.014250486952558504 0 0.00018438824681271188 0.014831841764349058 0 7.2492693212868506e-05 0.013919758594062418 0 0.00087021100652477667 0.014250486952558504 0 0.00072643139970166926 0.013565230959249728 0 7.2492693212868506e-05 0.013919758594062418 0 0.0013156842956388772 0.013726918411152981 0 0.00087021100652477667 0.014250486952558504 0 0.00072643139970166926 0.013565230959249728 0 0.00034502537212666916 0.01297060499309801 0 0.0012135611467346053 0.013119858644197721 0 0.00072643139970166926 0.013565230959249728 0 0.00034502537212666916 0.01297060499309801 0 0.00072643139970166926 0.013565230959249728 0 7.2492693212868506e-05 0.013919758594062418 0 0.00034502537212666916 0.01297060499309801 0 -0.00058233983215739645 0.013136293104808147 0 7.2492693212868506e-05 0.013919758594062418 0 -0.00058233983215739645 0.013136293104808147 0 7.2492693212868506e-05 0.013919758594062418 0 -0.00082462771438849701 0.014085287021533555 0 0.00018438824681271188 0.014831841764349058 0 7.2492693212868506e-05 0.013919758594062418 0 -0.00050703774679764998 0.014700549353611493 0 7.2492693212868506e-05 0.013919758594062418 0 -0.00050703774679764998 0.014700549353611493 0 -0.00082462771438849701 0.014085287021533555 0 -0.00082462771438849701 0.014085287021533555 0 -0.001282429959466742 0.014959101880822048 0 -0.0017039165254488003 0.013610601717383427 0 -0.0013388814511633572 0.014899471033559547 0 5.1038690374449809e-05 0.020070955387033195 0 -0.00050703774679764998 0.014700549353611493 0 -0.00082462771438849701 0.014085287021533555 0 -0.001282429959466742 0.014959101880822048 0 -0.00058233983215739645 0.013136293104808147 0 -0.00082462771438849701 0.014085287021533555 0 -0.0017039165254488003 0.013610601717383427 0 -0.00075048725768273711 0.016375100200759395 0 -0.00072607095881326662 0.016379921250071872 0 -0.00069313548481160817 0.01637593549409732 0 -0.00067281275658402835 0.016369226702489106 0 -0.00072607095881326662 0.016379921250071872 0 -0.00069313548481160817 0.01637593549409732 0 -0.00075048725768273711 0.016375100200759395 0 -0.00066416819523178183 0.016506204459039182 0 -0.00069313548481160817 0.01637593549409732 0 -0.00075048725768273711 0.016375100200759395 0 -0.00081101754993593797 0.016277885430887873 0 -0.00072607095881326662 0.016379921250071872 0 -0.00075048725768273711 0.016375100200759395 0 -0.00081101754993593797 0.016277885430887873 0 -0.00066416819523178183 0.016506204459039182 0 -0.00081101754993593797 0.016277885430887873 0 -0.00072607095881326662 0.016379921250071872 0 -0.00072113712880147237 0.016544780860649276 0 -0.00066371230312481009 0.016459913831979679 0 -0.00072607095881326662 0.016379921250071872 0 -0.00072113712880147237 0.016544780860649276 0 -0.00086966075641997155 0.016817581830168498 0 -0.00081101754993593797 0.016277885430887873 0 -0.00072113712880147237 0.016544780860649276 0 -0.0013388814511633572 0.014899471033559547 0 -0.00073501725545960033 0.016667655918763399 0 -0.001282429959466742 0.014959101880822048 0 -0.00081101754993593797 0.016277885430887873 0 -0.00044820458105114682 0.015547378084051202 0 -0.00051222345090859054 0.016733404513558481 0 -0.00086966075641997155 0.016817581830168498 0 -0.00072113712880147237 0.016544780860649276 0 0.00018438824681271188 0.014831841764349058 0 -0.00044820458105114682 0.015547378084051202 0 0.0005152442064957866 0.015722544251519359 0 -0.00050703774679764998 0.014700549353611493 0 -0.001282429959466742 0.014959101880822048 0 -0.00044820458105114682 0.015547378084051202 0 0.00018438824681271188 0.014831841764349058 0 -0.00050703774679764998 0.014700549353611493 0 -0.00044820458105114682 0.015547378084051202 0 -0.00081101754993593797 0.016277885430887873 0 -0.00044820458105114682 0.015547378084051202 0 -0.00066416819523178183 0.016506204459039182 0 -0.00016768027980701029 0.015477910821386437 0 0.00029061173792414488 0.015443850678668797 0 0.00056564045223638111 0.014679912524768888 0 -0.00044820458105114682 0.015547378084051202 0 -0.00066416819523178183 0.016506204459039182 0 0.0005152442064957866 0.015722544251519359 0 -0.00033049665647638183 0.015892842808039952 0 0.00043692148160148466 0.015665518402236608 0 0.00029061173792414488 0.015443850678668797 0 0.00066279469206415574 0.015453991569358339 0 0.00056564045223638111 0.014679912524768888 0 0.00066279469206415574 0.015453991569358339 0 0.00056564045223638111 0.014679912524768888 0 0.0011917826479556689 0.015107743900298757 0 0.0017402826866166755 0.01474164490767783 0 0.00090029785072672647 0.014903559246069625 0 0.0005152442064957866 0.015722544251519359 0 0.00090029785072672647 0.014903559246069625 0 0.00018438824681271188 0.014831841764349058 0 0.0005152442064957866 0.015722544251519359 0 0.0011143187912384649 0.0067898530417308334 0 0.0010694070334400837 0.0060824603073263922 0 0.00084356086500315573 0.0062804296678591132 0 0.0014978154636068873 0.013856982515357354 0 0.00056564045223638111 0.014679912524768888 0 0.0011917826479556689 0.015107743900298757 0 0.0012676652292133678 0.011101882506427276 0 0.0011843126909993568 0.010452044617859296 0 0.0012676652292133678 0.011101882506427276 0 0.00043692148160148466 0.015665518402236608 0 0.0011143187912384649 0.0067898530417308334 0 0.00087596870689628627 0.006640810353253394 0 0.00084356086500315573 0.0062804296678591132 0 0.0010694070334400837 0.0060824603073263922 0 0.00084356086500315573 0.0062804296678591132 0 0.00077814890168000073 0.0058946137959449895 0 0.0011843126909993568 0.010452044617859296 0 0.0007048560757404454 0.010879146168733879 0 0.0010694070334400837 0.0060824603073263922 0 0.0011016444376338614 0.0057849803496155738 0 0.00077814890168000073 0.0058946137959449895 0 0.00044891686378413856 0.005704025378683926 0 0.00013195281479225481 0.0056188158414316068 0 0.00054126270558958029 0.0056505165357874513 0 0.0007048560757404454 0.010879146168733879 0 0.0008834010106194332 0.0049871514486641167 0 0.00044891686378413856 0.005704025378683926 0 0.00036779341398358563 0.0058543696967267335 0 0.00013195281479225481 0.0056188158414316068 0 0.00036779341398358563 0.0058543696967267335 0 0.00013195281479225481 0.0056188158414316068 0 0.00024402299699838981 0.0061339912372343703 0 0.00036779341398358563 0.0058543696967267335 0 0.00048144787153872625 0.0058093391524945701 0 0.00043568336706981321 0.0060472712989440422 0 0.00044891686378413856 0.005704025378683926 0 0.00036779341398358563 0.0058543696967267335 0 0.00048144787153872625 0.0058093391524945701 0 0.0007048560757404454 0.010879146168733879 0 -0.0004361874123682558 0.017841647247879448 0 0.00045725338338232287 0.016104711155642926 0 5.4506472284226067e-05 0.016496749588530042 0 0.00032589659857249457 0.016598353071623672 0 0.00013195281479225481 0.0056188158414316068 0 -0.00030666294894840968 0.0064250915502015362 0 0.00024402299699838981 0.0061339912372343703 0 0.0007048560757404454 0.010879146168733879 0 7.2511143233038251e-06 0.011419258712196945 0 0.00084314378875110065 0.016143150854417122 0 0.000185263845673268 0.016132772503809251 0 5.4506472284226067e-05 0.016496749588530042 0 0.00084314378875110065 0.016143150854417122 0 0.00039087990045496223 0.015793821897441988 0 0.000185263845673268 0.016132772503809251 0 0.00066279469206415574 0.015453991569358339 0 0.0011917826479556689 0.015107743900298757 0 0.00084314378875110065 0.016143150854417122 0 0.00066279469206415574 0.015453991569358339 0 0.00084314378875110065 0.016143150854417122 0 0.00039087990045496223 0.015793821897441988 0 0.00029061173792414488 0.015443850678668797 0 0.00066279469206415574 0.015453991569358339 0 0.00039087990045496223 0.015793821897441988 0 -0.00016768027980701029 0.015477910821386437 0 7.4495091147704623e-06 0.015862462682212468 0 -0.00028227219348385114 0.016150755559821459 0 0.00029061173792414488 0.015443850678668797 0 0.00039087990045496223 0.015793821897441988 0 7.4495091147704623e-06 0.015862462682212468 0 -0.00016768027980701029 0.015477910821386437 0 0.00029061173792414488 0.015443850678668797 0 7.4495091147704623e-06 0.015862462682212468 0 7.4495091147704623e-06 0.015862462682212468 0 0.000185263845673268 0.016132772503809251 0 -0.00010914741664758277 0.016166847039281933 0 7.4495091147704623e-06 0.015862462682212468 0 -0.00010914741664758277 0.016166847039281933 0 -0.00028227219348385114 0.016150755559821459 0 0.00039087990045496223 0.015793821897441988 0 7.4495091147704623e-06 0.015862462682212468 0 0.000185263845673268 0.016132772503809251 0 0.000185263845673268 0.016132772503809251 0 5.4506472284226067e-05 0.016496749588530042 0 -2.9890317731135347e-05 0.016307545254846796 0 5.4506472284226067e-05 0.016496749588530042 0 -0.00023105764021480856 0.016415934911261861 0 -0.00017165426300235777 0.016618095589657902 0 5.4506472284226067e-05 0.016496749588530042 0 -2.9890317731135347e-05 0.016307545254846796 0 -0.00023105764021480856 0.016415934911261861 0 -2.9890317731135347e-05 0.016307545254846796 0 -0.00010914741664758277 0.016166847039281933 0 -0.00023105764021480856 0.016415934911261861 0 0.000185263845673268 0.016132772503809251 0 -2.9890317731135347e-05 0.016307545254846796 0 -0.00010914741664758277 0.016166847039281933 0 -0.00010914741664758277 0.016166847039281933 0 -0.00023105764021480856 0.016415934911261861 0 -0.00028227219348385114 0.016150755559821459 0 -0.00023105764021480856 0.016415934911261861 0 -0.00047684518802458689 0.016439304108211098 0 -0.00028227219348385114 0.016150755559821459 0 -0.00032229949497212699 0.016526740981513518 0 -0.00023105764021480856 0.016415934911261861 0 -0.00047684518802458689 0.016439304108211098 0 -0.00032229949497212699 0.016526740981513518 0 -0.00023105764021480856 0.016415934911261861 0 -0.00017165426300235777 0.016618095589657902 0 -0.00032229949497212699 0.016526740981513518 0 -0.00047684518802458689 0.016439304108211098 0 -0.00039899597049832924 0.016633104520867827 0 -0.00064217694798441769 0.016293921639071819 0 -0.00047684518802458689 0.016439304108211098 0 -0.00028227219348385114 0.016150755559821459 0 -0.00067281275658402835 0.016369226702489106 0 -0.00064217694798441769 0.016293921639071819 0 -0.00069313548481160817 0.01637593549409732 0 -0.00064217694798441769 0.016293921639071819 0 -0.00066416819523178183 0.016506204459039182 0 -0.00069313548481160817 0.01637593549409732 0 -0.00064967153403904649 0.016284041072530103 0 -0.00033049665647638183 0.015892842808039952 0 -0.00064217694798441769 0.016293921639071819 0 -0.00016768027980701029 0.015477910821386437 0 -0.00028227219348385114 0.016150755559821459 0 0.00020615518779805301 0.0057985458047835727 0 0.00020001238192934279 0.00602190772508783 0 0.00031230767846219967 0.0059678209926127077 0 0.00034980260597437086 0.0057870853521655875 0 0.00031230767846219967 0.0059678209926127077 0 0.00043994456339207767 0.0059745091543165919 0 0.00034980260597437086 0.0057870853521655875 0 0.00020615518779805301 0.0057985458047835727 0 0.00031230767846219967 0.0059678209926127077 0 2.1310274097589456e-06 0.0057000231400621158 0 0.00020615518779805301 0.0057985458047835727 0 8.0614945929637338e-05 0.0058719773952668223 0 2.1310274097589456e-06 0.0057000231400621158 0 0.00020615518779805301 0.0057985458047835727 0 0.00012000697775044157 0.005643596012247616 0 0.00020615518779805301 0.0057985458047835727 0 8.0614945929637338e-05 0.0058719773952668223 0 0.00020001238192934279 0.00602190772508783 0 -5.6022287160671415e-05 0.0059515634187945129 0 8.0614945929637338e-05 0.0058719773952668223 0 0.00020001238192934279 0.00602190772508783 0 -5.6022287160671415e-05 0.0059515634187945129 0 0.00015924712585181435 0.0062399108837426723 0 0.00020001238192934279 0.00602190772508783 0 0.00030258503394547264 0.0061757683104403166 0 0.00020001238192934279 0.00602190772508783 0 0.00040542347987403306 0.0061324320770261868 0 0.00031230767846219967 0.0059678209926127077 0 0.00040542347987403306 0.0061324320770261868 0 0.00043994456339207767 0.0059745091543165919 0 0.00020001238192934279 0.00602190772508783 0 0.00031230767846219967 0.0059678209926127077 0 0.00040542347987403306 0.0061324320770261868 0 0.00056160771457452736 0.0062239938264735473 0 0.00040542347987403306 0.0061324320770261868 0 0.00043994456339207767 0.0059745091543165919 0 0.00056160771457452736 0.0062239938264735473 0 0.00061196436251188607 0.0061311569073960823 0 0.00043994456339207767 0.0059745091543165919 0 0.00020677698952025462 0.0068163678551094167 0 0.0006802451414719662 0.0065160053027684484 0 0.00061196436251188607 0.0061311569073960823 0 0.00044310344619574537 0.0063822891196564733 0 0.00055215519599976224 0.0062238351939638611 0 0.00087596870689628627 0.006640810353253394 0 0.0006802451414719662 0.0065160053027684484 0 0.00084356086500315573 0.0062804296678591132 0 0.00064373445779889382 0.0068665973190967927 0 0.00087596870689628627 0.006640810353253394 0 0.0006802451414719662 0.0065160053027684484 0 0.0006802451414719662 0.0065160053027684484 0 0.00061196436251188607 0.0061311569073960823 0 0.00084356086500315573 0.0062804296678591132 0 0.00061196436251188607 0.0061311569073960823 0 0.00084356086500315573 0.0062804296678591132 0 0.00077814890168000073 0.0058946137959449895 0 0.00061196436251188607 0.0061311569073960823 0 0.00043994456339207767 0.0059745091543165919 0 0.00077814890168000073 0.0058946137959449895 0 0.00043994456339207767 0.0059745091543165919 0 0.00045055409888372964 0.0057049763913187314 0 0.00054126270558958029 0.0056505165357874513 0 0.00027901476776859052 0.0062223188516877638 0 0.0008834010106194332 0.0049871514486641167 0 0.00034980260597437086 0.0057870853521655875 0 0.00043994456339207767 0.0059745091543165919 0 0.00045055409888372964 0.0057049763913187314 0 0.00034980260597437086 0.0057870853521655875 0 0.00045055409888372964 0.0057049763913187314 0 0.00028108970314275435 0.0056295943645948724 0 0.00045055409888372964 0.0057049763913187314 0 0.00044700642177659819 0.0056298977819363707 0 0.00028108970314275435 0.0056295943645948724 0 0.00045055409888372964 0.0057049763913187314 0 0.00050723591221229017 0.005667875065836759 0 0.00044700642177659819 0.0056298977819363707 0 0.00045055409888372964 0.0057049763913187314 0 0.00054126270558958029 0.0056505165357874513 0 0.00050723591221229017 0.005667875065836759 0 0.00044891686378413856 0.005704025378683926 0 0.00054126270558958029 0.0056505165357874513 0 0.00050723591221229017 0.005667875065836759 0 0.00044891686378413856 0.005704025378683926 0 0.00050723591221229017 0.005667875065836759 0 0.00050792630314396936 0.005679420488213377 0 0.00050723591221229017 0.005667875065836759 0 0.00050792630314396936 0.005679420488213377 0 0.00044700642177659819 0.0056298977819363707 0 0.00050792630314396936 0.005679420488213377 0 0.00049441921300482901 0.0055993862290307861 0 0.00044700642177659819 0.0056298977819363707 0 0.00050792630314396936 0.005679420488213377 0 0.00049441921300482901 0.0055993862290307861 0 0.00047916420849779674 0.0057373858819558194 0 0.00044891686378413856 0.005704025378683926 0 0.00050792630314396936 0.005679420488213377 0 0.00048144787153872625 0.0058093391524945701 0 0.00050792630314396936 0.005679420488213377 0 0.00048144787153872625 0.0058093391524945701 0 0.00047916420849779674 0.0057373858819558194 0 0.00049441921300482901 0.0055993862290307861 0 0.00044700642177659819 0.0056298977819363707 0 0.00026539703167938032 0.0053354795806084369 0 0.00044700642177659819 0.0056298977819363707 0 0.00028108970314275435 0.0056295943645948724 0 0.00026539703167938032 0.0053354795806084369 0 0.00028108970314275435 0.0056295943645948724 0 -5.3746918997798157e-06 0.0054391918917060739 0 0.00026539703167938032 0.0053354795806084369 0 0.00034980260597437086 0.0057870853521655875 0 0.00020615518779805301 0.0057985458047835727 0 0.00028108970314275435 0.0056295943645948724 0 0.00020615518779805301 0.0057985458047835727 0 0.00028108970314275435 0.0056295943645948724 0 0.00012000697775044157 0.005643596012247616 0 2.1310274097589456e-06 0.0057000231400621158 0 0.00012000697775044157 0.005643596012247616 0 -5.3746918997798157e-06 0.0054391918917060739 0 0.00028108970314275435 0.0056295943645948724 0 0.00012000697775044157 0.005643596012247616 0 -5.3746918997798157e-06 0.0054391918917060739 0 -5.3746918997798157e-06 0.0054391918917060739 0 0.00026539703167938032 0.0053354795806084369 0 -0.00021742286896252812 0.0051770784814653319 0 -0.00087212681972582875 0.0055117842404619364 0 -0.00099011132446993303 0.0050691409098001308 0 -0.00021742286896252812 0.0051770784814653319 0 -0.00040265941945392139 0.0051593345329650278 0 -0.00021351309685989695 0.0051942920696484256 0 -0.00087212681972582875 0.0055117842404619364 0 -0.00027459522963085045 0.0056343321679318105 0 -0.00021742286896252812 0.0051770784814653319 0 -0.00087212681972582875 0.0055117842404619364 0 -0.00099011132446993303 0.0050691409098001308 0 -0.0013338484332904635 0.0053177919648590968 0 0.00049441921300482901 0.0055993862290307861 0 0.00026539703167938032 0.0053354795806084369 0 0.00058322078595928752 0.0055394825001660701 0 -0.00099011132446993303 0.0050691409098001308 0 -0.0016250421971944649 0.0050353417255273826 0 -0.0013338484332904635 0.0053177919648590968 0 -0.00040265941945392139 0.0051593345329650278 0 -0.00039215692344907595 0.0055969205780532173 0 -0.0016250421971944649 0.0050353417255273826 0 -0.0017032892997884126 0.0053736805047877399 0 -0.0013338484332904635 0.0053177919648590968 0 0.00048144787153872625 0.0058093391524945701 0 0.00047916420849779674 0.0057373858819558194 0 0.00050535158452320211 0.0057710660890543195 0 -0.00039215692344907595 0.0055969205780532173 0 0.00027702443331753833 0.0060390964944229885 0 0.00040234367815412139 0.0054007483649812591 0 -0.00039215692344907595 0.0055969205780532173 0 -0.0017032892997884126 0.0053736805047877399 0 -0.0014928609616393414 0.005609411287044703 0 -0.0013338484332904635 0.0053177919648590968 0 -0.0017032892997884126 0.0053736805047877399 0 -0.0014928609616393414 0.005609411287044703 0 -0.0017546199680647863 0.0055754228834096527 0 -0.00087212681972582875 0.0055117842404619364 0 -0.0013338484332904635 0.0053177919648590968 0 -0.0012213725787565575 0.0056162195078215639 0 -0.0014928609616393414 0.005609411287044703 0 -0.0013338484332904635 0.0053177919648590968 0 -0.0012213725787565575 0.0056162195078215639 0 -0.0012213725787565575 0.0056162195078215639 0 -0.0013166639462854656 0.0058261948537745266 0 -0.0011195627501967853 0.005806327172322598 0 -0.0014928609616393414 0.005609411287044703 0 -0.0012213725787565575 0.0056162195078215639 0 -0.0013166639462854656 0.0058261948537745266 0 -0.0014928609616393414 0.005609411287044703 0 -0.0013166639462854656 0.0058261948537745266 0 -0.0014967445350022169 0.0058316136372202525 0 -0.0013166639462854656 0.0058261948537745266 0 -0.0014967445350022169 0.0058316136372202525 0 -0.0014226427042160357 0.0060106279436180701 0 -0.0013166639462854656 0.0058261948537745266 0 -0.0012141416222398859 0.0060683929354957231 0 -0.0011195627501967853 0.005806327172322598 0 -0.0016518029321371513 0.0057545796372208916 0 -0.001751695895154374 0.005923667129051337 0 -0.0018899617728811121 0.0057434928106034682 0 -0.0014928609616393414 0.005609411287044703 0 -0.0017546199680647863 0.0055754228834096527 0 -0.0016518029321371513 0.0057545796372208916 0 -0.0017546199680647863 0.0055754228834096527 0 -0.0016518029321371513 0.0057545796372208916 0 -0.0018899617728811121 0.0057434928106034682 0 -0.0014928609616393414 0.005609411287044703 0 -0.0016518029321371513 0.0057545796372208916 0 -0.0014967445350022169 0.0058316136372202525 0 -0.0014967445350022169 0.0058316136372202525 0 -0.0016044751407622063 0.0059479765844312809 0 -0.0014226427042160357 0.0060106279436180701 0 -0.0016518029321371513 0.0057545796372208916 0 -0.0014967445350022169 0.0058316136372202525 0 -0.0016044751407622063 0.0059479765844312809 0 -0.0016518029321371513 0.0057545796372208916 0 -0.0016044751407622063 0.0059479765844312809 0 -0.001751695895154374 0.005923667129051337 0 -0.0016044751407622063 0.0059479765844312809 0 -0.001751695895154374 0.005923667129051337 0 -0.0017284373047077779 0.0060726745204874397 0 -0.00088644136490010652 0.0065111552922350931 0 -0.0019441720190243184 0.0061813893963905044 0 -0.0018965631061541241 0.0061005843664323281 0 -0.0012417800509004337 0.0062792283088340967 0 -0.0018226101482474721 0.0061308496201354099 0 -0.0017284373047077779 0.0060726745204874397 0 -0.0014553782172033909 0.006192065521572805 0 -0.0018965631061541241 0.0061005843664323281 0 -0.00088644136490010652 0.0065111552922350931 0 -0.0019441720190243184 0.0061813893963905044 0 -0.0012999868140188861 0.0070362665191963641 0 -0.0016044751407622063 0.0059479765844312809 0 -0.0017284373047077779 0.0060726745204874397 0 -0.0015476118070734484 0.0060621121079447336 0 -0.0015476118070734484 0.0060621121079447336 0 -0.0014553782172033909 0.006192065521572805 0 -0.0014226427042160357 0.0060106279436180701 0 -0.0016044751407622063 0.0059479765844312809 0 -0.0015476118070734484 0.0060621121079447336 0 -0.0014226427042160357 0.0060106279436180701 0 -0.0017284373047077779 0.0060726745204874397 0 -0.0015476118070734484 0.0060621121079447336 0 -0.0014553782172033909 0.006192065521572805 0 -0.0014553782172033909 0.006192065521572805 0 -0.0012090904422653748 0.0062055822503432959 0 -0.0011008032368628471 0.006354838368070828 0 -0.0013166639462854656 0.0058261948537745266 0 -0.0012141416222398859 0.0060683929354957231 0 -0.0014226427042160357 0.0060106279436180701 0 -0.0014553782172033909 0.006192065521572805 0 -0.0012141416222398859 0.0060683929354957231 0 -0.0014226427042160357 0.0060106279436180701 0 -0.0014553782172033909 0.006192065521572805 0 -0.0012141416222398859 0.0060683929354957231 0 -0.0012090904422653748 0.0062055822503432959 0 -0.0012090904422653748 0.0062055822503432959 0 -0.0010656845254907227 0.0062070264627649011 0 -0.0011008032368628471 0.006354838368070828 0 -0.0012141416222398859 0.0060683929354957231 0 -0.0012090904422653748 0.0062055822503432959 0 -0.0010656845254907227 0.0062070264627649011 0 -0.0012141416222398859 0.0060683929354957231 0 -0.0010656845254907227 0.0062070264627649011 0 -0.00096809419519259003 0.0059818684922846544 0 -0.0012141416222398859 0.0060683929354957231 0 -0.00096809419519259003 0.0059818684922846544 0 -0.0011195627501967853 0.005806327172322598 0 -0.0010656845254907227 0.0062070264627649011 0 -0.00096809419519259003 0.0059818684922846544 0 -0.00084026581737020362 0.0062159495567789165 0 -0.00096809419519259003 0.0059818684922846544 0 -0.00084026581737020362 0.0062159495567789165 0 -0.00045099043579073647 0.0054604412052890045 0 -0.00087212681972582875 0.0055117842404619364 0 -0.00096809419519259003 0.0059818684922846544 0 -0.00027459522963085045 0.0056343321679318105 0 -0.00092935087676316609 0.0059406288018827996 0 -0.0003722871000166935 0.0055531732108670797 0 -0.00087212681972582875 0.0055117842404619364 0 -0.00096809419519259003 0.0059818684922846544 0 -0.0011195627501967853 0.005806327172322598 0 -0.00087212681972582875 0.0055117842404619364 0 -0.0012213725787565575 0.0056162195078215639 0 -0.0011195627501967853 0.005806327172322598 0 -0.00054228047854821984 0.016791276084665522 0 -0.00038586676486251903 0.016795188232825033 0 -0.00031370363415148477 0.017023931561092675 0 -0.00028154358212386066 0.016842563958912059 0 -0.00038586676486251903 0.016795188232825033 0 -0.00031370363415148477 0.017023931561092675 0 -0.00054520355179808852 0.016597968410775148 0 -0.00031550166532200743 0.017796020249704766 0 -0.00028154358212386066 0.016842563958912059 0 -0.00022155909127862612 0.016961449151636023 0 -0.00031370363415148477 0.017023931561092675 0 -0.00028154358212386066 0.016842563958912059 0 -0.00038586676486251903 0.016795188232825033 0 -0.00026899565206398165 0.016731012943176318 0 -0.00048718447166539548 0.01666458368942271 0 -0.00047684518802458689 0.016439304108211098 0 -0.00039899597049832924 0.016633104520867827 0 -0.00048718447166539548 0.01666458368942271 0 -0.00038586676486251903 0.016795188232825033 0 -0.00039899597049832924 0.016633104520867827 0 -0.00038586676486251903 0.016795188232825033 0 -0.00039899597049832924 0.016633104520867827 0 -0.00026899565206398165 0.016731012943176318 0 -0.00032229949497212699 0.016526740981513518 0 -0.00039899597049832924 0.016633104520867827 0 -0.00017165426300235777 0.016618095589657902 0 -0.00039899597049832924 0.016633104520867827 0 -0.00026899565206398165 0.016731012943176318 0 -0.00017165426300235777 0.016618095589657902 0 -0.00026899565206398165 0.016731012943176318 0 -0.00017165426300235777 0.016618095589657902 0 -9.2238533617451977e-05 0.016778671118199681 0 5.4506472284226067e-05 0.016496749588530042 0 6.5736420170783293e-05 0.01677076267597501 0 0.00032589659857249457 0.016598353071623672 0 -0.00024073284653734173 0.016506433239897939 0 0.00036734972321176846 0.017109278852995045 0 5.4506472284226067e-05 0.016496749588530042 0 -0.00017165426300235777 0.016618095589657902 0 6.5736420170783293e-05 0.01677076267597501 0 0.00036734972321176846 0.017109278852995045 0 -0.00035639985564419637 0.01297567572973872 0 -0.00028154358212386066 0.016842563958912059 0 -9.2238533617451977e-05 0.016778671118199681 0 -0.00012063950149935387 0.016899318528580475 0 -0.00028154358212386066 0.016842563958912059 0 -0.00026899565206398165 0.016731012943176318 0 -9.2238533617451977e-05 0.016778671118199681 0 -0.00028154358212386066 0.016842563958912059 0 -0.00012063950149935387 0.016899318528580475 0 -0.00022155909127862612 0.016961449151636023 0 -9.2238533617451977e-05 0.016778671118199681 0 -0.00012063950149935387 0.016899318528580475 0 -1.9489107810361947e-06 0.016892479611443648 0 -0.0021268382671006973 0.0092418484774670732 0 -6.3168364296504613e-05 0.0075239832050548955 0 -0.0014849963967676317 0.010034057374389956 0 -0.0005811281839751438 0.0065519055603681167 0 -0.0018090134315982868 0.0087760570817901253 0 -0.00035639985564419637 0.01297567572973872 0 7.2511143233038251e-06 0.011419258712196945 0 -0.00069286286578106732 0.0078377545292904055 0 -0.00030666294894840968 0.0064250915502015362 0 0.00022158993873411655 0.0072052177482625056 0 6.5736420170783293e-05 0.01677076267597501 0 0.00020927428907748235 0.016908463428948632 0 0.00032589659857249457 0.016598353071623672 0 -0.00012063950149935387 0.016899318528580475 0 -1.9489107810361947e-06 0.016892479611443648 0 -1.0528689962499938e-05 0.016929951358954844 0 -0.00035639985564419637 0.01297567572973872 0 -0.00097796340382166544 0.012950956893885104 0 -0.00054961524646796132 0.011581843445909193 0 -0.00023902812218754444 0.011965791066980124 0 -0.00073603385986184772 0.012376098995404801 0 -0.00035639985564419637 0.01297567572973872 0 -0.00079759244044280556 0.011429462739911019 0 -0.00069286286578106732 0.0078377545292904055 0 -0.00060508708941544589 0.0079489312614882054 0 0.00022158993873411655 0.0072052177482625056 0 -0.00079759244044280556 0.011429462739911019 0 -0.0005811281839751438 0.0065519055603681167 0 0.00024402299699838981 0.0061339912372343703 0 0.00071961815010993197 0.0061854170022223581 0 0.00022158993873411655 0.0072052177482625056 0 -0.00030666294894840968 0.0064250915502015362 0 0.00024402299699838981 0.0061339912372343703 0 0.00022158993873411655 0.0072052177482625056 0 0.00027702443331753833 0.0060390964944229885 0 -0.0005811281839751438 0.0065519055603681167 0 -0.0016250421971944649 0.0050353417255273826 0 -0.0017032892997884126 0.0053736805047877399 0 -0.002043524578900563 0.0053934834019282113 0 -0.00039215692344907595 0.0055969205780532173 0 -0.0005811281839751438 0.0065519055603681167 0 1.6088494554773875e-05 0.0058876869913627285 0 -0.00027053272545665799 0.0058577253576926691 0 -0.00055901464067725293 0.006369453569847772 0 0.00036779341398358563 0.0058543696967267335 0 0.00024402299699838981 0.0061339912372343703 0 0.00043568336706981321 0.0060472712989440422 0 0.00034015616326053745 0.0060824973287210626 0 0.00027702443331753833 0.0060390964944229885 0 0.00040207200335524258 0.0058722719312619487 0 0.00027702443331753833 0.0060390964944229885 0 -0.0017546199680647863 0.0055754228834096527 0 -0.002043524578900563 0.0053934834019282113 0 -0.0018899617728811121 0.0057434928106034682 0 -0.002043524578900563 0.0053934834019282113 0 -0.0018899617728811121 0.0057434928106034682 0 -0.0022551488156355593 0.0057548913042567368 0 -0.0017032892997884126 0.0053736805047877399 0 -0.0017546199680647863 0.0055754228834096527 0 -0.002043524578900563 0.0053934834019282113 0 -0.0018251312418406784 0.0078292180945688065 0 -0.0018090134315982868 0.0087760570817901253 0 -0.0018899617728811121 0.0057434928106034682 0 -0.0018965631061541241 0.0061005843664323281 0 -0.0022551488156355593 0.0057548913042567368 0 -0.0019441720190243184 0.0061813893963905044 0 -0.0018965631061541241 0.0061005843664323281 0 -0.0022551488156355593 0.0057548913042567368 0 -0.001751695895154374 0.005923667129051337 0 -0.0018899617728811121 0.0057434928106034682 0 -0.0018965631061541241 0.0061005843664323281 0 -0.0013649449335858964 0.010095974882860799 0 -0.0015184015782925197 0.010377417909465827 0 -0.00094746062383358073 0.010608374736477775 0 -0.0018251312418406784 0.0078292180945688065 0 -0.00083594410136226649 0.009648550482320592 0 -0.001751695895154374 0.005923667129051337 0 -0.0017284373047077779 0.0060726745204874397 0 -0.0018965631061541241 0.0061005843664323281 0 -0.0013649449335858964 0.010095974882860799 0 -0.0015184015782925197 0.010377417909465827 0 -0.0017653982096047832 0.010169977459379125 0 -0.0013649449335858964 0.010095974882860799 0 -0.0017653982096047832 0.010169977459379125 0 -0.001789488805160191 0.0095629991195056545 0 -0.0017653982096047832 0.010169977459379125 0 -0.0020508696987867605 0.010031014883775478 0 -0.001789488805160191 0.0095629991195056545 0 -0.0015184015782925197 0.010377417909465827 0 -0.0017653982096047832 0.010169977459379125 0 -0.0019187423679604542 0.010448517292164153 0 -0.0017653982096047832 0.010169977459379125 0 -0.0019471126902185533 0.010208852526525114 0 -0.0019187423679604542 0.010448517292164153 0 -0.0019471126902185533 0.010208852526525114 0 -0.002132086742718039 0.010224891848366365 0 -0.0019187423679604542 0.010448517292164153 0 -0.0017653982096047832 0.010169977459379125 0 -0.0019471126902185533 0.010208852526525114 0 -0.0020316062376960946 0.010051869219294813 0 -0.0021300483170040847 0.010548673489905642 0 -0.0019395356163264426 0.01153470725628263 0 -0.0019471126902185533 0.010208852526525114 0 -0.0020316062376960946 0.010051869219294813 0 -0.002132086742718039 0.010224891848366365 0 -0.0019395356163264426 0.01153470725628263 0 -0.0016671082798548934 0.012397706716007876 0 -0.00097796340382166544 0.012950956893885104 0 -0.0016671082798548934 0.012397706716007876 0 -0.0019395356163264426 0.01153470725628263 0 -0.0018090134315982868 0.0087760570817901253 0 -0.0012272150730010614 0.01101746070258045 0 -0.0015596274939155559 0.010849169857043766 0 -0.0017784638431977472 0.011765750767930225 0 -0.0016817862677438074 0.011813346821106824 0 -0.0012272150730010614 0.01101746070258045 0 -0.0017784638431977472 0.011765750767930225 0 -0.00079759244044280556 0.011429462739911019 0 -0.0018090134315982868 0.0087760570817901253 0 -0.0014428937533317711 0.010752810344587348 0 -0.0012272150730010614 0.01101746070258045 0 -0.0015596274939155559 0.010849169857043766 0 -0.00079759244044280556 0.011429462739911019 0 -0.00097796340382166544 0.012950956893885104 0 -0.0010187558798137538 0.013426809507199444 0 -0.0013538149070877385 0.013710071753923119 0 -0.0011132646455425451 0.013824535649880116 0 -0.00012063950149935387 0.016899318528580475 0 -0.00022155909127862612 0.016961449151636023 0 -0.00017198865800060876 0.017075070848446224 0 -0.00012063950149935387 0.016899318528580475 0 -1.0528689962499938e-05 0.016929951358954844 0 -0.00017198865800060876 0.017075070848446224 0 -0.00097796340382166544 0.012950956893885104 0 -0.0010133612306837127 0.015435945635318951 0 -0.0010133612306837127 0.015435945635318951 0 -0.0016654466591828616 0.016440764872164941 0 -0.0015183338416316459 0.014579330952307186 0 -0.0022236289622105019 0.014217736133494125 0 -0.0017588067367468425 0.014001521566171279 0 -0.0010133612306837127 0.015435945635318951 0 -0.0016671082798548934 0.012397706716007876 0 -0.0023972856830864024 0.014199081115769015 0 -0.0023771330512070694 0.013981334811491379 0 -0.0025254002393263687 0.01398623559165443 0 -0.0019395356163264426 0.01153470725628263 0 -0.0019482585918016856 0.01200661139900514 0 -0.0022236289622105019 0.014217736133494125 0 -0.0017588067367468425 0.014001521566171279 0 -0.0021177386253039888 0.013753391291192081 0 -0.0018455769715503064 0.011683382578015678 0 -0.001959497530312551 0.011626792198466959 0 -0.0020614176794622229 0.0120613912333658 0 -0.0016671082798548934 0.012397706716007876 0 -0.0019482585918016856 0.01200661139900514 0 -0.0017588067367468425 0.014001521566171279 0 -0.0021177386253039888 0.013753391291192081 0 -0.0018028852001518935 0.013194865348262171 0 -0.0019482585918016856 0.01200661139900514 0 -0.0020681178046852884 0.012182948366404735 0 -0.0019482585918016856 0.01200661139900514 0 -0.0022072493639550311 0.012972876686060343 0 -0.0017588067367468425 0.014001521566171279 0 -0.0011302989161788228 0.014261141236687607 0 -0.0018028852001518935 0.013194865348262171 0 -0.0016654466591828616 0.016440764872164941 0 -0.0022072493639550311 0.012972876686060343 0 -0.0015183338416316459 0.014579330952307186 0 -0.0017588067367468425 0.014001521566171279 0 -0.0011302989161788228 0.014261141236687607 0 -0.0016773081006712571 0.017204848111660013 0 -0.0016654466591828616 0.016440764872164941 0 -0.0011254899254622901 0.020178636496832915 0 -0.00097183936761202649 0.020022050960176563 0 -0.0010643576955765791 0.0200443610580349 0 -0.0021658603253058408 0.013967885094669376 0 -0.0023972856830864024 0.014199081115769015 0 -0.0023771330512070694 0.013981334811491379 0 -0.0011362208229046729 0.020028299810325553 0 -0.0010643576955765791 0.0200443610580349 0 -0.0010244590905355586 0.019950698510710487 0 -0.0016654466591828616 0.016440764872164941 0 -0.00031550166532200743 0.017796020249704766 0 -0.0016044063303829771 0.016476780097344604 0 -0.0010649430716633864 0.016032003800977562 0 -0.00039687442546582264 0.017085684299678446 0 -0.0010133612306837127 0.015435945635318951 0 -0.00031550166532200743 0.017796020249704766 0 -0.00097183936761202649 0.020022050960176563 0 -0.0010643576955765791 0.0200443610580349 0 -0.0010244590905355586 0.019950698510710487 0 -0.00022155909127862612 0.016961449151636023 0 -0.00017198865800060876 0.017075070848446224 0 -0.00031370363415148477 0.017023931561092675 0 -0.00088266248048891546 0.018544225296410217 0 -0.00031550166532200743 0.017796020249704766 0 -0.002153377545620695 0.013840424932511208 0 -0.002209112423885409 0.013752295323914776 0 -0.0022347091555633991 0.01375428377075137 0 -0.0022299343846267335 0.013673204374003352 0 -0.0022397099669660865 0.013684888738477874 0 -0.0022335512628545275 0.013594176329674473 0 -0.0022299343846267335 0.013673204374003352 0 -0.0022397099669660865 0.013684888738477874 0 -0.002209112423885409 0.013752295323914776 0 -0.0022397099669660865 0.013684888738477874 0 -0.0022627846189401044 0.013624371278443126 0 -0.0022335512628545275 0.013594176329674473 0 -0.0022397099669660865 0.013684888738477874 0 -0.0022347091555633991 0.01375428377075137 0 -0.0022658000827105737 0.013701689374835752 0 -0.0022397099669660865 0.013684888738477874 0 -0.002209112423885409 0.013752295323914776 0 -0.0022347091555633991 0.01375428377075137 0 -0.0021356676082514084 0.013821605101954482 0 -0.0023648645750121186 0.013799312458780549 0 -0.0021658603253058408 0.013967885094669376 0 -0.0023771330512070694 0.013981334811491379 0 -0.0023333841817194351 0.013856212685835503 0 -0.0023771330512070694 0.013981334811491379 0 -0.0023333841817194351 0.013856212685835503 0 -0.0024768516333000651 0.013902811688610421 0 -0.0022347091555633991 0.01375428377075137 0 -0.002310475738426505 0.013742375144370834 0 -0.0022658000827105737 0.013701689374835752 0 -0.0023333841817194351 0.013856212685835503 0 -0.0024768516333000651 0.013902811688610421 0 -0.0025210344958087457 0.013865171458942801 0 -0.0023648645750121186 0.013799312458780549 0 -0.0020131343444532599 0.012583477368666796 0 -0.0023771330512070694 0.013981334811491379 0 -0.0024768516333000651 0.013902811688610421 0 -0.0025254002393263687 0.01398623559165443 0 -0.0025491395924173961 0.013750963437567026 0 -0.0022072493639550311 0.012972876686060343 0 -0.0019347225795118736 0.01213716330024437 0 -0.0021433850152109291 0.012501143304052709 0 -0.0020542959452138445 0.012641930225645146 0 -0.002132086742718039 0.010224891848366365 0 -0.0022112330882328429 0.010567303431507236 0 -0.0019187423679604542 0.010448517292164153 0 -0.0022072493639550311 0.012972876686060343 0 -0.0020681178046852884 0.012182948366404735 0 -0.0024768516333000651 0.013902811688610421 0 -0.0025084025905005043 0.013944213943264101 0 -0.0025254617855844362 0.013921164592692596 0 -0.0017093861906062185 0.011678258994645941 0 -0.0020131343444532599 0.012583477368666796 0 -0.0018423381883388638 0.012133911740804481 0 -0.0018836608136039981 0.012067825423315304 0 -0.0018260587077102795 0.012063387410880134 0 -0.0020681178046852884 0.012182948366404735 0 -0.0017093861906062185 0.011678258994645941 0 -0.0010715818793811231 0.011079981066850713 0 -0.0013841652451882774 0.011109643834398357 0 -0.00086322760721663043 0.011399453148434264 0 -0.0020681178046852884 0.012182948366404735 0 -0.0020131343444532599 0.012583477368666796 0 -0.0024768516333000651 0.013902811688610421 0 -0.0025254617855844362 0.013921164592692596 0 -0.0025210344958087457 0.013865171458942801 0 -0.0013841652451882774 0.011109643834398357 0 -0.0016438361542041337 0.012167894331596939 0 -0.00086322760721663043 0.011399453148434264 0 -0.002310475738426505 0.013742375144370834 0 -0.0022658000827105737 0.013701689374835752 0 -0.0022627846189401044 0.013624371278443126 0 -0.0020131343444532599 0.012583477368666796 0 -0.0019226131474298356 0.012904183628719347 0 -0.0022397099669660865 0.013684888738477874 0 -0.0022658000827105737 0.013701689374835752 0 -0.0022627846189401044 0.013624371278443126 0 -0.0016438361542041337 0.012167894331596939 0 -0.00086322760721663043 0.011399453148434264 0 -0.00055807147933736119 0.012226074230286838 0 -0.00031504908630231385 0.011615140919306507 0 -0.00086322760721663043 0.011399453148434264 0 -0.00015101744507844129 0.011185611525612909 0 -0.00031504908630231385 0.011615140919306507 0 -3.8450296472536109e-05 0.011970804738623856 0 -0.00055807147933736119 0.012226074230286838 0 -0.00031504908630231385 0.011615140919306507 0 -0.00086322760721663043 0.011399453148434264 0 -0.00055807147933736119 0.012226074230286838 0 -0.0017093861906062185 0.011678258994645941 0 -0.00077089000156446805 0.010951200305112182 0 -0.00100981772417216 0.011171545748150859 0 -0.00086322760721663043 0.011399453148434264 0 -0.00015101744507844129 0.011185611525612909 0 -0.0017093861906062185 0.011678258994645941 0 -0.0014354256559226391 0.01160484323502268 0 -0.0021015697256278549 0.010738399412115502 0 -0.0019187423679604542 0.010448517292164153 0 -0.0015245569903506342 0.010672993315755126 0 -0.0022112330882328429 0.010567303431507236 0 -0.0021015697256278549 0.010738399412115502 0 -0.0019187423679604542 0.010448517292164153 0 -0.0015184015782925197 0.010377417909465827 0 -0.0019187423679604542 0.010448517292164153 0 -0.0015245569903506342 0.010672993315755126 0 -0.00077089000156446805 0.010951200305112182 0 -0.00083594410136226649 0.009648550482320592 0 -0.0015184015782925197 0.010377417909465827 0 -0.0015245569903506342 0.010672993315755126 0 -0.00094746062383358073 0.010608374736477775 0 -0.00015101744507844129 0.011185611525612909 0 9.9605023303507398e-06 0.011395022937551487 0 7.8649219510717531e-05 0.011318996465821364 0 -0.00031504908630231385 0.011615140919306507 0 -0.00015101744507844129 0.011185611525612909 0 9.9605023303507398e-06 0.011395022937551487 0 -0.00031504908630231385 0.011615140919306507 0 9.9605023303507398e-06 0.011395022937551487 0 -3.8450296472536109e-05 0.011970804738623856 0 9.9605023303507398e-06 0.011395022937551487 0 -3.8450296472536109e-05 0.011970804738623856 0 7.6307469976166856e-05 0.011237068688142553 0 -3.8450296472536109e-05 0.011970804738623856 0 -7.911685564758491e-05 0.013052888270463884 0 7.5721796272439751e-05 0.012203571552127489 0 -3.8450296472536109e-05 0.011970804738623856 0 7.6307469976166856e-05 0.011237068688142553 0 7.5721796272439751e-05 0.012203571552127489 0 -7.911685564758491e-05 0.013052888270463884 0 -2.6602362807857943e-07 0.013956405781994001 0 7.5721796272439751e-05 0.012203571552127489 0 -7.911685564758491e-05 0.013052888270463884 0 -0.00032218794609143304 0.014321873034432546 0 -0.00096162473639776883 0.013172848061083698 0 -7.911685564758491e-05 0.013052888270463884 0 -2.6602362807857943e-07 0.013956405781994001 0 -0.00032218794609143304 0.014321873034432546 0 -2.6602362807857943e-07 0.013956405781994001 0 -0.00032218794609143304 0.014321873034432546 0 -9.4891822577023562e-07 0.016030168138592125 0 -7.911685564758491e-05 0.013052888270463884 0 -0.00055807147933736119 0.012226074230286838 0 -0.00096162473639776883 0.013172848061083698 0 -3.8450296472536109e-05 0.011970804738623856 0 -7.911685564758491e-05 0.013052888270463884 0 -0.00055807147933736119 0.012226074230286838 0 -0.0016438361542041337 0.012167894331596939 0 -0.00096162473639776883 0.013172848061083698 0 -0.0019292433334868091 0.013624424410962835 0 -0.0022627846189401044 0.013624371278443126 0 -0.0019292433334868091 0.013624424410962835 0 -0.0022335512628545275 0.013594176329674473 0 -0.0019226131474298356 0.012904183628719347 0 -0.0019769560983143898 0.013564973611075865 0 -0.0016438361542041337 0.012167894331596939 0 -0.00055807147933736119 0.012226074230286838 0 -0.00096162473639776883 0.013172848061083698 0 -0.00026878220921183429 0.014534263670249363 0 -0.0010600629915459754 0.015405130953016304 0 -0.00032218794609143304 0.014321873034432546 0 -0.0019292433334868091 0.013624424410962835 0 -0.0024240440605622789 0.013646256630820216 0 -0.00032218794609143304 0.014321873034432546 0 -0.00096162473639776883 0.013172848061083698 0 -0.0019292433334868091 0.013624424410962835 0 -0.00032218794609143304 0.014321873034432546 0 -9.4891822577023562e-07 0.016030168138592125 0 -1.6384175234513983e-05 0.017171025192825824 0 2.3678148862737341e-07 0.018103919832823018 0 -9.4891822577023562e-07 0.016030168138592125 0 -1.6384175234513983e-05 0.017171025192825824 0 -0.0024240440605622789 0.013646256630820216 0 -0.0022774125196003119 0.013656155074009789 0 -0.0022335512628545275 0.013594176329674473 0 -0.0019292433334868091 0.013624424410962835 0 -0.0024240440605622789 0.013646256630820216 0 -0.0022335512628545275 0.013594176329674473 0 -0.0022299343846267335 0.013673204374003352 0 -0.0022774125196003119 0.013656155074009789 0 -0.0022335512628545275 0.013594176329674473 0 0.00020378315256806384 0.0094068547764657399 0 0.00014145770538309229 0.0094573754999186452 0 -6.9952014067491377e-05 0.010491812088153793 0 0.00020378315256806384 0.0094068547764657399 0 0.00016184230627729873 0.0087059361193987418 0 0.00018561570651332235 0.0091755551371292057 0 0.00020378315256806384 0.0094068547764657399 0 0.00018561570651332235 0.0091755551371292057 0 0.00014145770538309229 0.0094573754999186452 0 0.00020378315256806384 0.0094068547764657399 0 0.00016184230627729873 0.0087059361193987418 0 8.5346848122727734e-05 0.0085514595901899793 0 -0.00084026581737020362 0.0062159495567789165 0 -0.00080877882764206839 0.0066978246711713431 0 -0.0010875133810322082 0.0063577672377636918 0 -0.00084026581737020362 0.0062159495567789165 0 -0.00080877882764206839 0.0066978246711713431 0 -0.00034338262758915609 0.0061593971377538644 0 -0.00080877882764206839 0.0066978246711713431 0 -0.0011117150802070429 0.0063479882448379292 0 -0.0010875133810322082 0.0063577672377636918 0 0.00016184230627729873 0.0087059361193987418 0 0.00018561570651332235 0.0091755551371292057 0 0.00020171221651734395 0.009159191294306427 0 -0.0010656845254907227 0.0062070264627649011 0 -0.00084026581737020362 0.0062159495567789165 0 -0.0010875133810322082 0.0063577672377636918 0 -0.0002282656534941452 0.0077098863921063118 0 -0.00036417239318950153 0.0072689338679915207 0 0.00018561570651332235 0.0091755551371292057 0 0.00014145770538309229 0.0094573754999186452 0 0.00020171221651734395 0.009159191294306427 0 -0.00036417239318950153 0.0072689338679915207 0 -0.00041778455412033738 0.0072534433179192986 0 -0.0010656845254907227 0.0062070264627649011 0 -0.0011008032368628471 0.006354838368070828 0 -0.0010875133810322082 0.0063577672377636918 0 -0.0012417800509004337 0.0062792283088340967 0 -0.00036417239318950153 0.0072689338679915207 0 -0.00088644136490010652 0.0065111552922350931 0 0.00010069176575626049 0.0069104064257554006 0 -0.00059560082124956418 0.0069663694384296112 0 -0.00026829185443589832 0.009080049614517317 0 -0.001270199794592212 0.0091758975252326166 0 -6.9952014067491377e-05 0.010491812088153793 0 -0.00036417239318950153 0.0072689338679915207 0 -0.00043263638975624526 0.0080684593048288671 0 0.00014145770538309229 0.0094573754999186452 0 0.00020171221651734395 0.009159191294306427 0 -0.00026829185443589832 0.009080049614517317 0 -0.00088644136490010652 0.0065111552922350931 0 -0.00059560082124956418 0.0069663694384296112 0 -0.0012999868140188861 0.0070362665191963641 0 -0.00043263638975624526 0.0080684593048288671 0 -0.00083594410136226649 0.009648550482320592 0 9.9605023303507398e-06 0.011395022937551487 0 7.8649219510717531e-05 0.011318996465821364 0 7.6307469976166856e-05 0.011237068688142553 0 -0.00083594410136226649 0.009648550482320592 0 1.860665727387708e-05 0.010743379788961361 0 7.8649219510717531e-05 0.011318996465821364 0 7.6307469976166856e-05 0.011237068688142553 0 -6.9952014067491377e-05 0.010491812088153793 0 0.00014145770538309229 0.0094573754999186452 0 -0.00026829185443589832 0.009080049614517317 0 -6.9952014067491377e-05 0.010491812088153793 0 -6.9952014067491377e-05 0.010491812088153793 0 3.107416848650692e-05 0.011148782669139949 0 9.6202967356558651e-05 0.010130389935451841 0 7.6307469976166856e-05 0.011237068688142553 0 -6.9952014067491377e-05 0.010491812088153793 0 3.107416848650692e-05 0.011148782669139949 0 7.6307469976166856e-05 0.011237068688142553 0 3.107416848650692e-05 0.011148782669139949 0 7.5721796272439751e-05 0.012203571552127489 0 -2.6602362807857943e-07 0.013956405781994001 0 7.5721796272439751e-05 0.012203571552127489 0 3.4439232303380766e-07 0.011883676288166219 0 3.107416848650692e-05 0.011148782669139949 0 7.5721796272439751e-05 0.012203571552127489 0 3.4439232303380766e-07 0.011883676288166219 0 3.107416848650692e-05 0.011148782669139949 0 3.4439232303380766e-07 0.011883676288166219 0 9.6202967356558651e-05 0.010130389935451841 0 3.4439232303380766e-07 0.011883676288166219 0 9.6202967356558651e-05 0.010130389935451841 0 1.0464352562503962e-07 0.009810782345841082 0 0.00020378315256806384 0.0094068547764657399 0 9.6202967356558651e-05 0.010130389935451841 0 8.5346848122727734e-05 0.0085514595901899793 0 0.00020378315256806384 0.0094068547764657399 0 -6.9952014067491377e-05 0.010491812088153793 0 9.6202967356558651e-05 0.010130389935451841 0 8.5346848122727734e-05 0.0085514595901899793 0 1.0464352562503962e-07 0.009810782345841082 0 3.4962863389019585e-07 0.0077380204362023511 0 9.6202967356558651e-05 0.010130389935451841 0 8.5346848122727734e-05 0.0085514595901899793 0 1.0464352562503962e-07 0.009810782345841082 0 8.5346848122727734e-05 0.0085514595901899793 0 3.4962863389019585e-07 0.0077380204362023511 0 7.4773863759941661e-05 0.0073877917237864642 0 3.4962863389019585e-07 0.0077380204362023511 0 7.4773863759941661e-05 0.0073877917237864642 0 0.00011090831965609274 0.0066019406538198773 0 3.4962863389019585e-07 0.0077380204362023511 0 7.5894018713423112e-08 0.0056654638877214119 0 0.00011090831965609274 0.0066019406538198773 0 7.4773863759941661e-05 0.0073877917237864642 0 0.00013865812733900124 0.0069099722048292503 0 5.8312936854410984e-05 0.0075275978415750167 0 7.4773863759941661e-05 0.0073877917237864642 0 0.00013865812733900124 0.0069099722048292503 0 0.00011090831965609274 0.0066019406538198773 0 8.5346848122727734e-05 0.0085514595901899793 0 7.4773863759941661e-05 0.0073877917237864642 0 5.8312936854410984e-05 0.0075275978415750167 0 -2.9939024859601637e-05 0.0056158494411273465 0 7.5894018713423112e-08 0.0056654638877214119 0 -2.2856725273534752e-07 0.0035911992842443713 0 6.7266981847165653e-05 0.0053581070145077439 0 0.00018910683569381545 0.0046065409755170327 0 -2.9939024859601637e-05 0.0056158494411273465 0 0.00011090831965609274 0.0066019406538198773 0 0.00014916170290858212 0.0063899993890555425 0 -2.9939024859601637e-05 0.0056158494411273465 0 7.5894018713423112e-08 0.0056654638877214119 0 0.00011090831965609274 0.0066019406538198773 0 -2.9939024859601637e-05 0.0056158494411273465 0 0.00014916170290858212 0.0063899993890555425 0 0.0001274615382201182 0.0060986449513683264 0 0.00013865812733900124 0.0069099722048292503 0 0.00011090831965609274 0.0066019406538198773 0 0.00014916170290858212 0.0063899993890555425 0 0.00013865812733900124 0.0069099722048292503 0 0.00014916170290858212 0.0063899993890555425 0 0.0001814651073778599 0.006469785330903169 0 0.00014916170290858212 0.0063899993890555425 0 0.0001274615382201182 0.0060986449513683264 0 0.0001814651073778599 0.006469785330903169 0 -2.9939024859601637e-05 0.0056158494411273465 0 0.0001274615382201182 0.0060986449513683264 0 0.00022197858024045259 0.0058776332129107283 0 0.0001274615382201182 0.0060986449513683264 0 0.00026142710435151913 0.0061167714446102844 0 0.00034245195350639425 0.005573222720330907 0 0.00026142710435151913 0.0061167714446102844 0 0.00040554161781641103 0.0055261996526862296 0 0.00034245195350639425 0.005573222720330907 0 0.0001274615382201182 0.0060986449513683264 0 0.00026142710435151913 0.0061167714446102844 0 0.0001814651073778599 0.006469785330903169 0 0.00026142710435151913 0.0061167714446102844 0 0.0001814651073778599 0.006469785330903169 0 0.00014635203705059912 0.0066967332703193726 0 0.00013865812733900124 0.0069099722048292503 0 0.0001814651073778599 0.006469785330903169 0 0.00014635203705059912 0.0066967332703193726 0 0.00026142710435151913 0.0061167714446102844 0 0.00021394095084146928 0.0059618172155350398 0 0.00040554161781641103 0.0055261996526862296 0 0.00026142710435151913 0.0061167714446102844 0 0.00021394095084146928 0.0059618172155350398 0 0.00014635203705059912 0.0066967332703193726 0 -0.0002282656534941452 0.0077098863921063118 0 -3.8502365770112778e-05 0.0074817920877706763 0 8.5346848122727734e-05 0.0085514595901899793 0 5.8312936854410984e-05 0.0075275978415750167 0 -7.8187755561289548e-05 0.0073414656552144861 0 0.00016184230627729873 0.0087059361193987418 0 8.5346848122727734e-05 0.0085514595901899793 0 -7.8187755561289548e-05 0.0073414656552144861 0 5.8312936854410984e-05 0.0075275978415750167 0 -7.8187755561289548e-05 0.0073414656552144861 0 0.00014635203705059912 0.0066967332703193726 0 0.00013865812733900124 0.0069099722048292503 0 5.8312936854410984e-05 0.0075275978415750167 0 0.00014635203705059912 0.0066967332703193726 0 0.00021394095084146928 0.0059618172155350398 0 -7.8187755561289548e-05 0.0073414656552144861 0 -0.00034338262758915609 0.0061593971377538644 0 0.00021394095084146928 0.0059618172155350398 0 -7.8187755561289548e-05 0.0073414656552144861 0 0.00014635203705059912 0.0066967332703193726 0 -0.00080877882764206839 0.0066978246711713431 0 -7.8187755561289548e-05 0.0073414656552144861 0 -0.00034338262758915609 0.0061593971377538644 0 -0.00034338262758915609 0.0061593971377538644 0 -0.00045099043579073647 0.0054604412052890045 0 -2.8010968298229576e-05 0.0055809148139644577 0 -0.00084026581737020362 0.0062159495567789165 0 -0.00034338262758915609 0.0061593971377538644 0 -0.00045099043579073647 0.0054604412052890045 0 -2.8010968298229576e-05 0.0055809148139644577 0 0.00023005110609066796 0.00537159092531118 0 0.0001299476081829279 0.005071985890482222 0 -0.00045099043579073647 0.0054604412052890045 0 -2.8010968298229576e-05 0.0055809148139644577 0 0.0001299476081829279 0.005071985890482222 0 0.00021394095084146928 0.0059618172155350398 0 -2.8010968298229576e-05 0.0055809148139644577 0 0.00023005110609066796 0.00537159092531118 0 0.00021394095084146928 0.0059618172155350398 0 -0.00034338262758915609 0.0061593971377538644 0 -2.8010968298229576e-05 0.0055809148139644577 0 0.00021394095084146928 0.0059618172155350398 0 0.00041802843624700594 0.0052539661988511193 0 0.00023005110609066796 0.00537159092531118 0 0.00021394095084146928 0.0059618172155350398 0 0.00040554161781641103 0.0055261996526862296 0 0.00041802843624700594 0.0052539661988511193 0 0.00041802843624700594 0.0052539661988511193 0 0.00035216658612310567 0.0050762492789092886 0 0.0005463657169193616 0.0048200914623064825 0 0.00041802843624700594 0.0052539661988511193 0 0.00023005110609066796 0.00537159092531118 0 0.00035216658612310567 0.0050762492789092886 0 0.00023005110609066796 0.00537159092531118 0 0.00035216658612310567 0.0050762492789092886 0 0.0001299476081829279 0.005071985890482222 0 0.00035216658612310567 0.0050762492789092886 0 0.00033086986914100734 0.0049602342705614361 0 0.0001299476081829279 0.005071985890482222 0 0.00031486378811344709 0.0049819815788285336 0 4.0137318271209659e-05 0.0051979854527056408 0 0.00035216658612310567 0.0050762492789092886 0 0.00033086986914100734 0.0049602342705614361 0 0.0005463657169193616 0.0048200914623064825 0 -0.00014154508887953516 0.0050385793514100092 0 0.00033086986914100734 0.0049602342705614361 0 -4.5924268850446418e-05 0.0053160656813076449 0 -0.00017361502370592176 0.0051645690110875284 0 -0.00014154508887953516 0.0050385793514100092 0 -4.5924268850446418e-05 0.0053160656813076449 0 -0.00017361502370592176 0.0051645690110875284 0 -0.00021742286896252812 0.0051770784814653319 0 -4.5924268850446418e-05 0.0053160656813076449 0 -0.00027459522963085045 0.0056343321679318105 0 -0.00021742286896252812 0.0051770784814653319 0 -4.5924268850446418e-05 0.0053160656813076449 0 -0.0003722871000166935 0.0055531732108670797 0 4.0137318271209659e-05 0.0051979854527056408 0 0.00062548646329988529 0.0046114503393137884 0 0.00060961479528993804 0.0044490738968946527 0 0.00060982398252312948 0.0046031206785453896 0 0.00062548646329988529 0.0046114503393137884 0 0.00060961479528993804 0.0044490738968946527 0 0.00064848181436093721 0.0044524545885694499 0 0.00060961479528993804 0.0044490738968946527 0 0.00049133913683086416 0.0042099648720451835 0 0.00056963770741354594 0.0042463065856242982 0 0.00060961479528993804 0.0044490738968946527 0 0.00049133913683086416 0.0042099648720451835 0 0.0005557249556596229 0.0044925061885894534 0 1.7593625970322213e-05 0.0034868026643241012 0 3.9714390457889904e-05 0.0025289745321197448 0 0.00057300417028468718 0.0046212117391820828 0 0.0005557249556596229 0.0044925061885894534 0 0.00032061676974775915 0.004511528381070256 0 0.00049133913683086416 0.0042099648720451835 0 0.0005557249556596229 0.0044925061885894534 0 0.00032061676974775915 0.004511528381070256 0 0.00057300417028468718 0.0046212117391820828 0 0.0005557249556596229 0.0044925061885894534 0 0.00060982398252312948 0.0046031206785453896 0 0.00060961479528993804 0.0044490738968946527 0 0.0005557249556596229 0.0044925061885894534 0 0.00060982398252312948 0.0046031206785453896 0 0.00062548646329988529 0.0046114503393137884 0 0.00060982398252312948 0.0046031206785453896 0 0.00056624047123783334 0.004685079255264713 0 0.00043326243916399387 0.0047595456357489626 0 0.00056624047123783334 0.004685079255264713 0 0.0005463657169193616 0.0048200914623064825 0 0.00043326243916399387 0.0047595456357489626 0 0.00033086986914100734 0.0049602342705614361 0 0.0005463657169193616 0.0048200914623064825 0 0.00062548646329988529 0.0046114503393137884 0 0.00056624047123783334 0.004685079255264713 0 0.0005463657169193616 0.0048200914623064825 0 0.00062548646329988529 0.0046114503393137884 0 0.0005463657169193616 0.0048200914623064825 0 0.00065698844884354225 0.0046654935748421025 0 0.0005463657169193616 0.0048200914623064825 0 0.0005548870715732341 0.0050002266028476398 0 0.00065698844884354225 0.0046654935748421025 0 0.00041802843624700594 0.0052539661988511193 0 0.0005463657169193616 0.0048200914623064825 0 0.0005548870715732341 0.0050002266028476398 0 0.00040554161781641103 0.0055261996526862296 0 0.00041802843624700594 0.0052539661988511193 0 0.0005548870715732341 0.0050002266028476398 0 0.0005548870715732341 0.0050002266028476398 0 0.00065698844884354225 0.0046654935748421025 0 0.00064235388852028927 0.0047864898463394617 0 0.00065698844884354225 0.0046654935748421025 0 0.0007579868568883953 0.0043612967634959745 0 0.00064235388852028927 0.0047864898463394617 0 0.00065698844884354225 0.0046654935748421025 0 0.00069689745961313957 0.004281152428108434 0 0.0007579868568883953 0.0043612967634959745 0 0.00062548646329988529 0.0046114503393137884 0 0.00065698844884354225 0.0046654935748421025 0 0.00064848181436093721 0.0044524545885694499 0 0.00065698844884354225 0.0046654935748421025 0 0.00064848181436093721 0.0044524545885694499 0 0.00069689745961313957 0.004281152428108434 0 0.00049133913683086416 0.0042099648720451835 0 0.00056963770741354594 0.0042463065856242982 0 0.00041712474616801073 0.0040484163361276465 0 0.00060961479528993804 0.0044490738968946527 0 0.00064848181436093721 0.0044524545885694499 0 0.00056963770741354594 0.0042463065856242982 0 0.00064848181436093721 0.0044524545885694499 0 0.00056963770741354594 0.0042463065856242982 0 0.00069689745961313957 0.004281152428108434 0 0.00056963770741354594 0.0042463065856242982 0 0.00069689745961313957 0.004281152428108434 0 0.00055893567915345146 0.004067368205597977 0 0.00069689745961313957 0.004281152428108434 0 0.00081680909138861851 0.0038358406241006133 0 0.00055893567915345146 0.004067368205597977 0 0.00069689745961313957 0.004281152428108434 0 0.00081680909138861851 0.0038358406241006133 0 0.0007579868568883953 0.0043612967634959745 0 0.00081680909138861851 0.0038358406241006133 0 0.0007579868568883953 0.0043612967634959745 0 0.00089024138153618638 0.0043143258230959108 0 0.0007579868568883953 0.0043612967634959745 0 0.00064235388852028927 0.0047864898463394617 0 0.00067051786010738704 0.0048555672912481401 0 0.0007579868568883953 0.0043612967634959745 0 0.00089024138153618638 0.0043143258230959108 0 0.00067051786010738704 0.0048555672912481401 0 0.00089024138153618638 0.0043143258230959108 0 0.00067051786010738704 0.0048555672912481401 0 0.00064725571961047799 0.0052909813765840124 0 0.0007202610474190004 0.0029558851994001514 0 0.00048855237729753356 0.0028325272406203189 0 0.00081680909138861851 0.0038358406241006133 0 0.00089024138153618638 0.0043143258230959108 0 0.00061708730632017744 0.0027423318559671897 0 0.00074095024655935853 0.0014324372696540868 0 0.00053836327840939844 0.00092506828244281103 0 0.00061708730632017744 0.0027423318559671897 0 0.00040554161781641103 0.0055261996526862296 0 0.00051496551300326339 0.0051481356886326655 0 0.00034245195350639425 0.005573222720330907 0 0.00040554161781641103 0.0055261996526862296 0 0.0005548870715732341 0.0050002266028476398 0 0.00051496551300326339 0.0051481356886326655 0 0.0005548870715732341 0.0050002266028476398 0 0.00051496551300326339 0.0051481356886326655 0 0.00064235388852028927 0.0047864898463394617 0 0.00051496551300326339 0.0051481356886326655 0 0.00064235388852028927 0.0047864898463394617 0 0.00067051786010738704 0.0048555672912481401 0 0.00067051786010738704 0.0048555672912481401 0 0.00034245195350639425 0.005573222720330907 0 0.00064725571961047799 0.0052909813765840124 0 0.00051496551300326339 0.0051481356886326655 0 0.00067051786010738704 0.0048555672912481401 0 0.00034245195350639425 0.005573222720330907 0 0.00034245195350639425 0.005573222720330907 0 0.00022197858024045259 0.0058776332129107283 0 0.00064725571961047799 0.0052909813765840124 0 0.0001274615382201182 0.0060986449513683264 0 0.00034245195350639425 0.005573222720330907 0 0.00022197858024045259 0.0058776332129107283 0 -3.1129358467245572e-05 0.0033406401089855686 0 0.00027498885782097662 0.0020324037632198548 0 0.00011729475267984906 0.0026636775813049882 0 0.00018910683569381545 0.0046065409755170327 0 0.00047843929169522564 0.0036655581232911323 0 0.00027498885782097662 0.0020324037632198548 0 0.00011729475267984906 0.0026636775813049882 0 9.8715955137042526e-07 0.0015190751228785829 0 0.00011729475267984906 0.0026636775813049882 0 -2.2856725273534752e-07 0.0035911992842443713 0 9.8715955137042526e-07 0.0015190751228785829 0 -2.9939024859601637e-05 0.0056158494411273465 0 -3.1129358467245572e-05 0.0033406401089855686 0 -2.2856725273534752e-07 0.0035911992842443713 0 -3.1129358467245572e-05 0.0033406401089855686 0 0.00011729475267984906 0.0026636775813049882 0 -2.2856725273534752e-07 0.0035911992842443713 0 0.00074095024655935853 0.0014324372696540868 0 0.00044959449717737635 0.0011913449901020409 0 0.00053836327840939844 0.00092506828244281103 0 0.00074095024655935853 0.0014324372696540868 0 0.00027498885782097662 0.0020324037632198548 0 0.00044959449717737635 0.0011913449901020409 0 0.0007202610474190004 0.0029558851994001514 0 0.00047843929169522564 0.0036655581232911323 0 0.00027498885782097662 0.0020324037632198548 0 0.00044959449717737635 0.0011913449901020409 0 9.8715955137042526e-07 0.0015190751228785829 0 0.00044959449717737635 0.0011913449901020409 0 9.8715955137042526e-07 0.0015190751228785829 0 1.0626812240105808e-06 -0.00055391017921697461 0 0.00044959449717737635 0.0011913449901020409 0 1.0626812240105808e-06 -0.00055391017921697461 0 0.00053836327840939844 0.00092506828244281103 0 1.0626812240105808e-06 -0.00055391017921697461 0 0.00053836327840939844 0.00092506828244281103 0 0.00012523648380479037 -7.1835463415742835e-06 0 0.00053836327840939844 0.00092506828244281103 0 0.00012523648380479037 -7.1835463415742835e-06 0 0.00013212945590221987 0.0016042177854387579 0 0.00012523648380479037 -7.1835463415742835e-06 0 -0.0014783527200164313 0.001422963947401064 0 0.00013212945590221987 0.0016042177854387579 0 0.00012523648380479037 -7.1835463415742835e-06 0 -0.00011678763631753113 -0.0012129837678789466 0 -0.0014783527200164313 0.001422963947401064 0 1.0626812240105808e-06 -0.00055391017921697461 0 0.00012523648380479037 -7.1835463415742835e-06 0 -0.00011678763631753113 -0.0012129837678789466 0 1.0626812240105808e-06 -0.00055391017921697461 0 -0.00011678763631753113 -0.0012129837678789466 0 -1.5477197672585264e-06 -0.0026266130164579139 0 -0.00011678763631753113 -0.0012129837678789466 0 -1.5477197672585264e-06 -0.0026266130164579139 0 -0.00040801550346031686 -0.0025161671179889131 0 -1.5477197672585264e-06 -0.0026266130164579139 0 -0.00040801550346031686 -0.0025161671179889131 0 -6.8275713182344296e-05 -0.0032499177286388144 0 -1.5477197672585264e-06 -0.0026266130164579139 0 -6.8275713182344296e-05 -0.0032499177286388144 0 2.7022236073010671e-08 -0.0047003501942015462 0 -6.8275713182344296e-05 -0.0032499177286388144 0 7.0122741439844325e-05 -0.0034224557987582432 0 2.7022236073010671e-08 -0.0047003501942015462 0 -0.00040801550346031686 -0.0025161671179889131 0 -6.8275713182344296e-05 -0.0032499177286388144 0 -0.00015545095407777028 -0.0032516876361056955 0 -6.8275713182344296e-05 -0.0032499177286388144 0 7.0122741439844325e-05 -0.0034224557987582432 0 -0.00015545095407777028 -0.0032516876361056955 0 7.0122741439844325e-05 -0.0034224557987582432 0 -0.00015545095407777028 -0.0032516876361056955 0 -0.00054753949593049501 -0.0039803431518177562 0 0.00031673605524969444 -0.0050635325179965076 0 -0.00016917045526041583 -0.0011145528556163707 0 -0.00040801550346031686 -0.0025161671179889131 0 -0.00015545095407777028 -0.0032516876361056955 0 -0.00054753949593049501 -0.0039803431518177562 0 -0.00011678763631753113 -0.0012129837678789466 0 -0.00040801550346031686 -0.0025161671179889131 0 -0.0014783527200164313 0.001422963947401064 0 -0.00073385196532639628 -0.0024324334917260257 0 -0.00016917045526041583 -0.0011145528556163707 0 0.0019314268095325341 -0.0044976240749438979 0 0.0011957941344867406 -0.0033976215570543757 0 -7.6074592777857389e-05 -0.0042502273619140166 0 0.00037026335903996775 -0.0055460076182039346 0 0.0019314268095325341 -0.0044976240749438979 0 -7.6074592777857389e-05 -0.0042502273619140166 0 0.0011957941344867406 -0.0033976215570543757 0 -7.6074592777857389e-05 -0.0042502273619140166 0 0.00068578858941458073 -0.0022184579722436832 0 0.0019314268095325341 -0.0044976240749438979 0 0.0011957941344867406 -0.0033976215570543757 0 0.0022290198833879206 -0.0025565312839859826 0 -0.00016917045526041583 -0.0011145528556163707 0 0.0011904294604333258 0.00057487548847009204 0 0.0011957941344867406 -0.0033976215570543757 0 0.0022290198833879206 -0.0025565312839859826 0 0.00068578858941458073 -0.0022184579722436832 0 -0.00033463586539250669 0.0028034152883344996 0 -0.0001002592779186838 0.0035973316155228472 0 5.615684491303487e-05 0.0031095860320733385 0 -0.0001002592779186838 0.0035973316155228472 0 5.615684491303487e-05 0.0031095860320733385 0 0.00035748558599188392 0.0038595006039337716 0 5.615684491303487e-05 0.0031095860320733385 0 0.00050549319183647203 0.0036424184919561457 0 0.00035748558599188392 0.0038595006039337716 0 0.00081680909138861851 0.0038358406241006133 0 0.00050549319183647203 0.0036424184919561457 0 0.00055893567915345146 0.004067368205597977 0 0.00081680909138861851 0.0038358406241006133 0 0.00050549319183647203 0.0036424184919561457 0 0.00061708730632017744 0.0027423318559671897 0 5.615684491303487e-05 0.0031095860320733385 0 0.00050549319183647203 0.0036424184919561457 0 0.00061708730632017744 0.0027423318559671897 0 5.615684491303487e-05 0.0031095860320733385 0 0.00061708730632017744 0.0027423318559671897 0 0.00013212945590221987 0.0016042177854387579 0 0.00053836327840939844 0.00092506828244281103 0 0.00061708730632017744 0.0027423318559671897 0 0.00013212945590221987 0.0016042177854387579 0 -0.0014783527200164313 0.001422963947401064 0 5.615684491303487e-05 0.0031095860320733385 0 0.00013212945590221987 0.0016042177854387579 0 -0.00016917045526041583 -0.0011145528556163707 0 0.00020552401938372797 0.0036109041837995804 0 -0.00018384110808717229 -0.010309085114392734 0 -2.0506436180353761e-05 -0.0094569310036824866 0 0.00019107023897083468 -0.010855639095918858 0 -0.00018384110808717229 -0.010309085114392734 0 -0.00033735767553648649 -0.0091441831369142041 0 -0.00051507080279436653 -0.010127224676700965 0 -0.00018384110808717229 -0.010309085114392734 0 -2.0506436180353761e-05 -0.0094569310036824866 0 -0.00033735767553648649 -0.0091441831369142041 0 -2.0506436180353761e-05 -0.0094569310036824866 0 -1.757936350442424e-06 -0.006774656274978 0 5.8273661443131245e-07 -0.0088475264447997696 0 -2.0506436180353761e-05 -0.0094569310036824866 0 -1.757936350442424e-06 -0.006774656274978 0 -0.00033735767553648649 -0.0091441831369142041 0 -1.757936350442424e-06 -0.006774656274978 0 -0.00040239639334529645 -0.0078064869982650891 0 -0.00033735767553648649 -0.0091441831369142041 0 -0.00040239639334529645 -0.0078064869982650891 0 -0.00033735767553648649 -0.0091441831369142041 0 -0.0010195542701079928 -0.0093285364790926216 0 -0.00033735767553648649 -0.0091441831369142041 0 -0.00051507080279436653 -0.010127224676700965 0 -0.0010195542701079928 -0.0093285364790926216 0 -0.00098361032102776448 -0.0051677132289935082 0 -0.0002730728962321007 -0.0052962125788185111 0 -0.00058981348965276073 -0.0047149188490835901 0 -0.00098361032102776448 -0.0051677132289935082 0 -0.0002730728962321007 -0.0052962125788185111 0 -0.00031014454962737962 -0.0061478337522836582 0 -0.00095364426808024043 -0.0070240519913128191 0 -0.00042061175629429557 -0.006552850898943207 0 -0.00040239639334529645 -0.0078064869982650891 0 -0.0010195542701079928 -0.0093285364790926216 0 -0.00031014454962737962 -0.0061478337522836582 0 -1.757936350442424e-06 -0.006774656274978 0 -0.00020363967534650843 -0.0060178335535723167 0 2.7022236073010671e-08 -0.0047003501942015462 0 -1.757936350442424e-06 -0.006774656274978 0 -0.00020363967534650843 -0.0060178335535723167 0 -0.00031014454962737962 -0.0061478337522836582 0 -1.757936350442424e-06 -0.006774656274978 0 -0.00040239639334529645 -0.0078064869982650891 0 -0.00031014454962737962 -0.0061478337522836582 0 7.0122741439844325e-05 -0.0034224557987582432 0 -0.00020363967534650843 -0.0060178335535723167 0 2.7022236073010671e-08 -0.0047003501942015462 0 0.00031673605524969444 -0.0050635325179965076 0 -0.00014136582044551536 -0.005609508691871639 0 0.00037026335903996775 -0.0055460076182039346 0 -0.00020363967534650843 -0.0060178335535723167 0 -0.00031014454962737962 -0.0061478337522836582 0 0.00037026335903996775 -0.0055460076182039346 0 -0.0002730728962321007 -0.0052962125788185111 0 -7.6074592777857389e-05 -0.0042502273619140166 0 0.00037026335903996775 -0.0055460076182039346 0 -0.0002730728962321007 -0.0052962125788185111 0 -0.00031014454962737962 -0.0061478337522836582 0 -0.0002730728962321007 -0.0052962125788185111 0 -7.6074592777857389e-05 -0.0042502273619140166 0 -0.00058981348965276073 -0.0047149188490835901 0 -7.6074592777857389e-05 -0.0042502273619140166 0 -0.0011584440244954022 -0.0022572469193933896 0 -0.00029386158433697949 -0.0017683754559522406 0 -0.00017139941588364816 -0.0041475401154252942 0 -0.00072160293630123208 -0.0033146581878613327 0 -7.6074592777857389e-05 -0.0042502273619140166 0 -0.00060992774750162756 -0.004198706246504689 0 -0.00050911030522418101 -0.0040643372794502758 0 -7.6074592777857389e-05 -0.0042502273619140166 0 -0.00029386158433697949 -0.0017683754559522406 0 0.00068578858941458073 -0.0022184579722436832 0 -7.6074592777857389e-05 -0.0042502273619140166 0 -0.00060992774750162756 -0.004198706246504689 0 -0.00067737854396028834 -0.0044018312504840893 0 -0.00060992774750162756 -0.004198706246504689 0 -0.00080181712504169718 -0.0040431407785485223 0 -0.00050911030522418101 -0.0040643372794502758 0 -0.00060992774750162756 -0.004198706246504689 0 -0.00085251781912915796 -0.004242237490305628 0 -0.00080181712504169718 -0.0040431407785485223 0 -0.00060992774750162756 -0.004198706246504689 0 -0.00067737854396028834 -0.0044018312504840893 0 -0.00085251781912915796 -0.004242237490305628 0 -0.00067737854396028834 -0.0044018312504840893 0 -0.00090918120214806327 -0.0045480568950205412 0 -0.00085251781912915796 -0.004242237490305628 0 -0.00098361032102776448 -0.0051677132289935082 0 -0.00058981348965276073 -0.0047149188490835901 0 -0.00090918120214806327 -0.0045480568950205412 0 -7.6074592777857389e-05 -0.0042502273619140166 0 -0.00067737854396028834 -0.0044018312504840893 0 -0.00058981348965276073 -0.0047149188490835901 0 -0.00067737854396028834 -0.0044018312504840893 0 -0.00058981348965276073 -0.0047149188490835901 0 -0.00090918120214806327 -0.0045480568950205412 0 -0.0010195542701079928 -0.0093285364790926216 0 -0.00073806174832033867 -0.010953313314142997 0 -0.0008474149366413116 -0.011289291000352733 0 -0.00095364426808024043 -0.0070240519913128191 0 -0.00086097318141979142 -0.0092661375795828026 0 -0.00098361032102776448 -0.0051677132289935082 0 -0.001186748853206352 -0.0045056295970664559 0 -0.00090918120214806327 -0.0045480568950205412 0 -0.00051507080279436653 -0.010127224676700965 0 -0.0010195542701079928 -0.0093285364790926216 0 -0.00073806174832033867 -0.010953313314142997 0 -0.001186748853206352 -0.0045056295970664559 0 -0.00090918120214806327 -0.0045480568950205412 0 -0.00098726185765239086 -0.0043328610217381533 0 -0.00089405284014328719 -0.0099351605796791104 0 -0.00086097318141979142 -0.0092661375795828026 0 -0.001186748853206352 -0.0045056295970664559 0 -0.00098726185765239086 -0.0043328610217381533 0 -0.00095794809088964707 -0.004091908889673008 0 -0.00086097318141979142 -0.0092661375795828026 0 -0.00083601373627916213 -0.0078325346956395585 0 -0.00090918120214806327 -0.0045480568950205412 0 -0.00098726185765239086 -0.0043328610217381533 0 -0.00085251781912915796 -0.004242237490305628 0 -0.00085251781912915796 -0.004242237490305628 0 -0.00095794809088964707 -0.004091908889673008 0 -0.00080181712504169718 -0.0040431407785485223 0 -0.00098726185765239086 -0.0043328610217381533 0 -0.00085251781912915796 -0.004242237490305628 0 -0.00095794809088964707 -0.004091908889673008 0 -0.00068950444282835489 -0.011400125974403723 0 -7.7053634681955235e-05 -0.012514934401141898 0 -0.00077076730073339132 -0.012365117389900687 0 -0.00081559249298873921 -0.011301993990137916 0 -9.5470776482209157e-05 -0.012065033321779505 0 -0.00016582000238775718 -0.01281756839751042 0 -0.00086097318141979142 -0.0092661375795828026 0 -4.8362515036687212e-06 -0.013100461249654636 0 -0.00081559249298873921 -0.011301993990137916 0 -9.5470776482209157e-05 -0.012065033321779505 0 -0.00042956862302473745 -0.011293797790065294 0 -9.5470776482209157e-05 -0.012065033321779505 0 -0.00013949217038138279 -0.011235478728321764 0 -0.00042956862302473745 -0.011293797790065294 0 -0.00073806174832033867 -0.010953313314142997 0 -0.00081559249298873921 -0.011301993990137916 0 -0.00042956862302473745 -0.011293797790065294 0 -0.00073806174832033867 -0.010953313314142997 0 -0.00042956862302473745 -0.011293797790065294 0 -0.00040839179113947628 -0.010800197784110982 0 -0.00013949217038138279 -0.011235478728321764 0 -0.00042956862302473745 -0.011293797790065294 0 -0.00040839179113947628 -0.010800197784110982 0 -0.00051507080279436653 -0.010127224676700965 0 -0.00073806174832033867 -0.010953313314142997 0 -0.00040839179113947628 -0.010800197784110982 0 -0.00018384110808717229 -0.010309085114392734 0 -0.00051507080279436653 -0.010127224676700965 0 -0.00040839179113947628 -0.010800197784110982 0 -0.00018384110808717229 -0.010309085114392734 0 -0.00013949217038138279 -0.011235478728321764 0 -0.00040839179113947628 -0.010800197784110982 0 -0.00018384110808717229 -0.010309085114392734 0 -0.00013949217038138279 -0.011235478728321764 0 0.00019107023897083468 -0.010855639095918858 0 -0.00045017043823727379 -0.013275976895457141 0 -0.00019490402013932066 -0.013199165990274061 0 -0.00023698488203667737 -0.013616476122059818 0 -0.00045017043823727379 -0.013275976895457141 0 -0.00019490402013932066 -0.013199165990274061 0 -0.00044523468197061602 -0.01292830274420642 0 -0.00019490402013932066 -0.013199165990274061 0 -7.7053634681955235e-05 -0.012514934401141898 0 -0.00044523468197061602 -0.01292830274420642 0 -7.7053634681955235e-05 -0.012514934401141898 0 -0.00044523468197061602 -0.01292830274420642 0 -0.00077076730073339132 -0.012365117389900687 0 -0.00083601373627916213 -0.0078325346956395585 0 -0.00082043831629186395 -0.0095499778178921024 0 -0.00044523468197061602 -0.01292830274420642 0 -0.00077076730073339132 -0.012365117389900687 0 -0.00073081403755296496 -0.013198232464785029 0 -0.00095794809088964707 -0.004091908889673008 0 -0.00087241588380396011 -0.0041018848318191276 0 -0.00081684471062759155 -0.0041705968856535821 0 -0.00087241588380396011 -0.0041018848318191276 0 -0.00092426834847620634 -0.0041782664042402627 0 -0.00080181712504169718 -0.0040431407785485223 0 -0.00095794809088964707 -0.004091908889673008 0 -0.00087241588380396011 -0.0041018848318191276 0 -0.00080181712504169718 -0.0040431407785485223 0 -0.00087241588380396011 -0.0041018848318191276 0 -0.00092426834847620634 -0.0041782664042402627 0 -0.00081684471062759155 -0.0041705968856535821 0 -0.00089435953109892477 -0.0036334588680902585 0 -0.00078353782813091731 -0.0036540125851253595 0 -0.00098362485795745942 -0.0033466948821438188 0 -0.00092426834847620634 -0.0041782664042402627 0 -0.00081684471062759155 -0.0041705968856535821 0 -0.000829158910740658 -0.0045741586004416097 0 -0.00045017043823727379 -0.013275976895457141 0 -0.00044523468197061602 -0.01292830274420642 0 -0.00073081403755296496 -0.013198232464785029 0 -0.00045017043823727379 -0.013275976895457141 0 -0.00073081403755296496 -0.013198232464785029 0 -0.00048956244083421909 -0.013530706325476921 0 -0.00089435953109892477 -0.0036334588680902585 0 -0.00078353782813091731 -0.0036540125851253595 0 -0.00080181712504169718 -0.0040431407785485223 0 -0.0011064237305837459 -0.00044705280439201987 0 -0.0016230260970078649 -0.00054171404284037404 0 -0.0014345434135377758 -8.1708764733685825e-05 0 -0.0011064237305837459 -0.00044705280439201987 0 -0.00091440760413126314 0.00013767313288645148 0 -0.0014345434135377758 -8.1708764733685825e-05 0 -0.0011064237305837459 -0.00044705280439201987 0 -0.0016230260970078649 -0.00054171404284037404 0 -0.00086361374444392366 -0.0010895645685999316 0 -0.0013929262877848516 -0.0014924507925937751 0 -0.00072160293630123208 -0.0033146581878613327 0 -0.00078353782813091731 -0.0036540125851253595 0 -0.00080181712504169718 -0.0040431407785485223 0 -0.00050911030522418101 -0.0040643372794502758 0 -0.0016230260970078649 -0.00054171404284037404 0 -0.0011584440244954022 -0.0022572469193933896 0 -0.00086361374444392366 -0.0010895645685999316 0 -0.00093037986685005208 -0.0037358153330033111 0 -0.000805434850025089 -0.0041111091032139955 0 -0.00086361374444392366 -0.0010895645685999316 0 -0.00029386158433697949 -0.0017683754559522406 0 -5.1904845659986688e-05 -0.00053465819230454645 0 -0.0011584440244954022 -0.0022572469193933896 0 -0.00086361374444392366 -0.0010895645685999316 0 -0.00029386158433697949 -0.0017683754559522406 0 -0.0011064237305837459 -0.00044705280439201987 0 -0.00086361374444392366 -0.0010895645685999316 0 -5.1904845659986688e-05 -0.00053465819230454645 0 -0.0011064237305837459 -0.00044705280439201987 0 -5.1904845659986688e-05 -0.00053465819230454645 0 -0.00091440760413126314 0.00013767313288645148 0 -0.00091440760413126314 0.00013767313288645148 0 -0.00050332537733248014 0.0010561997589702372 0 0.00034245358768608366 0.00060093329094450818 0 -5.1904845659986688e-05 -0.00053465819230454645 0 -0.00091440760413126314 0.00013767313288645148 0 0.00034245358768608366 0.00060093329094450818 0 -0.0019938772832703154 -0.00017433330109319317 0 -0.0017270400822003219 -0.00028307313899369449 0 -0.0021068290193184606 -0.00049854457676429969 0 -0.0019938772832703154 -0.00017433330109319317 0 -0.0017270400822003219 -0.00028307313899369449 0 -0.0015627822165936575 0.00015740432839014205 0 -0.0017270400822003219 -0.00028307313899369449 0 -0.0013260574009218492 -0.00038606722949100316 0 -0.0014751700827873345 -0.00058454489959810152 0 -0.0017270400822003219 -0.00028307313899369449 0 -0.001518326653069637 -7.4020174139793391e-05 0 -0.0013260574009218492 -0.00038606722949100316 0 -0.0017270400822003219 -0.00028307313899369449 0 -0.0015627822165936575 0.00015740432839014205 0 -0.001518326653069637 -7.4020174139793391e-05 0 -0.0016230260970078649 -0.00054171404284037404 0 -0.0014345434135377758 -8.1708764733685825e-05 0 -0.0015684180193855171 0.0001759432696936754 0 -0.0012049277931699335 0.0004344525245995205 0 -0.0015112506497015987 0.0002139666548120009 0 -0.00091440760413126314 0.00013767313288645148 0 -0.0015627822165936575 0.00015740432839014205 0 -0.0014345434135377758 -8.1708764733685825e-05 0 -0.00091440760413126314 0.00013767313288645148 0 -0.00050332537733248014 0.0010561997589702372 0 -0.0015627822165936575 0.00015740432839014205 0 -0.00093037986685005208 -0.0037358153330033111 0 -0.00092406165630475924 -0.0049104544511600614 0 -0.00073081403755296496 -0.013198232464785029 0 -0.00048956244083421909 -0.013530706325476921 0 -0.00054225187322190819 -0.013747929184523984 0 -0.00082043831629186395 -0.0095499778178921024 0 -0.00092406165630475924 -0.0049104544511600614 0 -0.0013929262877848516 -0.0014924507925937751 0 -0.00092406165630475924 -0.0049104544511600614 0 -0.00054225187322190819 -0.013747929184523984 0 -0.00048252510387703662 -0.013763246874669548 0 -0.00046205704780838668 -0.013669268247727342 0 -0.00048956244083421909 -0.013530706325476921 0 -0.00054225187322190819 -0.013747929184523984 0 -0.00046205704780838668 -0.013669268247727342 0 -0.0015627822165936575 0.00015740432839014205 0 -0.0014345434135377758 -8.1708764733685825e-05 0 -0.0015684180193855171 0.0001759432696936754 0 -0.0015627822165936575 0.00015740432839014205 0 -0.0015684180193855171 0.0001759432696936754 0 -0.001518326653069637 -7.4020174139793391e-05 0 -0.00087854610597861696 -0.0057669546243112558 0 -0.00050962665940094509 -0.0064524157145438134 0 -0.00070391246378562785 -0.006401981631175324 0 -0.00092406165630475924 -0.0049104544511600614 0 -0.00099600345236606027 -0.0030539818145678774 0 -0.00092406165630475924 -0.0049104544511600614 0 -0.00022291235162505589 -0.011049769570589634 0 -0.0015684180193855171 0.0001759432696936754 0 -0.001518326653069637 -7.4020174139793391e-05 0 -0.0013260574009218492 -0.00038606722949100316 0 -0.0013284085376874962 -0.00010886242442791006 0 -0.0013260574009218492 -0.00038606722949100316 0 -0.0011356085609370338 -0.00052746455847950001 0 -0.00092406165630475924 -0.0049104544511600614 0 -0.0012219377852526071 0.0012399712191600214 0 -0.00054225187322190819 -0.013747929184523984 0 -0.00048252510387703662 -0.013763246874669548 0 -0.00043572689752858763 -0.013511349837447808 0 -0.00041828189463529337 -0.01384963912812035 0 -0.00048102978137281536 -0.013820610899474905 0 -0.00048252510387703662 -0.013763246874669548 0 -8.4282752900167047e-05 -0.013961622642479738 0 -8.2094529945642033e-05 -0.014415824122907067 0 -0.00048252510387703662 -0.013763246874669548 0 -0.00043572689752858763 -0.013511349837447808 0 -0.00059392344176499015 -0.013542064867848237 0 -0.00048252510387703662 -0.013763246874669548 0 -8.4282752900167047e-05 -0.013961622642479738 0 -0.00023698488203667737 -0.013616476122059818 0 -0.00048252510387703662 -0.013763246874669548 0 -0.00046205704780838668 -0.013669268247727342 0 -0.00023698488203667737 -0.013616476122059818 0 -0.00045017043823727379 -0.013275976895457141 0 -0.00048956244083421909 -0.013530706325476921 0 -0.00023698488203667737 -0.013616476122059818 0 -0.00048956244083421909 -0.013530706325476921 0 -0.00046205704780838668 -0.013669268247727342 0 -0.00023698488203667737 -0.013616476122059818 0 0.00083109435982748529 0.004173968529836162 0 0.00057848324536696034 0.0038997093816460038 0 0.00050899169809662356 0.0040519267055423545 0 0.00083109435982748529 0.004173968529836162 0 0.00057848324536696034 0.0038997093816460038 0 0.0010171578458849232 0.0031283995489656004 0 0.00057848324536696034 0.0038997093816460038 0 0.0010171578458849232 0.0031283995489656004 0 0.00026285013946021683 0.0038039134769886252 0 0.00057848324536696034 0.0038997093816460038 0 0.00041712474616801073 0.0040484163361276465 0 0.00026285013946021683 0.0038039134769886252 0 0.00056963770741354594 0.0042463065856242982 0 0.00041712474616801073 0.0040484163361276465 0 0.00055893567915345146 0.004067368205597977 0 0.00057848324536696034 0.0038997093816460038 0 0.00041712474616801073 0.0040484163361276465 0 0.00050899169809662356 0.0040519267055423545 0 0.00041712474616801073 0.0040484163361276465 0 0.00050899169809662356 0.0040519267055423545 0 0.00055893567915345146 0.004067368205597977 0 0.00050899169809662356 0.0040519267055423545 0 0.00055893567915345146 0.004067368205597977 0 0.00035748558599188392 0.0038595006039337716 0 0.00050549319183647203 0.0036424184919561457 0 0.00055893567915345146 0.004067368205597977 0 0.00035748558599188392 0.0038595006039337716 0 0.00083109435982748529 0.004173968529836162 0 0.00050899169809662356 0.0040519267055423545 0 0.00035748558599188392 0.0038595006039337716 0 -0.0001002592779186838 0.0035973316155228472 0 0.00083109435982748529 0.004173968529836162 0 0.00035748558599188392 0.0038595006039337716 0 0.0022290198833879206 -0.0025565312839859826 0 0.00068578858941458073 -0.0022184579722436832 0 0.0011095834677292279 -0.0010060681919027415 0 0.0022290198833879206 -0.0025565312839859826 0 0.0022749985874293195 -0.00046490173292584278 0 0.0011095834677292279 -0.0010060681919027415 0 0.0011904294604333258 0.00057487548847009204 0 0.0015281726839430339 0.0017062952958729716 0 -5.1904845659986688e-05 -0.00053465819230454645 0 0.00068578858941458073 -0.0022184579722436832 0 0.0011095834677292279 -0.0010060681919027415 0 -0.00029386158433697949 -0.0017683754559522406 0 -5.1904845659986688e-05 -0.00053465819230454645 0 0.00068578858941458073 -0.0022184579722436832 0 -5.1904845659986688e-05 -0.00053465819230454645 0 0.0010199693957246671 1.2320958226276551e-06 0 0.00034245358768608366 0.00060093329094450818 0 -5.1904845659986688e-05 -0.00053465819230454645 0 0.0011095834677292279 -0.0010060681919027415 0 0.0010199693957246671 1.2320958226276551e-06 0 0.0022749985874293195 -0.00046490173292584278 0 0.0011095834677292279 -0.0010060681919027415 0 0.0010199693957246671 1.2320958226276551e-06 0 0.0022749985874293195 -0.00046490173292584278 0 0.0010199693957246671 1.2320958226276551e-06 0 0.0013581487338177273 0.0011808361199656192 0 0.0022749985874293195 -0.00046490173292584278 0 0.0013581487338177273 0.0011808361199656192 0 0.0018630990511134145 0.0017883637526798519 0 0.0013581487338177273 0.0011808361199656192 0 0.00034245358768608366 0.00060093329094450818 0 0.0010340456075272537 0.0017834849509857798 0 0.0010199693957246671 1.2320958226276551e-06 0 0.0013581487338177273 0.0011808361199656192 0 0.00034245358768608366 0.00060093329094450818 0 -0.00050332537733248014 0.0010561997589702372 0 0.00034245358768608366 0.00060093329094450818 0 0.0010340456075272537 0.0017834849509857798 0 -0.0012049277931699335 0.0004344525245995205 0 -0.0006316564274088406 0.0007434800096167948 0 -0.0019938772832703154 -0.00017433330109319317 0 -0.0022810671083095288 -0.0003655087822854594 0 -0.0021068290193184606 -0.00049854457676429969 0 0.0010340456075272537 0.0017834849509857798 0 0.0022345196440707624 0.0021436851157176653 0 0.0018315425527031368 0.0016797276668277985 0 0.0013581487338177273 0.0011808361199656192 0 0.0010340456075272537 0.0017834849509857798 0 0.0018315425527031368 0.0016797276668277985 0 -0.0006316564274088406 0.0007434800096167948 0 1.2254028661863903e-05 0.00044271241900156928 0 0.0013581487338177273 0.0011808361199656192 0 0.0018315425527031368 0.0016797276668277985 0 0.0018630990511134145 0.0017883637526798519 0 1.2254028661863903e-05 0.00044271241900156928 0 0.0019810778818407631 0.0020090488425681301 0 0.0012013541413479331 0.00080180350557890895 0 0.0011097859408583891 0.001537868396679925 0 0.0014640642931412107 0.0015713086016896187 0 0.0012013541413479331 0.00080180350557890895 0 0.0007259986352916647 0.0013148971717724118 0 0.0011097859408583891 0.001537868396679925 0 0.0012013541413479331 0.00080180350557890895 0 0.0007259986352916647 0.0013148971717724118 0 0.00064012731282387628 0.00067129081447703806 0 1.2254028661863903e-05 0.00044271241900156928 0 0.00064063377690769664 0.00062165051017138849 0 0.0007259986352916647 0.0013148971717724118 0 0.0011097859408583891 0.001537868396679925 0 0.00069596148664591816 0.0021854626706957051 0 0.0011097859408583891 0.001537868396679925 0 0.0012984612055832348 0.0018947861142184245 0 0.0014640642931412107 0.0015713086016896187 0 0.0011097859408583891 0.001537868396679925 0 0.0012984612055832348 0.0018947861142184245 0 0.00069596148664591816 0.0021854626706957051 0 0.0012013541413479331 0.00080180350557890895 0 0.0018315425527031368 0.0016797276668277985 0 0.0014640642931412107 0.0015713086016896187 0 0.0012984612055832348 0.0018947861142184245 0 0.0014640642931412107 0.0015713086016896187 0 0.0018630990511134145 0.0017883637526798519 0 0.0018315425527031368 0.0016797276668277985 0 0.0014640642931412107 0.0015713086016896187 0 0.0018630990511134145 0.0017883637526798519 0 0.0015281726839430339 0.0017062952958729716 0 0.0017910833508212451 0.0017137877661981759 0 0.00083109435982748529 0.004173968529836162 0 0.0018630990511134145 0.0017883637526798519 0 0.0010171578458849232 0.0031283995489656004 0 0.0018630990511134145 0.0017883637526798519 0 0.0011965721906988733 0.0022478837715536729 0 0.0010171578458849232 0.0031283995489656004 0 0.0012984612055832348 0.0018947861142184245 0 0.0018630990511134145 0.0017883637526798519 0 0.0011965721906988733 0.0022478837715536729 0 0.0012984612055832348 0.0018947861142184245 0 0.0011965721906988733 0.0022478837715536729 0 0.00069596148664591816 0.0021854626706957051 0 0.0011965721906988733 0.0022478837715536729 0 0.00069596148664591816 0.0021854626706957051 0 0.0010171578458849232 0.0031283995489656004 0 0.00069596148664591816 0.0021854626706957051 0 0.0010171578458849232 0.0031283995489656004 0 0.00026285013946021683 0.0038039134769886252 0 0.00021671868509713811 0.0038377155462271583 0 3.9714390457889904e-05 0.0025289745321197448 0 0.00049133913683086416 0.0042099648720451835 0 0.00026285013946021683 0.0038039134769886252 0 0.00032061676974775915 0.004511528381070256 0 0.00069596148664591816 0.0021854626706957051 0 0.00026285013946021683 0.0038039134769886252 0 -0.0003957392549961571 0.0011868923302827536 0 0.00049133913683086416 0.0042099648720451835 0 0.00041712474616801073 0.0040484163361276465 0 0.00026285013946021683 0.0038039134769886252 0 0.0007259986352916647 0.0013148971717724118 0 0.00069596148664591816 0.0021854626706957051 0 -1.7327898418575929e-05 0.0014387743088545642 0 0.00024418997208053999 0.0020211655385792512 0 3.9714390457889904e-05 0.0025289745321197448 0 0.0007259986352916647 0.0013148971717724118 0 -1.7327898418575929e-05 0.0014387743088545642 0 0.00064012731282387628 0.00067129081447703806 0 -1.7327898418575929e-05 0.0014387743088545642 0 0.00064012731282387628 0.00067129081447703806 0 -0.00040347694973741339 -0.00092030622740056764 0 1.2254028661863903e-05 0.00044271241900156928 0 -0.0012743903926125929 8.8314900238617154e-05 0 -0.00058365955335074689 0.0021271612544893838 0 -0.0005179931002985736 0.0021887404499995023 0 -0.00054719113712616214 0.0020809351897315121 0 -0.0024732595931153119 -0.00045659165302620527 0 -0.0025164683619901328 -0.0006090896757353926 0 -0.0026160786333877359 -0.00063631566678945626 0 0.0011519298233530178 0.00079900290034102465 0 0.00064012731282387628 0.00067129081447703806 0 -0.00040347694973741339 -0.00092030622740056764 0 3.9714390457889904e-05 0.0025289745321197448 0 -0.0012743903926125929 8.8314900238617154e-05 0 -0.0024732595931153119 -0.00045659165302620527 0 -0.0024428025163439606 -0.00058198589173505194 0 -0.0023470911971531475 -0.00056726682392339422 0 -0.0024732595931153119 -0.00045659165302620527 0 -0.0024428025163439606 -0.00058198589173505194 0 -0.0025164683619901328 -0.0006090896757353926 0 -0.0024428025163439606 -0.00058198589173505194 0 -0.0024417392050613547 -0.0007399299193826301 0 -0.0023470911971531475 -0.00056726682392339422 0 -0.0024428025163439606 -0.00058198589173505194 0 -0.0025164683619901328 -0.0006090896757353926 0 -0.0024417392050613547 -0.0007399299193826301 0 -0.0025164683619901328 -0.0006090896757353926 0 -0.0024417392050613547 -0.0007399299193826301 0 -0.002621249296435819 -0.00066489894702975185 0 -0.0026442086817435088 -0.0011587346202741953 0 -0.0016863086307583746 -3.8965260423050113e-05 0 -0.0026418040704678167 -0.00079181419336514904 0 -0.0024417392050613547 -0.0007399299193826301 0 -0.002621249296435819 -0.00066489894702975185 0 -0.0025164683619901328 -0.0006090896757353926 0 -0.002621249296435819 -0.00066489894702975185 0 -0.0026160786333877359 -0.00063631566678945626 0 -0.0016863086307583746 -3.8965260423050113e-05 0 -0.0012743903926125929 8.8314900238617154e-05 0 -0.0030389137621582322 -0.0015605650491837559 0 -0.0027431741765205652 -0.0013856264732059931 0 -0.0028405878508018924 -0.001747360497965743 0 -0.0026442086817435088 -0.0011587346202741953 0 -0.0026302739996219258 -0.0010686317647826259 0 -0.0027431741765205652 -0.0013856264732059931 0 -0.0028405878508018924 -0.001747360497965743 0 -0.0025206439653939023 -0.0016771596691554835 0 -0.0030204932239199043 -0.0018431057405079347 0 -0.0028405878508018924 -0.001747360497965743 0 -0.0029460125353833006 -0.0019643641816414568 0 -0.0030389137621582322 -0.0015605650491837559 0 -0.0030204932239199043 -0.0018431057405079347 0 -0.0028405878508018924 -0.001747360497965743 0 -0.0025206439653939023 -0.0016771596691554835 0 -0.0020849996081463216 -0.0016120906025209544 0 -0.0021325256234508544 -0.0021719108886490944 0 -0.0028405878508018924 -0.001747360497965743 0 -0.0025206439653939023 -0.0016771596691554835 0 -0.0026074511813988076 -0.0020684682334555175 0 -0.0027431741765205652 -0.0013856264732059931 0 -0.0025206439653939023 -0.0016771596691554835 0 -0.0023478893591635597 -0.0011367408865008528 0 -0.0025206439653939023 -0.0016771596691554835 0 -0.0023478893591635597 -0.0011367408865008528 0 -0.0020849996081463216 -0.0016120906025209544 0 -0.0024417392050613547 -0.0007399299193826301 0 -0.0022120791250402282 -0.00072841797928351916 0 -0.0023470911971531475 -0.00056726682392339422 0 -0.0026302739996219258 -0.0010686317647826259 0 -0.002248198977084513 -0.00092645638935959999 0 -0.0022810671083095288 -0.0003655087822854594 0 -0.0024732595931153119 -0.00045659165302620527 0 -0.0023470911971531475 -0.00056726682392339422 0 -0.0022120791250402282 -0.00072841797928351916 0 -0.0023470911971531475 -0.00056726682392339422 0 -0.0021068290193184606 -0.00049854457676429969 0 -0.0022810671083095288 -0.0003655087822854594 0 -0.0023470911971531475 -0.00056726682392339422 0 -0.0021068290193184606 -0.00049854457676429969 0 -0.0022120791250402282 -0.00072841797928351916 0 -0.0021068290193184606 -0.00049854457676429969 0 -0.0018091432213238293 -0.00078727068107998946 0 -0.0017270400822003219 -0.00028307313899369449 0 -0.0021068290193184606 -0.00049854457676429969 0 -0.0018091432213238293 -0.00078727068107998946 0 -0.0018091432213238293 -0.00078727068107998946 0 -0.0014751700827873345 -0.00058454489959810152 0 -0.0013739819752670687 -0.00092879031384223007 0 -0.0017270400822003219 -0.00028307313899369449 0 -0.0018091432213238293 -0.00078727068107998946 0 -0.0014751700827873345 -0.00058454489959810152 0 -0.0018091432213238293 -0.00078727068107998946 0 -0.0013739819752670687 -0.00092879031384223007 0 -0.0018151053837978 -0.0012989440724691253 0 -0.002248198977084513 -0.00092645638935959999 0 -0.001822670000593116 -0.00079149455785779675 0 -0.0023478893591635597 -0.0011367408865008528 0 -0.0018091432213238293 -0.00078727068107998946 0 -0.0018151053837978 -0.0012989440724691253 0 -0.00050962665940094509 -0.0064524157145438134 0 -0.00070391246378562785 -0.006401981631175324 0 -0.0005386753017670693 -0.0069418492593757873 0 -0.00099600345236606027 -0.0030539818145678774 0 -0.00071690335850817678 -0.0041551728857095174 0 -0.00043572689752858763 -0.013511349837447808 0 -0.00059392344176499015 -0.013542064867848237 0 -0.00063998725783727156 -0.012935482003275022 0 -0.0013260574009218492 -0.00038606722949100316 0 -0.0014751700827873345 -0.00058454489959810152 0 -0.0011356085609370338 -0.00052746455847950001 0 -0.0014751700827873345 -0.00058454489959810152 0 -0.0011356085609370338 -0.00052746455847950001 0 -0.0013739819752670687 -0.00092879031384223007 0 -0.0013739819752670687 -0.00092879031384223007 0 -0.00093835012064112688 -0.0011579662327952964 0 -0.0011064904508395219 -0.0015142466633935431 0 -0.0011356085609370338 -0.00052746455847950001 0 -0.0013739819752670687 -0.00092879031384223007 0 -0.00093835012064112688 -0.0011579662327952964 0 -0.00022291235162505589 -0.011049769570589634 0 -0.00067298792550835387 -0.0094362156631209605 0 -0.00050962665940094509 -0.0064524157145438134 0 -0.0005386753017670693 -0.0069418492593757873 0 -0.0002093558190029448 -0.0070290272356314364 0 -0.00071690335850817678 -0.0041551728857095174 0 -0.00061471467387364518 -0.0044763719463450646 0 -0.0005386753017670693 -0.0069418492593757873 0 -0.00039517510930818376 -0.0074308199062522572 0 -0.0002093558190029448 -0.0070290272356314364 0 -0.00093835012064112688 -0.0011579662327952964 0 -0.0011064904508395219 -0.0015142466633935431 0 -0.00078612351280806967 -0.0017550548127786372 0 -0.0013739819752670687 -0.00092879031384223007 0 -0.0011064904508395219 -0.0015142466633935431 0 -0.0015267237740958538 -0.0016122064280662126 0 -0.0011894776031477737 -0.0019618489222956279 0 -0.0015267237740958538 -0.0016122064280662126 0 -0.0015378588092580237 -0.0022639104727418696 0 -0.0011064904508395219 -0.0015142466633935431 0 -0.0011894776031477737 -0.0019618489222956279 0 -0.0015267237740958538 -0.0016122064280662126 0 -0.0011064904508395219 -0.0015142466633935431 0 -0.0011894776031477737 -0.0019618489222956279 0 -0.00078612351280806967 -0.0017550548127786372 0 -0.00061471467387364518 -0.0044763719463450646 0 -0.00039506714755246561 -0.0055928379669609877 0 -0.0011894776031477737 -0.0019618489222956279 0 -0.00078612351280806967 -0.0017550548127786372 0 -0.00085674972291869471 -0.0023473317484191529 0 -0.0023478893591635597 -0.0011367408865008528 0 -0.0018151053837978 -0.0012989440724691253 0 -0.0020849996081463216 -0.0016120906025209544 0 -0.0018151053837978 -0.0012989440724691253 0 -0.0020849996081463216 -0.0016120906025209544 0 -0.0015267237740958538 -0.0016122064280662126 0 -0.0013739819752670687 -0.00092879031384223007 0 -0.0018151053837978 -0.0012989440724691253 0 -0.0015267237740958538 -0.0016122064280662126 0 -0.0020849996081463216 -0.0016120906025209544 0 -0.0015267237740958538 -0.0016122064280662126 0 -0.0015378588092580237 -0.0022639104727418696 0 -0.0022301759547960032 -0.0046485438710693614 0 -0.0017798871132874302 -0.0046567304385015142 0 -0.0023488971066474938 -0.0071146976256824708 0 -0.0021749529910668913 -0.0073089409662079859 0 -0.0024333186390011661 -0.0072999400990194224 0 -0.0020849996081463216 -0.0016120906025209544 0 -0.0021325256234508544 -0.0021719108886490944 0 -0.0015378588092580237 -0.0022639104727418696 0 -0.0020318146484373059 -0.0070953791676921637 0 -0.0021749529910668913 -0.0073089409662079859 0 -0.0019644705003754883 -0.0074174113968639033 0 -0.0023488971066474938 -0.0071146976256824708 0 -0.0020318146484373059 -0.0070953791676921637 0 -0.0021749529910668913 -0.0073089409662079859 0 -0.00078612351280806967 -0.0017550548127786372 0 -0.00085674972291869471 -0.0023473317484191529 0 -0.00063283706049938992 -0.0023625828290678675 0 -0.0012198219807537385 -0.0049203031628708748 0 -0.00039506714755246561 -0.0055928379669609877 0 -0.0015893001558735637 -0.0071140663694646703 0 -0.001401391083987742 -0.0072031841227819448 0 -0.001421125157012687 -0.0071024010093606324 0 -0.0017798871132874302 -0.0046567304385015142 0 -0.0012198219807537385 -0.0049203031628708748 0 -0.0020318146484373059 -0.0070953791676921637 0 -0.0015893001558735637 -0.0071140663694646703 0 -0.0017134189685835478 -0.0072758417724989137 0 -0.0011894776031477737 -0.0019618489222956279 0 -0.0015378588092580237 -0.0022639104727418696 0 -0.00085674972291869471 -0.0023473317484191529 0 -0.0020318146484373059 -0.0070953791676921637 0 -0.0017875629690223989 -0.0074164012149240772 0 -0.0017134189685835478 -0.0072758417724989137 0 -0.0020318146484373059 -0.0070953791676921637 0 -0.0017875629690223989 -0.0074164012149240772 0 -0.0019644705003754883 -0.0074174113968639033 0 -0.0015893001558735637 -0.0071140663694646703 0 -0.0017134189685835478 -0.0072758417724989137 0 -0.0015295322557922135 -0.0073348528467973712 0 -0.0017875629690223989 -0.0074164012149240772 0 -0.0017134189685835478 -0.0072758417724989137 0 -0.0016255909746422039 -0.0074726411143395035 0 -0.0017134189685835478 -0.0072758417724989137 0 -0.0016255909746422039 -0.0074726411143395035 0 -0.0015295322557922135 -0.0073348528467973712 0 -0.0016255909746422039 -0.0074726411143395035 0 -0.0015295322557922135 -0.0073348528467973712 0 -0.0014597972835049082 -0.0076256658164842121 0 -0.0015893001558735637 -0.0071140663694646703 0 -0.0015295322557922135 -0.0073348528467973712 0 -0.001401391083987742 -0.0072031841227819448 0 -0.0014597972835049082 -0.0076256658164842121 0 -0.0016187573558461019 -0.007713147669875714 0 -0.0013902035667707506 -0.0079624638734353114 0 -0.0016255909746422039 -0.0074726411143395035 0 -0.0014597972835049082 -0.0076256658164842121 0 -0.0016187573558461019 -0.007713147669875714 0 -0.0017875629690223989 -0.0074164012149240772 0 -0.0016255909746422039 -0.0074726411143395035 0 -0.0016187573558461019 -0.007713147669875714 0 -0.0017875629690223989 -0.0074164012149240772 0 -0.0017846296029906045 -0.007709054628578552 0 -0.0019644705003754883 -0.0074174113968639033 0 -0.0017846296029906045 -0.007709054628578552 0 -0.0019644705003754883 -0.0074174113968639033 0 -0.0020214788599117466 -0.0075891316817085384 0 -0.0017875629690223989 -0.0074164012149240772 0 -0.0016187573558461019 -0.007713147669875714 0 -0.0017846296029906045 -0.007709054628578552 0 -0.0017846296029906045 -0.007709054628578552 0 -0.001764805227948427 -0.0079029755685520887 0 -0.0015231272879512913 -0.007963558783629485 0 -0.0017846296029906045 -0.007709054628578552 0 -0.001764805227948427 -0.0079029755685520887 0 -0.0020214788599117466 -0.0075891316817085384 0 -0.0015231272879512913 -0.007963558783629485 0 -0.0013628185513752174 -0.0081160109265658309 0 -0.0015068580676653553 -0.0081143825330693194 0 -0.0016187573558461019 -0.007713147669875714 0 -0.0017846296029906045 -0.007709054628578552 0 -0.0015231272879512913 -0.007963558783629485 0 -0.001764805227948427 -0.0079029755685520887 0 -0.0015231272879512913 -0.007963558783629485 0 -0.0015068580676653553 -0.0081143825330693194 0 -0.0016187573558461019 -0.007713147669875714 0 -0.0015231272879512913 -0.007963558783629485 0 -0.0013902035667707506 -0.0079624638734353114 0 -0.0021749529910668913 -0.0073089409662079859 0 -0.0020214788599117466 -0.0075891316817085384 0 -0.0024333186390011661 -0.0072999400990194224 0 -0.0021749529910668913 -0.0073089409662079859 0 -0.0019644705003754883 -0.0074174113968639033 0 -0.0020214788599117466 -0.0075891316817085384 0 -0.001764805227948427 -0.0079029755685520887 0 -0.0020214788599117466 -0.0075891316817085384 0 -0.0020669650350645073 -0.0078271560984384952 0 -0.0024333186390011661 -0.0072999400990194224 0 -0.0023679164227671922 -0.0079485835572417254 0 -0.0020669650350645073 -0.0078271560984384952 0 -0.0020214788599117466 -0.0075891316817085384 0 -0.0024333186390011661 -0.0072999400990194224 0 -0.0020669650350645073 -0.0078271560984384952 0 -0.0024333186390011661 -0.0072999400990194224 0 -0.0023679164227671922 -0.0079485835572417254 0 -0.0027036377968403733 -0.0077980991875991994 0 -0.0024390046623016951 -0.0072577295160140805 0 -0.002550140598233649 -0.0071787633444240773 0 -0.0024333186390011661 -0.0072999400990194224 0 -0.0023282836323459347 -0.0069075868018242384 0 -0.0023910087123579673 -0.0071350139920001634 0 -0.0023282836323459347 -0.0069075868018242384 0 -0.0022020525574754602 -0.0070154265432849274 0 -0.0023910087123579673 -0.0071350139920001634 0 -0.0024333186390011661 -0.0072999400990194224 0 -0.0023282836323459347 -0.0069075868018242384 0 -0.002465566855345215 -0.0065934668354394 0 -0.0023282836323459347 -0.0069075868018242384 0 -0.0021259405241365243 -0.006495591279349529 0 -0.002465566855345215 -0.0065934668354394 0 -0.0023282836323459347 -0.0069075868018242384 0 -0.0021259405241365243 -0.006495591279349529 0 -0.0020919251856931801 -0.0068011515644425518 0 -0.0018336702261395586 -0.0066703782285480826 0 -0.0021259405241365243 -0.006495591279349529 0 -0.0020919251856931801 -0.0068011515644425518 0 -0.0018466330241335004 -0.006352055498153833 0 -0.0018336702261395586 -0.0066703782285480826 0 -0.0021259405241365243 -0.006495591279349529 0 -0.0020919251856931801 -0.0068011515644425518 0 -0.001974358358053002 -0.0069057822146521546 0 -0.0022020525574754602 -0.0070154265432849274 0 -0.001974358358053002 -0.0069057822146521546 0 -0.0022020525574754602 -0.0070154265432849274 0 -0.0020437299913782705 -0.0070837660415169184 0 -0.0018336702261395586 -0.0066703782285480826 0 -0.0020919251856931801 -0.0068011515644425518 0 -0.001974358358053002 -0.0069057822146521546 0 -0.0023282836323459347 -0.0069075868018242384 0 -0.0020919251856931801 -0.0068011515644425518 0 -0.0022020525574754602 -0.0070154265432849274 0 -0.0022020525574754602 -0.0070154265432849274 0 -0.0020437299913782705 -0.0070837660415169184 0 -0.00234744693114142 -0.0072065267260937741 0 -0.0017545059255496902 -0.0069926214249726474 0 -0.001974358358053002 -0.0069057822146521546 0 -0.0020437299913782705 -0.0070837660415169184 0 -0.0017545059255496902 -0.0069926214249726474 0 -0.0020437299913782705 -0.0070837660415169184 0 -0.0020000657842241445 -0.0072716947860118463 0 -0.0020437299913782705 -0.0070837660415169184 0 -0.0020000657842241445 -0.0072716947860118463 0 -0.00234744693114142 -0.0072065267260937741 0 -0.0028405878508018924 -0.001747360497965743 0 -0.0029460125353833006 -0.0019643641816414568 0 -0.0026074511813988076 -0.0020684682334555175 0 -0.0024775640684733427 -0.0045965415899743055 0 -0.0024614207138716712 -0.0046383171939518757 0 -0.0025206439653939023 -0.0016771596691554835 0 -0.0021325256234508544 -0.0021719108886490944 0 -0.0026074511813988076 -0.0020684682334555175 0 -0.0023488971066474938 -0.0071146976256824708 0 -0.0024333186390011661 -0.0072999400990194224 0 -0.0023910087123579673 -0.0071350139920001634 0 -0.0022301759547960032 -0.0046485438710693614 0 -0.0024614207138716712 -0.0046383171939518757 0 -0.0023488971066474938 -0.0071146976256824708 0 -0.00234744693114142 -0.0072065267260937741 0 -0.0023910087123579673 -0.0071350139920001634 0 -0.0022020525574754602 -0.0070154265432849274 0 -0.00234744693114142 -0.0072065267260937741 0 -0.0023910087123579673 -0.0071350139920001634 0 0.004931751721314848 -0.026299518134173631 0 0.0038208780783241083 -0.026429689380129476 0 0.0045136129672893772 -0.025363025570477229 0 0.0031753161712027023 -0.023045309462845571 0 0.0028970456662783511 -0.021877532805661248 0 0.0015198430807427919 -0.018611755394933656 0 0.00072092390655341355 -0.017350484649328861 0 9.0814557088567715e-05 -0.018469617612510505 0 0.00035861875991637646 -0.015482254418984952 0 0.0028970456662783511 -0.021877532805661248 0 0.0015198430807427919 -0.018611755394933656 0 0.00072092390655341355 -0.017350484649328861 0 0.0021421406693877486 -0.01750991172087955 0 0.00075522557675118738 -0.014807407728867777 0 0.00061346625155569371 -0.014830455928678953 0 0.00067439941048328398 -0.014862299576304475 0 0.00061346625155569371 -0.014830455928678953 0 0.00061626209006755554 -0.01486430456771505 0 0.00067439941048328398 -0.014862299576304475 0 0.00061346625155569371 -0.014830455928678953 0 0.00061626209006755554 -0.01486430456771505 0 0.00055402624783013532 -0.014872255626909811 0 0.0043196076444564392 -0.027375682411379686 0 0.0031912895647372066 -0.027327800941427328 0 0.0038208780783241083 -0.026429689380129476 0 0.0041203412893563926 -0.027526351499729085 0 0.0031774754634471508 -0.027517431396085496 0 0.0038976303126692763 -0.027952468845127421 0 0.0028970456662783511 -0.021877532805661248 0 0.0029439086683127227 -0.023588343933997825 0 0.0028970456662783511 -0.021877532805661248 0 0.0035103197850875974 -0.027778640883529597 0 0.0031774754634471508 -0.027517431396085496 0 0.0038976303126692763 -0.027952468845127421 0 0.0027372283584009248 -0.028102076799060662 0 0.0038208780783241083 -0.026429689380129476 0 0.0033391168572516287 -0.025604679783896349 0 0.0025663787701412375 -0.026243597106887485 0 0.0031912895647372066 -0.027327800941427328 0 0.0038208780783241083 -0.026429689380129476 0 0.0025663787701412375 -0.026243597106887485 0 0.004931751721314848 -0.026299518134173631 0 0.0043196076444564392 -0.027375682411379686 0 0.0038208780783241083 -0.026429689380129476 0 0.0033391168572516287 -0.025604679783896349 0 0.0038309673458640893 -0.024715311314188748 0 0.0045136129672893772 -0.025363025570477229 0 0.0038208780783241083 -0.026429689380129476 0 0.0033391168572516287 -0.025604679783896349 0 0.0045136129672893772 -0.025363025570477229 0 0.0033391168572516287 -0.025604679783896349 0 0.0025663787701412375 -0.026243597106887485 0 0.0026223529792834487 -0.024967739972620258 0 0.0038309673458640893 -0.024715311314188748 0 0.0026223529792834487 -0.024967739972620258 0 0.003638763964368151 -0.023755887875873172 0 0.0033391168572516287 -0.025604679783896349 0 0.0038309673458640893 -0.024715311314188748 0 0.0026223529792834487 -0.024967739972620258 0 0.0050968701972991786 -0.024398716819627232 0 0.0045136129672893772 -0.025363025570477229 0 0.0055669297584866537 -0.025160537461579039 0 0.0038309673458640893 -0.024715311314188748 0 0.0050968701972991786 -0.024398716819627232 0 0.0045136129672893772 -0.025363025570477229 0 0.0038309673458640893 -0.024715311314188748 0 0.0050968701972991786 -0.024398716819627232 0 0.0045663141412529721 -0.023537368007726583 0 0.004931751721314848 -0.026299518134173631 0 0.0045136129672893772 -0.025363025570477229 0 0.0055669297584866537 -0.025160537461579039 0 0.0031753161712027023 -0.023045309462845571 0 0.0021837088130250673 -0.019106984340841585 0 -0.0014520407549390246 -0.010234666576166628 0 -0.0010455569962558057 -0.0095761861719271067 0 -0.00044105608342934926 -0.0108027837548673 0 0.0021837088130250673 -0.019106984340841585 0 -0.00091573087288135836 -0.014195740089780175 0 0.0015198430807427919 -0.018611755394933656 0 0.00090177512662967111 -0.019719849209246108 0 9.0814557088567715e-05 -0.018469617612510505 0 0.0021837088130250673 -0.019106984340841585 0 0.0017750205160679293 -0.015274480566444525 0 0.0048944364544807962 -0.023790454950281294 0 0.0050765952289589175 -0.023995075945579036 0 0.0052638865452560232 -0.02373772919574927 0 0.0055244950307675655 -0.024915315286760158 0 0.0021837088130250673 -0.019106984340841585 0 -0.00039963261967016856 -0.0092561793240645181 0 -4.0497405119828508e-05 -0.0092801945852339657 0 -0.00044105608342934926 -0.0108027837548673 0 -4.0497405119828508e-05 -0.0092801945852339657 0 -0.00044795018776125827 -0.0090705443695464731 0 -0.000340834455398233 -0.0094125487227523907 0 -4.0497405119828508e-05 -0.0092801945852339657 0 -0.00044795018776125827 -0.0090705443695464731 0 -0.00048457543159141305 -0.0087663332362088071 0 -4.0497405119828508e-05 -0.0092801945852339657 0 -0.00048457543159141305 -0.0087663332362088071 0 -0.00038382482650609561 -0.0084188713556448934 0 2.8620314474348106e-05 -0.0093532867834436959 0 0.00029094345268732474 -0.0095820956231099652 0 -0.00048457543159141305 -0.0087663332362088071 0 -0.00038382482650609561 -0.0084188713556448934 0 -0.00070515538927574365 -0.0084405267756938254 0 0.0017750205160679293 -0.015274480566444525 0 -0.0014589788581895742 -0.0082886233590212868 0 -0.0014520407549390246 -0.010234666576166628 0 -0.00044105608342934926 -0.0108027837548673 0 -0.00078111646688742401 -0.011672812401485433 0 -4.0497405119828508e-05 -0.0092801945852339657 0 0.0010799815405063183 -0.011008930335834667 0 -0.00044105608342934926 -0.0108027837548673 0 -0.0013628185513752174 -0.0081160109265658309 0 -0.0011593650201399779 -0.0082563662337514828 0 -0.0013698056559781661 -0.0081463480787280339 0 -0.0015231272879512913 -0.007963558783629485 0 -0.0013628185513752174 -0.0081160109265658309 0 -0.0013902035667707506 -0.0079624638734353114 0 -0.0013628185513752174 -0.0081160109265658309 0 -0.0011593650201399779 -0.0082563662337514828 0 -0.0013902035667707506 -0.0079624638734353114 0 -0.0011593650201399779 -0.0082563662337514828 0 -0.0010816955798296458 -0.0095988601732190509 0 -0.00074414217793926818 -0.0092399181957177456 0 -0.0011593650201399779 -0.0082563662337514828 0 -0.00073853554372320027 -0.0086871420547395273 0 -0.00074414217793926818 -0.0092399181957177456 0 -0.0011711278806288462 -0.0082805502736327252 0 -0.0012182272053760175 -0.0088376899551813101 0 -0.00044795018776125827 -0.0090705443695464731 0 -0.00073853554372320027 -0.0086871420547395273 0 -0.00074414217793926818 -0.0092399181957177456 0 -0.00044795018776125827 -0.0090705443695464731 0 -0.00048457543159141305 -0.0087663332362088071 0 -0.00073853554372320027 -0.0086871420547395273 0 -0.00072752483788303879 -0.0086892743083118919 0 -0.00083875966154758062 -0.0078717175850824272 0 -0.0011593650201399779 -0.0082563662337514828 0 -0.00073853554372320027 -0.0086871420547395273 0 -0.00088567663807237777 -0.0075709595389978433 0 -0.00048457543159141305 -0.0087663332362088071 0 -0.00073853554372320027 -0.0086871420547395273 0 -0.00070515538927574365 -0.0084405267756938254 0 -0.0011593650201399779 -0.0082563662337514828 0 -0.00088567663807237777 -0.0075709595389978433 0 -0.0012632853226498702 -0.0077835320049854115 0 -0.0011593650201399779 -0.0082563662337514828 0 -0.0012632853226498702 -0.0077835320049854115 0 -0.0013902035667707506 -0.0079624638734353114 0 -0.00088567663807237777 -0.0075709595389978433 0 -0.0012632853226498702 -0.0077835320049854115 0 -0.0012872413687056421 -0.007480404469948361 0 -0.0014597972835049082 -0.0076256658164842121 0 -0.0012632853226498702 -0.0077835320049854115 0 -0.0012872413687056421 -0.007480404469948361 0 -0.0014597972835049082 -0.0076256658164842121 0 -0.0012632853226498702 -0.0077835320049854115 0 -0.0013902035667707506 -0.0079624638734353114 0 -0.0013285842530113493 -0.0072778313428000039 0 -0.0012872413687056421 -0.007480404469948361 0 -0.0009786407979587089 -0.0070841471365371503 0 -0.0015295322557922135 -0.0073348528467973712 0 -0.001401391083987742 -0.0072031841227819448 0 -0.0013285842530113493 -0.0072778313428000039 0 -0.0015295322557922135 -0.0073348528467973712 0 -0.0013285842530113493 -0.0072778313428000039 0 -0.0012872413687056421 -0.007480404469948361 0 -0.0015295322557922135 -0.0073348528467973712 0 -0.0014597972835049082 -0.0076256658164842121 0 -0.0012872413687056421 -0.007480404469948361 0 -0.00070515538927574365 -0.0084405267756938254 0 -0.00059296087515525373 -0.0081079142915236949 0 -0.00072254760526553889 -0.0081072045595254032 0 -0.00088567663807237777 -0.0075709595389978433 0 -0.0012872413687056421 -0.007480404469948361 0 -0.0009786407979587089 -0.0070841471365371503 0 -0.00038382482650609561 -0.0084188713556448934 0 -0.00070515538927574365 -0.0084405267756938254 0 -0.00059296087515525373 -0.0081079142915236949 0 -0.00083875966154758062 -0.0078717175850824272 0 -0.00037310743040787196 -0.0083510768311035651 0 -0.0001523224130653567 -0.010125669215075466 0 0.00024401846168109687 -0.01012790930965651 0 0.00036181462532619698 -0.011090263638335034 0 0.00091616547996501807 -0.01132832540256438 0 0.00033975992441024282 -0.011433478409536438 0 0.0017811504770621749 -0.013578519581192779 0 0.0021900110342808481 -0.014772286716920708 0 0.0016597948987234394 -0.014332192883744087 0 -0.00037310743040787196 -0.0083510768311035651 0 0.00033975992441024282 -0.011433478409536438 0 0.0017811504770621749 -0.013578519581192779 0 0.0014662798158968599 -0.013973474524615928 0 0.0016597948987234394 -0.014332192883744087 0 0.0014662798158968599 -0.013973474524615928 0 0.001284771617136969 -0.014195052665697944 0 0.0016597948987234394 -0.014332192883744087 0 0.00091616547996501807 -0.01132832540256438 0 -0.00037310743040787196 -0.0083510768311035651 0 -0.001401391083987742 -0.0072031841227819448 0 -0.0013285842530113493 -0.0072778313428000039 0 -0.0009786407979587089 -0.0070841471365371503 0 0.00010013928754725295 -0.0079128730595602968 0 -0.00012340139686552702 -0.0076988495144570358 0 6.0533808905191112e-05 -0.0075525205343949103 0 -0.00037310743040787196 -0.0083510768311035651 0 -0.00039506714755246561 -0.0055928379669609877 0 -0.001401391083987742 -0.0072031841227819448 0 -0.0009786407979587089 -0.0070841471365371503 0 -0.001421125157012687 -0.0071024010093606324 0 0.00010013928754725295 -0.0079128730595602968 0 -0.00012340139686552702 -0.0076988495144570358 0 -0.0002669196675825511 -0.0078949101726750667 0 0.0010799815405063183 -0.011008930335834667 0 -0.00044105608342934926 -0.0108027837548673 0 0.00016286710735880015 -0.011792279427665236 0 -0.00078111646688742401 -0.011672812401485433 0 0.00016286710735880015 -0.011792279427665236 0 1.0939162341870015e-05 -0.013125247850602545 0 -0.00044105608342934926 -0.0108027837548673 0 -0.00078111646688742401 -0.011672812401485433 0 0.00016286710735880015 -0.011792279427665236 0 0.00029094345268732474 -0.0095820956231099652 0 0.00091616547996501807 -0.01132832540256438 0 0.0010799815405063183 -0.011008930335834667 0 0.00016286710735880015 -0.011792279427665236 0 0.00096441178567486054 -0.012278307901557739 0 0.0010799815405063183 -0.011008930335834667 0 0.0022688574605591169 -0.013038994216919288 0 0.00096441178567486054 -0.012278307901557739 0 0.00016286710735880015 -0.011792279427665236 0 0.00096441178567486054 -0.012278307901557739 0 1.0939162341870015e-05 -0.013125247850602545 0 0.0022688574605591169 -0.013038994216919288 0 0.00096441178567486054 -0.012278307901557739 0 1.0939162341870015e-05 -0.013125247850602545 0 0.0010892894568509742 -0.01376249126920958 0 0.00060730822779413293 -0.013893469311640587 0 1.0939162341870015e-05 -0.013125247850602545 0 0.0017811504770621749 -0.013578519581192779 0 0.0010892894568509742 -0.01376249126920958 0 1.0939162341870015e-05 -0.013125247850602545 0 0.00091616547996501807 -0.01132832540256438 0 0.00055258433613376704 -0.013482418845046248 0 0.0017811504770621749 -0.013578519581192779 0 0.0014662798158968599 -0.013973474524615928 0 0.0010892894568509742 -0.01376249126920958 0 0.0014662798158968599 -0.013973474524615928 0 0.0010892894568509742 -0.01376249126920958 0 0.001284771617136969 -0.014195052665697944 0 0.0010892894568509742 -0.01376249126920958 0 0.00097446592861196802 -0.014061210245383574 0 0.00060730822779413293 -0.013893469311640587 0 0.0010892894568509742 -0.01376249126920958 0 0.00097446592861196802 -0.014061210245383574 0 0.001284771617136969 -0.014195052665697944 0 0.00097446592861196802 -0.014061210245383574 0 0.0010150594235605024 -0.014338303523101273 0 0.001284771617136969 -0.014195052665697944 0 0.00097446592861196802 -0.014061210245383574 0 0.0010150594235605024 -0.014338303523101273 0 0.00078777027890761069 -0.014158478416946613 0 0.00060730822779413293 -0.013893469311640587 0 0.0003354937475247678 -0.014158889181706949 0 1.0939162341870015e-05 -0.013125247850602545 0 0.00097446592861196802 -0.014061210245383574 0 0.00060730822779413293 -0.013893469311640587 0 0.00078777027890761069 -0.014158478416946613 0 0.00060730822779413293 -0.013893469311640587 0 0.00078777027890761069 -0.014158478416946613 0 0.0003354937475247678 -0.014158889181706949 0 0.00078777027890761069 -0.014158478416946613 0 0.00079013780697129393 -0.014399832459108379 0 0.0003354937475247678 -0.014158889181706949 0 0.00079013780697129393 -0.014399832459108379 0 0.0003354937475247678 -0.014158889181706949 0 0.00073987085954591329 -0.014656201181724818 0 0.0010150594235605024 -0.014338303523101273 0 0.00078777027890761069 -0.014158478416946613 0 0.00079013780697129393 -0.014399832459108379 0 0.00013676557964968197 -0.015906310185379156 0 8.8986642555158324e-05 -0.01523044309480665 0 0.00035861875991637646 -0.015482254418984952 0 0.00013676557964968197 -0.015906310185379156 0 0.00072092390655341355 -0.017350484649328861 0 9.0814557088567715e-05 -0.018469617612510505 0 -0.00070945454300283615 -0.0172080998566672 0 -0.00091573087288135836 -0.014195740089780175 0 0.00013676557964968197 -0.015906310185379156 0 -0.00078111646688742401 -0.011672812401485433 0 0.0003354937475247678 -0.014158889181706949 0 1.0939162341870015e-05 -0.013125247850602545 0 0.00075522557675118738 -0.014807407728867777 0 0.00078046333772052257 -0.014729465174688169 0 0.00078435347559261185 -0.014793859891113511 0 0.00075522557675118738 -0.014807407728867777 0 0.00078426389774147415 -0.014852691508086052 0 0.00078435347559261185 -0.014793859891113511 0 0.00078426389774147415 -0.014852691508086052 0 0.00078435347559261185 -0.014793859891113511 0 0.00081716066963376157 -0.014883967953984705 0 0.00078435347559261185 -0.014793859891113511 0 0.00079177515911295175 -0.01482442203663707 0 0.00081716066963376157 -0.014883967953984705 0 0.00078435347559261185 -0.014793859891113511 0 0.00077556026152480822 -0.014738442509443561 0 0.00079177515911295175 -0.01482442203663707 0 0.00078046333772052257 -0.014729465174688169 0 0.00078435347559261185 -0.014793859891113511 0 0.00077556026152480822 -0.014738442509443561 0 0.00091856903768710327 -0.014604150986920156 0 0.0013907377135848327 -0.014691796831145612 0 0.0017664111104560526 -0.015428708737425583 0 0.00078046333772052257 -0.014729465174688169 0 0.00073987085954591329 -0.014656201181724818 0 0.00077556026152480822 -0.014738442509443561 0 0.00091856903768710327 -0.014604150986920156 0 0.00081506750931498401 -0.014800418231676993 0 0.00075006404913764073 -0.014978324761619047 0 0.00079832503824408348 -0.014706865846304909 0 0.00091856903768710327 -0.014604150986920156 0 0.00081506750931498401 -0.014800418231676993 0 0.00086168134025281962 -0.014543734077782091 0 0.0013722611402134926 -0.015376885978560321 0 0.00079013780697129393 -0.014399832459108379 0 0.00073987085954591329 -0.014656201181724818 0 0.00091856903768710327 -0.014604150986920156 0 0.00073987085954591329 -0.014656201181724818 0 0.00079832503824408348 -0.014706865846304909 0 0.00091856903768710327 -0.014604150986920156 0 0.00079832503824408348 -0.014706865846304909 0 0.00077556026152480822 -0.014738442509443561 0 0.00081506750931498401 -0.014800418231676993 0 0.00073987085954591329 -0.014656201181724818 0 0.00079832503824408348 -0.014706865846304909 0 0.00077556026152480822 -0.014738442509443561 0 0.0010150594235605024 -0.014338303523101273 0 0.001284771617136969 -0.014195052665697944 0 0.0013907377135848327 -0.014691796831145612 0 0.0010150594235605024 -0.014338303523101273 0 0.00091856903768710327 -0.014604150986920156 0 0.0013907377135848327 -0.014691796831145612 0 0.0010150594235605024 -0.014338303523101273 0 0.00079013780697129393 -0.014399832459108379 0 0.00091856903768710327 -0.014604150986920156 0 0.00077556026152480822 -0.014738442509443561 0 0.00081506750931498401 -0.014800418231676993 0 0.00079177515911295175 -0.01482442203663707 0 0.00081506750931498401 -0.014800418231676993 0 0.00079177515911295175 -0.01482442203663707 0 0.00080124111243170236 -0.014873762645051207 0 0.00081506750931498401 -0.014800418231676993 0 0.00080124111243170236 -0.014873762645051207 0 0.00078156743279998633 -0.014920370044873376 0 0.00080124111243170236 -0.014873762645051207 0 0.00078156743279998633 -0.014920370044873376 0 0.00081823477261991871 -0.014915012915980654 0 0.00080124111243170236 -0.014873762645051207 0 0.00081823477261991871 -0.014915012915980654 0 0.00081716066963376157 -0.014883967953984705 0 0.00081506750931498401 -0.014800418231676993 0 0.00078156743279998633 -0.014920370044873376 0 0.00075006404913764073 -0.014978324761619047 0 0.00078156743279998633 -0.014920370044873376 0 0.00076169034066697497 -0.014912114347580762 0 0.00081823477261991871 -0.014915012915980654 0 0.00078156743279998633 -0.014920370044873376 0 0.00076169034066697497 -0.014912114347580762 0 0.00072949652273446286 -0.014921423794431284 0 0.00076169034066697497 -0.014912114347580762 0 0.00081823477261991871 -0.014915012915980654 0 0.00083218320487465523 -0.014896192370262899 0 0.00081823477261991871 -0.014915012915980654 0 0.00081716066963376157 -0.014883967953984705 0 0.00089559777633109472 -0.014945574473829083 0 0.00081716066963376157 -0.014883967953984705 0 0.00089559777633109472 -0.014945574473829083 0 0.00081544837668790589 -0.014925318542099312 0 0.00078426389774147415 -0.014852691508086052 0 0.00081716066963376157 -0.014883967953984705 0 0.00081544837668790589 -0.014925318542099312 0 0.00079177515911295175 -0.01482442203663707 0 0.00080124111243170236 -0.014873762645051207 0 0.00081716066963376157 -0.014883967953984705 0 -0.00039517510930818376 -0.0074308199062522572 0 -0.00012340139686552702 -0.0076988495144570358 0 -0.0002669196675825511 -0.0078949101726750667 0 -0.00039517510930818376 -0.0074308199062522572 0 -0.00012340139686552702 -0.0076988495144570358 0 6.0533808905191112e-05 -0.0075525205343949103 0 0.0013907377135848327 -0.014691796831145612 0 0.0018277971662566351 -0.014985448580993535 0 0.0017664111104560526 -0.015428708737425583 0 0.00033975992441024282 -0.011433478409536438 0 0.00070725053116655061 -0.014475287542446567 0 0.0021900110342808481 -0.014772286716920708 0 0.0018277971662566351 -0.014985448580993535 0 0.0021954320893724133 -0.01551525908745187 0 0.0021900110342808481 -0.014772286716920708 0 0.0016597948987234394 -0.014332192883744087 0 0.0018277971662566351 -0.014985448580993535 0 0.0013907377135848327 -0.014691796831145612 0 0.0016597948987234394 -0.014332192883744087 0 0.0018277971662566351 -0.014985448580993535 0 0.001284771617136969 -0.014195052665697944 0 0.0013907377135848327 -0.014691796831145612 0 0.0016597948987234394 -0.014332192883744087 0 0.0017664111104560526 -0.015428708737425583 0 0.0021954320893724133 -0.01551525908745187 0 0.0022602869697286184 -0.016097265750082267 0 0.0013722611402134926 -0.015376885978560321 0 0.0006107207445584001 -0.01448551031097378 0 0.00075006404913764073 -0.014978324761619047 0 0.00072949652273446286 -0.014921423794431284 0 0.00063149497445892135 -0.01488872436848439 0 0.00078156743279998633 -0.014920370044873376 0 0.00075006404913764073 -0.014978324761619047 0 0.00072949652273446286 -0.014921423794431284 0 0.00075006404913764073 -0.014978324761619047 0 0.00049175446983461518 -0.014849696454802644 0 0.00063149497445892135 -0.01488872436848439 0 0.0018277971662566351 -0.014985448580993535 0 0.0017664111104560526 -0.015428708737425583 0 0.0021954320893724133 -0.01551525908745187 0 -0.00039517510930818376 -0.0074308199062522572 0 6.0533808905191112e-05 -0.0075525205343949103 0 -0.0002093558190029448 -0.0070290272356314364 0 0.00033975992441024282 -0.011433478409536438 0 -0.00067298792550835387 -0.0094362156631209605 0 -0.0009041375323330334 -0.012324567653895059 0 -0.00088491239138977211 -0.012733002901032273 0 -0.00063998725783727156 -0.012935482003275022 0 -0.00088491239138977211 -0.012733002901032273 0 -0.00063998725783727156 -0.012935482003275022 0 -0.00084786560968469211 -0.013121799622988161 0 -0.00059392344176499015 -0.013542064867848237 0 -0.00063998725783727156 -0.012935482003275022 0 -0.00084786560968469211 -0.013121799622988161 0 0.00070725053116655061 -0.014475287542446567 0 0.0006107207445584001 -0.01448551031097378 0 0.00037222808289072814 -0.01481038272928019 0 0.00032887522521980874 -0.014828319649317813 0 0.00049175446983461518 -0.014849696454802644 0 0.00036886342150244138 -0.014771027963452931 0 0.00032887522521980874 -0.014828319649317813 0 0.00033823466279864222 -0.014704000110254163 0 0.00032887522521980874 -0.014828319649317813 0 0.00033823466279864222 -0.014704000110254163 0 0.00023651353529533363 -0.014534647329792582 0 0.00037222808289072814 -0.01481038272928019 0 0.00036886342150244138 -0.014771027963452931 0 0.00040830021393478032 -0.014791199147576088 0 0.00037222808289072814 -0.01481038272928019 0 0.00036886342150244138 -0.014771027963452931 0 0.00032887522521980874 -0.014828319649317813 0 0.00036886342150244138 -0.014771027963452931 0 0.00033823466279864222 -0.014704000110254163 0 0.00040423375020548334 -0.014719611638583549 0 0.00075006404913764073 -0.014978324761619047 0 0.00032887522521980874 -0.014828319649317813 0 0.00049175446983461518 -0.014849696454802644 0 0.00040423375020548334 -0.014719611638583549 0 0.00047589065328570692 -0.014778280235891741 0 0.00047192243505347024 -0.014656536979424064 0 0.00047589065328570692 -0.014778280235891741 0 0.00059678837994357921 -0.014749087303076227 0 0.00047192243505347024 -0.014656536979424064 0 0.00047589065328570692 -0.014778280235891741 0 0.00040830021393478032 -0.014791199147576088 0 0.00049175446983461518 -0.014849696454802644 0 0.00037222808289072814 -0.01481038272928019 0 0.00040830021393478032 -0.014791199147576088 0 0.00049175446983461518 -0.014849696454802644 0 0.00040423375020548334 -0.014719611638583549 0 0.00047589065328570692 -0.014778280235891741 0 0.00040830021393478032 -0.014791199147576088 0 0.00036886342150244138 -0.014771027963452931 0 0.00040423375020548334 -0.014719611638583549 0 0.00040830021393478032 -0.014791199147576088 0 0.00047589065328570692 -0.014778280235891741 0 0.00049175446983461518 -0.014849696454802644 0 0.00057543226308535132 -0.014826384113605358 0 0.00049175446983461518 -0.014849696454802644 0 0.00057543226308535132 -0.014826384113605358 0 0.00063149497445892135 -0.01488872436848439 0 0.00057543226308535132 -0.014826384113605358 0 0.00063149497445892135 -0.01488872436848439 0 0.00068824553922429118 -0.014857044009923119 0 0.00072949652273446286 -0.014921423794431284 0 0.00063149497445892135 -0.01488872436848439 0 0.00068824553922429118 -0.014857044009923119 0 0.00057543226308535132 -0.014826384113605358 0 0.00068824553922429118 -0.014857044009923119 0 0.00059678837994357921 -0.014749087303076227 0 0.00047589065328570692 -0.014778280235891741 0 0.00057543226308535132 -0.014826384113605358 0 0.00059678837994357921 -0.014749087303076227 0 0.00059678837994357921 -0.014749087303076227 0 0.00060389717134328434 -0.014555487058869946 0 0.00047192243505347024 -0.014656536979424064 0 0.00060389717134328434 -0.014555487058869946 0 0.00036924313217573125 -0.014429357534703443 0 0.00064046176143471622 -0.01419769939918266 0 0.00036924313217573125 -0.014429357534703443 0 0.00047192243505347024 -0.014656536979424064 0 0.00035224477517856482 -0.014611907318531797 0 0.00060389717134328434 -0.014555487058869946 0 0.00036924313217573125 -0.014429357534703443 0 0.00047192243505347024 -0.014656536979424064 0 0.00040423375020548334 -0.014719611638583549 0 0.00047192243505347024 -0.014656536979424064 0 0.00035224477517856482 -0.014611907318531797 0 -8.2094529945642033e-05 -0.014415824122907067 0 0.00032887522521980874 -0.014828319649317813 0 0.00023651353529533363 -0.014534647329792582 0 -0.00048102978137281536 -0.013820610899474905 0 0.0006107207445584001 -0.01448551031097378 0 0.00036924313217573125 -0.014429357534703443 0 0.00035224477517856482 -0.014611907318531797 0 0.00023651353529533363 -0.014534647329792582 0 0.00033823466279864222 -0.014704000110254163 0 0.00035224477517856482 -0.014611907318531797 0 0.00023651353529533363 -0.014534647329792582 0 0.00033823466279864222 -0.014704000110254163 0 0.00040423375020548334 -0.014719611638583549 0 0.00035224477517856482 -0.014611907318531797 0 0.00036924313217573125 -0.014429357534703443 0 0.00023651353529533363 -0.014534647329792582 0 0.00016927627394132535 -0.01423347673908993 0 -8.2094529945642033e-05 -0.014415824122907067 0 0.00023651353529533363 -0.014534647329792582 0 0.00016927627394132535 -0.01423347673908993 0 0.00089559777633109472 -0.014945574473829083 0 0.00083218320487465523 -0.014896192370262899 0 0.001057206325259847 -0.01498956274212159 0 0.00083218320487465523 -0.014896192370262899 0 0.00075598228042458046 -0.014761034849642049 0 0.001057206325259847 -0.01498956274212159 0 0.00081823477261991871 -0.014915012915980654 0 0.00089559777633109472 -0.014945574473829083 0 0.00083218320487465523 -0.014896192370262899 0 0.00076169034066697497 -0.014912114347580762 0 0.00068824553922429118 -0.014857044009923119 0 0.00083218320487465523 -0.014896192370262899 0 0.00076169034066697497 -0.014912114347580762 0 0.00072949652273446286 -0.014921423794431284 0 0.00068824553922429118 -0.014857044009923119 0 0.00068824553922429118 -0.014857044009923119 0 0.00083218320487465523 -0.014896192370262899 0 0.00075598228042458046 -0.014761034849642049 0 0.00068824553922429118 -0.014857044009923119 0 0.00059678837994357921 -0.014749087303076227 0 0.00075598228042458046 -0.014761034849642049 0 0.00060389717134328434 -0.014555487058869946 0 0.00083425046104524455 -0.014535306225255291 0 0.00064046176143471622 -0.01419769939918266 0 0.00060389717134328434 -0.014555487058869946 0 0.00075598228042458046 -0.014761034849642049 0 0.00083425046104524455 -0.014535306225255291 0 0.00059678837994357921 -0.014749087303076227 0 0.00060389717134328434 -0.014555487058869946 0 0.00075598228042458046 -0.014761034849642049 0 0.00075598228042458046 -0.014761034849642049 0 0.00083425046104524455 -0.014535306225255291 0 0.001057206325259847 -0.01498956274212159 0 0.00083425046104524455 -0.014535306225255291 0 0.001057206325259847 -0.01498956274212159 0 0.0012739865854415776 -0.014090520826660277 0 0.001057206325259847 -0.01498956274212159 0 0.00058083741526433904 -0.01537876569429588 0 0.00097396589003780163 -0.015758785526813021 0 0.0010708176567858483 -0.014992059007051946 0 0.0011015773390503625 -0.014928117214699993 0 0.00058083741526433904 -0.01537876569429588 0 0.00061522310779462016 -0.015089490776901767 0 0.00082814492005474003 -0.015015517922477297 0 0.00089559777633109472 -0.014945574473829083 0 0.001057206325259847 -0.01498956274212159 0 0.00082814492005474003 -0.015015517922477297 0 0.001057206325259847 -0.01498956274212159 0 0.00058083741526433904 -0.01537876569429588 0 0.00082814492005474003 -0.015015517922477297 0 0.00089559777633109472 -0.014945574473829083 0 0.00082814492005474003 -0.015015517922477297 0 0.00081544837668790589 -0.014925318542099312 0 0.00078426389774147415 -0.014852691508086052 0 0.00081544837668790589 -0.014925318542099312 0 0.00074536839895859115 -0.014885712723499202 0 0.00081544837668790589 -0.014925318542099312 0 0.00073121937105008797 -0.014970895089417308 0 0.00074536839895859115 -0.014885712723499202 0 0.00082814492005474003 -0.015015517922477297 0 0.00081544837668790589 -0.014925318542099312 0 0.00073121937105008797 -0.014970895089417308 0 0.00061522310779462016 -0.015089490776901767 0 0.00082814492005474003 -0.015015517922477297 0 0.00073121937105008797 -0.014970895089417308 0 0.00061522310779462016 -0.015089490776901767 0 0.00073121937105008797 -0.014970895089417308 0 0.00058857954032143711 -0.01497240972225003 0 0.00073121937105008797 -0.014970895089417308 0 0.00058857954032143711 -0.01497240972225003 0 0.00067455133267401769 -0.014914317727262975 0 0.00073121937105008797 -0.014970895089417308 0 0.00067455133267401769 -0.014914317727262975 0 0.00074536839895859115 -0.014885712723499202 0 0.00067455133267401769 -0.014914317727262975 0 0.00067439941048328398 -0.014862299576304475 0 0.00074536839895859115 -0.014885712723499202 0 0.00067455133267401769 -0.014914317727262975 0 0.00061518689656957139 -0.014897137324911143 0 0.00067439941048328398 -0.014862299576304475 0 0.00058857954032143711 -0.01497240972225003 0 0.00067455133267401769 -0.014914317727262975 0 0.00061518689656957139 -0.014897137324911143 0 0.00061518689656957139 -0.014897137324911143 0 0.00061626209006755554 -0.01486430456771505 0 0.00067439941048328398 -0.014862299576304475 0 0.00075522557675118738 -0.014807407728867777 0 0.00067439941048328398 -0.014862299576304475 0 0.00074536839895859115 -0.014885712723499202 0 0.00075522557675118738 -0.014807407728867777 0 0.00078426389774147415 -0.014852691508086052 0 0.00074536839895859115 -0.014885712723499202 0 0.0032942902818439354 -0.028450428701483125 0 0.0027619684894787133 -0.029407155138904038 0 0.0023603005147383011 -0.028564799362130001 0 0.0029439086683127227 -0.023588343933997825 0 0.0026704977880084575 -0.028839775669493431 0 0.0029439086683127227 -0.023588343933997825 0 0.0014571729474078231 -0.021903463728984541 0 0.00061518689656957139 -0.014897137324911143 0 0.00061626209006755554 -0.01486430456771505 0 0.00055402624783013532 -0.014872255626909811 0 0.00058857954032143711 -0.01497240972225003 0 0.00061518689656957139 -0.014897137324911143 0 0.00055402624783013532 -0.014872255626909811 0 0.00061522310779462016 -0.015089490776901767 0 0.00058857954032143711 -0.01497240972225003 0 0.00031521868640923298 -0.015117702442870688 0 0.00058857954032143711 -0.01497240972225003 0 0.00055402624783013532 -0.014872255626909811 0 0.00031521868640923298 -0.015117702442870688 0 0.00058083741526433904 -0.01537876569429588 0 0.00030426757373038649 -0.015880248017872252 0 8.3219939652231544e-05 -0.015560997354922449 0 0.00058083741526433904 -0.01537876569429588 0 0.00031521868640923298 -0.015117702442870688 0 8.3219939652231544e-05 -0.015560997354922449 0 0.0014571729474078231 -0.021903463728984541 0 0.001123180265138016 -0.022994173037482239 0 0.00058083741526433904 -0.01537876569429588 0 0.00061522310779462016 -0.015089490776901767 0 0.00031521868640923298 -0.015117702442870688 0 0.00030426757373038649 -0.015880248017872252 0 0.00023544374229199751 -0.016238915755702646 0 0.00041133536505720558 -0.016114833923417379 0 0.00030426757373038649 -0.015880248017872252 0 0.00041133536505720558 -0.016114833923417379 0 0.00060150962456930151 -0.015904245250891826 0 0.00041133536505720558 -0.016114833923417379 0 0.00060150962456930151 -0.015904245250891826 0 0.00053448103847142056 -0.016290673115052522 0 0.00058083741526433904 -0.01537876569429588 0 0.00030426757373038649 -0.015880248017872252 0 0.00060150962456930151 -0.015904245250891826 0 0.00058083741526433904 -0.01537876569429588 0 0.00060150962456930151 -0.015904245250891826 0 0.00097396589003780163 -0.015758785526813021 0 0.0012739865854415776 -0.014090520826660277 0 0.001142663158087662 -0.01354005385302301 0 0.00095444551110451705 -0.013606782724915965 0 0.00060150962456930151 -0.015904245250891826 0 0.00097396589003780163 -0.015758785526813021 0 0.00073903680875798202 -0.016245777665720607 0 0.0011015773390503625 -0.014928117214699993 0 0.00091844727995181832 -0.014899499565682196 0 0.00060150962456930151 -0.015904245250891826 0 0.00053448103847142056 -0.016290673115052522 0 0.00073903680875798202 -0.016245777665720607 0 0.00053448103847142056 -0.016290673115052522 0 0.00073903680875798202 -0.016245777665720607 0 0.00038770102649168624 -0.016383986965181199 0 0.00091844727995181832 -0.014899499565682196 0 0.00053660989305374951 -0.014986797555298269 0 0.001142663158087662 -0.01354005385302301 0 0.0010136738447192074 -0.013446625431786633 0 0.00063773772809301999 -0.013558478228614623 0 0.0010136738447192074 -0.013446625431786633 0 0.00063773772809301999 -0.013558478228614623 0 0.0010626026552397708 -0.01378758157365925 0 0.00053448103847142056 -0.016290673115052522 0 0.00038770102649168624 -0.016383986965181199 0 0.00046448937190981192 -0.01646687958719556 0 0.00038770102649168624 -0.016383986965181199 0 0.00046448937190981192 -0.01646687958719556 0 0.0004822794016284685 -0.016192719524693831 0 0.00046448937190981192 -0.01646687958719556 0 0.0003369232967235872 -0.016597124501541011 0 0.00043444042446674834 -0.016658641671298404 0 0.00023544374229199751 -0.016238915755702646 0 0.00046448937190981192 -0.01646687958719556 0 0.0003369232967235872 -0.016597124501541011 0 0.00023544374229199751 -0.016238915755702646 0 0.00041133536505720558 -0.016114833923417379 0 0.00046448937190981192 -0.01646687958719556 0 0.00041133536505720558 -0.016114833923417379 0 0.00053448103847142056 -0.016290673115052522 0 0.00046448937190981192 -0.01646687958719556 0 -0.00023698488203667737 -0.013616476122059818 0 0.00018788166595765573 -0.013869061895145925 0 0.00026531047227615459 -0.013489018860462628 0 -8.4282752900167047e-05 -0.013961622642479738 0 -0.00023698488203667737 -0.013616476122059818 0 0.00018788166595765573 -0.013869061895145925 0 -8.4282752900167047e-05 -0.013961622642479738 0 0.00018788166595765573 -0.013869061895145925 0 0.00016927627394132535 -0.01423347673908993 0 -8.4282752900167047e-05 -0.013961622642479738 0 -8.2094529945642033e-05 -0.014415824122907067 0 0.00016927627394132535 -0.01423347673908993 0 0.00036924313217573125 -0.014429357534703443 0 0.00016927627394132535 -0.01423347673908993 0 0.00040112828417643759 -0.014121184221994347 0 0.00018788166595765573 -0.013869061895145925 0 0.00016927627394132535 -0.01423347673908993 0 0.00040112828417643759 -0.014121184221994347 0 0.00036924313217573125 -0.014429357534703443 0 0.00040112828417643759 -0.014121184221994347 0 0.00064046176143471622 -0.01419769939918266 0 0.00040112828417643759 -0.014121184221994347 0 0.0006007733701303171 -0.013807195584852864 0 0.00064046176143471622 -0.01419769939918266 0 0.00018788166595765573 -0.013869061895145925 0 0.00040112828417643759 -0.014121184221994347 0 0.0006007733701303171 -0.013807195584852864 0 0.00018788166595765573 -0.013869061895145925 0 0.0006007733701303171 -0.013807195584852864 0 0.00026531047227615459 -0.013489018860462628 0 0.0006007733701303171 -0.013807195584852864 0 0.00085327803268008082 -0.014036651150515542 0 0.00095444551110451705 -0.013606782724915965 0 0.00083425046104524455 -0.014535306225255291 0 0.00085327803268008082 -0.014036651150515542 0 0.00064046176143471622 -0.01419769939918266 0 0.0006007733701303171 -0.013807195584852864 0 0.00085327803268008082 -0.014036651150515542 0 0.00064046176143471622 -0.01419769939918266 0 0.00083425046104524455 -0.014535306225255291 0 0.0012739865854415776 -0.014090520826660277 0 0.00085327803268008082 -0.014036651150515542 0 0.0012739865854415776 -0.014090520826660277 0 0.00085327803268008082 -0.014036651150515542 0 0.00095444551110451705 -0.013606782724915965 0 0.001142663158087662 -0.01354005385302301 0 0.0010136738447192074 -0.013446625431786633 0 0.00095444551110451705 -0.013606782724915965 0 0.0010136738447192074 -0.013446625431786633 0 0.00095444551110451705 -0.013606782724915965 0 0.0010008575851378431 -0.013301913346304338 0 0.0010136738447192074 -0.013446625431786633 0 0.0010008575851378431 -0.013301913346304338 0 0.0010626026552397708 -0.01378758157365925 0 0.0010008575851378431 -0.013301913346304338 0 0.00072287126512402585 -0.01341419390289319 0 0.00057053879839133275 -0.012785386531204075 0 0.0006007733701303171 -0.013807195584852864 0 0.00095444551110451705 -0.013606782724915965 0 0.00072287126512402585 -0.01341419390289319 0 0.00095444551110451705 -0.013606782724915965 0 0.0010008575851378431 -0.013301913346304338 0 0.00072287126512402585 -0.01341419390289319 0 0.00072287126512402585 -0.01341419390289319 0 0.00026531047227615459 -0.013489018860462628 0 0.00057053879839133275 -0.012785386531204075 0 0.0006007733701303171 -0.013807195584852864 0 0.00072287126512402585 -0.01341419390289319 0 0.00026531047227615459 -0.013489018860462628 0 -0.00016582000238775718 -0.01281756839751042 0 0.00026531047227615459 -0.013489018860462628 0 0.00057053879839133275 -0.012785386531204075 0 -4.8362515036687212e-06 -0.013100461249654636 0 0.00018009768072024866 -0.013256513040755414 0 -0.00019490402013932066 -0.013199165990274061 0 -7.7053634681955235e-05 -0.012514934401141898 0 0.00026531047227615459 -0.013489018860462628 0 -0.00019490402013932066 -0.013199165990274061 0 -0.00023698488203667737 -0.013616476122059818 0 0.00026531047227615459 -0.013489018860462628 0 0.00026282656731051206 -0.011805836121985869 0 0.00062070708628446988 -0.011940279967045424 0 0.00019107023897083468 -0.010855639095918858 0 -0.00013949217038138279 -0.011235478728321764 0 0.00026282656731051206 -0.011805836121985869 0 0.00019107023897083468 -0.010855639095918858 0 -9.5470776482209157e-05 -0.012065033321779505 0 -0.00013949217038138279 -0.011235478728321764 0 0.00026282656731051206 -0.011805836121985869 0 -9.5470776482209157e-05 -0.012065033321779505 0 0.00026282656731051206 -0.011805836121985869 0 0.00057053879839133275 -0.012785386531204075 0 -9.5470776482209157e-05 -0.012065033321779505 0 -0.00016582000238775718 -0.01281756839751042 0 0.00057053879839133275 -0.012785386531204075 0 0.00057053879839133275 -0.012785386531204075 0 0.00062070708628446988 -0.011940279967045424 0 0.0010948274906027724 -0.013206944062599368 0 0.00026282656731051206 -0.011805836121985869 0 0.00057053879839133275 -0.012785386531204075 0 0.00062070708628446988 -0.011940279967045424 0 0.00062070708628446988 -0.011940279967045424 0 0.0010948274906027724 -0.013206944062599368 0 0.001173940639585723 -0.014190250378934807 0 0.00058054513412700379 -0.012158287796635431 0 0.00070781175474028354 -0.01328413266391084 0 0.0010008575851378431 -0.013301913346304338 0 0.00057053879839133275 -0.012785386531204075 0 0.0010948274906027724 -0.013206944062599368 0 0.0010008575851378431 -0.013301913346304338 0 0.0010948274906027724 -0.013206944062599368 0 0.0010626026552397708 -0.01378758157365925 0 0.0010948274906027724 -0.013206944062599368 0 0.001173940639585723 -0.014190250378934807 0 0.0010626026552397708 -0.01378758157365925 0 0.00062070708628446988 -0.011940279967045424 0 0.0003714485713537824 -0.01239227410287639 0 0.00033036312942496193 -0.01081019258556629 0 0.0003714485713537824 -0.01239227410287639 0 0.00033036312942496193 -0.01081019258556629 0 8.782799548690532e-07 -0.010920593381625666 0 0.0003714485713537824 -0.01239227410287639 0 4.3655309446798716e-07 -0.012992752707839676 0 8.782799548690532e-07 -0.010920593381625666 0 0.00062070708628446988 -0.011940279967045424 0 0.00033036312942496193 -0.01081019258556629 0 0.00019107023897083468 -0.010855639095918858 0 0.00033036312942496193 -0.01081019258556629 0 8.782799548690532e-07 -0.010920593381625666 0 5.8273661443131245e-07 -0.0088475264447997696 0 -2.0506436180353761e-05 -0.0094569310036824866 0 0.00033036312942496193 -0.01081019258556629 0 5.8273661443131245e-07 -0.0088475264447997696 0 -2.0506436180353761e-05 -0.0094569310036824866 0 0.00033036312942496193 -0.01081019258556629 0 0.00019107023897083468 -0.010855639095918858 0 0.00034490259711671356 -0.016433715433443609 0 0.0004822794016284685 -0.016192719524693831 0 0.00027212271191365164 -0.015986758143502127 0 0.00034490259711671356 -0.016433715433443609 0 0.00043444042446674834 -0.016658641671298404 0 0.0004822794016284685 -0.016192719524693831 0 0.00034490259711671356 -0.016433715433443609 0 0.00043444042446674834 -0.016658641671298404 0 0.0003610147098764553 -0.017079924419130907 0 0.00046448937190981192 -0.01646687958719556 0 0.00043444042446674834 -0.016658641671298404 0 0.0004822794016284685 -0.016192719524693831 0 0.00053660989305374951 -0.014986797555298269 0 0.00031840114202101561 -0.015356881428508037 0 0.00038770102649168624 -0.016383986965181199 0 0.0004822794016284685 -0.016192719524693831 0 0.00029019030074914863 -0.015410603298786572 0 0.00063773772809301999 -0.013558478228614623 0 0.0010626026552397708 -0.01378758157365925 0 0.00029019030074914863 -0.015410603298786572 0 0.001173940639585723 -0.014190250378934807 0 0.0010626026552397708 -0.01378758157365925 0 0.00029019030074914863 -0.015410603298786572 0 0.0004822794016284685 -0.016192719524693831 0 0.00029019030074914863 -0.015410603298786572 0 0.00027212271191365164 -0.015986758143502127 0 0.00029019030074914863 -0.015410603298786572 0 0.00039567288526680427 -0.015862807306270748 0 0.00027212271191365164 -0.015986758143502127 0 0.0003714485713537824 -0.01239227410287639 0 4.3655309446798716e-07 -0.012992752707839676 0 2.1137970759964816e-05 -0.014097937836649086 0 0.00070781175474028354 -0.01328413266391084 0 0.00027463060079028909 -0.015001122755428897 0 0.001173940639585723 -0.014190250378934807 0 0.00029019030074914863 -0.015410603298786572 0 0.00039567288526680427 -0.015862807306270748 0 4.3655309446798716e-07 -0.012992752707839676 0 2.1137970759964816e-05 -0.014097937836649086 0 -2.2282929830828705e-07 -0.01506579537725343 0 2.1137970759964816e-05 -0.014097937836649086 0 -2.2282929830828705e-07 -0.01506579537725343 0 9.2121268108616777e-05 -0.016578167259076963 0 -2.2282929830828705e-07 -0.01506579537725343 0 5.0583108363586476e-07 -0.017139183280848326 0 9.2121268108616777e-05 -0.016578167259076963 0 0.00039567288526680427 -0.015862807306270748 0 0.00027212271191365164 -0.015986758143502127 0 9.2121268108616777e-05 -0.016578167259076963 0 0.00034490259711671356 -0.016433715433443609 0 0.00027212271191365164 -0.015986758143502127 0 9.2121268108616777e-05 -0.016578167259076963 0 0.00027463060079028909 -0.015001122755428897 0 0.00012959857617121146 -0.016332918215538512 0 0.00034490259711671356 -0.016433715433443609 0 0.00028287286451112229 -0.016915777361650612 0 9.2121268108616777e-05 -0.016578167259076963 0 0.00028287286451112229 -0.016915777361650612 0 9.2121268108616777e-05 -0.016578167259076963 0 0.00023777996873216006 -0.017559050434521575 0 0.00034490259711671356 -0.016433715433443609 0 0.00028287286451112229 -0.016915777361650612 0 0.0003610147098764553 -0.017079924419130907 0 5.0583108363586476e-07 -0.017139183280848326 0 9.2121268108616777e-05 -0.016578167259076963 0 0.00023777996873216006 -0.017559050434521575 0 5.0583108363586476e-07 -0.017139183280848326 0 0.00023777996873216006 -0.017559050434521575 0 5.9163307767099166e-07 -0.019211856393682628 0 0.00023777996873216006 -0.017559050434521575 0 5.9163307767099166e-07 -0.019211856393682628 0 0.00014102587403446755 -0.018427819238710223 0 5.9163307767099166e-07 -0.019211856393682628 0 0.00014102587403446755 -0.018427819238710223 0 -0.00014432501929815021 -0.019077239066679481 0 0.00035965745473041537 -0.018230428902389021 0 0.00011242118576866994 -0.019502480163204373 0 0.00014102587403446755 -0.018427819238710223 0 0.00034165881845791543 -0.017921065994211956 0 -0.00014432501929815021 -0.019077239066679481 0 0.00034165881845791543 -0.017921065994211956 0 0.00013525473910231845 -0.018778917237602066 0 0.00030169316686436424 -0.019954900818925217 0 0.00023777996873216006 -0.017559050434521575 0 0.00034165881845791543 -0.017921065994211956 0 0.0003610147098764553 -0.017079924419130907 0 0.00023777996873216006 -0.017559050434521575 0 0.00014102587403446755 -0.018427819238710223 0 0.00034165881845791543 -0.017921065994211956 0 0.00028287286451112229 -0.016915777361650612 0 0.00023777996873216006 -0.017559050434521575 0 0.0003610147098764553 -0.017079924419130907 0 0.00043444042446674834 -0.016658641671298404 0 0.00035077471661596599 -0.01720154170819356 0 0.0003610147098764553 -0.017079924419130907 0 0.00034165881845791543 -0.017921065994211956 0 0.00035077471661596599 -0.01720154170819356 0 0.0003610147098764553 -0.017079924419130907 0 0.00034165881845791543 -0.017921065994211956 0 0.0001999138751150558 -0.01771687700267598 0 0.00013525473910231845 -0.018778917237602066 0 0.00034165881845791543 -0.017921065994211956 0 0.00035077471661596599 -0.01720154170819356 0 0.0001999138751150558 -0.01771687700267598 0 0.00018945124986362874 -0.017123160501544506 0 -1.0228622213009471e-05 -0.017059924785542548 0 0.00011382845114012864 -0.016742910221269967 0 0.00035077471661596599 -0.01720154170819356 0 0.0001999138751150558 -0.01771687700267598 0 0.00018945124986362874 -0.017123160501544506 0 0.0001999138751150558 -0.01771687700267598 0 0.00018945124986362874 -0.017123160501544506 0 -0.00011544454183006155 -0.01739212152189348 0 0.00043444042446674834 -0.016658641671298404 0 0.00035077471661596599 -0.01720154170819356 0 0.00031539606587769237 -0.016794378848735629 0 0.00035077471661596599 -0.01720154170819356 0 0.00018945124986362874 -0.017123160501544506 0 0.00031539606587769237 -0.016794378848735629 0 0.0010452665242665744 -0.030734075789971088 0 0.00092032740859634011 -0.03094661541564022 0 0.0010691885602996368 -0.030966871387513972 0 -0.0010692161865193122 -0.017500916518861584 0 -0.00029426953818273243 -0.017021223837467035 0 -0.00041706337905523356 -0.017229840334374344 0 3.6686102724672743e-05 -0.024144311966473781 0 -0.00056310821314825934 -0.021314133914760128 0 -0.00059053643801882543 -0.017667594163290428 0 -0.0010692161865193122 -0.017500916518861584 0 -0.00041706337905523356 -0.017229840334374344 0 -0.00056310821314825934 -0.021314133914760128 0 0.00019991255243512871 -0.019056661946152804 0 -0.00031003552395610811 -0.017051565738110411 0 -0.00041706337905523356 -0.017229840334374344 0 -0.00011544454183006155 -0.01739212152189348 0 -0.00031003552395610811 -0.017051565738110411 0 -1.0228622213009471e-05 -0.017059924785542548 0 -0.00011544454183006155 -0.01739212152189348 0 0.00018945124986362874 -0.017123160501544506 0 -1.0228622213009471e-05 -0.017059924785542548 0 -0.00011544454183006155 -0.01739212152189348 0 -0.00059053643801882543 -0.017667594163290428 0 -0.00041706337905523356 -0.017229840334374344 0 -0.00011544454183006155 -0.01739212152189348 0 -0.00059053643801882543 -0.017667594163290428 0 -0.00011544454183006155 -0.01739212152189348 0 -0.00016499589341252614 -0.017972627724485973 0 0.0001999138751150558 -0.01771687700267598 0 -0.00011544454183006155 -0.01739212152189348 0 -0.00016499589341252614 -0.017972627724485973 0 0.0001999138751150558 -0.01771687700267598 0 -0.00016499589341252614 -0.017972627724485973 0 0.00013525473910231845 -0.018778917237602066 0 -0.00016499589341252614 -0.017972627724485973 0 -0.0010326498264218674 -0.018029088252459812 0 -0.0014267957161432233 -0.018937541224520335 0 -0.00011425122310466501 -0.01741126568431299 0 -0.0011794873151008453 -0.021296140910830087 0 -0.00059053643801882543 -0.017667594163290428 0 -0.00016499589341252614 -0.017972627724485973 0 -0.0010326498264218674 -0.018029088252459812 0 -0.00059053643801882543 -0.017667594163290428 0 -0.0010692161865193122 -0.017500916518861584 0 -0.0010326498264218674 -0.018029088252459812 0 -0.00032900706902029488 -0.019405721177169055 0 -0.00036839283834063589 -0.021161099978692477 0 -0.0014415720925976835 -0.019544001585102864 0 -0.00016499589341252614 -0.017972627724485973 0 -0.00032900706902029488 -0.019405721177169055 0 -0.0014415720925976835 -0.019544001585102864 0 -0.00032900706902029488 -0.019405721177169055 0 -0.00036839283834063589 -0.021161099978692477 0 -6.4531169995091323e-05 -0.020293943149846262 0 -0.0005376314048217704 -0.02107548906950471 0 -0.0011794873151008453 -0.021296140910830087 0 -0.00016499589341252614 -0.017972627724485973 0 -0.00032900706902029488 -0.019405721177169055 0 0.00013525473910231845 -0.018778917237602066 0 -0.00032900706902029488 -0.019405721177169055 0 0.00013525473910231845 -0.018778917237602066 0 -6.4531169995091323e-05 -0.020293943149846262 0 0.00013525473910231845 -0.018778917237602066 0 0.00030169316686436424 -0.019954900818925217 0 -6.4531169995091323e-05 -0.020293943149846262 0 0.00011242118576866994 -0.019502480163204373 0 -1.3698100771871466e-08 -0.021284708400133075 0 5.9163307767099166e-07 -0.019211856393682628 0 -0.00014432501929815021 -0.019077239066679481 0 -1.2095747964076182e-06 -0.021283677776305951 0 0.00030169316686436424 -0.019954900818925217 0 -6.4531169995091323e-05 -0.020293943149846262 0 -1.2134216984423501e-06 -0.021286557396665393 0 -0.00036839283834063589 -0.021161099978692477 0 -6.4531169995091323e-05 -0.020293943149846262 0 -1.2134216984423501e-06 -0.021286557396665393 0 -0.00036839283834063589 -0.021161099978692477 0 -1.2134216984423501e-06 -0.021286557396665393 0 -8.7280672817901752e-05 -0.021906971336207549 0 -1.2134216984423501e-06 -0.021286557396665393 0 -8.7280672817901752e-05 -0.021906971336207549 0 3.4287515563112018e-07 -0.023038683319994403 0 -8.7280672817901752e-05 -0.021906971336207549 0 -8.0378278090798594e-05 -0.022624716639471892 0 3.4287515563112018e-07 -0.023038683319994403 0 -0.00036839283834063589 -0.021161099978692477 0 -8.7280672817901752e-05 -0.021906971336207549 0 -0.00013350524258110388 -0.021912802606287092 0 -8.0378278090798594e-05 -0.022624716639471892 0 3.4287515563112018e-07 -0.023038683319994403 0 -8.4631074764149593e-07 -0.02479285021826139 0 -0.00059167735849703846 -0.025265504943577544 0 -0.0006614412297480573 -0.025542902808940417 0 -0.00028533588995197768 -0.025578288719482437 0 -0.0006614412297480573 -0.025542902808940417 0 -0.00096735740793707698 -0.025492056650767213 0 -0.00078185218167398768 -0.025853474296865887 0 -0.00059167735849703846 -0.025265504943577544 0 -0.0006614412297480573 -0.025542902808940417 0 -0.00096735740793707698 -0.025492056650767213 0 -8.7280672817901752e-05 -0.021906971336207549 0 -8.0378278090798594e-05 -0.022624716639471892 0 -0.00013350524258110388 -0.021912802606287092 0 -0.00025026948483607782 -0.024200231685110072 0 -0.0011794873151008453 -0.021296140910830087 0 3.8210533707974169e-07 -0.026052183555220137 0 9.6394522438708545e-05 -0.025524565342847135 0 -3.39817467150903e-07 -0.024796047956346001 0 -0.00025026948483607782 -0.024200231685110072 0 2.51548784470545e-07 -0.024793203910462292 0 -0.00059167735849703846 -0.025265504943577544 0 -3.39817467150903e-07 -0.024796047956346001 0 -0.00017271455592400467 -0.025315752029832845 0 9.6394522438708545e-05 -0.025524565342847135 0 -3.39817467150903e-07 -0.024796047956346001 0 -0.00017271455592400467 -0.025315752029832845 0 -0.0006551829574939624 -0.027736677093877171 0 -0.0014096691231034364 -0.028375196702340573 0 -0.0011272219644658252 -0.028386843814678736 0 -0.00015078136588665345 -0.026619056053281086 0 -0.001115329853861913 -0.027227681760406776 0 -0.00059167735849703846 -0.025265504943577544 0 -0.00017271455592400467 -0.025315752029832845 0 -0.00028533588995197768 -0.025578288719482437 0 9.6394522438708545e-05 -0.025524565342847135 0 -0.00017271455592400467 -0.025315752029832845 0 -0.00028533588995197768 -0.025578288719482437 0 -0.0006551829574939624 -0.027736677093877171 0 -0.0011272219644658252 -0.028386843814678736 0 -0.00025767430488280363 -0.028015299169227171 0 -0.0010965417401473669 -0.0283708016648135 0 -0.00038971626054941491 -0.028180970256289531 0 -0.0011272219644658252 -0.028386843814678736 0 -0.00099611122200014553 -0.028685003703528781 0 -0.00048293938799269965 -0.028325761017290455 0 -0.00076760884840225516 -0.028842467573660203 0 -0.00099611122200014553 -0.028685003703528781 0 -0.00048293938799269965 -0.028325761017290455 0 -0.00076760884840225516 -0.028842467573660203 0 -0.00099611122200014553 -0.028685003703528781 0 -0.0011803641222769459 -0.029072615701532904 0 -0.00099611122200014553 -0.028685003703528781 0 -0.0013027655188933356 -0.028742238075441139 0 -0.0011803641222769459 -0.029072615701532904 0 -0.0011272219644658252 -0.028386843814678736 0 -0.00099611122200014553 -0.028685003703528781 0 -0.0013027655188933356 -0.028742238075441139 0 -0.0014096691231034364 -0.028375196702340573 0 -0.0011272219644658252 -0.028386843814678736 0 -0.0013027655188933356 -0.028742238075441139 0 -0.0013410292804094588 -0.029141166071960972 0 -0.00013087264339636334 -0.030748156044508097 0 -0.001275606857975057 -0.029209932783791574 0 -0.0017410435981579009 -0.029543843072521649 0 -0.0010183198391715781 -0.029707431716070432 0 -0.0011803641222769459 -0.029072615701532904 0 -0.0015161200941369959 -0.028991696939791343 0 -0.0015906141938315645 -0.029349269348582074 0 -0.0013027655188933356 -0.028742238075441139 0 -0.0011803641222769459 -0.029072615701532904 0 -0.0015161200941369959 -0.028991696939791343 0 -0.001275606857975057 -0.029209932783791574 0 -0.00076794947236294311 -0.029334397863502355 0 -0.0010183198391715781 -0.029707431716070432 0 -0.00077560830294530676 -0.02885035326055467 0 -0.0013410292804094588 -0.029141166071960972 0 -0.00076760884840225516 -0.028842467573660203 0 -0.001275606857975057 -0.029209932783791574 0 -0.00076794947236294311 -0.029334397863502355 0 -0.0010326498264218674 -0.018029088252459812 0 -0.0014267957161432233 -0.018937541224520335 0 -0.0019301998638603323 -0.018080475148765283 0 -0.0010692161865193122 -0.017500916518861584 0 -0.0010326498264218674 -0.018029088252459812 0 -0.0019301998638603323 -0.018080475148765283 0 3.6686102724672743e-05 -0.024144311966473781 0 -0.00030871002192260188 -0.025829703806017904 0 -0.0011794873151008453 -0.021296140910830087 0 -0.00030871002192260188 -0.025829703806017904 0 -0.001115329853861913 -0.027227681760406776 0 -0.00030871002192260188 -0.025829703806017904 0 -0.0006614412297480573 -0.025542902808940417 0 -0.00028533588995197768 -0.025578288719482437 0 -0.00078185218167398768 -0.025853474296865887 0 -0.0013027655188933356 -0.028742238075441139 0 -0.0019382499690384295 -0.028740268343016791 0 -0.0015161200941369959 -0.028991696939791343 0 -0.0014096691231034364 -0.028375196702340573 0 -0.0013027655188933356 -0.028742238075441139 0 -0.0019382499690384295 -0.028740268343016791 0 -0.0019382499690384295 -0.028740268343016791 0 -0.0015161200941369959 -0.028991696939791343 0 -0.0015906141938315645 -0.029349269348582074 0 -0.00030871002192260188 -0.025829703806017904 0 -0.00013087264339636334 -0.030748156044508097 0 0.0012681314385839259 -0.030534861165555718 0 0.0012139533758688079 -0.03084834250082116 0 0.0014691803996836452 -0.030911329804545529 0 0.0010452665242665744 -0.030734075789971088 0 0.0012681314385839259 -0.030534861165555718 0 0.0012139533758688079 -0.03084834250082116 0 0.0010452665242665744 -0.030734075789971088 0 0.0012139533758688079 -0.03084834250082116 0 0.0010691885602996368 -0.030966871387513972 0 0.0012139533758688079 -0.03084834250082116 0 0.0012317166197669206 -0.03108106667411311 0 0.0010691885602996368 -0.030966871387513972 0 0.0012139533758688079 -0.03084834250082116 0 0.0012317166197669206 -0.03108106667411311 0 0.0014691803996836452 -0.030911329804545529 0 0.0012317166197669206 -0.03108106667411311 0 0.0010691885602996368 -0.030966871387513972 0 0.00097177005480968571 -0.031231525242847911 0 0.00071100252277925562 -0.03144632342009817 0 0.00073443714440063089 -0.031335006127435186 0 0.00061406269321414555 -0.031302793031958674 0 -0.00013087264339636334 -0.030748156044508097 0 -0.00040319981776413291 -0.030582017932941793 0 0.00084816808815678499 -0.031353522562504933 0 0.00071100252277925562 -0.03144632342009817 0 0.00073443714440063089 -0.031335006127435186 0 0.0011747442974003365 -0.031156452882069675 0 -0.00013087264339636334 -0.030748156044508097 0 0.00080531709619564515 -0.031243945565731228 0 0.00061406269321414555 -0.031302793031958674 0 0.0007030776872605218 -0.031142448927187285 0 0.00084816808815678499 -0.031353522562504933 0 0.00073443714440063089 -0.031335006127435186 0 0.00080531709619564515 -0.031243945565731228 0 0.00073443714440063089 -0.031335006127435186 0 0.00080531709619564515 -0.031243945565731228 0 0.00061406269321414555 -0.031302793031958674 0 0.00084816808815678499 -0.031353522562504933 0 0.00080531709619564515 -0.031243945565731228 0 0.00097177005480968571 -0.031231525242847911 0 0.00080531709619564515 -0.031243945565731228 0 0.00088475659934269743 -0.031188257962301305 0 0.00097177005480968571 -0.031231525242847911 0 0.0011747442974003365 -0.031156452882069675 0 0.0009360805627528009 -0.031263025311305016 0 -0.0010183198391715781 -0.029707431716070432 0 -0.00074734445518324238 -0.030155038022887437 0 -0.00045040169807588525 -0.029708748133147691 0 -0.00076794947236294311 -0.029334397863502355 0 -0.0010183198391715781 -0.029707431716070432 0 -0.00045040169807588525 -0.029708748133147691 0 -0.0017410435981579009 -0.029543843072521649 0 -0.0010183198391715781 -0.029707431716070432 0 -0.0014246277969259876 -0.030086455097607052 0 -0.00040319981776413291 -0.030582017932941793 0 -0.0012788592267687002 -0.031543139636278097 0 -0.0014246277969259876 -0.030086455097607052 0 -0.00074734445518324238 -0.030155038022887437 0 -0.0011149281357756885 -0.030623109166541901 0 -0.0010183198391715781 -0.029707431716070432 0 -0.0014246277969259876 -0.030086455097607052 0 -0.00074734445518324238 -0.030155038022887437 0 -0.0012788592267687002 -0.031543139636278097 0 -0.001079738603363168 -0.031529368779996236 0 -0.00074734445518324238 -0.030155038022887437 0 -0.0011149281357756885 -0.030623109166541901 0 -0.00037554524512086092 -0.030575071889734191 0 -0.0022446820851816244 -0.032316149758557719 0 -0.0021424290602891482 -0.032502665842896315 0 -0.0015896972966652726 -0.032491421787898322 0 -0.0012788592267687002 -0.031543139636278097 0 -0.001664469338706068 -0.03222643004845533 0 -0.0023336446215595362 -0.032583085181491528 0 -0.0022056929306982893 -0.032344012736980565 0 -0.00130786496951249 -0.032407185385689714 0 0.00061406269321414555 -0.031302793031958674 0 0.00049837580589495235 -0.031144447433480875 0 0.0007030776872605218 -0.031142448927187285 0 -0.0012788592267687002 -0.031543139636278097 0 -0.00025098823804426182 -0.031765369227781573 0 -0.0023336446215595362 -0.032583085181491528 0 -0.0021424290602891482 -0.032502665842896315 0 -0.0022056929306982893 -0.032344012736980565 0 -0.0022056929306982893 -0.032344012736980565 0 -0.002179587625284292 -0.032616304455383653 0 -0.0025388627362019629 -0.032557293699195335 0 -0.0022056929306982893 -0.032344012736980565 0 -0.0021267888672740873 -0.032644781005068672 0 -0.0025388627362019629 -0.032557293699195335 0 -0.002137296492133756 -0.032275791005288545 0 -0.0015076125646312957 -0.031803589919326213 0 -0.0021424290602891482 -0.032502665842896315 0 -0.002179587625284292 -0.032616304455383653 0 -0.0020031334917388548 -0.032719896155302852 0 -0.0021424290602891482 -0.032502665842896315 0 -0.0022056929306982893 -0.032344012736980565 0 -0.002179587625284292 -0.032616304455383653 0 -0.002179587625284292 -0.032616304455383653 0 -0.0020031334917388548 -0.032719896155302852 0 -0.0019218360328033459 -0.032954069339718138 0 -0.0020031334917388548 -0.032719896155302852 0 -0.0017437770064531366 -0.03282962341451235 0 -0.0019218360328033459 -0.032954069339718138 0 -0.0021424290602891482 -0.032502665842896315 0 -0.0020031334917388548 -0.032719896155302852 0 -0.0017437770064531366 -0.03282962341451235 0 1.5056119424479861e-06 -0.031830114984188806 0 -0.00130786496951249 -0.032407185385689714 0 -0.0005412545212905343 -0.03155187617284113 0 0.00080531709619564515 -0.031243945565731228 0 0.00088475659934269743 -0.031188257962301305 0 0.0007030776872605218 -0.031142448927187285 0 0.00038332736985149365 -0.031513176374940659 0 -0.00025098823804426182 -0.031765369227781573 0 -0.00130786496951249 -0.032407185385689714 0 -0.0005412545212905343 -0.03155187617284113 0 -0.00095997335599230739 -0.030966961497963748 0 -0.0022056929306982893 -0.032344012736980565 0 -0.00130786496951249 -0.032407185385689714 0 -0.00095997335599230739 -0.030966961497963748 0 1.5056119424479861e-06 -0.031830114984188806 0 -0.0005412545212905343 -0.03155187617284113 0 -3.7700835441600877e-05 -0.031050593708090091 0 -3.7700835441600877e-05 -0.031050593708090091 0 0.00065404268215603573 -0.030816237253913525 0 0.0001577795768415093 -0.030310887071420049 0 1.5056119424479861e-06 -0.031830114984188806 0 -3.7700835441600877e-05 -0.031050593708090091 0 0.00065404268215603573 -0.030816237253913525 0 -0.0005412545212905343 -0.03155187617284113 0 -0.00095997335599230739 -0.030966961497963748 0 -3.7700835441600877e-05 -0.031050593708090091 0 -0.00095997335599230739 -0.030966961497963748 0 -3.7700835441600877e-05 -0.031050593708090091 0 0.0001577795768415093 -0.030310887071420049 0 0.0008709172386240807 -0.031282992772745911 0 0.0015767575446992725 -0.030959117087688601 0 0.0010566777525195718 -0.03125669346269818 0 0.0008709172386240807 -0.031282992772745911 0 0.0011377714173255893 -0.030645769222783972 0 0.0015767575446992725 -0.030959117087688601 0 0.00038332736985149365 -0.031513176374940659 0 0.00080900218392255087 -0.031340881866602298 0 0.00088475659934269743 -0.031188257962301305 0 0.0008709172386240807 -0.031282992772745911 0 0.00097177005480968571 -0.031231525242847911 0 1.5056119424479861e-06 -0.031830114984188806 0 0.00065404268215603573 -0.030816237253913525 0 0.0008709172386240807 -0.031282992772745911 0 0.00065404268215603573 -0.030816237253913525 0 0.0008709172386240807 -0.031282992772745911 0 0.0011377714173255893 -0.030645769222783972 0 0.00030426757373038649 -0.015880248017872252 0 -8.1981610708237859e-05 -0.016018323290965985 0 8.3219939652231544e-05 -0.015560997354922449 0 0.00077697890752418124 -0.023337321860702521 0 0.001123180265138016 -0.022994173037482239 0 0.00030426757373038649 -0.015880248017872252 0 0.00023544374229199751 -0.016238915755702646 0 -8.1981610708237859e-05 -0.016018323290965985 0 0.00023544374229199751 -0.016238915755702646 0 -8.1981610708237859e-05 -0.016018323290965985 0 0.00015600039178218975 -0.016557712741832181 0 0.00077697890752418124 -0.023337321860702521 0 0.00030844661907601287 -0.024473827884986463 0 -8.1981610708237859e-05 -0.016018323290965985 0 -0.00039616028940729869 -0.016556693117706724 0 0.00015600039178218975 -0.016557712741832181 0 -0.00039616028940729869 -0.016556693117706724 0 0.00015600039178218975 -0.016557712741832181 0 -0.00031407526725035306 -0.017060869004549541 0 0.00023544374229199751 -0.016238915755702646 0 0.0003369232967235872 -0.016597124501541011 0 0.00015600039178218975 -0.016557712741832181 0 0.0003369232967235872 -0.016597124501541011 0 0.00015600039178218975 -0.016557712741832181 0 0.00031539606587769237 -0.016794378848735629 0 0.00015600039178218975 -0.016557712741832181 0 0.00031539606587769237 -0.016794378848735629 0 0.00011382845114012864 -0.016742910221269967 0 0.0003369232967235872 -0.016597124501541011 0 0.00043444042446674834 -0.016658641671298404 0 0.00031539606587769237 -0.016794378848735629 0 0.00018945124986362874 -0.017123160501544506 0 0.00031539606587769237 -0.016794378848735629 0 0.00011382845114012864 -0.016742910221269967 0 2.6859258767333731e-05 -0.016705233109918456 0 0.00015888460159338555 -0.016552222709265717 0 -0.00095652602858522931 -0.01751035247075787 0 -0.00039616028940729869 -0.016556693117706724 0 -0.00031407526725035306 -0.017060869004549541 0 -0.00031003552395610811 -0.017051565738110411 0 -1.0228622213009471e-05 -0.017059924785542548 0 0.00011382845114012864 -0.016742910221269967 0 0.00092032740859634011 -0.03094661541564022 0 0.0010566777525195718 -0.03125669346269818 0 0.00097177005480968571 -0.031231525242847911 0 -0.00056310821314825934 -0.021314133914760128 0 0.00030844661907601287 -0.024473827884986463 0 -0.00056310821314825934 -0.021314133914760128 0 0.00015888460159338555 -0.016552222709265717 0 0.00092032740859634011 -0.03094661541564022 0 0.0010691885602996368 -0.030966871387513972 0 0.00097177005480968571 -0.031231525242847911 0 0.0008709172386240807 -0.031282992772745911 0 0.0010566777525195718 -0.03125669346269818 0 0.00097177005480968571 -0.031231525242847911 0 1.649975086933987e-08 -0.034999993482429846 0 5.6961107585264486e-06 -0.03499527384435424 0 1.183872450919463e-05 -0.034994925643990295 0 0.00060864266413751175 -0.033407780285190897 0 -5.9259801124838472e-07 -0.03553001947881957 0 1.649975086933987e-08 -0.034999993482429846 0 5.6961107585264486e-06 -0.03499527384435424 0 9.2433841452910953e-09 -0.034999973634404928 0 5.6961107585264486e-06 -0.03499527384435424 0 1.183872450919463e-05 -0.034994925643990295 0 1.819231094341792e-05 -0.034981329767618474 0 0.0023655056773705589 -0.029252554488325054 0 0.0015887983646210874 -0.029321778310920778 0 0.002080328192396287 -0.029868414095910061 0 0.00060864266413751175 -0.033407780285190897 0 0.0012088975867319282 -0.032044987417804052 0 0.0023655056773705589 -0.029252554488325054 0 0.0021398867721557479 -0.028539003965719994 0 0.0017784816284882135 -0.028805557574099448 0 0.00022677989581090216 -0.035530770743649479 0 0.00049223438848440071 -0.034968951120751622 0 -0.00010191260865784905 -0.03473416399065573 0 0.00060864266413751175 -0.033407780285190897 0 0.0010966965642305938 -0.031255556195356166 0 9.4435432891594526e-12 -0.034999999907282052 0 1.127379702693392e-07 -0.034999845487562312 0 1.7389028948113983e-10 -0.034999999552847987 0 0.00060864266413751175 -0.033407780285190897 0 3.2735954109530773e-05 -0.034949829023664142 0 6.5787827939354451e-09 -0.035000033644773963 0 3.2735954109530773e-05 -0.034949829023664142 0 1.649975086933987e-08 -0.034999993482429846 0 1.183872450919463e-05 -0.034994925643990295 0 7.6175172408930973e-06 -0.034997756385709212 0 3.4388398151667862e-05 -0.034131387516849049 0 -4.1860854910225863e-07 -0.034998325254734987 0 0.00015182427296443906 -0.034246209139678491 0 5.2997941687827013e-07 -0.034999642815628312 0 -9.5289502661715991e-06 -0.033312933337625139 0 -6.3046869837339806e-07 -0.032519136693996462 0 1.127379702693392e-07 -0.034999845487562312 0 1.7389028948113983e-10 -0.034999999552847987 0 -3.5793764133911896e-11 -0.035000000047706273 0 3.2735954109530773e-05 -0.034949829023664142 0 1.5015020028228992e-07 -0.034999313826310705 0 -4.1860854910225863e-07 -0.034998325254734987 0 5.2997941687827013e-07 -0.034999642815628312 0 0.00015182427296443906 -0.034246209139678491 0 5.2997941687827013e-07 -0.034999642815628312 0 -9.5289502661715991e-06 -0.033312933337625139 0 0.00015182427296443906 -0.034246209139678491 0 0.0010966965642305938 -0.031255556195356166 0 0.00018361274835366844 -0.031672308785808512 0 0.00015182427296443906 -0.034246209139678491 0 -0.00010191260865784905 -0.03473416399065573 0 -0.00052152025853559423 -0.033398194646051836 0 -9.5289502661715991e-06 -0.033312933337625139 0 0.00015182427296443906 -0.034246209139678491 0 -0.00052152025853559423 -0.033398194646051836 0 -8.3345968199285914e-06 -0.032384053971019656 0 0.00018361274835366844 -0.031672308785808512 0 0.00049223438848440071 -0.034968951120751622 0 0.00015182427296443906 -0.034246209139678491 0 -0.00010191260865784905 -0.03473416399065573 0 3.2735954109530773e-05 -0.034949829023664142 0 0.00014565579285166999 -0.034176458480809857 0 0.0021398867721557479 -0.028539003965719994 0 0.0017719041033272711 -0.028351985574819241 0 0.0018970472880046718 -0.027852767399153024 0 0.0021398867721557479 -0.028539003965719994 0 0.0017719041033272711 -0.028351985574819241 0 0.0017784816284882135 -0.028805557574099448 0 0.0017719041033272711 -0.028351985574819241 0 0.0014833613569132558 -0.028436694036042074 0 0.0017784816284882135 -0.028805557574099448 0 0.0017719041033272711 -0.028351985574819241 0 0.0015571826427393011 -0.028141103754329752 0 0.0014833613569132558 -0.028436694036042074 0 -4.0275165657002465e-09 -0.032516116596091847 0 -2.5996629007895156e-06 -0.032526525295348982 0 6.1773106951357564e-07 -0.030708650105956053 0 0.0018970472880046718 -0.027852767399153024 0 0.0013947943314842766 -0.027997606867268727 0 0.0015571826427393011 -0.028141103754329752 0 0.0017719041033272711 -0.028351985574819241 0 0.0018970472880046718 -0.027852767399153024 0 0.0015571826427393011 -0.028141103754329752 0 -9.5289502661715991e-06 -0.033312933337625139 0 -6.3046869837339806e-07 -0.032519136693996462 0 -1.1031256601049713e-05 -0.032672952861322768 0 1.2022798621165593e-06 -0.032515064468462869 0 0.00018361274835366844 -0.031672308785808512 0 0.0018970472880046718 -0.027852767399153024 0 0.0011613353866525566 -0.027838634488319899 0 0.0013947943314842766 -0.027997606867268727 0 0.00018361274835366844 -0.031672308785808512 0 0.00086324955281830585 -0.029082002485353781 0 -4.0275165657002465e-09 -0.032516116596091847 0 -7.3522197908063353e-08 -0.030781966747754658 0 6.1773106951357564e-07 -0.030708650105956053 0 0.0011613353866525566 -0.027838634488319899 0 0.0013947943314842766 -0.027997606867268727 0 0.0011487113880502503 -0.027969316500011752 0 0.0013947943314842766 -0.027997606867268727 0 0.0015571826427393011 -0.028141103754329752 0 0.0012435345586064917 -0.028149824888548627 0 0.0013947943314842766 -0.027997606867268727 0 0.0012435345586064917 -0.028149824888548627 0 0.0011487113880502503 -0.027969316500011752 0 0.0014833613569132558 -0.028436694036042074 0 0.0012224828055772002 -0.028841249475099705 0 0.00099016409512798164 -0.02839317352063761 0 0.0012435345586064917 -0.028149824888548627 0 0.0014833613569132558 -0.028436694036042074 0 0.00099016409512798164 -0.02839317352063761 0 0.0015571826427393011 -0.028141103754329752 0 0.0012435345586064917 -0.028149824888548627 0 0.0014833613569132558 -0.028436694036042074 0 0.0012224828055772002 -0.028841249475099705 0 0.0017784816284882135 -0.028805557574099448 0 0.0015887983646210874 -0.029321778310920778 0 0.0014833613569132558 -0.028436694036042074 0 0.0012224828055772002 -0.028841249475099705 0 0.0017784816284882135 -0.028805557574099448 0 0.0023655056773705589 -0.029252554488325054 0 0.0017784816284882135 -0.028805557574099448 0 0.0015887983646210874 -0.029321778310920778 0 0.0012224828055772002 -0.028841249475099705 0 0.0015887983646210874 -0.029321778310920778 0 0.00085073883633956528 -0.029291643505277777 0 0.0015887983646210874 -0.029321778310920778 0 0.00085073883633956528 -0.029291643505277777 0 0.0013310231605038259 -0.029897263847423125 0 0.00085073883633956528 -0.029291643505277777 0 0.0004200531199661563 -0.029013161011853826 0 0.00016902632835873223 -0.029472881622904158 0 0.00085073883633956528 -0.029291643505277777 0 0.0004200531199661563 -0.029013161011853826 0 0.00073529431997515092 -0.028725138806782333 0 0.0004200531199661563 -0.029013161011853826 0 0.00031796001591165193 -0.028598145771530175 0 2.8411362634415934e-05 -0.02897879652263876 0 0.0004200531199661563 -0.029013161011853826 0 0.00073529431997515092 -0.028725138806782333 0 0.00031796001591165193 -0.028598145771530175 0 0.0012224828055772002 -0.028841249475099705 0 0.00085073883633956528 -0.029291643505277777 0 0.00073529431997515092 -0.028725138806782333 0 0.0012224828055772002 -0.028841249475099705 0 0.00073529431997515092 -0.028725138806782333 0 0.00099016409512798164 -0.02839317352063761 0 0.00073529431997515092 -0.028725138806782333 0 0.00099016409512798164 -0.02839317352063761 0 0.00063711043102169618 -0.028372186233070307 0 0.00099016409512798164 -0.02839317352063761 0 0.00095965592151729705 -0.027975687549734497 0 0.00063711043102169618 -0.028372186233070307 0 0.0012435345586064917 -0.028149824888548627 0 0.00099016409512798164 -0.02839317352063761 0 0.00095965592151729705 -0.027975687549734497 0 0.0011613353866525566 -0.027838634488319899 0 0.00095361196997097598 -0.027866657005838628 0 0.00056068096897024999 -0.027678378146081706 0 0.00095965592151729705 -0.027975687549734497 0 0.00095361196997097598 -0.027866657005838628 0 0.00056068096897024999 -0.027678378146081706 0 0.0011487113880502503 -0.027969316500011752 0 0.00095965592151729705 -0.027975687549734497 0 0.00095361196997097598 -0.027866657005838628 0 6.1773106951357564e-07 -0.030708650105956053 0 3.2835311666152556e-07 -0.029045931369564369 0 2.3359769606205412e-05 -0.028846371888266425 0 -7.3522197908063353e-08 -0.030781966747754658 0 6.1773106951357564e-07 -0.030708650105956053 0 3.2835311666152556e-07 -0.029045931369564369 0 0.0012435345586064917 -0.028149824888548627 0 0.0011487113880502503 -0.027969316500011752 0 0.00095965592151729705 -0.027975687549734497 0 0.00086324955281830585 -0.029082002485353781 0 0.00030481561871752459 -0.028284119951032801 0 0.0011613353866525566 -0.027838634488319899 0 0.0011487113880502503 -0.027969316500011752 0 0.00095361196997097598 -0.027866657005838628 0 0.00093094767275445566 -0.027963953543611024 0 0.00032877095811755305 -0.028038586490812024 0 0.00095965592151729705 -0.027975687549734497 0 0.00056068096897024999 -0.027678378146081706 0 0.00041204237330462484 -0.027889976620966657 0 0.00095965592151729705 -0.027975687549734497 0 0.00063711043102169618 -0.028372186233070307 0 0.00020865269026277379 -0.028180300530730115 0 0.00073529431997515092 -0.028725138806782333 0 0.00063711043102169618 -0.028372186233070307 0 0.00031796001591165193 -0.028598145771530175 0 0.00063711043102169618 -0.028372186233070307 0 0.00031796001591165193 -0.028598145771530175 0 0.00020865269026277379 -0.028180300530730115 0 -7.2308127351865855e-05 -0.028550689521637099 0 0.00020865269026277379 -0.028180300530730115 0 -0.00048293938799269965 -0.028325761017290455 0 0.00031796001591165193 -0.028598145771530175 0 -7.2308127351865855e-05 -0.028550689521637099 0 0.00020865269026277379 -0.028180300530730115 0 0.00032877095811755305 -0.028038586490812024 0 -0.00038971626054941491 -0.028180970256289531 0 0.00041204237330462484 -0.027889976620966657 0 -9.9422389917402861e-05 -0.027453052590299364 0 -0.00025767430488280363 -0.028015299169227171 0 0.00056068096897024999 -0.027678378146081706 0 0.00041204237330462484 -0.027889976620966657 0 -9.9422389917402861e-05 -0.027453052590299364 0 2.3359769606205412e-05 -0.028846371888266425 0 -9.9422389917402861e-05 -0.027453052590299364 0 -5.1403498594105809e-07 -0.027313297167082244 0 0.00030481561871752459 -0.028284119951032801 0 -3.4372024395719454e-06 -0.027590331036417736 0 3.2835311666152556e-07 -0.029045931369564369 0 2.3359769606205412e-05 -0.028846371888266425 0 -5.1403498594105809e-07 -0.027313297167082244 0 -0.00015078136588665345 -0.026619056053281086 0 1.7805795237720463e-08 -0.027311083941255893 0 -0.0006551829574939624 -0.027736677093877171 0 -9.9422389917402861e-05 -0.027453052590299364 0 -5.1403498594105809e-07 -0.027313297167082244 0 -0.0006551829574939624 -0.027736677093877171 0 -9.9422389917402861e-05 -0.027453052590299364 0 -0.00025767430488280363 -0.028015299169227171 0 3.8210533707974169e-07 -0.026052183555220137 0 9.6394522438708545e-05 -0.025524565342847135 0 -4.3342055293904441e-07 -0.027310341790603054 0 -7.2308127351865855e-05 -0.028550689521637099 0 -0.00048293938799269965 -0.028325761017290455 0 -0.00033533970122981644 -0.028775594911953507 0 -0.00076760884840225516 -0.028842467573660203 0 -0.00033533970122981644 -0.028775594911953507 0 -0.00035303949467201438 -0.029184240633284543 0 -0.00076760884840225516 -0.028842467573660203 0 -0.00048293938799269965 -0.028325761017290455 0 -0.00033533970122981644 -0.028775594911953507 0 -0.00033533970122981644 -0.028775594911953507 0 2.8411362634415934e-05 -0.02897879652263876 0 -0.00035303949467201438 -0.029184240633284543 0 -7.2308127351865855e-05 -0.028550689521637099 0 -0.00033533970122981644 -0.028775594911953507 0 2.8411362634415934e-05 -0.02897879652263876 0 0.00031796001591165193 -0.028598145771530175 0 -7.2308127351865855e-05 -0.028550689521637099 0 2.8411362634415934e-05 -0.02897879652263876 0 2.8411362634415934e-05 -0.02897879652263876 0 0.00016902632835873223 -0.029472881622904158 0 -0.00035303949467201438 -0.029184240633284543 0 0.0004200531199661563 -0.029013161011853826 0 2.8411362634415934e-05 -0.02897879652263876 0 0.00016902632835873223 -0.029472881622904158 0 -0.00076794947236294311 -0.029334397863502355 0 -0.00035303949467201438 -0.029184240633284543 0 -0.00045040169807588525 -0.029708748133147691 0 0.00016902632835873223 -0.029472881622904158 0 -0.00035303949467201438 -0.029184240633284543 0 -0.00045040169807588525 -0.029708748133147691 0 -0.00076760884840225516 -0.028842467573660203 0 -0.00076794947236294311 -0.029334397863502355 0 -0.00035303949467201438 -0.029184240633284543 0 0.00016902632835873223 -0.029472881622904158 0 -0.00045040169807588525 -0.029708748133147691 0 -7.2443990764348246e-05 -0.030095321655639693 0 -7.2443990764348246e-05 -0.030095321655639693 0 -0.00037554524512086092 -0.030575071889734191 0 0.00035432118784752551 -0.030534836389533901 0 -0.00074734445518324238 -0.030155038022887437 0 -7.2443990764348246e-05 -0.030095321655639693 0 -0.00037554524512086092 -0.030575071889734191 0 -0.00074734445518324238 -0.030155038022887437 0 -0.00045040169807588525 -0.029708748133147691 0 -7.2443990764348246e-05 -0.030095321655639693 0 -0.0021424290602891482 -0.032502665842896315 0 -0.0015896972966652726 -0.032491421787898322 0 -0.0017437770064531366 -0.03282962341451235 0 -0.0015896972966652726 -0.032491421787898322 0 -0.0017437770064531366 -0.03282962341451235 0 -0.0011638995658842938 -0.033067221974429573 0 -0.0017437770064531366 -0.03282962341451235 0 -0.0011638995658842938 -0.033067221974429573 0 -0.0015023028777071308 -0.033295046587567892 0 -0.0017437770064531366 -0.03282962341451235 0 -0.0015023028777071308 -0.033295046587567892 0 -0.0019218360328033459 -0.032954069339718138 0 -0.0011638995658842938 -0.033067221974429573 0 -0.0010431523124175923 -0.033562303277130529 0 -0.0015023028777071308 -0.033295046587567892 0 -0.0015896972966652726 -0.032491421787898322 0 -0.0011638995658842938 -0.033067221974429573 0 -0.00095589165149748481 -0.032718991832075162 0 -0.001079738603363168 -0.031529368779996236 0 -0.00031576223091902368 -0.031641280025029708 0 -0.0011638995658842938 -0.033067221974429573 0 -0.00095589165149748481 -0.032718991832075162 0 -0.00062961255492763573 -0.033085092107894579 0 -0.0011638995658842938 -0.033067221974429573 0 -0.000684666505985412 -0.033497022502251832 0 -0.0010431523124175923 -0.033562303277130529 0 -0.0011638995658842938 -0.033067221974429573 0 -0.000684666505985412 -0.033497022502251832 0 -0.00062961255492763573 -0.033085092107894579 0 -0.000684666505985412 -0.033497022502251832 0 -0.00029255059945541427 -0.033471836031479497 0 -0.00062961255492763573 -0.033085092107894579 0 -0.000684666505985412 -0.033497022502251832 0 -0.00029255059945541427 -0.033471836031479497 0 -0.00028934271410141336 -0.033986964664851793 0 -0.00031576223091902368 -0.031641280025029708 0 0.00050904458141798835 -0.031461241905567199 0 -0.00095589165149748481 -0.032718991832075162 0 -0.00027260433077164073 -0.032780568725938965 0 -0.00062961255492763573 -0.033085092107894579 0 -0.00029255059945541427 -0.033471836031479497 0 -0.00027260433077164073 -0.032780568725938965 0 -0.00062961255492763573 -0.033085092107894579 0 0.00035432118784752551 -0.030534836389533901 0 0.0010758268620299197 -0.030507696065633753 0 0.00061958539387346712 -0.029970421472416461 0 0.0010758268620299197 -0.030507696065633753 0 0.00061958539387346712 -0.029970421472416461 0 0.0013310231605038259 -0.029897263847423125 0 -7.2443990764348246e-05 -0.030095321655639693 0 0.00035432118784752551 -0.030534836389533901 0 0.00061958539387346712 -0.029970421472416461 0 0.00085073883633956528 -0.029291643505277777 0 0.00016902632835873223 -0.029472881622904158 0 0.00061958539387346712 -0.029970421472416461 0 0.00016902632835873223 -0.029472881622904158 0 -7.2443990764348246e-05 -0.030095321655639693 0 0.00061958539387346712 -0.029970421472416461 0 0.00085073883633956528 -0.029291643505277777 0 0.00061958539387346712 -0.029970421472416461 0 0.0013310231605038259 -0.029897263847423125 0 0.0015887983646210874 -0.029321778310920778 0 0.0013310231605038259 -0.029897263847423125 0 0.002080328192396287 -0.029868414095910061 0 0.00078876581326228995 -0.033203207864588212 0 0.0012088975867319282 -0.032044987417804052 0 0.0013310231605038259 -0.029897263847423125 0 0.0017936495347489825 -0.03049019795161248 0 0.002080328192396287 -0.029868414095910061 0 0.0010758268620299197 -0.030507696065633753 0 0.0013310231605038259 -0.029897263847423125 0 0.0017936495347489825 -0.03049019795161248 0 -0.00029255059945541427 -0.033471836031479497 0 -0.00027260433077164073 -0.032780568725938965 0 0.00042715600402656255 -0.033318187498216571 0 0.00050904458141798835 -0.031461241905567199 0 0.00078876581326228995 -0.033203207864588212 0 -0.00027260433077164073 -0.032780568725938965 0 0.00042715600402656255 -0.033318187498216571 0 0.00068897241818627862 -0.032745509277926368 0 -0.00029255059945541427 -0.033471836031479497 0 6.1947733648857331e-05 -0.034112389540215705 0 -0.00028934271410141336 -0.033986964664851793 0 -0.00029255059945541427 -0.033471836031479497 0 6.1947733648857331e-05 -0.034112389540215705 0 0.00042715600402656255 -0.033318187498216571 0 0.00012195895279732833 -0.03409353333562698 0 0.0001996928654326152 -0.03409112472859005 0 1.0184622154161307e-05 -0.034472400741296615 0 0.00011192728106151189 -0.034635947350312328 0 3.7371785460919542e-06 -0.034757528673512138 0 6.1947733648857331e-05 -0.034112389540215705 0 1.0184622154161307e-05 -0.034472400741296615 0 0.00011192728106151189 -0.034635947350312328 0 0.00011192728106151189 -0.034635947350312328 0 7.0929332043529741e-05 -0.034832803491931214 0 3.7371785460919542e-06 -0.034757528673512138 0 0.0001996928654326152 -0.03409112472859005 0 0.00078876581326228995 -0.033203207864588212 0 7.0929332043529741e-05 -0.034832803491931214 0 3.7371785460919542e-06 -0.034757528673512138 0 -2.3245937359831666e-05 -0.034888906287055807 0 3.7371785460919542e-06 -0.034757528673512138 0 -2.3974272010654592e-05 -0.034893659130120359 0 -2.3245937359831666e-05 -0.034888906287055807 0 3.7371785460919542e-06 -0.034757528673512138 0 -1.8992415416940952e-05 -0.034759573229166819 0 -2.3974272010654592e-05 -0.034893659130120359 0 1.0184622154161307e-05 -0.034472400741296615 0 -1.8992415416940952e-05 -0.034759573229166819 0 -6.1631815168421235e-06 -0.034690268951159189 0 1.0184622154161307e-05 -0.034472400741296615 0 3.7371785460919542e-06 -0.034757528673512138 0 -1.8992415416940952e-05 -0.034759573229166819 0 -1.8992415416940952e-05 -0.034759573229166819 0 -4.3430003644973102e-08 -0.034999703453990193 0 -6.1631815168421235e-06 -0.034690268951159189 0 -1.8992415416940952e-05 -0.034759573229166819 0 -4.3430003644973102e-08 -0.034999703453990193 0 -2.3974272010654592e-05 -0.034893659130120359 0 -4.3430003644973102e-08 -0.034999703453990193 0 -2.3974272010654592e-05 -0.034893659130120359 0 -4.0876256291042238e-08 -0.034999834565009082 0 -2.3974272010654592e-05 -0.034893659130120359 0 -4.0876256291042238e-08 -0.034999834565009082 0 -2.3245937359831666e-05 -0.034888906287055807 0 1.0355130052961087e-08 -0.034999937810625617 0 1.1150260264986932e-05 -0.034982667736768433 0 1.9654382524040708e-05 -0.034957294659392901 0 1.0355130052961087e-08 -0.034999937810625617 0 1.1150260264986932e-05 -0.034982667736768433 0 9.2433841452910953e-09 -0.034999973634404928 0 1.3187469655329028e-07 -0.034999945396174632 0 -0.00014805178228490529 -0.034990390060279847 0 1.1150260264986932e-05 -0.034982667736768433 0 2.0154584264093273e-05 -0.034967887338491495 0 1.819231094341792e-05 -0.034981329767618474 0 5.1686721383276634e-05 -0.034935296057124095 0 2.0154584264093273e-05 -0.034967887338491495 0 2.1742895060499922e-05 -0.03496071871604458 0 5.1686721383276634e-05 -0.034935296057124095 0 1.9654382524040708e-05 -0.034957294659392901 0 2.0154584264093273e-05 -0.034967887338491495 0 0.00078876581326228995 -0.033203207864588212 0 -0.00014805178228490529 -0.034990390060279847 0 1.1150260264986932e-05 -0.034982667736768433 0 1.9654382524040708e-05 -0.034957294659392901 0 2.0154584264093273e-05 -0.034967887338491495 0 2.0154584264093273e-05 -0.034967887338491495 0 2.1742895060499922e-05 -0.03496071871604458 0 1.819231094341792e-05 -0.034981329767618474 0 2.8227872489836624e-05 -0.03490968483286068 0 2.1742895060499922e-05 -0.03496071871604458 0 1.819231094341792e-05 -0.034981329767618474 0 5.6961107585264486e-06 -0.03499527384435424 0 9.2433841452910953e-09 -0.034999973634404928 0 1.819231094341792e-05 -0.034981329767618474 0 1.1150260264986932e-05 -0.034982667736768433 0 9.2433841452910953e-09 -0.034999973634404928 0 1.819231094341792e-05 -0.034981329767618474 0 8.2046075795757093e-07 -0.034738037982531042 0 -1.2887456643836392e-05 -0.034771250381315164 0 2.3650111865804667e-05 -0.034839375478891196 0 2.2582534129789275e-08 -0.034999992994046748 0 -2.2074386388149912e-05 -0.034996624307322872 0 -7.398994423863703e-06 -0.035001267624573701 0 -7.722315540708071e-06 -0.03486376509629998 0 1.8520068659184633e-05 -0.034955416013105894 0 -1.2887456643836392e-05 -0.034771250381315164 0 -4.9721136177838686e-05 -0.034739622849961682 0 -5.6807422205383116e-05 -0.034844416282476309 0 -1.2887456643836392e-05 -0.034771250381315164 0 4.711669901594945e-06 -0.034726636236073291 0 -4.9721136177838686e-05 -0.034739622849961682 0 8.2046075795757093e-07 -0.034738037982531042 0 -1.2887456643836392e-05 -0.034771250381315164 0 4.711669901594945e-06 -0.034726636236073291 0 4.711669901594945e-06 -0.034726636236073291 0 -1.3962856613875373e-06 -0.03470876076804176 0 -4.7717297953644e-05 -0.034657515459804202 0 4.711669901594945e-06 -0.034726636236073291 0 -1.3962856613875373e-06 -0.03470876076804176 0 -4.8802191124748536e-06 -0.034871842738348598 0 -7.722315540708071e-06 -0.03486376509629998 0 -6.7622410298754076e-06 -0.034874270928289666 0 8.2046075795757093e-07 -0.034738037982531042 0 4.711669901594945e-06 -0.034726636236073291 0 -4.8802191124748536e-06 -0.034871842738348598 0 2.2582534129789275e-08 -0.034999992994046748 0 -2.2074386388149912e-05 -0.034996624307322872 0 -4.8802191124748536e-06 -0.034871842738348598 0 2.2582534129789275e-08 -0.034999992994046748 0 -4.8802191124748536e-06 -0.034871842738348598 0 7.397299095075756e-09 -0.034999577702925604 0 -4.8802191124748536e-06 -0.034871842738348598 0 7.397299095075756e-09 -0.034999577702925604 0 3.7657580177260259e-07 -0.034812419288874998 0 -4.3430003644973102e-08 -0.034999703453990193 0 7.397299095075756e-09 -0.034999577702925604 0 3.7657580177260259e-07 -0.034812419288874998 0 -4.3430003644973102e-08 -0.034999703453990193 0 3.7657580177260259e-07 -0.034812419288874998 0 -6.1631815168421235e-06 -0.034690268951159189 0 3.7657580177260259e-07 -0.034812419288874998 0 -6.1631815168421235e-06 -0.034690268951159189 0 -4.7868661338384116e-06 -0.034592422317592929 0 1.0184622154161307e-05 -0.034472400741296615 0 -6.1631815168421235e-06 -0.034690268951159189 0 -4.7868661338384116e-06 -0.034592422317592929 0 -4.7868661338384116e-06 -0.034592422317592929 0 6.8330301039845637e-07 -0.034732290366611955 0 -2.7380827730849535e-05 -0.034582530866104876 0 3.7657580177260259e-07 -0.034812419288874998 0 -4.7868661338384116e-06 -0.034592422317592929 0 6.8330301039845637e-07 -0.034732290366611955 0 -4.8802191124748536e-06 -0.034871842738348598 0 3.7657580177260259e-07 -0.034812419288874998 0 6.8330301039845637e-07 -0.034732290366611955 0 -1.3962856613875373e-06 -0.03470876076804176 0 -4.8802191124748536e-06 -0.034871842738348598 0 6.8330301039845637e-07 -0.034732290366611955 0 -1.3962856613875373e-06 -0.03470876076804176 0 6.8330301039845637e-07 -0.034732290366611955 0 -2.7380827730849535e-05 -0.034582530866104876 0 -2.7380827730849535e-05 -0.034582530866104876 0 -6.0103014272610224e-05 -0.03433838199250229 0 -0.00012259989136067628 -0.034541347217455297 0 -4.7868661338384116e-06 -0.034592422317592929 0 -2.7380827730849535e-05 -0.034582530866104876 0 -6.0103014272610224e-05 -0.03433838199250229 0 1.0184622154161307e-05 -0.034472400741296615 0 -4.7868661338384116e-06 -0.034592422317592929 0 -6.0103014272610224e-05 -0.03433838199250229 0 6.1947733648857331e-05 -0.034112389540215705 0 1.0184622154161307e-05 -0.034472400741296615 0 -6.0103014272610224e-05 -0.03433838199250229 0 6.1947733648857331e-05 -0.034112389540215705 0 -6.0103014272610224e-05 -0.03433838199250229 0 -0.00028934271410141336 -0.033986964664851793 0 -6.0103014272610224e-05 -0.03433838199250229 0 -0.00032932116323227084 -0.034207645496206723 0 -0.00028934271410141336 -0.033986964664851793 0 -6.0103014272610224e-05 -0.03433838199250229 0 -0.00032557152467856582 -0.03443942476209471 0 -0.00032932116323227084 -0.034207645496206723 0 -6.0103014272610224e-05 -0.03433838199250229 0 -0.00032557152467856582 -0.03443942476209471 0 -0.00012259989136067628 -0.034541347217455297 0 -0.00032557152467856582 -0.03443942476209471 0 -0.00012259989136067628 -0.034541347217455297 0 -0.00021071338436774931 -0.034697960462320404 0 -0.00032557152467856582 -0.03443942476209471 0 -0.00021071338436774931 -0.034697960462320404 0 -0.00053963589557090856 -0.034562852175533509 0 -0.00012259989136067628 -0.034541347217455297 0 -4.7717297953644e-05 -0.034657515459804202 0 -0.00021071338436774931 -0.034697960462320404 0 -2.7380827730849535e-05 -0.034582530866104876 0 -0.00012259989136067628 -0.034541347217455297 0 -4.7717297953644e-05 -0.034657515459804202 0 -1.3962856613875373e-06 -0.03470876076804176 0 -2.7380827730849535e-05 -0.034582530866104876 0 -4.7717297953644e-05 -0.034657515459804202 0 4.711669901594945e-06 -0.034726636236073291 0 -4.7717297953644e-05 -0.034657515459804202 0 -4.9721136177838686e-05 -0.034739622849961682 0 -4.9721136177838686e-05 -0.034739622849961682 0 -9.3507340282580553e-05 -0.034809793088576152 0 -5.6807422205383116e-05 -0.034844416282476309 0 -4.9721136177838686e-05 -0.034739622849961682 0 -0.00021071338436774931 -0.034697960462320404 0 -9.3507340282580553e-05 -0.034809793088576152 0 -0.00021071338436774931 -0.034697960462320404 0 -0.00015280840003039999 -0.034880247190196258 0 -9.3507340282580553e-05 -0.034809793088576152 0 -4.7717297953644e-05 -0.034657515459804202 0 -4.9721136177838686e-05 -0.034739622849961682 0 -0.00021071338436774931 -0.034697960462320404 0 -0.00021071338436774931 -0.034697960462320404 0 -0.00043397653051794731 -0.034823849630860396 0 -0.00015280840003039999 -0.034880247190196258 0 -0.00053963589557090856 -0.034562852175533509 0 -0.00084129504449109163 -0.034674448413424708 0 -0.00043397653051794731 -0.034823849630860396 0 -0.00021071338436774931 -0.034697960462320404 0 -0.00053963589557090856 -0.034562852175533509 0 -0.00043397653051794731 -0.034823849630860396 0 -0.00053963589557090856 -0.034562852175533509 0 -0.00084129504449109163 -0.034674448413424708 0 -0.00096652631695527452 -0.034418359953588634 0 -0.00084129504449109163 -0.034674448413424708 0 -0.00096652631695527452 -0.034418359953588634 0 -0.0012217840924078499 -0.034722438091214468 0 -0.00096652631695527452 -0.034418359953588634 0 -0.00059882483215358765 -0.034276615863005053 0 -0.00093167962633702319 -0.034012081061664749 0 -0.00053963589557090856 -0.034562852175533509 0 -0.00096652631695527452 -0.034418359953588634 0 -0.00059882483215358765 -0.034276615863005053 0 -0.00032557152467856582 -0.03443942476209471 0 -0.00053963589557090856 -0.034562852175533509 0 -0.00059882483215358765 -0.034276615863005053 0 -0.00032557152467856582 -0.03443942476209471 0 -0.00059882483215358765 -0.034276615863005053 0 -0.00032932116323227084 -0.034207645496206723 0 -0.00059882483215358765 -0.034276615863005053 0 -0.00032932116323227084 -0.034207645496206723 0 -0.00062540058636094593 -0.03394472742646417 0 -0.00032932116323227084 -0.034207645496206723 0 -0.00062540058636094593 -0.03394472742646417 0 -0.00028934271410141336 -0.033986964664851793 0 -0.000684666505985412 -0.033497022502251832 0 -0.00062540058636094593 -0.03394472742646417 0 -0.00028934271410141336 -0.033986964664851793 0 -0.000684666505985412 -0.033497022502251832 0 -0.00062540058636094593 -0.03394472742646417 0 -0.0010431523124175923 -0.033562303277130529 0 -0.00062540058636094593 -0.03394472742646417 0 -0.00093167962633702319 -0.034012081061664749 0 -0.0010431523124175923 -0.033562303277130529 0 -0.00059882483215358765 -0.034276615863005053 0 -0.00062540058636094593 -0.03394472742646417 0 -0.00093167962633702319 -0.034012081061664749 0 -0.00093167962633702319 -0.034012081061664749 0 -0.0013032851135279394 -0.033711804016441492 0 -0.0013925730346897498 -0.034113014451127348 0 -0.00093167962633702319 -0.034012081061664749 0 -0.0013032851135279394 -0.033711804016441492 0 -0.0010431523124175923 -0.033562303277130529 0 -0.0013032851135279394 -0.033711804016441492 0 -0.0010431523124175923 -0.033562303277130529 0 -0.0015023028777071308 -0.033295046587567892 0 -0.0013032851135279394 -0.033711804016441492 0 -0.0015023028777071308 -0.033295046587567892 0 -0.0017691161719062989 -0.033535980961963696 0 -0.0015023028777071308 -0.033295046587567892 0 -0.0019218360328033459 -0.032954069339718138 0 -0.0017691161719062989 -0.033535980961963696 0 -0.0013925730346897498 -0.034113014451127348 0 -0.0021533985419035654 -0.033909613931500424 0 -0.0017691161719062989 -0.033535980961963696 0 -0.0013032851135279394 -0.033711804016441492 0 -0.0013925730346897498 -0.034113014451127348 0 -0.0017691161719062989 -0.033535980961963696 0 -0.0013925730346897498 -0.034113014451127348 0 -0.0015928387743301617 -0.034615573106562762 0 -0.0021533985419035654 -0.033909613931500424 0 -0.0013925730346897498 -0.034113014451127348 0 -0.0012904242523250648 -0.034483818336016603 0 -0.0015928387743301617 -0.034615573106562762 0 -0.00096652631695527452 -0.034418359953588634 0 -0.0013925730346897498 -0.034113014451127348 0 -0.0012904242523250648 -0.034483818336016603 0 -0.00096652631695527452 -0.034418359953588634 0 -0.00093167962633702319 -0.034012081061664749 0 -0.0013925730346897498 -0.034113014451127348 0 -0.00096652631695527452 -0.034418359953588634 0 -0.0012904242523250648 -0.034483818336016603 0 -0.0012217840924078499 -0.034722438091214468 0 -0.0012904242523250648 -0.034483818336016603 0 -0.0015928387743301617 -0.034615573106562762 0 -0.0012217840924078499 -0.034722438091214468 0 -0.003050233074765589 -0.031729437614770421 0 -0.0035393202190800968 -0.030989598207883794 0 -0.0015928387743301617 -0.034615573106562762 0 -0.0012217840924078499 -0.034722438091214468 0 -0.0012280522097805864 -0.034692485508643851 0 -0.0045837989266449613 -0.028836389040282209 0 -0.005339510009406954 -0.027318606895490226 0 -0.0042734800042042798 -0.02763917235221186 0 -0.0012217840924078499 -0.034722438091214468 0 -0.0012280522097805864 -0.034692485508643851 0 -0.0013676751833723107 -0.034685604768536958 0 -0.0012280522097805864 -0.034692485508643851 0 -0.0013112851889961238 -0.034393637102151306 0 -0.00133572950634925 -0.034584584998656825 0 -0.0035393202190800968 -0.030989598207883794 0 -0.0021913887713952422 -0.029951640734224936 0 -0.005339510009406954 -0.027318606895490226 0 -0.0050344683080366746 -0.026086866936381164 0 -0.0041693694826228887 -0.026472204704107476 0 -0.005339510009406954 -0.027318606895490226 0 -0.0042734800042042798 -0.02763917235221186 0 -0.0041693694826228887 -0.026472204704107476 0 -0.0050344683080366746 -0.026086866936381164 0 -0.004388608384016118 -0.025573701062765977 0 -0.0041693694826228887 -0.026472204704107476 0 -0.004388608384016118 -0.025573701062765977 0 -0.0051622660748708695 -0.025184540185993389 0 -0.0043405488424635126 -0.024639349370584655 0 -0.0050344683080366746 -0.026086866936381164 0 -0.004388608384016118 -0.025573701062765977 0 -0.0051622660748708695 -0.025184540185993389 0 -0.003801260982920308 -0.026633696750718586 0 -0.0032341200957821383 -0.026457872631093216 0 -0.003801260982920308 -0.026633696750718586 0 -0.0021913887713952422 -0.029951640734224936 0 -0.005339510009406954 -0.027318606895490226 0 -0.0050344683080366746 -0.026086866936381164 0 -0.0060913699174332207 -0.025927661011327457 0 -0.0050344683080366746 -0.026086866936381164 0 -0.0051622660748708695 -0.025184540185993389 0 -0.0060913699174332207 -0.025927661011327457 0 -0.0013112851889961238 -0.034393637102151306 0 -0.0014219332807425514 -0.034531524693179938 0 -0.00133572950634925 -0.034584584998656825 0 -0.00047627873669366924 -0.032076600265068096 0 -0.00081021948300718583 -0.032015705435538853 0 -0.00072075128632669092 -0.032292251224696464 0 -0.0021913887713952422 -0.029951640734224936 0 -0.0011517978034649916 -0.033580587831354945 0 -0.0021833821230244762 -0.028479913913382317 0 -0.0017649383570187125 -0.028178195779407927 0 -0.0014564311781668268 -0.028672101840344945 0 -0.00047627873669366924 -0.032076600265068096 0 -0.00081021948300718583 -0.032015705435538853 0 -0.0006724460565380448 -0.031736356960243635 0 -0.0021913887713952422 -0.029951640734224936 0 -0.00092521913139770686 -0.030349191654815474 0 -0.00081021948300718583 -0.032015705435538853 0 -0.00097290336677245334 -0.03172061331693371 0 -0.0006724460565380448 -0.031736356960243635 0 -0.00081021948300718583 -0.032015705435538853 0 -0.00072075128632669092 -0.032292251224696464 0 -0.00095947328155132985 -0.032245971515307635 0 -0.0014219332807425514 -0.034531524693179938 0 -0.0013676751833723107 -0.034685604768536958 0 -0.0015136615602211014 -0.034614433323518469 0 -0.00072075128632669092 -0.032292251224696464 0 -0.00096656134349676164 -0.03250210501258375 0 -0.00095947328155132985 -0.032245971515307635 0 -0.0011517978034649916 -0.033580587831354945 0 -0.00070968203646836316 -0.034334945179400396 0 -0.0014219332807425514 -0.034531524693179938 0 -0.00133572950634925 -0.034584584998656825 0 -0.0013676751833723107 -0.034685604768536958 0 -0.0012280522097805864 -0.034692485508643851 0 -0.00133572950634925 -0.034584584998656825 0 -0.0013676751833723107 -0.034685604768536958 0 -0.00084129504449109163 -0.034674448413424708 0 -0.0012217840924078499 -0.034722438091214468 0 -0.00071825172582193873 -0.034980014682276163 0 -0.001206438288183064 -0.034730477457564982 0 -0.001063789934063149 -0.034861635157539372 0 -0.00071825172582193873 -0.034980014682276163 0 -0.00043397653051794731 -0.034823849630860396 0 -0.00035495619858132133 -0.035088135739000589 0 -0.001063789934063149 -0.034861635157539372 0 -0.00070968203646836316 -0.034334945179400396 0 -0.00084129504449109163 -0.034674448413424708 0 -0.00071825172582193873 -0.034980014682276163 0 -0.00043397653051794731 -0.034823849630860396 0 -0.00043397653051794731 -0.034823849630860396 0 -0.00015280840003039999 -0.034880247190196258 0 -0.00035495619858132133 -0.035088135739000589 0 -0.00018705522483895688 -0.034909575069448515 0 -0.00070968203646836316 -0.034334945179400396 0 -0.00015280840003039999 -0.034880247190196258 0 -9.3507340282580553e-05 -0.034809793088576152 0 -5.6807422205383116e-05 -0.034844416282476309 0 -0.00015280840003039999 -0.034880247190196258 0 -0.0001194385787316896 -0.034936504152565516 0 -5.6807422205383116e-05 -0.034844416282476309 0 -0.00015280840003039999 -0.034880247190196258 0 -0.0001194385787316896 -0.034936504152565516 0 -0.00019985376865647522 -0.034907127859287818 0 -0.00072093962973073292 -0.033587500066189706 0 -0.00070968203646836316 -0.034334945179400396 0 -0.0013107995414091799 -0.032340058447318396 0 -0.00096656134349676164 -0.03250210501258375 0 -0.00095947328155132985 -0.032245971515307635 0 -0.00081021948300718583 -0.032015705435538853 0 -0.0010701586594292999 -0.032020165607720981 0 -0.00095947328155132985 -0.032245971515307635 0 -0.0013107995414091799 -0.032340058447318396 0 -0.0010701586594292999 -0.032020165607720981 0 -0.00095947328155132985 -0.032245971515307635 0 -0.0013107995414091799 -0.032340058447318396 0 -0.0010701586594292999 -0.032020165607720981 0 -0.0013964947903339672 -0.031812480372307564 0 -0.00081021948300718583 -0.032015705435538853 0 -0.0010701586594292999 -0.032020165607720981 0 -0.00097290336677245334 -0.03172061331693371 0 -0.0010701586594292999 -0.032020165607720981 0 -0.0013964947903339672 -0.031812480372307564 0 -0.00097290336677245334 -0.03172061331693371 0 -0.00072093962973073292 -0.033587500066189706 0 -0.00080176933798615266 -0.033455460170337202 0 -0.0001194385787316896 -0.034936504152565516 0 -1.8550537034492719e-05 -0.034968108036837732 0 -3.7791254802853924e-05 -0.03493300698408728 0 -0.0013107995414091799 -0.032340058447318396 0 -0.0013964947903339672 -0.031812480372307564 0 -0.0016549928825206519 -0.03218510497110972 0 -1.8550537034492719e-05 -0.034968108036837732 0 1.1137422011937924e-05 -0.034937011759347512 0 -3.7791254802853924e-05 -0.03493300698408728 0 -0.00080176933798615266 -0.033455460170337202 0 -0.00045728641253012361 -0.034003433875817356 0 -0.0007976649696534848 -0.03367382635530973 0 -0.00060830393635722475 -0.032258751286495163 0 -0.00055267012653812081 -0.032765002077923211 0 -0.0012543100098024241 -0.032955067189288451 0 -0.00044952830371803535 -0.032441410329813375 0 -0.0010435632614656867 -0.032243183560574887 0 -0.00080176933798615266 -0.033455460170337202 0 -0.00055267012653812081 -0.032765002077923211 0 -0.0010708250732476882 -0.033478087252059578 0 -0.0012543100098024241 -0.032955067189288451 0 -1.3958116696668675e-05 -0.034973546374363437 0 -2.5037799389712023e-09 -0.034971235564248755 0 -2.3929863592492851e-09 -0.034999975621179159 0 -0.00049941446786617657 -0.034034465468771188 0 -0.00043509008522570731 -0.033998254348349084 0 -0.00049714987020714496 -0.03396932779021887 0 -0.0007976649696534848 -0.03367382635530973 0 -0.00045728641253012361 -0.034003433875817356 0 -0.0007976649696534848 -0.03367382635530973 0 -0.00015898774981887935 -0.034323044909669247 0 -1.0706924652427287e-08 -0.0349712541162044 0 3.7000182224021153e-06 -0.034983308178862187 0 1.1063137233665999e-05 -0.034979665900461976 0 -0.0010708250732476882 -0.033478087252059578 0 -0.0012543100098024241 -0.032955067189288451 0 -0.0012611476860038056 -0.03339134663425395 0 -1.0706924652427287e-08 -0.0349712541162044 0 3.7000182224021153e-06 -0.034983308178862187 0 1.7963483938936012e-09 -0.034999979692548581 0 -0.00015898774981887935 -0.034323044909669247 0 -0.00045728641253012361 -0.034003433875817356 0 -0.00028016241679922098 -0.0339627750463855 0 -0.00055757348820308788 -0.033835413085968616 0 -0.00056812682258827686 -0.034351156877325033 0 -0.00045728641253012361 -0.034003433875817356 0 -0.00026018250244052649 -0.034785007210884455 0 3.7000182224021153e-06 -0.034983308178862187 0 1.1063137233665999e-05 -0.034979665900461976 0 8.146367296298034e-06 -0.034996292303233187 0 -0.00080176933798615266 -0.033455460170337202 0 -0.00026018250244052649 -0.034785007210884455 0 3.7000182224021153e-06 -0.034983308178862187 0 1.7963483938936012e-09 -0.034999979692548581 0 8.146367296298034e-06 -0.034996292303233187 0 -8.6802969470826134e-06 -0.035005233381349019 0 -2.9084229655282662e-08 -0.035000017414944816 0 -7.398994423863703e-06 -0.035001267624573701 0 -0.00026018250244052649 -0.034785007210884455 0 4.8152544865102524e-08 -0.035000057961205082 0 1.7963483938936012e-09 -0.034999979692548581 0 8.146367296298034e-06 -0.034996292303233187 0 -1.5636750128796678e-09 -0.035000015863386157 0 1.1137422011937924e-05 -0.034937011759347512 0 -2.7379528808082575e-05 -0.034890491550336244 0 2.3650111865804667e-05 -0.034839375478891196 0 -0.00026018250244052649 -0.034785007210884455 0 1.8520068659184633e-05 -0.034955416013105894 0 1.1137422011937924e-05 -0.034937011759347512 0 -3.7791254802853924e-05 -0.03493300698408728 0 -2.7379528808082575e-05 -0.034890491550336244 0 -0.0001194385787316896 -0.034936504152565516 0 -2.7379528808082575e-05 -0.034890491550336244 0 -5.6807422205383116e-05 -0.034844416282476309 0 -0.0001194385787316896 -0.034936504152565516 0 -3.7791254802853924e-05 -0.03493300698408728 0 -2.7379528808082575e-05 -0.034890491550336244 0 -1.2887456643836392e-05 -0.034771250381315164 0 -5.6807422205383116e-05 -0.034844416282476309 0 2.3650111865804667e-05 -0.034839375478891196 0 -2.7379528808082575e-05 -0.034890491550336244 0 -5.6807422205383116e-05 -0.034844416282476309 0 2.3650111865804667e-05 -0.034839375478891196 0 2.2582534129789275e-08 -0.034999992994046748 0 -2.9084229655282662e-08 -0.035000017414944816 0 -7.398994423863703e-06 -0.035001267624573701 0 0.00048984833186466496 -0.029517357475162102 0 0.0013805690516801165 -0.029585380538503164 0 0.00041543407049097195 -0.030693989709527147 0 0.00048984833186466496 -0.029517357475162102 0 0.0014322381864358801 -0.028587078914314668 0 0.0013805690516801165 -0.029585380538503164 0 0.00048984833186466496 -0.029517357475162102 0 0.00041543407049097195 -0.030693989709527147 0 -0.00072445835177792546 -0.029661154402338366 0 0.00048984833186466496 -0.029517357475162102 0 6.1450392811141581e-05 -0.028544794918334213 0 -0.00072445835177792546 -0.029661154402338366 0 0.00048984833186466496 -0.029517357475162102 0 6.1450392811141581e-05 -0.028544794918334213 0 0.0014322381864358801 -0.028587078914314668 0 0.00014056232628154361 -0.028543958904627471 0 0.0013774186892421528 -0.028379280959266784 0 0.0014322381864358801 -0.028587078914314668 0 0.0023603005147383011 -0.028564799362130001 0 0.0019180867632772498 -0.029085678915069198 0 0.0013774186892421528 -0.028379280959266784 0 0.0026704977880084575 -0.028839775669493431 0 0.0027619684894787133 -0.029407155138904038 0 0.0023603005147383011 -0.028564799362130001 0 0.0019180867632772498 -0.029085678915069198 0 0.0027619684894787133 -0.029407155138904038 0 0.0019180867632772498 -0.029085678915069198 0 0.0019405606198267371 -0.029714397053371751 0 0.0019180867632772498 -0.029085678915069198 0 0.0013805690516801165 -0.029585380538503164 0 0.0019405606198267371 -0.029714397053371751 0 0.0014322381864358801 -0.028587078914314668 0 0.0019180867632772498 -0.029085678915069198 0 0.0013805690516801165 -0.029585380538503164 0 0.0013805690516801165 -0.029585380538503164 0 0.0019405606198267371 -0.029714397053371751 0 0.0015252425627441354 -0.030161154154323373 0 0.0027619684894787133 -0.029407155138904038 0 0.0019405606198267371 -0.029714397053371751 0 0.0021716819455036675 -0.030254367898059239 0 0.0019405606198267371 -0.029714397053371751 0 0.0021716819455036675 -0.030254367898059239 0 0.0015252425627441354 -0.030161154154323373 0 0.0015767575446992725 -0.030959117087688601 0 0.0021716819455036675 -0.030254367898059239 0 0.0015252425627441354 -0.030161154154323373 0 0.0011377714173255893 -0.030645769222783972 0 0.0015767575446992725 -0.030959117087688601 0 0.0015252425627441354 -0.030161154154323373 0 0.00065404268215603573 -0.030816237253913525 0 0.0011377714173255893 -0.030645769222783972 0 0.00083929263937971633 -0.029932601541524485 0 0.0011377714173255893 -0.030645769222783972 0 0.0015252425627441354 -0.030161154154323373 0 0.00083929263937971633 -0.029932601541524485 0 0.0013805690516801165 -0.029585380538503164 0 0.0015252425627441354 -0.030161154154323373 0 0.00083929263937971633 -0.029932601541524485 0 0.0013266401673810049 -0.029669358871298152 0 0.00061530273934341394 -0.030306299529878955 0 0.00041543407049097195 -0.030693989709527147 0 -0.00075899826645042844 -0.031771260649299866 0 -0.00072445835177792546 -0.029661154402338366 0 0.00061530273934341394 -0.030306299529878955 0 -0.00033155105334714237 -0.031042472987645332 0 0.00065404268215603573 -0.030816237253913525 0 0.00083929263937971633 -0.029932601541524485 0 0.0001577795768415093 -0.030310887071420049 0 -0.0015076125646312957 -0.031803589919326213 0 -0.00033155105334714237 -0.031042472987645332 0 -0.0021267888672740873 -0.032644781005068672 0 -0.00075899826645042844 -0.031771260649299866 0 -0.0019008255822140689 -0.03188763971863029 0 -0.0019008255822140689 -0.03188763971863029 0 -0.0020386676669040551 -0.030640751995530471 0 -0.0025388627362019629 -0.032557293699195335 0 -0.00075899826645042844 -0.031771260649299866 0 -0.0019008255822140689 -0.03188763971863029 0 -0.0020386676669040551 -0.030640751995530471 0 -0.0021267888672740873 -0.032644781005068672 0 -0.0019008255822140689 -0.03188763971863029 0 -0.0025388627362019629 -0.032557293699195335 0 -0.00075899826645042844 -0.031771260649299866 0 -0.0020386676669040551 -0.030640751995530471 0 -0.00072445835177792546 -0.029661154402338366 0 -0.0019218360328033459 -0.032954069339718138 0 -0.0021016599545327658 -0.033072658419046864 0 -0.0017691161719062989 -0.033535980961963696 0 -0.002179587625284292 -0.032616304455383653 0 -0.0019218360328033459 -0.032954069339718138 0 -0.0021016599545327658 -0.033072658419046864 0 -0.002179587625284292 -0.032616304455383653 0 -0.0021016599545327658 -0.033072658419046864 0 -0.0025388627362019629 -0.032557293699195335 0 -0.0021016599545327658 -0.033072658419046864 0 -0.0025388627362019629 -0.032557293699195335 0 -0.0021533985419035654 -0.033909613931500424 0 -0.0020386676669040551 -0.030640751995530471 0 -0.0025388627362019629 -0.032557293699195335 0 -0.0037558784058599852 -0.030533219277334153 0 -0.002568702757152542 -0.032572737644747579 0 -0.0029299687308986101 -0.03221595206115066 0 -0.0021016599545327658 -0.033072658419046864 0 -0.0021533985419035654 -0.033909613931500424 0 -0.0017691161719062989 -0.033535980961963696 0 -0.0045837989266449613 -0.028836389040282209 0 -0.0037558784058599852 -0.030533219277334153 0 -0.0031871397004032908 -0.029408778622191007 0 -0.003050233074765589 -0.031729437614770421 0 -0.0029299687308986101 -0.03221595206115066 0 -0.0020386676669040551 -0.030640751995530471 0 -0.0037558784058599852 -0.030533219277334153 0 -0.0031871397004032908 -0.029408778622191007 0 -0.0031871397004032908 -0.029408778622191007 0 -0.0020995335613696311 -0.028861736071943783 0 -0.0033524011304962857 -0.028263411047550945 0 -0.0045837989266449613 -0.028836389040282209 0 -0.0031871397004032908 -0.029408778622191007 0 -0.0033524011304962857 -0.028263411047550945 0 -0.0020386676669040551 -0.030640751995530471 0 -0.00072445835177792546 -0.029661154402338366 0 -0.0020995335613696311 -0.028861736071943783 0 -0.0020386676669040551 -0.030640751995530471 0 -0.0031871397004032908 -0.029408778622191007 0 -0.0020995335613696311 -0.028861736071943783 0 6.1450392811141581e-05 -0.028544794918334213 0 -0.00072445835177792546 -0.029661154402338366 0 -0.0012045999095979774 -0.027857956530394551 0 -0.00072445835177792546 -0.029661154402338366 0 -0.0020995335613696311 -0.028861736071943783 0 -0.0012045999095979774 -0.027857956530394551 0 -0.0012045999095979774 -0.027857956530394551 0 -0.0024492435924533995 -0.027538378677951267 0 -0.0015973920914062537 -0.026568052690267324 0 -0.0020995335613696311 -0.028861736071943783 0 -0.0012045999095979774 -0.027857956530394551 0 -0.0024492435924533995 -0.027538378677951267 0 -0.0015973920914062537 -0.026568052690267324 0 -0.0026751536900939525 -0.026663797403341068 0 -0.0022252450880206917 -0.025980789604241345 0 -0.0024492435924533995 -0.027538378677951267 0 -0.0015973920914062537 -0.026568052690267324 0 -0.0026751536900939525 -0.026663797403341068 0 -0.0012045999095979774 -0.027857956530394551 0 -0.0015973920914062537 -0.026568052690267324 0 -0.00010150544577263033 -0.027263108437679779 0 -0.0042734800042042798 -0.02763917235221186 0 -0.0033524011304962857 -0.028263411047550945 0 -0.0035406999414572928 -0.027163794781084803 0 -0.0045837989266449613 -0.028836389040282209 0 -0.0042734800042042798 -0.02763917235221186 0 -0.0033524011304962857 -0.028263411047550945 0 -0.0020995335613696311 -0.028861736071943783 0 -0.0024492435924533995 -0.027538378677951267 0 -0.0033524011304962857 -0.028263411047550945 0 -0.0024492435924533995 -0.027538378677951267 0 -0.0033524011304962857 -0.028263411047550945 0 -0.0035406999414572928 -0.027163794781084803 0 -0.0024492435924533995 -0.027538378677951267 0 -0.0026751536900939525 -0.026663797403341068 0 -0.0035406999414572928 -0.027163794781084803 0 -0.0026751536900939525 -0.026663797403341068 0 -0.0035406999414572928 -0.027163794781084803 0 -0.0031970520660137159 -0.026115393273304397 0 -0.0041693694826228887 -0.026472204704107476 0 -0.0035406999414572928 -0.027163794781084803 0 -0.0031970520660137159 -0.026115393273304397 0 -0.0042734800042042798 -0.02763917235221186 0 -0.0041693694826228887 -0.026472204704107476 0 -0.0035406999414572928 -0.027163794781084803 0 -0.0041693694826228887 -0.026472204704107476 0 -0.0037328476288823447 -0.025707825256170231 0 -0.0031970520660137159 -0.026115393273304397 0 -0.004388608384016118 -0.025573701062765977 0 -0.0041693694826228887 -0.026472204704107476 0 -0.0037328476288823447 -0.025707825256170231 0 -0.0026751536900939525 -0.026663797403341068 0 -0.0031970520660137159 -0.026115393273304397 0 -0.0022252450880206917 -0.025980789604241345 0 -0.0031970520660137159 -0.026115393273304397 0 -0.0026472439761936689 -0.025563428885886794 0 -0.0022252450880206917 -0.025980789604241345 0 -0.0037328476288823447 -0.025707825256170231 0 -0.0031970520660137159 -0.026115393273304397 0 -0.003144605183932097 -0.025397865976179435 0 -0.0031970520660137159 -0.026115393273304397 0 -0.0026472439761936689 -0.025563428885886794 0 -0.003144605183932097 -0.025397865976179435 0 -0.0026472439761936689 -0.025563428885886794 0 -0.0025826594619404002 -0.025046318372215028 0 -0.003144605183932097 -0.025397865976179435 0 -0.0025826594619404002 -0.025046318372215028 0 -0.0031642884325519993 -0.024897174369748132 0 -0.003144605183932097 -0.025397865976179435 0 -0.0025826594619404002 -0.025046318372215028 0 -0.0031642884325519993 -0.024897174369748132 0 -0.0024307706367658454 -0.024671552516807721 0 -0.0031642884325519993 -0.024897174369748132 0 -0.003144605183932097 -0.025397865976179435 0 -0.0036620002504886536 -0.025149765636137168 0 -0.004388608384016118 -0.025573701062765977 0 -0.0036620002504886536 -0.025149765636137168 0 -0.0040188888766203293 -0.024206176909501477 0 -0.004388608384016118 -0.025573701062765977 0 -0.0040851610763555741 -0.024470337856752854 0 -0.0043405488424635126 -0.024639349370584655 0 -0.0031642884325519993 -0.024897174369748132 0 -0.0036620002504886536 -0.025149765636137168 0 -0.0040188888766203293 -0.024206176909501477 0 -0.0044883895168572104 -0.025006204658283092 0 -0.0030769796762258493 -0.025726960004592618 0 -0.0037328476288823447 -0.025707825256170231 0 -0.003144605183932097 -0.025397865976179435 0 -0.0036620002504886536 -0.025149765636137168 0 -0.004388608384016118 -0.025573701062765977 0 -0.0037328476288823447 -0.025707825256170231 0 -0.0036620002504886536 -0.025149765636137168 0 -0.0015238074794717805 -0.02652834499067918 0 -0.00017091104380885261 -0.026033489264590089 0 -0.0015973920914062537 -0.026568052690267324 0 -0.001195590955402446 -0.025637496673388813 0 -0.00024806119026575979 -0.026014080314649558 0 -0.0015973920914062537 -0.026568052690267324 0 -0.001195590955402446 -0.025637496673388813 0 -0.0022252450880206917 -0.025980789604241345 0 -0.001195590955402446 -0.025637496673388813 0 -0.0022252450880206917 -0.025980789604241345 0 -0.0020913810511575411 -0.025286245704022617 0 -0.0026472439761936689 -0.025563428885886794 0 -0.0022252450880206917 -0.025980789604241345 0 -0.0020913810511575411 -0.025286245704022617 0 -0.0026472439761936689 -0.025563428885886794 0 -0.0025826594619404002 -0.025046318372215028 0 -0.0020913810511575411 -0.025286245704022617 0 -0.0025826594619404002 -0.025046318372215028 0 -0.0020913810511575411 -0.025286245704022617 0 -0.0024315291965370193 -0.024631942560814208 0 -0.0024658680894195308 -0.024929574468825867 0 -0.0023998982301884561 -0.024886406738968542 0 -0.0023998982301884561 -0.024886406738968542 0 -0.0017376291454387492 -0.024828853213648784 0 -0.0020913810511575411 -0.025286245704022617 0 -0.0024315291965370193 -0.024631942560814208 0 -0.0016019465281612677 -0.024837800183442175 0 -0.001195590955402446 -0.025637496673388813 0 -0.0020913810511575411 -0.025286245704022617 0 -0.0016019465281612677 -0.024837800183442175 0 -0.001195590955402446 -0.025637496673388813 0 -0.0016019465281612677 -0.024837800183442175 0 -0.00022346587162887195 -0.024883270079779401 0 -0.00022346587162887195 -0.024883270079779401 0 0.0011476351818174098 -0.025504489305029351 0 0.0011205893545292312 -0.024384146382137976 0 -0.00022346587162887195 -0.024883270079779401 0 -0.00024806119026575979 -0.026014080314649558 0 0.0011476351818174098 -0.025504489305029351 0 -0.00017091104380885261 -0.026033489264590089 0 0.0012686913740221611 -0.025502026677912983 0 -4.4935157045160041e-05 -0.026027407940799139 0 0.00077644017633126793 -0.026547855117737294 0 0.001347262316401658 -0.025527920287465748 0 -0.001195590955402446 -0.025637496673388813 0 -0.00022346587162887195 -0.024883270079779401 0 -0.00024806119026575979 -0.026014080314649558 0 -4.4935157045160041e-05 -0.026027407940799139 0 0.00077644017633126793 -0.026547855117737294 0 -0.00010150544577263033 -0.027263108437679779 0 -0.0015973920914062537 -0.026568052690267324 0 -4.4935157045160041e-05 -0.026027407940799139 0 -0.00010150544577263033 -0.027263108437679779 0 0.00077644017633126793 -0.026547855117737294 0 0.0010513401799126596 -0.027381348542405561 0 -0.00010150544577263033 -0.027263108437679779 0 6.1450392811141581e-05 -0.028544794918334213 0 0.0014478113068666244 -0.028278621925572251 0 0.0010513401799126596 -0.027381348542405561 0 6.1450392811141581e-05 -0.028544794918334213 0 0.0010513401799126596 -0.027381348542405561 0 -0.00010150544577263033 -0.027263108437679779 0 6.1450392811141581e-05 -0.028544794918334213 0 -0.0012045999095979774 -0.027857956530394551 0 -0.00010150544577263033 -0.027263108437679779 0 0.0035103197850875974 -0.027778640883529597 0 0.0020418252982525556 -0.027364493575175744 0 0.0031912895647372066 -0.027327800941427328 0 0.0021010114848918878 -0.027302344276914758 0 0.0025663787701412375 -0.026243597106887485 0 0.0031774754634471508 -0.027517431396085496 0 0.0027372283584009248 -0.028102076799060662 0 0.0021748538477046734 -0.027470626480321707 0 0.0014478113068666244 -0.028278621925572251 0 0.0027372283584009248 -0.028102076799060662 0 0.0021748538477046734 -0.027470626480321707 0 0.0010513401799126596 -0.027381348542405561 0 0.0021010114848918878 -0.027302344276914758 0 0.0015749908362474416 -0.026587262813287212 0 0.0011608948572997097 -0.027371810676840844 0 0.0020418252982525556 -0.027364493575175744 0 0.0014478113068666244 -0.028278621925572251 0 0.0010513401799126596 -0.027381348542405561 0 0.0021748538477046734 -0.027470626480321707 0 0.00077644017633126793 -0.026547855117737294 0 0.0015749908362474416 -0.026587262813287212 0 0.001347262316401658 -0.025527920287465748 0 0.00077644017633126793 -0.026547855117737294 0 0.0010513401799126596 -0.027381348542405561 0 0.0015749908362474416 -0.026587262813287212 0 0.0021010114848918878 -0.027302344276914758 0 0.0015749908362474416 -0.026587262813287212 0 0.0025663787701412375 -0.026243597106887485 0 0.0025663787701412375 -0.026243597106887485 0 0.001347262316401658 -0.025527920287465748 0 0.0026223529792834487 -0.024967739972620258 0 0.0015749908362474416 -0.026587262813287212 0 0.0025663787701412375 -0.026243597106887485 0 0.001347262316401658 -0.025527920287465748 0 0.0011476351818174098 -0.025504489305029351 0 0.0026223529792834487 -0.024967739972620258 0 0.0011205893545292312 -0.024384146382137976 0 0.0012686913740221611 -0.025502026677912983 0 0.0025551088578305123 -0.025010313635146064 0 0.0026223529792834487 -0.024967739972620258 0 0.001935341991359074 -0.023657634380941765 0 0.0011205893545292312 -0.024384146382137976 0 0.0026223529792834487 -0.024967739972620258 0 0.001935341991359074 -0.023657634380941765 0 0.0027906076821088976 -0.023596666971746966 0 0.001935341991359074 -0.023657634380941765 0 0.0011205893545292312 -0.024384146382137976 0 0.00075422220773592994 -0.022776891938431642 0 0.001935341991359074 -0.023657634380941765 0 0.0023499502495975197 -0.022561212393524096 0 0.00075422220773592994 -0.022776891938431642 0 0.001935341991359074 -0.023657634380941765 0 0.0023499502495975197 -0.022561212393524096 0 0.0027906076821088976 -0.023596666971746966 0 0.0023499502495975197 -0.022561212393524096 0 0.0013610092186655642 -0.021745695724236541 0 0.0025780710770571921 -0.021556713582179771 0 0.0023499502495975197 -0.022561212393524096 0 0.0013610092186655642 -0.021745695724236541 0 0.00075422220773592994 -0.022776891938431642 0 0.00044295346476744366 -0.023132167492047603 0 0.0008221164800373365 -0.022710975880170434 0 -0.00014924194563340352 -0.026176799953588768 0 -0.00023023571579559008 -0.026137686828884447 0 -0.00016600683247965838 -0.026106132004848622 0 0.00044295346476744366 -0.023132167492047603 0 4.2146687424829089e-05 -0.024155646298734592 0 -0.00014924194563340352 -0.026176799953588768 0 -8.3327649553036125e-05 -0.026106616699318134 0 -0.00016600683247965838 -0.026106132004848622 0 0.00070695547486855615 -0.022266263258269619 0 0.00036679538094555695 -0.021819133057175203 0 0.00098636740858822373 -0.021663496565193268 0 3.8683836238308934e-05 -0.022384204242354114 0 0.00070695547486855615 -0.022266263258269619 0 0.00036679538094555695 -0.021819133057175203 0 0.00044295346476744366 -0.023132167492047603 0 0.0017378318547071677 -0.021917358486575129 0 -0.0003521389309400927 -0.02616359600559031 0 -0.00030340652718851543 -0.026127596148113365 0 -0.0002945345630328134 -0.02620117518486097 0 -0.0003521389309400927 -0.02616359600559031 0 -0.00030340652718851543 -0.026127596148113365 0 -0.00037840159887297882 -0.02610847038038502 0 -0.00030340652718851543 -0.026127596148113365 0 -0.00023023571579559008 -0.026137686828884447 0 -0.0002945345630328134 -0.02620117518486097 0 -0.00014924194563340352 -0.026176799953588768 0 -0.00023023571579559008 -0.026137686828884447 0 -0.0002945345630328134 -0.02620117518486097 0 0.00044295346476744366 -0.023132167492047603 0 -0.0001842552456455929 -0.024302740384619683 0 -0.00018531527890011613 -0.022443156362523562 0 -0.00010880668167516705 -0.023251657953400954 0 0.00060099789166744575 -0.023084839657094194 0 0.0010855516401801811 -0.022267461072247571 0 -0.00018531527890011613 -0.022443156362523562 0 0.00060099789166744575 -0.023084839657094194 0 -0.00018531527890011613 -0.022443156362523562 0 -0.00079540865890621838 -0.023039701815828224 0 -0.00010880668167516705 -0.023251657953400954 0 -0.00079540865890621838 -0.023039701815828224 0 -0.00010880668167516705 -0.023251657953400954 0 -0.00089467813302577539 -0.023903613560966187 0 0.0008221164800373365 -0.022710975880170434 0 0.00012767954089837775 -0.023916576005130131 0 -0.00010880668167516705 -0.023251657953400954 0 0.00060099789166744575 -0.023084839657094194 0 0.00014425544854683786 -0.023913886844219887 0 -0.00022346587162887195 -0.024883270079779401 0 0.0011205893545292312 -0.024384146382137976 0 0.00014425544854683786 -0.023913886844219887 0 0.0011205893545292312 -0.024384146382137976 0 0.00075422220773592994 -0.022776891938431642 0 0.00014425544854683786 -0.023913886844219887 0 -0.00022346587162887195 -0.024883270079779401 0 0.00014425544854683786 -0.023913886844219887 0 -0.00089467813302577539 -0.023903613560966187 0 -0.00010880668167516705 -0.023251657953400954 0 0.00014425544854683786 -0.023913886844219887 0 -0.00089467813302577539 -0.023903613560966187 0 -0.0016019465281612677 -0.024837800183442175 0 -0.00089467813302577539 -0.023903613560966187 0 -0.0019678268994960226 -0.023585115303650341 0 -0.0016019465281612677 -0.024837800183442175 0 -0.00022346587162887195 -0.024883270079779401 0 -0.00089467813302577539 -0.023903613560966187 0 -0.0023663260879052163 -0.024602962546648774 0 -0.0016019465281612677 -0.024837800183442175 0 -0.0019678268994960226 -0.023585115303650341 0 -0.0021745256506888193 -0.025694283308361255 0 -0.0021378364759126502 -0.025615250154728389 0 -0.0021948202051502138 -0.025610197911284945 0 -0.0023998982301884561 -0.024886406738968542 0 -0.0020256887518620586 -0.024403301135403534 0 -0.0020256887518620586 -0.024403301135403534 0 -0.0012452719984975067 -0.025639392093166236 0 -0.0021378364759126502 -0.025615250154728389 0 -0.0021948202051502138 -0.025610197911284945 0 -0.0021700104647985365 -0.025548350601650744 0 -0.0021378364759126502 -0.025615250154728389 0 -0.0020977435417815771 -0.025535390810953254 0 -0.0021700104647985365 -0.025548350601650744 0 -0.00079540865890621838 -0.023039701815828224 0 -0.00089467813302577539 -0.023903613560966187 0 -0.0019678268994960226 -0.023585115303650341 0 -0.00079540865890621838 -0.023039701815828224 0 -0.0019678268994960226 -0.023585115303650341 0 -0.0015776584314515522 -0.022636217344176646 0 -0.0019470771835519256 -0.027335398195664978 0 -0.0020006363359225815 -0.027456609788409001 0 -0.0018472666894572857 -0.02750788499633516 0 -0.002697257591269799 -0.026466001853644412 0 -0.0022362510657327824 -0.026473826938717217 0 -0.0024480214727802562 -0.026377406560586247 0 -0.00245546412579054 -0.026382044595970041 0 -0.002439190624907665 -0.026357856847882274 0 -0.0022978219172053705 -0.025661008640842208 0 -0.0022814746004937748 -0.025648713782014505 0 -0.0022864628019147689 -0.025630487251562216 0 -0.0026970922002514152 -0.026049618396276127 0 -0.0022362510657327824 -0.026473826938717217 0 -0.0022967017518190562 -0.025659404762738439 0 -0.0022994548819153856 -0.02566838012419367 0 -0.0022814746004937748 -0.025648713782014505 0 -0.0026970922002514152 -0.026049618396276127 0 -0.0024974368334401936 -0.025883208425285145 0 -0.0026970922002514152 -0.026049618396276127 0 -0.002697257591269799 -0.026466001853644412 0 -0.0023732488955637574 -0.026154766150435858 0 -0.0025541815534449682 -0.026821907627813005 0 -0.0030431442949186084 -0.026674047964517108 0 -0.0026970922002514152 -0.026049618396276127 0 -0.0030769796762258493 -0.025726960004592618 0 -0.0030769796762258493 -0.025726960004592618 0 -0.002697257591269799 -0.026466001853644412 0 -0.0040851610763555741 -0.024470337856752854 0 -0.0042745823893131241 -0.024536362460841146 0 -0.0043405488424635126 -0.024639349370584655 0 -0.0040851610763555741 -0.024470337856752854 0 -0.0041586622387088743 -0.024448596234252287 0 -0.0042745823893131241 -0.024536362460841146 0 -0.002697257591269799 -0.026466001853644412 0 -0.0032341200957821383 -0.026457872631093216 0 -0.0032341200957821383 -0.026457872631093216 0 -0.0032171258341578387 -0.026202392621454379 0 -0.0022814746004937748 -0.025648713782014505 0 -0.0022351124668863243 -0.025629362636494957 0 -0.0022864628019147689 -0.025630487251562216 0 -0.0031642884325519993 -0.024897174369748132 0 -0.0024307706367658454 -0.024671552516807721 0 -0.0040188888766203293 -0.024206176909501477 0 -0.0021745256506888193 -0.025694283308361255 0 -0.0022994548819153856 -0.02566838012419367 0 -0.0022814746004937748 -0.025648713782014505 0 -0.0021745256506888193 -0.025694283308361255 0 -0.0022814746004937748 -0.025648713782014505 0 -0.0022351124668863243 -0.025629362636494957 0 -0.0021745256506888193 -0.025694283308361255 0 -0.0021948202051502138 -0.025610197911284945 0 -0.0022351124668863243 -0.025629362636494957 0 -0.0023998982301884561 -0.024886406738968542 0 -0.0030769796762258493 -0.025726960004592618 0 -0.0021948202051502138 -0.025610197911284945 0 -0.0022351124668863243 -0.025629362636494957 0 -0.0022385782737737335 -0.025562946343994405 0 -0.0021948202051502138 -0.025610197911284945 0 -0.0022385782737737335 -0.025562946343994405 0 -0.0021700104647985365 -0.025548350601650744 0 -0.0022351124668863243 -0.025629362636494957 0 -0.0022864628019147689 -0.025630487251562216 0 -0.0022385782737737335 -0.025562946343994405 0 -0.0018916679898841398 -0.026729624349346684 0 -0.0019687948339648762 -0.027034937795602888 0 -0.0020823327955414106 -0.027053125180872273 0 -0.0022362510657327824 -0.026473826938717217 0 -0.0017041842840098125 -0.027052745285953587 0 -0.0022362510657327824 -0.026473826938717217 0 -0.001763400628928317 -0.027481391398613317 0 -0.0020006363359225815 -0.027456609788409001 0 -0.0020554373062180321 -0.027668428926316595 0 -0.0018472666894572857 -0.02750788499633516 0 -0.0015333343173002474 -0.027635076115781181 0 -0.0015073871019975038 -0.027734364279944562 0 -0.0015622309984402187 -0.027785199942789513 0 -0.001763400628928317 -0.027481391398613317 0 -0.0015071357435258747 -0.027657910957444163 0 -0.0015091968288540767 -0.027566825862129319 0 -0.001491396190652792 -0.027564255569456287 0 -0.0014890960168876929 -0.027502631301317176 0 -0.0015333343173002474 -0.027635076115781181 0 -0.0015073871019975038 -0.027734364279944562 0 -0.0014376938971265454 -0.027724708200907163 0 -0.001763400628928317 -0.027481391398613317 0 -0.0017041842840098125 -0.027052745285953587 0 -0.001491396190652792 -0.027564255569456287 0 -0.0014552784527034339 -0.027513539033940593 0 -0.0014890960168876929 -0.027502631301317176 0 -0.0015204630523966282 -0.027815488649034249 0 -0.0014814218510594496 -0.027754935374382624 0 -0.0014603041217579205 -0.027812248249330773 0 -0.0017041842840098125 -0.027052745285953587 0 -0.0014933156707378421 -0.027718627407592063 0 -0.0017041842840098125 -0.027052745285953587 0 -0.0019280628226673794 -0.026673060040005254 0 -0.0014552784527034339 -0.027513539033940593 0 -0.0014568805836314544 -0.027475547314758941 0 -0.001419486045325723 -0.027457778083503845 0 -0.0014552784527034339 -0.027513539033940593 0 -0.0014568805836314544 -0.027475547314758941 0 -0.0014890960168876929 -0.027502631301317176 0 -0.0015073871019975038 -0.027734364279944562 0 -0.0015622309984402187 -0.027785199942789513 0 -0.0014890223336175153 -0.027793941172210436 0 -0.0015622309984402187 -0.027785199942789513 0 -0.0014890223336175153 -0.027793941172210436 0 -0.0015291125732124519 -0.027850117554381333 0 -0.0014890223336175153 -0.027793941172210436 0 -0.0014751373890298774 -0.027858876920699303 0 -0.0015291125732124519 -0.027850117554381333 0 -0.0014890223336175153 -0.027793941172210436 0 -0.0014751373890298774 -0.027858876920699303 0 -0.0014215023396226148 -0.027802699692587168 0 -0.0015073871019975038 -0.027734364279944562 0 -0.0014890223336175153 -0.027793941172210436 0 -0.0014376938971265454 -0.027724708200907163 0 -0.0003521389309400927 -0.02616359600559031 0 -0.0002945345630328134 -0.02620117518486097 0 -0.00043223643511477463 -0.026218733632986015 0 -0.0001842552456455929 -0.024302740384619683 0 -0.0012452719984975067 -0.025639392093166236 0 -0.00018531527890011613 -0.022443156362523562 0 -0.00079540865890621838 -0.023039701815828224 0 -0.0015776584314515522 -0.022636217344176646 0 -0.0012452719984975067 -0.025639392093166236 0 -0.0019280628226673794 -0.026673060040005254 0 -0.0013889572454422619 -0.027807491484805383 0 -0.0014603041217579205 -0.027812248249330773 0 -0.0014357446280208572 -0.027780269429308498 0 -0.0014814218510594496 -0.027754935374382624 0 -0.0014603041217579205 -0.027812248249330773 0 -0.0014357446280208572 -0.027780269429308498 0 -0.0013889572454422619 -0.027807491484805383 0 -0.0014357446280208572 -0.027780269429308498 0 -0.0014125008594696499 -0.027745207891505939 0 -0.0014125008594696499 -0.027745207891505939 0 -0.0012797658087730123 -0.027704256482363014 0 -0.0014540716661750697 -0.027651328258253255 0 -0.0014814218510594496 -0.027754935374382624 0 -0.0014125008594696499 -0.027745207891505939 0 -0.0014540716661750697 -0.027651328258253255 0 -0.0014933156707378421 -0.027718627407592063 0 -0.0014248173435994407 -0.027531715719570433 0 -0.0014814218510594496 -0.027754935374382624 0 -0.0014357446280208572 -0.027780269429308498 0 -0.0014125008594696499 -0.027745207891505939 0 -0.0003521389309400927 -0.02616359600559031 0 -0.00043223643511477463 -0.026218733632986015 0 -0.00037840159887297882 -0.02610847038038502 0 -0.0013889572454422619 -0.027807491484805383 0 -0.0014125008594696499 -0.027745207891505939 0 -0.0012797658087730123 -0.027704256482363014 0 -0.0012452719984975067 -0.025639392093166236 0 -0.00081130837305522653 -0.027192528989921756 0 -0.0012797658087730123 -0.027704256482363014 0 -0.0014540716661750697 -0.027651328258253255 0 -0.0013765555354319306 -0.027422912236227351 0 -0.0014248173435994407 -0.027531715719570433 0 -0.0013805420077341235 -0.027438696296923127 0 -0.001419486045325723 -0.027457778083503845 0 -0.0014268128024096758 -0.027412653896863242 0 -0.0014650834850683328 -0.027427793143345119 0 -0.001419486045325723 -0.027457778083503845 0 -0.0014268128024096758 -0.027412653896863242 0 -0.0013765555354319306 -0.027422912236227351 0 -0.0014268128024096758 -0.027412653896863242 0 -0.0014281214261278648 -0.027392672353976494 0 -0.0014356992226651859 -0.027353268016983172 0 -0.0014281214261278648 -0.027392672353976494 0 -0.0014356992226651859 -0.027353268016983172 0 -0.0014146086944376781 -0.027388640482277037 0 -0.0014268128024096758 -0.027412653896863242 0 -0.0014356992226651859 -0.027353268016983172 0 -0.0013765555354319306 -0.027422912236227351 0 -0.0014356992226651859 -0.027353268016983172 0 -0.0013765555354319306 -0.027422912236227351 0 -0.0014651650870806385 -0.027260941981187156 0 -0.0012797658087730123 -0.027704256482363014 0 -0.0012273886832688743 -0.027385033806011577 0 -0.0013765555354319306 -0.027422912236227351 0 -0.0012797658087730123 -0.027704256482363014 0 -0.0012273886832688743 -0.027385033806011577 0 -0.00090551401293863069 -0.027317520307484633 0 -0.0012273886832688743 -0.027385033806011577 0 -0.0013765555354319306 -0.027422912236227351 0 -0.0014651650870806385 -0.027260941981187156 0 -0.0014751373890298774 -0.027858876920699303 0 -0.0015281803998777876 -0.02789437351084063 0 -0.0015030353363110801 -0.027950551421436914 0 -0.0014751373890298774 -0.027858876920699303 0 -0.0015291125732124519 -0.027850117554381333 0 -0.0015281803998777876 -0.02789437351084063 0 -0.0015281803998777876 -0.02789437351084063 0 -0.0015837158136737257 -0.02791414753369249 0 -0.0015030353363110801 -0.027950551421436914 0 -0.0015071357435258747 -0.027657910957444163 0 -0.0015283586471514941 -0.027672024215487506 0 -0.0014568805836314544 -0.027475547314758941 0 -0.0014890960168876929 -0.027502631301317176 0 -0.0014650834850683328 -0.027427793143345119 0 -0.0015622309984402187 -0.027785199942789513 0 -0.0015291125732124519 -0.027850117554381333 0 -0.0015837158136737257 -0.02791414753369249 0 -0.0015291125732124519 -0.027850117554381333 0 -0.0015281803998777876 -0.02789437351084063 0 -0.0015837158136737257 -0.02791414753369249 0 -0.0014568805836314544 -0.027475547314758941 0 -0.001419486045325723 -0.027457778083503845 0 -0.0014650834850683328 -0.027427793143345119 0 -0.0015371527805058802 -0.027987184724914189 0 -0.0014668094914716051 -0.027700312262702115 0 -0.0015283586471514941 -0.027672024215487506 0 -0.0014668094914716051 -0.027700312262702115 0 -0.0015305815609453527 -0.027982596890021999 0 -0.0014854372944419238 -0.027771897237447763 0 -0.0013856058056630756 -0.027669442787403496 0 -0.0014281214261278648 -0.027392672353976494 0 -0.0014650834850683328 -0.027427793143345119 0 -0.0014114060848732651 -0.027385415932369057 0 -0.0015837158136737257 -0.02791414753369249 0 -0.0015030353363110801 -0.027950551421436914 0 -0.0016097504924071462 -0.028018872930885893 0 -0.0014268128024096758 -0.027412653896863242 0 -0.0014281214261278648 -0.027392672353976494 0 -0.0014650834850683328 -0.027427793143345119 0 -0.0015305815609453527 -0.027982596890021999 0 -0.0015480051224274712 -0.027845970883672001 0 -0.0014854372944419238 -0.027771897237447763 0 -0.0015305815609453527 -0.027982596890021999 0 -0.0015480051224274712 -0.027845970883672001 0 -0.0016092444736440865 -0.028044050679082517 0 -0.0015480051224274712 -0.027845970883672001 0 -0.0015131405767874627 -0.027704764449572244 0 -0.0014854372944419238 -0.027771897237447763 0 -0.0015131405767874627 -0.027704764449572244 0 -0.0014854372944419238 -0.027771897237447763 0 -0.0014569629389416621 -0.027671173078525405 0 -0.0015131405767874627 -0.027704764449572244 0 -0.0014569629389416621 -0.027671173078525405 0 -0.0014719473306984096 -0.027615337266074076 0 -0.0014569629389416621 -0.027671173078525405 0 -0.0014171400299088483 -0.027597402289579041 0 -0.0014719473306984096 -0.027615337266074076 0 -0.0014854372944419238 -0.027771897237447763 0 -0.0014217865463394279 -0.027671111075889314 0 -0.0013856058056630756 -0.027669442787403496 0 -0.0014854372944419238 -0.027771897237447763 0 -0.0014569629389416621 -0.027671173078525405 0 -0.0014217865463394279 -0.027671111075889314 0 -0.0014217865463394279 -0.027671111075889314 0 -0.0013940398769493928 -0.027640475172370973 0 -0.00141408634994484 -0.027634331677814136 0 -0.0014569629389416621 -0.027671173078525405 0 -0.0014217865463394279 -0.027671111075889314 0 -0.00141408634994484 -0.027634331677814136 0 -0.0014217865463394279 -0.027671111075889314 0 -0.0013856058056630756 -0.027669442787403496 0 -0.0013940398769493928 -0.027640475172370973 0 -0.0014668094914716051 -0.027700312262702115 0 -0.0014641380150207535 -0.027695387402349614 0 -0.0014569629389416621 -0.027671173078525405 0 -0.00141408634994484 -0.027634331677814136 0 -0.0014171400299088483 -0.027597402289579041 0 -0.0013940398769493928 -0.027640475172370973 0 -0.00141408634994484 -0.027634331677814136 0 -0.0014171400299088483 -0.027597402289579041 0 -0.0014171400299088483 -0.027597402289579041 0 -0.0014458409081697368 -0.027590122481924318 0 -0.0014719473306984096 -0.027615337266074076 0 -0.0014171400299088483 -0.027597402289579041 0 -0.0014458409081697368 -0.027590122481924318 0 -0.0014340744280084469 -0.027553228226376156 0 -0.0014458409081697368 -0.027590122481924318 0 -0.0014719473306984096 -0.027615337266074076 0 -0.0014679494664861354 -0.027597788568823452 0 -0.0015131405767874627 -0.027704764449572244 0 -0.0014719473306984096 -0.027615337266074076 0 -0.001511188382494712 -0.027632299292426478 0 -0.0014719473306984096 -0.027615337266074076 0 -0.001511188382494712 -0.027632299292426478 0 -0.0015224480126917702 -0.027628189433734813 0 -0.0014651650870806385 -0.027260941981187156 0 -0.0014542856969797853 -0.027494551249734284 0 -0.001550697044040022 -0.027527594611481351 0 -0.0011201686040718719 -0.026899158504378982 0 -0.0014651650870806385 -0.027260941981187156 0 -0.001142203963971367 -0.026262061119624223 0 -0.001459734925005441 -0.027200486191598944 0 -0.0013197927523970593 -0.026896234602299274 0 -0.0012273886832688743 -0.027385033806011577 0 -0.0011201686040718719 -0.026899158504378982 0 -0.00090551401293863069 -0.027317520307484633 0 -0.0012273886832688743 -0.027385033806011577 0 -0.0011201686040718719 -0.026899158504378982 0 -0.0014651650870806385 -0.027260941981187156 0 -0.0014356992226651859 -0.027353268016983172 0 -0.0014651650870806385 -0.027260941981187156 0 -0.0014093236007629458 -0.027475059568582448 0 -0.0014114060848732651 -0.027385415932369057 0 -0.0014146086944376781 -0.027388640482277037 0 -0.0014093236007629458 -0.027475059568582448 0 -0.0014668094914716051 -0.027700312262702115 0 -0.0013844418752143545 -0.027525983398719409 0 -0.0014356992226651859 -0.027353268016983172 0 -0.0014146086944376781 -0.027388640482277037 0 -0.0014093236007629458 -0.027475059568582448 0 -0.0014281214261278648 -0.027392672353976494 0 -0.0014114060848732651 -0.027385415932369057 0 -0.0014146086944376781 -0.027388640482277037 0 -0.0013888539396795453 -0.027663781528629285 0 -0.0013940398769493928 -0.027640475172370973 0 -0.0014093236007629458 -0.027475059568582448 0 -0.0014171400299088483 -0.027597402289579041 0 -0.0014093236007629458 -0.027475059568582448 0 -0.0014340744280084469 -0.027553228226376156 0 -0.0013940398769493928 -0.027640475172370973 0 -0.0014171400299088483 -0.027597402289579041 0 -0.0014093236007629458 -0.027475059568582448 0 -0.0014651650870806385 -0.027260941981187156 0 -0.0014093236007629458 -0.027475059568582448 0 -0.0014542856969797853 -0.027494551249734284 0 -0.0014093236007629458 -0.027475059568582448 0 -0.0014542856969797853 -0.027494551249734284 0 -0.0014340744280084469 -0.027553228226376156 0 -0.0014542856969797853 -0.027494551249734284 0 -0.0014340744280084469 -0.027553228226376156 0 -0.0014710990416351981 -0.027569743281032469 0 -0.0014340744280084469 -0.027553228226376156 0 -0.0014710990416351981 -0.027569743281032469 0 -0.0014679494664861354 -0.027597788568823452 0 -0.0014458409081697368 -0.027590122481924318 0 -0.0014340744280084469 -0.027553228226376156 0 -0.0014679494664861354 -0.027597788568823452 0 -0.0014710990416351981 -0.027569743281032469 0 -0.001550697044040022 -0.027527594611481351 0 -0.001517222699553993 -0.027572743458136015 0 -0.0014542856969797853 -0.027494551249734284 0 -0.0014710990416351981 -0.027569743281032469 0 -0.001550697044040022 -0.027527594611481351 0 -0.0013197927523970593 -0.026896234602299274 0 -0.0011021383646273397 -0.026622508334484627 0 -0.0011201686040718719 -0.026899158504378982 0 -0.001142203963971367 -0.026262061119624223 0 -0.00040144592417409413 -0.025955354872720462 0 -0.001142203963971367 -0.026262061119624223 0 -0.00040144592417409413 -0.025955354872720462 0 -0.00060751948419888958 -0.025596102095244756 0 -0.00041128130084561811 -0.026022310828585925 0 -0.00061608661854995459 -0.026562055572279721 0 -0.0011201686040718719 -0.026899158504378982 0 -0.00040144592417409413 -0.025955354872720462 0 -0.00090551401293863069 -0.027317520307484633 0 -0.00040144592417409413 -0.025955354872720462 0 -0.00030677333132565526 -0.025965684866302272 0 -0.00033470708111313135 -0.025994194650583984 0 -0.00030677333132565526 -0.025965684866302272 0 -0.00020557783816844993 -0.025965586563492415 0 -0.00027824162168603147 -0.026012407319202915 0 -0.00030677333132565526 -0.025965684866302272 0 -0.00025348567544477966 -0.02589829583666647 0 -0.00020557783816844993 -0.025965586563492415 0 -0.00040144592417409413 -0.025955354872720462 0 -0.00030677333132565526 -0.025965684866302272 0 -0.00025348567544477966 -0.02589829583666647 0 -0.00040144592417409413 -0.025955354872720462 0 -0.00025348567544477966 -0.02589829583666647 0 -0.00028271944758208599 -0.025810384546012345 0 -0.00040144592417409413 -0.025955354872720462 0 -0.00028271944758208599 -0.025810384546012345 0 -0.00038484047370704311 -0.025665417946651024 0 -0.00028271944758208599 -0.025810384546012345 0 -0.00014255618846507084 -0.025755503093979001 0 -0.00025705725049546735 -0.02563698397740239 0 -0.00014255618846507084 -0.025755503093979001 0 -1.7767466073463567e-05 -0.025800447410659146 0 -0.00013407235043623846 -0.025875080162488604 0 -0.00025348567544477966 -0.02589829583666647 0 -0.00028271944758208599 -0.025810384546012345 0 -0.00014255618846507084 -0.025755503093979001 0 -0.00025348567544477966 -0.02589829583666647 0 -0.00014255618846507084 -0.025755503093979001 0 -0.00013407235043623846 -0.025875080162488604 0 -0.00014255618846507084 -0.025755503093979001 0 8.247456286272832e-05 -0.025667461386305199 0 -1.7767466073463567e-05 -0.025800447410659146 0 -1.7767466073463567e-05 -0.025800447410659146 0 -4.0251658249841751e-05 -0.025924736757039827 0 0.00022139300143191702 -0.025845377931462649 0 -1.7767466073463567e-05 -0.025800447410659146 0 -4.0251658249841751e-05 -0.025924736757039827 0 -0.00013407235043623846 -0.025875080162488604 0 -4.0251658249841751e-05 -0.025924736757039827 0 -0.00013407235043623846 -0.025875080162488604 0 -0.00020557783816844993 -0.025965586563492415 0 -4.0251658249841751e-05 -0.025924736757039827 0 -0.00020557783816844993 -0.025965586563492415 0 -8.8088415989110713e-05 -0.026000910975643908 0 -0.00025348567544477966 -0.02589829583666647 0 -0.00013407235043623846 -0.025875080162488604 0 -0.00020557783816844993 -0.025965586563492415 0 -0.00020557783816844993 -0.025965586563492415 0 -0.00021107175950587292 -0.026016207084917427 0 -8.8088415989110713e-05 -0.026000910975643908 0 -0.00021107175950587292 -0.026016207084917427 0 -8.8088415989110713e-05 -0.026000910975643908 0 -0.00016072948619279105 -0.026055504735808196 0 -8.8088415989110713e-05 -0.026000910975643908 0 -9.8161436293382835e-05 -0.026064670872712241 0 -0.00016072948619279105 -0.026055504735808196 0 -0.00021107175950587292 -0.026016207084917427 0 -0.00016072948619279105 -0.026055504735808196 0 -0.00023946803470651241 -0.026075224741875635 0 -4.0251658249841751e-05 -0.025924736757039827 0 -8.8088415989110713e-05 -0.026000910975643908 0 3.2303387252677278e-05 -0.026030976959538068 0 -8.8088415989110713e-05 -0.026000910975643908 0 -1.005228695991755e-05 -0.026037269594635815 0 -9.8161436293382835e-05 -0.026064670872712241 0 -8.8088415989110713e-05 -0.026000910975643908 0 -1.005228695991755e-05 -0.026037269594635815 0 3.2303387252677278e-05 -0.026030976959538068 0 -0.00016503817388097483 -0.024347278176790405 0 0.00029300824855908009 -0.023722921983812328 0 4.2146687424829089e-05 -0.024155646298734592 0 0.00029300824855908009 -0.023722921983812328 0 -1.005228695991755e-05 -0.026037269594635815 0 -9.8161436293382835e-05 -0.026064670872712241 0 -8.3327649553036125e-05 -0.026106616699318134 0 -1.005228695991755e-05 -0.026037269594635815 0 -8.3327649553036125e-05 -0.026106616699318134 0 1.9632813105186207e-05 -0.026026785394607073 0 0.00036679538094555695 -0.021819133057175203 0 0.00098636740858822373 -0.021663496565193268 0 0.00069557814642046557 -0.021250069264261991 0 -0.00016072948619279105 -0.026055504735808196 0 -0.00016600683247965838 -0.026106132004848622 0 -0.00023946803470651241 -0.026075224741875635 0 -9.8161436293382835e-05 -0.026064670872712241 0 -0.00016072948619279105 -0.026055504735808196 0 -0.00016600683247965838 -0.026106132004848622 0 -9.8161436293382835e-05 -0.026064670872712241 0 -8.3327649553036125e-05 -0.026106616699318134 0 -0.00016600683247965838 -0.026106132004848622 0 -0.00030340652718851543 -0.026127596148113365 0 -0.00023946803470651241 -0.026075224741875635 0 -0.00030703149461717809 -0.026061843590888589 0 -0.00023023571579559008 -0.026137686828884447 0 -0.00016600683247965838 -0.026106132004848622 0 -0.00023946803470651241 -0.026075224741875635 0 -0.00030340652718851543 -0.026127596148113365 0 -0.00023023571579559008 -0.026137686828884447 0 -0.00023946803470651241 -0.026075224741875635 0 -0.00037840159887297882 -0.02610847038038502 0 -0.00030703149461717809 -0.026061843590888589 0 -0.00033470708111313135 -0.025994194650583984 0 -0.00030340652718851543 -0.026127596148113365 0 -0.00037840159887297882 -0.02610847038038502 0 -0.00030703149461717809 -0.026061843590888589 0 -0.00030703149461717809 -0.026061843590888589 0 -0.00033470708111313135 -0.025994194650583984 0 -0.00027824162168603147 -0.026012407319202915 0 -0.00081130837305522653 -0.027192528989921756 0 -0.00061608661854995459 -0.026562055572279721 0 -0.00030677333132565526 -0.025965684866302272 0 -0.00033470708111313135 -0.025994194650583984 0 -0.00027824162168603147 -0.026012407319202915 0 -0.00020557783816844993 -0.025965586563492415 0 -0.00021107175950587292 -0.026016207084917427 0 -0.00027824162168603147 -0.026012407319202915 0 -0.00021107175950587292 -0.026016207084917427 0 -0.00023946803470651241 -0.026075224741875635 0 -0.00027824162168603147 -0.026012407319202915 0 -0.00023946803470651241 -0.026075224741875635 0 -0.00030703149461717809 -0.026061843590888589 0 -0.00027824162168603147 -0.026012407319202915 0 -1.0639945842195888e-06 -0.034989583030909835 0 -4.6803036194538797e-09 -0.034999981562522924 0 1.2138167512184483e-09 -0.034999978905066335 0 -0.00078529595509094934 -0.030491038234871044 0 -4.5854286820232453e-05 -0.02961218157374991 0 -0.00022762888190035405 -0.027977129051282856 0 -0.00030223608334488909 -0.028015129360777904 0 -0.00017224664795603139 -0.028125307713493412 0 3.9927964486459352e-05 -0.031244814648471165 0 -7.6048522068814748e-05 -0.031086073390435592 0 -8.3904518094237124e-05 -0.031517842011197339 0 -0.00099503287758933245 -0.031629596234334513 0 -0.0011567324651528385 -0.031587800360237304 0 -0.0011845260767759116 -0.032098209933866799 0 -0.00078529595509094934 -0.030491038234871044 0 -0.0010595414635606096 -0.032180571901536247 0 3.9927964486459352e-05 -0.031244814648471165 0 -7.6048522068814748e-05 -0.031086073390435592 0 3.8539872736880998e-05 -0.031121769209246992 0 -0.0010367747156268569 -0.031153117464745517 0 -0.00064841017849762356 -0.031704966938775135 0 -0.0003220099416217175 -0.031372004823405748 0 -0.00078529595509094934 -0.030491038234871044 0 -0.00025028090219618795 -0.029655226750941184 0 -0.00078529595509094934 -0.030491038234871044 0 -0.00042832354298785014 -0.032620152854442329 0 -0.00042832354298785014 -0.032620152854442329 0 -0.00058340063500821786 -0.033730328631727625 0 -2.1661949093338836e-06 -0.03498925646068015 0 -4.6803036194538797e-09 -0.034999981562522924 0 -7.0210403802311432e-06 -0.034993593746694703 0 -1.0639945842195888e-06 -0.034989583030909835 0 -2.1661949093338836e-06 -0.03498925646068015 0 -4.6803036194538797e-09 -0.034999981562522924 0 -9.8171910756077196e-05 -0.033104679627541468 0 -0.00042832354298785014 -0.032620152854442329 0 -4.6803036194538797e-09 -0.034999981562522924 0 -7.0210403802311432e-06 -0.034993593746694703 0 -2.3929863592492851e-09 -0.034999975621179159 0 -0.0012510336849356457 -0.032923259861191982 0 -0.0011845260767759116 -0.032098209933866799 0 -0.0010586175861948433 -0.032604712164431289 0 -0.0007976649696534848 -0.03367382635530973 0 -0.00058340063500821786 -0.033730328631727625 0 -1.3958116696668675e-05 -0.034973546374363437 0 -7.0210403802311432e-06 -0.034993593746694703 0 -2.3929863592492851e-09 -0.034999975621179159 0 -0.0010571654224529479 -0.032476463349780993 0 -0.0010595414635606096 -0.032180571901536247 0 -0.0012510336849356457 -0.032923259861191982 0 -0.0010586175861948433 -0.032604712164431289 0 -0.00044952830371803535 -0.032441410329813375 0 -0.0010586175861948433 -0.032604712164431289 0 -0.00080026726378999225 -0.032153606703316379 0 -0.0010700412008238121 -0.031903773106516813 0 -0.0011845260767759116 -0.032098209933866799 0 -0.0010586175861948433 -0.032604712164431289 0 -0.0010225810296585673 -0.032085653857037565 0 -0.0010586175861948433 -0.032604712164431289 0 -0.00080026726378999225 -0.032153606703316379 0 -0.00044952830371803535 -0.032441410329813375 0 -0.00099503287758933245 -0.031629596234334513 0 -0.0011845260767759116 -0.032098209933866799 0 -0.0010225810296585673 -0.032085653857037565 0 -0.0010367747156268569 -0.031153117464745517 0 -0.0010700412008238121 -0.031903773106516813 0 -0.00064841017849762356 -0.031704966938775135 0 -0.00080026726378999225 -0.032153606703316379 0 -0.0010700412008238121 -0.031903773106516813 0 -0.00064841017849762356 -0.031704966938775135 0 -0.00080026726378999225 -0.032153606703316379 0 -0.00064841017849762356 -0.031704966938775135 0 8.1124948809676325e-05 -0.031984015138577279 0 -0.00064841017849762356 -0.031704966938775135 0 8.1124948809676325e-05 -0.031984015138577279 0 -0.0003220099416217175 -0.031372004823405748 0 -0.00052438717709168796 -0.032223623977094967 0 -0.00058158209806477015 -0.031503683033335096 0 -0.00055267012653812081 -0.032765002077923211 0 -0.00044952830371803535 -0.032441410329813375 0 -2.5576076810528404e-05 -0.03204521223696933 0 -0.0010435632614656867 -0.032243183560574887 0 -0.00058158209806477015 -0.031503683033335096 0 -0.00080026726378999225 -0.032153606703316379 0 -0.00044952830371803535 -0.032441410329813375 0 -2.5576076810528404e-05 -0.03204521223696933 0 -0.0013964947903339672 -0.031812480372307564 0 -0.00097290336677245334 -0.03172061331693371 0 -0.0011304632215708567 -0.031436648386677771 0 -0.00097290336677245334 -0.03172061331693371 0 -0.0011304632215708567 -0.031436648386677771 0 -0.00087225268773425996 -0.031389640554257719 0 -0.00058158209806477015 -0.031503683033335096 0 -0.00083112178159028911 -0.029878727627658426 0 -0.00087324719681306515 -0.030363988865566061 0 -0.00056832815085291089 -0.030087065358253721 0 -0.00044778027736428855 -0.030290278698665983 0 8.1124948809676325e-05 -0.031984015138577279 0 0.00037622740998109028 -0.031574032624108107 0 -0.0003220099416217175 -0.031372004823405748 0 -0.00058158209806477015 -0.031503683033335096 0 -0.00039613954487566168 -0.02945736554708658 0 -0.00087324719681306515 -0.030363988865566061 0 -0.00065304348008562801 -0.030061768319493937 0 -0.00056832815085291089 -0.030087065358253721 0 -0.00039613954487566168 -0.02945736554708658 0 -0.00049126170227353381 -0.028370332828977364 0 -0.00039613954487566168 -0.02945736554708658 0 -0.00063399482982981611 -0.028957937275653805 0 -0.00020086328795547085 -0.029239603765783422 0 -0.00074393527652297589 -0.029075085926552387 0 -0.00044752123781452766 -0.029568018712771319 0 -0.00063399482982981611 -0.028957937275653805 0 -0.00049126170227353381 -0.028370332828977364 0 -0.00038431616566964532 -0.027957129832110461 0 -0.00032241300529991092 -0.027964804792063688 0 -0.00036105865761280534 -0.028004675904293824 0 -0.00039613954487566168 -0.02945736554708658 0 -0.00025028090219618795 -0.029655226750941184 0 -0.0007189819061274638 -0.027440449903794888 0 -0.0005423571777199949 -0.027728412778986963 0 -0.00076097516285046011 -0.027731460977077214 0 -0.00038431616566964532 -0.027957129832110461 0 -0.00038828727750869546 -0.027962255243885993 0 -0.00036105865761280534 -0.028004675904293824 0 -0.00049126170227353381 -0.028370332828977364 0 -0.0005037750390935894 -0.027767312894278116 0 -0.00032241300529991092 -0.027964804792063688 0 -0.00030223608334488909 -0.028015129360777904 0 -0.00036105865761280534 -0.028004675904293824 0 -0.00022762888190035405 -0.027977129051282856 0 -0.00032241300529991092 -0.027964804792063688 0 -0.00030223608334488909 -0.028015129360777904 0 -0.0005037750390935894 -0.027767312894278116 0 -0.00034107892281915727 -0.028081170552000351 0 -0.00030223608334488909 -0.028015129360777904 0 -0.00036105865761280534 -0.028004675904293824 0 -0.00035703334392421331 -0.028065518349921936 0 -0.00030223608334488909 -0.028015129360777904 0 -0.00035703334392421331 -0.028065518349921936 0 -0.00017224664795603139 -0.028125307713493412 0 -0.00074844429014552254 -0.02792599475753817 0 -0.0005423571777199949 -0.027728412778986963 0 -0.00035703334392421331 -0.028065518349921936 0 -0.00074844429014552254 -0.02792599475753817 0 -0.0005423571777199949 -0.027728412778986963 0 -0.00076097516285046011 -0.027731460977077214 0 -0.00074844429014552254 -0.02792599475753817 0 -0.0010339475848263869 -0.027833104902050525 0 -0.00076097516285046011 -0.027731460977077214 0 -0.00074844429014552254 -0.02792599475753817 0 -0.0010339475848263869 -0.027833104902050525 0 -0.00097541618381544268 -0.028061568896125523 0 -0.0010339475848263869 -0.027833104902050525 0 -0.0011542260569562478 -0.027948216691719641 0 -0.00097541618381544268 -0.028061568896125523 0 -0.0010339475848263869 -0.027833104902050525 0 -0.0011542260569562478 -0.027948216691719641 0 -0.0012040567095485488 -0.027789200879562645 0 -0.0011542260569562478 -0.027948216691719641 0 -0.0012040567095485488 -0.027789200879562645 0 -0.0013150796484407284 -0.028011521407636655 0 -0.0010339475848263869 -0.027833104902050525 0 -0.0012040567095485488 -0.027789200879562645 0 -0.0011234383513816447 -0.027733870840568508 0 -0.0011234383513816447 -0.027733870840568508 0 -0.0011819390372724769 -0.027654974718670938 0 -0.0010617466606094572 -0.027674521037662232 0 -0.0010339475848263869 -0.027833104902050525 0 -0.0011234383513816447 -0.027733870840568508 0 -0.0010617466606094572 -0.027674521037662232 0 -0.0012040567095485488 -0.027789200879562645 0 -0.0011819390372724769 -0.027654974718670938 0 -0.001261984462265136 -0.02771171865195049 0 -0.0012040567095485488 -0.027789200879562645 0 -0.0011234383513816447 -0.027733870840568508 0 -0.0011819390372724769 -0.027654974718670938 0 -0.0011819390372724769 -0.027654974718670938 0 -0.0010617466606094572 -0.027674521037662232 0 -0.0010814917241816133 -0.027539052125908146 0 -0.0007189819061274638 -0.027440449903794888 0 -0.0010339475848263869 -0.027833104902050525 0 -0.00076097516285046011 -0.027731460977077214 0 -0.00089544677347573403 -0.027614943413719239 0 -0.0010339475848263869 -0.027833104902050525 0 -0.00098749258573301284 -0.02764538435561564 0 -0.00049126170227353381 -0.028370332828977364 0 -0.0010619687647272231 -0.027530980426708023 0 -0.0010617466606094572 -0.027674521037662232 0 -0.00098749258573301284 -0.02764538435561564 0 -0.0010814917241816133 -0.027539052125908146 0 -0.0010339475848263869 -0.027833104902050525 0 -0.0010617466606094572 -0.027674521037662232 0 -0.00098749258573301284 -0.02764538435561564 0 -0.00090942147985071157 -0.027590653269280264 0 -0.00089544677347573403 -0.027614943413719239 0 -0.00098749258573301284 -0.02764538435561564 0 -0.0005982965035104973 -0.02900891187564255 0 -0.00075113372659131388 -0.028754882877272094 0 -0.0012055586128459795 -0.028821951821032532 0 -0.00063399482982981611 -0.028957937275653805 0 -0.0012637960938703492 -0.028223531466510812 0 -0.00090942147985071157 -0.027590653269280264 0 -0.00098749258573301284 -0.02764538435561564 0 -0.0010814917241816133 -0.027539052125908146 0 -0.00063399482982981611 -0.028957937275653805 0 -0.00083112178159028911 -0.029878727627658426 0 -0.00083112178159028911 -0.029878727627658426 0 -0.0012637960938703492 -0.028223531466510812 0 -0.00083112178159028911 -0.029878727627658426 0 -0.00092521913139770686 -0.030349191654815474 0 -0.00097290336677245334 -0.03172061331693371 0 -0.00087225268773425996 -0.031389640554257719 0 -0.0006724460565380448 -0.031736356960243635 0 -0.0011469625897900083 -0.029176691318081715 0 -0.0014564311781668268 -0.028672101840344945 0 -0.0014719956438217371 -0.029220748351270663 0 -0.0021833821230244762 -0.028479913913382317 0 -0.0014564311781668268 -0.028672101840344945 0 -0.001792052400267595 -0.028850616922035263 0 -0.0014564311781668268 -0.028672101840344945 0 -0.001792052400267595 -0.028850616922035263 0 -0.0014719956438217371 -0.029220748351270663 0 -0.0011819390372724769 -0.027654974718670938 0 -0.0010814917241816133 -0.027539052125908146 0 -0.0013374631720060089 -0.027592900097154951 0 -0.0012637960938703492 -0.028223531466510812 0 -0.0017116850018418289 -0.02846978197642247 0 -0.001792052400267595 -0.028850616922035263 0 -0.0014719956438217371 -0.029220748351270663 0 -0.0020554129359971756 -0.029031075948638865 0 -0.0012637960938703492 -0.028223531466510812 0 -0.0014738985123032729 -0.027535779204340149 0 -0.0012525533316679054 -0.027571263128827385 0 -0.0015915244513538844 -0.027455182429942493 0 -0.0016559085747269227 -0.027616798560991414 0 -0.0021833821230244762 -0.028479913913382317 0 -0.001792052400267595 -0.028850616922035263 0 -0.0020554129359971756 -0.029031075948638865 0 -0.0026601672297283546 -0.028824224172709571 0 -0.0026021470270728305 -0.028782350684687538 0 -0.0020554129359971756 -0.029031075948638865 0 -0.002697257591269799 -0.026466001853644412 0 -0.0017116850018418289 -0.02846978197642247 0 -0.0019470771835519256 -0.027335398195664978 0 -0.0015915244513538844 -0.027455182429942493 0 -0.0018472666894572857 -0.02750788499633516 0 -0.0021833821230244762 -0.028479913913382317 0 -0.0026021470270728305 -0.028782350684687538 0 -0.0020554129359971756 -0.029031075948638865 0 -0.0051622660748708695 -0.025184540185993389 0 -0.0042704777856445919 -0.024532898238193154 0 -0.0043405488424635126 -0.024639349370584655 0 -0.0015915244513538844 -0.027455182429942493 0 -0.0016559085747269227 -0.027616798560991414 0 -0.0018472666894572857 -0.02750788499633516 0 -0.0020554373062180321 -0.027668428926316595 0 -0.0016559085747269227 -0.027616798560991414 0 -0.0018472666894572857 -0.02750788499633516 0 -0.001763400628928317 -0.027481391398613317 0 -0.0014738985123032729 -0.027535779204340149 0 -0.0013374631720060089 -0.027592900097154951 0 -0.0014376938971265454 -0.027724708200907163 0 -0.0013372746410697171 -0.027756485884464607 0 -0.0015333343173002474 -0.027635076115781181 0 -0.0013374631720060089 -0.027592900097154951 0 -0.0014376938971265454 -0.027724708200907163 0 -0.0011819390372724769 -0.027654974718670938 0 -0.0013374631720060089 -0.027592900097154951 0 -0.001261984462265136 -0.02771171865195049 0 -0.0013374631720060089 -0.027592900097154951 0 -0.001261984462265136 -0.02771171865195049 0 -0.0013372746410697171 -0.027756485884464607 0 -0.0012040567095485488 -0.027789200879562645 0 -0.0015683258624984123 -0.028024941753868594 0 -0.0013150796484407284 -0.028011521407636655 0 -0.0012253687899026974 -0.027799152546586072 0 -0.0014515711064727477 -0.027939289600887811 0 -0.0012040567095485488 -0.027789200879562645 0 -0.0013372746410697171 -0.027756485884464607 0 -0.0013645831463204973 -0.027873381057863335 0 -0.0012040567095485488 -0.027789200879562645 0 -0.001261984462265136 -0.02771171865195049 0 -0.0013372746410697171 -0.027756485884464607 0 -0.0013372746410697171 -0.027756485884464607 0 -0.0014215023396226148 -0.027802699692587168 0 -0.0013645831463204973 -0.027873381057863335 0 -0.0014890223336175153 -0.027793941172210436 0 -0.0014376938971265454 -0.027724708200907163 0 -0.0014215023396226148 -0.027802699692587168 0 -0.0014376938971265454 -0.027724708200907163 0 -0.0013372746410697171 -0.027756485884464607 0 -0.0014215023396226148 -0.027802699692587168 0 -0.0015371527805058802 -0.027987184724914189 0 -0.0014515711064727477 -0.027939289600887811 0 -0.0014751373890298774 -0.027858876920699303 0 -0.0014215023396226148 -0.027802699692587168 0 -0.0013645831463204973 -0.027873381057863335 0 -0.0015305815609453527 -0.027982596890021999 0 -0.0015683258624984123 -0.028024941753868594 0 -0.0016092444736440865 -0.028044050679082517 0 -0.0014751373890298774 -0.027858876920699303 0 -0.0015030353363110801 -0.027950551421436914 0 -0.0013645831463204973 -0.027873381057863335 0 -0.0015683258624984123 -0.028024941753868594 0 -0.0014410473909093327 -0.028115026156059156 0 -0.0016092444736440865 -0.028044050679082517 0 -0.0015683258624984123 -0.028024941753868594 0 -0.0013150796484407284 -0.028011521407636655 0 -0.0014410473909093327 -0.028115026156059156 0 -0.0013150796484407284 -0.028011521407636655 0 -0.0014410473909093327 -0.028115026156059156 0 -0.0012075079420476545 -0.028161558279916711 0 -0.0014410473909093327 -0.028115026156059156 0 -0.001407526347235212 -0.028331352825691481 0 -0.0016092444736440865 -0.028044050679082517 0 -0.0014410473909093327 -0.028115026156059156 0 -0.001407526347235212 -0.028331352825691481 0 -0.0012075079420476545 -0.028161558279916711 0 -0.001407526347235212 -0.028331352825691481 0 -0.0016092444736440865 -0.028044050679082517 0 -0.001644116013836271 -0.02863442359331575 0 -0.0015480051224274712 -0.027845970883672001 0 -0.0016092444736440865 -0.028044050679082517 0 -0.0016035507894821494 -0.027693249684508578 0 -0.0016150135079724334 -0.028064013690971099 0 -0.0016109584441242573 -0.028171041799878043 0 -0.0015480051224274712 -0.027845970883672001 0 -0.0015131405767874627 -0.027704764449572244 0 -0.0016035507894821494 -0.027693249684508578 0 -0.0016109584441242573 -0.028171041799878043 0 -0.001519217418456037 -0.028406814352160813 0 -0.001511188382494712 -0.027632299292426478 0 -0.0016035507894821494 -0.027693249684508578 0 -0.0014590565022768425 -0.027643110947299893 0 -0.0015131405767874627 -0.027704764449572244 0 -0.001511188382494712 -0.027632299292426478 0 -0.0016035507894821494 -0.027693249684508578 0 -0.001644116013836271 -0.02863442359331575 0 -0.0012341067813299378 -0.028767176444923791 0 -0.0015739456086797353 -0.029126814396345409 0 -0.001407526347235212 -0.028331352825691481 0 -0.001644116013836271 -0.02863442359331575 0 -0.0012341067813299378 -0.028767176444923791 0 -0.0012341067813299378 -0.028767176444923791 0 -0.00081569842922392269 -0.028571808204259828 0 -0.001139665334367468 -0.02841797293556746 0 -0.001407526347235212 -0.028331352825691481 0 -0.0012341067813299378 -0.028767176444923791 0 -0.001139665334367468 -0.02841797293556746 0 -0.0012341067813299378 -0.028767176444923791 0 -0.00083607702668050694 -0.029075208169880736 0 -0.0012441838277176033 -0.029213292502175418 0 -0.0012341067813299378 -0.028767176444923791 0 -0.00081569842922392269 -0.028571808204259828 0 -0.00083607702668050694 -0.029075208169880736 0 -0.00081569842922392269 -0.028571808204259828 0 -0.00096773703229512131 -0.028286842082313045 0 -0.001139665334367468 -0.02841797293556746 0 -0.00081569842922392269 -0.028571808204259828 0 -0.00096773703229512131 -0.028286842082313045 0 -0.00072222986989120455 -0.028212940318642118 0 -0.001407526347235212 -0.028331352825691481 0 -0.001139665334367468 -0.02841797293556746 0 -0.0012075079420476545 -0.028161558279916711 0 -0.00096773703229512131 -0.028286842082313045 0 -0.001139665334367468 -0.02841797293556746 0 -0.0012075079420476545 -0.028161558279916711 0 -0.00096773703229512131 -0.028286842082313045 0 -0.0012075079420476545 -0.028161558279916711 0 -0.00097541618381544268 -0.028061568896125523 0 -0.0011542260569562478 -0.027948216691719641 0 -0.0013150796484407284 -0.028011521407636655 0 -0.0012075079420476545 -0.028161558279916711 0 -0.0011542260569562478 -0.027948216691719641 0 -0.0012075079420476545 -0.028161558279916711 0 -0.00097541618381544268 -0.028061568896125523 0 -0.00074844429014552254 -0.02792599475753817 0 -0.00097541618381544268 -0.028061568896125523 0 -0.00072222986989120455 -0.028212940318642118 0 -0.00096773703229512131 -0.028286842082313045 0 -0.00097541618381544268 -0.028061568896125523 0 -0.00072222986989120455 -0.028212940318642118 0 -0.00072222986989120455 -0.028212940318642118 0 -0.00035703334392421331 -0.028065518349921936 0 -0.00044581294512361611 -0.028381146925057901 0 -0.00074844429014552254 -0.02792599475753817 0 -0.00072222986989120455 -0.028212940318642118 0 -0.00035703334392421331 -0.028065518349921936 0 -0.00035703334392421331 -0.028065518349921936 0 -0.00026981286815060861 -0.028262970500794692 0 -0.00044581294512361611 -0.028381146925057901 0 -0.00035703334392421331 -0.028065518349921936 0 -0.00026981286815060861 -0.028262970500794692 0 -0.00017224664795603139 -0.028125307713493412 0 -0.00026981286815060861 -0.028262970500794692 0 -0.00044581294512361611 -0.028381146925057901 0 -9.9753246246310362e-05 -0.028514769909809477 0 -0.00081569842922392269 -0.028571808204259828 0 -0.00072222986989120455 -0.028212940318642118 0 -0.00044581294512361611 -0.028381146925057901 0 -0.00081569842922392269 -0.028571808204259828 0 -0.00044581294512361611 -0.028381146925057901 0 -0.00048296396913912788 -0.028790722077055492 0 -0.00081569842922392269 -0.028571808204259828 0 -0.00048296396913912788 -0.028790722077055492 0 -0.00083607702668050694 -0.029075208169880736 0 -0.00048296396913912788 -0.028790722077055492 0 -0.00046244293267239594 -0.029126757608651719 0 -0.00083607702668050694 -0.029075208169880736 0 -0.00048296396913912788 -0.028790722077055492 0 -7.0792221835602197e-05 -0.028983754698006126 0 -0.00046244293267239594 -0.029126757608651719 0 -0.00044581294512361611 -0.028381146925057901 0 -0.00048296396913912788 -0.028790722077055492 0 -9.9753246246310362e-05 -0.028514769909809477 0 -0.00048296396913912788 -0.028790722077055492 0 -9.9753246246310362e-05 -0.028514769909809477 0 -7.0792221835602197e-05 -0.028983754698006126 0 -0.00010802908320979369 -0.032008164424738764 0 -0.00015459820625834478 -0.032620980759285476 0 8.0077697293665502e-05 -0.032349267636713891 0 -0.00010802908320979369 -0.032008164424738764 0 8.0077697293665502e-05 -0.032349267636713891 0 5.6151964996684216e-05 -0.031742141840072437 0 -0.00011807511111226008 -0.030315094388491046 0 -0.00010812095413793205 -0.030797489609617514 0 3.796509510693875e-05 -0.03367328513230515 0 5.3688781924971344e-05 -0.034072737700798307 0 -0.00015459820625834478 -0.032620980759285476 0 8.0077697293665502e-05 -0.032349267636713891 0 0.00010612632239824275 -0.033145108078157418 0 3.4192259438093069e-07 -0.034991959179745111 0 7.1175445060032356e-10 -0.034999986122236953 0 4.8815294128680919e-10 -0.034999979734975505 0 3.796509510693875e-05 -0.03367328513230515 0 4.5167291983617856e-05 -0.033371263857666568 0 3.4192259438093069e-07 -0.034991959179745111 0 7.1175445060032356e-10 -0.034999986122236953 0 1.1876122251463174e-07 -0.034990396883718106 0 7.1175445060032356e-10 -0.034999986122236953 0 1.1876122251463174e-07 -0.034990396883718106 0 1.2138167512184483e-09 -0.034999978905066335 0 -0.00026981286815060861 -0.028262970500794692 0 -9.9753246246310362e-05 -0.028514769909809477 0 -0.00017224664795603139 -0.028125307713493412 0 -0.00011807511111226008 -0.030315094388491046 0 -4.5854286820232453e-05 -0.02961218157374991 0 -0.00010802908320979369 -0.032008164424738764 0 5.6151964996684216e-05 -0.031742141840072437 0 -8.3904518094237124e-05 -0.031517842011197339 0 3.9927964486459352e-05 -0.031244814648471165 0 5.6151964996684216e-05 -0.031742141840072437 0 -8.3904518094237124e-05 -0.031517842011197339 0 -9.8171910756077196e-05 -0.033104679627541468 0 4.5167291983617856e-05 -0.033371263857666568 0 -1.0639945842195888e-06 -0.034989583030909835 0 1.1876122251463174e-07 -0.034990396883718106 0 1.2138167512184483e-09 -0.034999978905066335 0 5.1505403174141217e-06 -0.034997993063806257 0 1.9734578235751033e-05 -0.034946731660860077 0 2.3354358264915934e-09 -0.034999877165989617 0 5.1505403174141217e-06 -0.034997993063806257 0 6.3543582260236325e-09 -0.035000030138641038 0 2.3354358264915934e-09 -0.034999877165989617 0 5.2717712401043461e-05 -0.034551536483880409 0 2.5419457084133342e-05 -0.034925278898170237 0 -7.6982292283496033e-05 -0.032423075368799098 0 -5.1654933879722811e-05 -0.033361988039456579 0 -0.00022246319841285575 -0.034264850070150427 0 0.00010792814527539759 -0.034104543191568436 0 1.9734578235751033e-05 -0.034946731660860077 0 -0.00022246319841285575 -0.034264850070150427 0 0.00010792814527539759 -0.034104543191568436 0 -0.00020785821942715399 -0.033393086295833867 0 -7.6982292283496033e-05 -0.032423075368799098 0 -9.3411808708935366e-05 -0.031488378842921355 0 5.1505403174141217e-06 -0.034997993063806257 0 6.3543582260236325e-09 -0.035000030138641038 0 9.5062089075436354e-07 -0.03499463001942249 0 6.3543582260236325e-09 -0.035000030138641038 0 4.8815294128680919e-10 -0.034999979734975505 0 9.5062089075436354e-07 -0.03499463001942249 0 3.4192259438093069e-07 -0.034991959179745111 0 4.8815294128680919e-10 -0.034999979734975505 0 9.5062089075436354e-07 -0.03499463001942249 0 -0.00015459820625834478 -0.032620980759285476 0 0.00010612632239824275 -0.033145108078157418 0 -0.00020785821942715399 -0.033393086295833867 0 -7.0792221835602197e-05 -0.028983754698006126 0 2.1432658883284725e-05 -0.029550100227519586 0 -0.00031296928900935564 -0.029323694094380261 0 -0.00010812095413793205 -0.030797489609617514 0 -9.3411808708935366e-05 -0.031488378842921355 0 0.00010792814527539759 -0.034104543191568436 0 0.00010612632239824275 -0.033145108078157418 0 -0.00020785821942715399 -0.033393086295833867 0 5.2717712401043461e-05 -0.034551536483880409 0 5.3688781924971344e-05 -0.034072737700798307 0 -0.00038903387544654859 -0.029622117279030104 0 -0.00031296928900935564 -0.029323694094380261 0 -0.000621871004260447 -0.029404856713625947 0 2.1432658883284725e-05 -0.029550100227519586 0 -0.00038903387544654859 -0.029622117279030104 0 -0.00031296928900935564 -0.029323694094380261 0 -7.0792221835602197e-05 -0.028983754698006126 0 -0.00031296928900935564 -0.029323694094380261 0 -0.00046244293267239594 -0.029126757608651719 0 -0.00031296928900935564 -0.029323694094380261 0 -0.00046244293267239594 -0.029126757608651719 0 -0.000621871004260447 -0.029404856713625947 0 -0.00046244293267239594 -0.029126757608651719 0 -0.000621871004260447 -0.029404856713625947 0 -0.00083607702668050694 -0.029075208169880736 0 -0.00044820688530559721 -0.029640853781990734 0 -0.00092688975318868413 -0.029851738071880057 0 -0.00038903387544654859 -0.029622117279030104 0 -0.000621871004260447 -0.029404856713625947 0 -0.00071728317283213531 -0.029708449634595485 0 -0.0012282488415896583 -0.030038276512744901 0 -0.00069074721973860569 -0.030481735314440372 0 -0.0012909095308347325 -0.030885844330429499 0 -0.00038903387544654859 -0.029622117279030104 0 -0.0012282488415896583 -0.030038276512744901 0 -0.00069074721973860569 -0.030481735314440372 0 6.970649098920635e-05 -0.030595613497100084 0 -0.00038903387544654859 -0.029622117279030104 0 -0.00069074721973860569 -0.030481735314440372 0 6.970649098920635e-05 -0.030595613497100084 0 2.1432658883284725e-05 -0.029550100227519586 0 -0.00038903387544654859 -0.029622117279030104 0 6.970649098920635e-05 -0.030595613497100084 0 -0.00069074721973860569 -0.030481735314440372 0 -0.00062233261217067132 -0.031268842008609132 0 -0.00069074721973860569 -0.030481735314440372 0 -0.0012909095308347325 -0.030885844330429499 0 -0.00062233261217067132 -0.031268842008609132 0 -0.0012909095308347325 -0.030885844330429499 0 -0.002028908833525619 -0.030459856125837091 0 -0.001939969519078434 -0.031330993350561297 0 -0.0023783112998242962 -0.031116989058553271 0 -0.002028908833525619 -0.030459856125837091 0 -0.0028041495192817471 -0.030861016188422109 0 -0.0016784336122304257 -0.030290988599494816 0 -0.0016592015311710606 -0.029357277559083239 0 -0.0023783112998242962 -0.031116989058553271 0 -0.002028908833525619 -0.030459856125837091 0 -0.001939969519078434 -0.031330993350561297 0 -0.0010548032483708978 -0.029861860811840307 0 -0.0014839720547915546 -0.029589101435099664 0 -0.0013960413963287886 -0.030025145038825363 0 -0.0010548032483708978 -0.029861860811840307 0 -0.00099818608516700266 -0.02948360093569723 0 -0.0014839720547915546 -0.029589101435099664 0 -0.00071728317283213531 -0.029708449634595485 0 -0.0010548032483708978 -0.029861860811840307 0 -0.00099818608516700266 -0.02948360093569723 0 -0.0012282488415896583 -0.030038276512744901 0 -0.0012909095308347325 -0.030885844330429499 0 -0.002028908833525619 -0.030459856125837091 0 -0.00092688975318868413 -0.029851738071880057 0 -0.0016784336122304257 -0.030290988599494816 0 -0.000621871004260447 -0.029404856713625947 0 -0.00071728317283213531 -0.029708449634595485 0 -0.00099818608516700266 -0.02948360093569723 0 -0.00099818608516700266 -0.02948360093569723 0 -0.00083607702668050694 -0.029075208169880736 0 -0.0012441838277176033 -0.029213292502175418 0 -0.000621871004260447 -0.029404856713625947 0 -0.00099818608516700266 -0.02948360093569723 0 -0.00083607702668050694 -0.029075208169880736 0 -0.00099818608516700266 -0.02948360093569723 0 -0.0012441838277176033 -0.029213292502175418 0 -0.0014839720547915546 -0.029589101435099664 0 -0.0013746031882074091 -0.028627061019603481 0 -0.001519217418456037 -0.028406814352160813 0 -0.0012341067813299378 -0.028767176444923791 0 -0.0012441838277176033 -0.029213292502175418 0 -0.0015739456086797353 -0.029126814396345409 0 -0.0012441838277176033 -0.029213292502175418 0 -0.0014839720547915546 -0.029589101435099664 0 -0.0015739456086797353 -0.029126814396345409 0 -0.001511188382494712 -0.027632299292426478 0 -0.0014590565022768425 -0.027643110947299893 0 -0.0014805198198896349 -0.027673112762279788 0 -0.0013283736482794404 -0.027782158475938883 0 -0.0014805198198896349 -0.027673112762279788 0 -0.0015075400905592367 -0.027770237975243344 0 -0.0013283736482794404 -0.027782158475938883 0 -0.0014590565022768425 -0.027643110947299893 0 -0.0014805198198896349 -0.027673112762279788 0 -0.0013283736482794404 -0.027782158475938883 0 -0.0014060972735650591 -0.02790081801702321 0 -0.0015075400905592367 -0.027770237975243344 0 -0.0013746031882074091 -0.028627061019603481 0 -0.0016592015311710606 -0.029357277559083239 0 -0.0013283736482794404 -0.027782158475938883 0 -0.0014060972735650591 -0.02790081801702321 0 -0.0012270476298855196 -0.028025971121239262 0 -0.0014060972735650591 -0.02790081801702321 0 -0.0012270476298855196 -0.028025971121239262 0 -0.0013507242428066329 -0.02811166180045863 0 -0.0016592015311710606 -0.029357277559083239 0 -0.0010220969344472081 -0.027988319480784497 0 -0.0014060972735650591 -0.02790081801702321 0 -0.0014704982023447605 -0.028008903829794287 0 -0.0015628255201509051 -0.027916369746268151 0 -0.0014704982023447605 -0.028008903829794287 0 -0.0013507242428066329 -0.02811166180045863 0 -0.0015394534972162787 -0.028150335545453039 0 -0.0014060972735650591 -0.02790081801702321 0 -0.0014704982023447605 -0.028008903829794287 0 -0.0013507242428066329 -0.02811166180045863 0 -0.0012780425555593928 -0.028808240446476625 0 -0.0014727102043180251 -0.028682372867600857 0 -0.0014881072336829899 -0.028843486386276842 0 -0.001302988178812097 -0.028391387057875667 0 -0.0014880041230129074 -0.02847106265216821 0 -0.0013507242428066329 -0.02811166180045863 0 -0.0013071162796628032 -0.028407186516782357 0 -0.0015394534972162787 -0.028150335545453039 0 -0.0016592015311710606 -0.029357277559083239 0 -0.0018695262255398483 -0.029990218526100804 0 -0.001120558237911173 -0.028008281283091387 0 -0.0013507242428066329 -0.02811166180045863 0 -0.0010477411470048827 -0.028326482491350558 0 -0.0013507242428066329 -0.02811166180045863 0 -0.0010477411470048827 -0.028326482491350558 0 -0.0013071162796628032 -0.028407186516782357 0 -0.0012780425555593928 -0.028808240446476625 0 -0.0013640784352773262 -0.029009915433866093 0 -0.0010599660850027599 -0.028972875016971881 0 -0.0010477411470048827 -0.028326482491350558 0 -0.0013071162796628032 -0.028407186516782357 0 -0.00097380299872310179 -0.028698633062101901 0 -0.001302988178812097 -0.028391387057875667 0 -0.0014986761894331803 -0.030601039864720753 0 -0.0012780425555593928 -0.028808240446476625 0 -0.0013640784352773262 -0.029009915433866093 0 -0.0014881072336829899 -0.028843486386276842 0 -0.0013640784352773262 -0.029009915433866093 0 -0.0012540924089418737 -0.029244902252598716 0 -0.0014909305580620669 -0.029181352942921915 0 -0.0015635012748822033 -0.030914558455486438 0 -0.0018246793059266378 -0.030972743482327546 0 -0.0012540924089418737 -0.029244902252598716 0 -0.0010599660850027599 -0.028972875016971881 0 -0.00099103911036474467 -0.029296493497777524 0 -0.0015635012748822033 -0.030914558455486438 0 -0.0010983056148319856 -0.031923425266163853 0 -0.0013640784352773262 -0.029009915433866093 0 -0.0012540924089418737 -0.029244902252598716 0 -0.0010599660850027599 -0.028972875016971881 0 -0.0014986761894331803 -0.030601039864720753 0 -0.0010983056148319856 -0.031923425266163853 0 -0.0015246244075430659 -0.033041582525321057 0 -0.0014636534065115801 -0.033246212893624963 0 -0.0014263645594003518 -0.033130411223316135 0 -0.0024641093795587056 -0.032451685099696786 0 -0.0019489177644341545 -0.032828001065952968 0 -0.0019796608518885856 -0.032027762620110041 0 -0.0014986761894331803 -0.030601039864720753 0 -0.0015449262092749737 -0.033025625757716941 0 -0.0014636534065115801 -0.033246212893624963 0 -0.0014147566961937971 -0.033205681764858559 0 -0.0014263645594003518 -0.033130411223316135 0 -0.0014203423927128837 -0.033254908610561962 0 -0.0014636534065115801 -0.033246212893624963 0 -0.0014147566961937971 -0.033205681764858559 0 -0.0012744093009084698 -0.032256698768967765 0 -0.0010983056148319856 -0.031923425266163853 0 -0.0013618472642671115 -0.033292880065101983 0 -0.0014147566961937971 -0.033205681764858559 0 -0.0014149586090198289 -0.03320118145636114 0 -0.0014203423927128837 -0.033254908610561962 0 -0.0013618472642671115 -0.033292880065101983 0 -0.0014147566961937971 -0.033205681764858559 0 -0.0014147566961937971 -0.033205681764858559 0 -0.0014149586090198289 -0.03320118145636114 0 -0.0014263645594003518 -0.033130411223316135 0 -0.0019489177644341545 -0.032828001065952968 0 -0.0019796608518885856 -0.032027762620110041 0 -0.0013783453354950597 -0.03247885808585451 0 -0.0014863036990247047 -0.033137907179946219 0 -0.0015449262092749737 -0.033025625757716941 0 -0.0014149586090198289 -0.03320118145636114 0 -0.0019489177644341545 -0.032828001065952968 0 -0.0013783453354950597 -0.03247885808585451 0 -0.0019796608518885856 -0.032027762620110041 0 -0.001304761294629512 -0.031767638338700242 0 -0.0013783453354950597 -0.03247885808585451 0 -0.0018695262255398483 -0.029990218526100804 0 -0.0014986761894331803 -0.030601039864720753 0 -0.002637064270206671 -0.031662859557550972 0 -0.0024641093795587056 -0.032451685099696786 0 -0.0019796608518885856 -0.032027762620110041 0 -0.0023783112998242962 -0.031116989058553271 0 -0.0028041495192817471 -0.030861016188422109 0 -0.002637064270206671 -0.031662859557550972 0 -0.002637064270206671 -0.031662859557550972 0 -0.0019796608518885856 -0.032027762620110041 0 -0.001939969519078434 -0.031330993350561297 0 -0.0023783112998242962 -0.031116989058553271 0 -0.002637064270206671 -0.031662859557550972 0 -0.001939969519078434 -0.031330993350561297 0 -0.0012909095308347325 -0.030885844330429499 0 -0.001939969519078434 -0.031330993350561297 0 -0.001304761294629512 -0.031767638338700242 0 -0.0019796608518885856 -0.032027762620110041 0 -0.001939969519078434 -0.031330993350561297 0 -0.001304761294629512 -0.031767638338700242 0 -0.0012909095308347325 -0.030885844330429499 0 -0.001304761294629512 -0.031767638338700242 0 -0.00062233261217067132 -0.031268842008609132 0 -0.001304761294629512 -0.031767638338700242 0 -0.00062233261217067132 -0.031268842008609132 0 -0.00066666206977535828 -0.032345445844276489 0 -0.00062233261217067132 -0.031268842008609132 0 -0.00066666206977535828 -0.032345445844276489 0 3.5874860655912433e-05 -0.031749461957674127 0 6.970649098920635e-05 -0.030595613497100084 0 -0.00062233261217067132 -0.031268842008609132 0 3.5874860655912433e-05 -0.031749461957674127 0 -0.00066666206977535828 -0.032345445844276489 0 -1.7060920126910017e-05 -0.032919213570684988 0 3.5874860655912433e-05 -0.031749461957674127 0 -0.001304761294629512 -0.031767638338700242 0 -0.00081130560293488964 -0.032249144524906119 0 -0.0013783453354950597 -0.03247885808585451 0 -0.0012230479942834365 -0.031853914945957552 0 -0.00081972250531258599 -0.032177325445672408 0 -0.00081130560293488964 -0.032249144524906119 0 -0.0013783453354950597 -0.03247885808585451 0 -0.0008574214553791796 -0.032844144156598677 0 -0.0014149586090198289 -0.03320118145636114 0 -0.0013783453354950597 -0.03247885808585451 0 -0.0008574214553791796 -0.032844144156598677 0 -0.0014149586090198289 -0.03320118145636114 0 -0.001141250046230338 -0.03342320007953254 0 -0.0008574214553791796 -0.032844144156598677 0 -0.0013618472642671115 -0.033292880065101983 0 -0.0014149586090198289 -0.03320118145636114 0 -0.001141250046230338 -0.03342320007953254 0 -0.001249349384979312 -0.033351730845421187 0 -0.0013618472642671115 -0.033292880065101983 0 -0.001141250046230338 -0.03342320007953254 0 -0.001141250046230338 -0.03342320007953254 0 -0.00013652261401224652 -0.033488917280891345 0 -0.0008574214553791796 -0.032844144156598677 0 -0.00054823856323447733 -0.034117736086035848 0 -0.001141250046230338 -0.03342320007953254 0 -0.00013652261401224652 -0.033488917280891345 0 -0.00013652261401224652 -0.033488917280891345 0 -0.0008574214553791796 -0.032844144156598677 0 -0.00016348241995399091 -0.032738893952092188 0 -0.00081130560293488964 -0.032249144524906119 0 -0.0008574214553791796 -0.032844144156598677 0 -0.00016348241995399091 -0.032738893952092188 0 -0.00081972250531258599 -0.032177325445672408 0 -9.0881515211077197e-05 -0.033854492218632397 0 -4.7495299916088863e-05 -0.035013596044400207 0 -1.4634610042929782e-05 -0.035009673125229138 0 -3.0281941594684195e-05 -0.034999714752767981 0 -9.0881515211077197e-05 -0.033854492218632397 0 2.5937295085823451e-05 -0.035010555219953193 0 -9.9290554303274335e-05 -0.034805980743868696 0 -0.00011255771680692217 -0.034791106835109976 0 -5.6673957792634664e-05 -0.03478918531018093 0 -0.00011255771680692217 -0.034791106835109976 0 -0.00011155321442568216 -0.034724010194276546 0 -5.6673957792634664e-05 -0.03478918531018093 0 -0.00013379965408750718 -0.034148477238338394 0 -9.0881515211077197e-05 -0.033854492218632397 0 -1.1854325616269145e-08 -0.034998288778053797 0 -1.4634610042929782e-05 -0.035009673125229138 0 -1.6515070864267327e-09 -0.035000024044177867 0 -1.2065139726936105e-07 -0.034998123551312661 0 2.5937295085823451e-05 -0.035010555219953193 0 -1.4634610042929782e-05 -0.035009673125229138 0 -1.6515070864267327e-09 -0.035000024044177867 0 -3.0281941594684195e-05 -0.034999714752767981 0 -1.6515070864267327e-09 -0.035000024044177867 0 1.9734578235751033e-05 -0.034946731660860077 0 2.3354358264915934e-09 -0.034999877165989617 0 -1.6515070864267327e-09 -0.035000024044177867 0 -3.0281941594684195e-05 -0.034999714752767981 0 1.9734578235751033e-05 -0.034946731660860077 0 -3.0281941594684195e-05 -0.034999714752767981 0 -0.00015219889577694666 -0.034952098205535312 0 1.9734578235751033e-05 -0.034946731660860077 0 -4.7495299916088863e-05 -0.035013596044400207 0 -3.0281941594684195e-05 -0.034999714752767981 0 -0.00015219889577694666 -0.034952098205535312 0 -9.0881515211077197e-05 -0.033854492218632397 0 -5.1654933879722811e-05 -0.033361988039456579 0 -0.00022246319841285575 -0.034264850070150427 0 -0.00015219889577694666 -0.034952098205535312 0 1.9734578235751033e-05 -0.034946731660860077 0 -0.0012179452408798649 -0.026324893156533989 0 -0.001168483285171077 -0.026030499365305652 0 -0.0010018612516218617 -0.026237673492626422 0 -0.00092233885778204036 -0.026019069871694608 0 -0.00084568062595255522 -0.026335098062410363 0 -0.0012179452408798649 -0.026324893156533989 0 -0.0013974637187921836 -0.026230037041505557 0 -0.001168483285171077 -0.026030499365305652 0 -0.0012179452408798649 -0.026324893156533989 0 -0.0010018612516218617 -0.026237673492626422 0 -0.0011917657873553953 -0.026550023359145927 0 -0.0015969242582999121 -0.026989195613008356 0 -0.0016498903937032885 -0.027334045136317459 0 -0.0017791830199816081 -0.027757619672217956 0 -0.0018083386103265738 -0.027722848451407447 0 -0.0017725925028326895 -0.02776517472077579 0 -0.0012179452408798649 -0.026324893156533989 0 -0.0013974637187921836 -0.026230037041505557 0 -0.0013316868550711238 -0.026580112993115426 0 -0.0015969242582999121 -0.026989195613008356 0 -0.0014515108997078627 -0.026628888627262853 0 -0.0017791830199816081 -0.027757619672217956 0 -0.001784565984683217 -0.027732749911279362 0 -0.0017775752421371604 -0.02772822763558418 0 -0.0013974637187921836 -0.026230037041505557 0 -0.001168483285171077 -0.026030499365305652 0 -0.0014617459706194194 -0.025886163911966839 0 -0.001168483285171077 -0.026030499365305652 0 -0.00082508972777528089 -0.02592590243618513 0 -0.0010018612516218617 -0.026237673492626422 0 -0.0007806296973197393 -0.025809221812995539 0 -0.00092233885778204036 -0.026019069871694608 0 -0.00073541151057444063 -0.025697279900020863 0 -0.00066045311645006734 -0.025778347395911932 0 -0.00080645188102374606 -0.02581045642407594 0 -0.00073541151057444063 -0.025697279900020863 0 -0.00066045311645006734 -0.025778347395911932 0 -0.00064876250600468053 -0.025666664759365878 0 -0.00031997555012472557 -0.025474894581579647 0 -0.00016054866083426008 -0.02573041461575367 0 -0.00066045311645006734 -0.025778347395911932 0 -0.00071527406040696882 -0.025889765389395039 0 -0.00054661498528534318 -0.025855670350355527 0 -0.00066045311645006734 -0.025778347395911932 0 -0.00080645188102374606 -0.02581045642407594 0 -0.00071527406040696882 -0.025889765389395039 0 -0.00080645188102374606 -0.02581045642407594 0 -0.00071527406040696882 -0.025889765389395039 0 -0.00087860731996634237 -0.025927844231283678 0 -0.00031997555012472557 -0.025474894581579647 0 -0.00084568062595255522 -0.026335098062410363 0 -6.0726225213573845e-05 -0.025307516787102954 0 -0.00010090305073542211 -0.025533384344735913 0 -0.00039054577395456917 -0.025383083483865341 0 -6.0726225213573845e-05 -0.025307516787102954 0 -0.00010090305073542211 -0.025533384344735913 0 0.00013793132717291099 -0.025440395836631279 0 8.247456286272832e-05 -0.025667461386305199 0 -0.00010090305073542211 -0.025533384344735913 0 0.00013793132717291099 -0.025440395836631279 0 -0.00014255618846507084 -0.025755503093979001 0 8.247456286272832e-05 -0.025667461386305199 0 -0.00010090305073542211 -0.025533384344735913 0 -0.00014255618846507084 -0.025755503093979001 0 -0.00010090305073542211 -0.025533384344735913 0 -0.00025705725049546735 -0.02563698397740239 0 -0.00010090305073542211 -0.025533384344735913 0 -0.00025705725049546735 -0.02563698397740239 0 -0.00039054577395456917 -0.025383083483865341 0 -0.00038484047370704311 -0.025665417946651024 0 -0.00039054577395456917 -0.025383083483865341 0 -0.00060751948419888958 -0.025596102095244756 0 -0.00025705725049546735 -0.02563698397740239 0 -0.00038484047370704311 -0.025665417946651024 0 -0.00039054577395456917 -0.025383083483865341 0 -0.00028271944758208599 -0.025810384546012345 0 -0.00025705725049546735 -0.02563698397740239 0 -0.00038484047370704311 -0.025665417946651024 0 -0.0012179452408798649 -0.026324893156533989 0 -0.0011917657873553953 -0.026550023359145927 0 -0.0013316868550711238 -0.026580112993115426 0 -0.00084568062595255522 -0.026335098062410363 0 -0.0016498903937032885 -0.027334045136317459 0 -0.001527147854308873 -0.027567848466914714 0 -0.0015296394306686491 -0.027567734989563622 0 -0.0015300749130024284 -0.027569676783008024 0 -0.0016498903937032885 -0.027334045136317459 0 -0.0015845912812535888 -0.027537231798584309 0 -0.001550697044040022 -0.027527594611481351 0 -0.00153014801983054 -0.027567654731133651 0 -0.001517222699553993 -0.027572743458136015 0 -0.00084568062595255522 -0.026335098062410363 0 -0.0011021383646273397 -0.026622508334484627 0 -0.001527147854308873 -0.027567848466914714 0 -0.0015300749130024284 -0.027569676783008024 0 -0.00153014801983054 -0.027567654731133651 0 -0.0015300749130024284 -0.027569676783008024 0 -0.00153014801983054 -0.027567654731133651 0 -0.001517222699553993 -0.027572743458136015 0 -0.0015322514658737613 -0.027580623294913533 0 -0.0015300749130024284 -0.027569676783008024 0 -0.001517222699553993 -0.027572743458136015 0 -0.00040144592417409413 -0.025955354872720462 0 -0.00038484047370704311 -0.025665417946651024 0 -0.00060751948419888958 -0.025596102095244756 0 -0.0015322514658737613 -0.027580623294913533 0 -0.001517222699553993 -0.027572743458136015 0 -0.001475791190011899 -0.027590032210059613 0 -0.0014710990416351981 -0.027569743281032469 0 -0.001517222699553993 -0.027572743458136015 0 -0.001475791190011899 -0.027590032210059613 0 -0.0014710990416351981 -0.027569743281032469 0 -0.0014679494664861354 -0.027597788568823452 0 -0.001475791190011899 -0.027590032210059613 0 -0.0014679494664861354 -0.027597788568823452 0 -0.001475791190011899 -0.027590032210059613 0 -0.0015224480126917702 -0.027628189433734813 0 -0.0016124999222357547 -0.027686176432615728 0 -0.001518654297976503 -0.027614048539060857 0 -0.0017343879311331721 -0.027688420354133259 0 -0.0016451520730251588 -0.027745801878465204 0 -0.0017066741828889974 -0.02776551921323657 0 -0.0018083386103265738 -0.027722848451407447 0 -0.0017343879311331721 -0.027688420354133259 0 -0.0017725925028326895 -0.02776517472077579 0 -0.0017343879311331721 -0.027688420354133259 0 -0.0017725925028326895 -0.02776517472077579 0 -0.0017066741828889974 -0.02776551921323657 0 -0.0016498903937032885 -0.027334045136317459 0 -0.0016124999222357547 -0.027686176432615728 0 -0.001511188382494712 -0.027632299292426478 0 -0.0014805198198896349 -0.027673112762279788 0 -0.0015224480126917702 -0.027628189433734813 0 -0.0014719473306984096 -0.027615337266074076 0 -0.0014679494664861354 -0.027597788568823452 0 -0.0015224480126917702 -0.027628189433734813 0 -0.0015224480126917702 -0.027628189433734813 0 -0.0016451520730251588 -0.027745801878465204 0 -0.0015759278805748264 -0.027756251746837466 0 -0.0017343879311331721 -0.027688420354133259 0 -0.0015224480126917702 -0.027628189433734813 0 -0.0016451520730251588 -0.027745801878465204 0 -0.0016451520730251588 -0.027745801878465204 0 -0.0015759278805748264 -0.027756251746837466 0 -0.0016289989154841954 -0.027809092197417663 0 -0.0014805198198896349 -0.027673112762279788 0 -0.0015224480126917702 -0.027628189433734813 0 -0.0015075400905592367 -0.027770237975243344 0 -0.0015224480126917702 -0.027628189433734813 0 -0.0015759278805748264 -0.027756251746837466 0 -0.0015075400905592367 -0.027770237975243344 0 -0.0014060972735650591 -0.02790081801702321 0 -0.0015075400905592367 -0.027770237975243344 0 -0.0015628255201509051 -0.027916369746268151 0 -0.0015075400905592367 -0.027770237975243344 0 -0.0015779170932114961 -0.027821240411377315 0 -0.0015628255201509051 -0.027916369746268151 0 -0.0015759278805748264 -0.027756251746837466 0 -0.0015075400905592367 -0.027770237975243344 0 -0.0015779170932114961 -0.027821240411377315 0 -0.0016128590967073096 -0.027877418395567004 0 -0.0015779170932114961 -0.027821240411377315 0 -0.0015628255201509051 -0.027916369746268151 0 -0.0016128590967073096 -0.027877418395567004 0 -0.0015779170932114961 -0.027821240411377315 0 -0.0016289989154841954 -0.027809092197417663 0 -0.0015759278805748264 -0.027756251746837466 0 -0.0015779170932114961 -0.027821240411377315 0 -0.0016289989154841954 -0.027809092197417663 0 -0.0016451520730251588 -0.027745801878465204 0 -0.0016289989154841954 -0.027809092197417663 0 -0.0016723777086421186 -0.027797891218920484 0 -0.0016128590967073096 -0.027877418395567004 0 -0.0016289989154841954 -0.027809092197417663 0 -0.0016872674131066564 -0.027889869918898861 0 -0.0016464935357110198 -0.027822683491071486 0 -0.0016710110731986139 -0.027845592113486993 0 -0.0016289989154841954 -0.027809092197417663 0 -0.0016872674131066564 -0.027889869918898861 0 -0.0017239196395370496 -0.027906988432713997 0 -0.001612637009193562 -0.027943198236623817 0 -0.0016872674131066564 -0.027889869918898861 0 -0.0017239196395370496 -0.027906988432713997 0 -0.0016373351234741987 -0.028106313224352628 0 -0.0017107875975664972 -0.027945299316394258 0 -0.0016128590967073096 -0.027877418395567004 0 -0.0016290082078059512 -0.02792284151338725 0 -0.0016872674131066564 -0.027889869918898861 0 -0.0016128590967073096 -0.027877418395567004 0 -0.0016290082078059512 -0.02792284151338725 0 -0.0015628255201509051 -0.027916369746268151 0 -0.0016373351234741987 -0.028106313224352628 0 -0.0015704653607201962 -0.02793464268109026 0 -0.0016373351234741987 -0.028106313224352628 0 -0.0014880041230129074 -0.02847106265216821 0 -0.0014704982023447605 -0.028008903829794287 0 -0.0015628255201509051 -0.027916369746268151 0 -0.0015394534972162787 -0.028150335545453039 0 -0.0017287655112438077 -0.027972229759057856 0 -0.0015628255201509051 -0.027916369746268151 0 -0.0015394534972162787 -0.028150335545453039 0 -0.0016356301335438467 -0.028574908652687362 0 -0.0014727102043180251 -0.028682372867600857 0 -0.001604584560485942 -0.028703481535403707 0 -0.0017725925028326895 -0.02776517472077579 0 -0.0017016224360477921 -0.02780822299501098 0 -0.0017321708119916583 -0.027834064234256245 0 -0.0017725925028326895 -0.02776517472077579 0 -0.0017066741828889974 -0.02776551921323657 0 -0.0017016224360477921 -0.02780822299501098 0 -0.0017066741828889974 -0.02776551921323657 0 -0.0016723777086421186 -0.027797891218920484 0 -0.0017016224360477921 -0.02780822299501098 0 -0.0016451520730251588 -0.027745801878465204 0 -0.0017066741828889974 -0.02776551921323657 0 -0.0016723777086421186 -0.027797891218920484 0 -0.0016289989154841954 -0.027809092197417663 0 -0.0016723777086421186 -0.027797891218920484 0 -0.0016761546349783013 -0.02783282137057622 0 -0.0016723777086421186 -0.027797891218920484 0 -0.0017016224360477921 -0.02780822299501098 0 -0.0016761546349783013 -0.02783282137057622 0 -0.0017016224360477921 -0.02780822299501098 0 -0.0016761546349783013 -0.02783282137057622 0 -0.0017321708119916583 -0.027834064234256245 0 -0.0016761546349783013 -0.02783282137057622 0 -0.0017242417462052073 -0.027884605264897909 0 -0.0017321708119916583 -0.027834064234256245 0 -0.0016710110731986139 -0.027845592113486993 0 -0.0018806926354061387 -0.028163594184972864 0 -0.0016356301335438467 -0.028574908652687362 0 -0.0018095988451872294 -0.028640173988305741 0 -0.0017247127224933911 -0.028761087646998446 0 -0.0016373351234741987 -0.028106313224352628 0 -0.0018806926354061387 -0.028163594184972864 0 -0.001612637009193562 -0.027943198236623817 0 -0.0017239196395370496 -0.027906988432713997 0 -0.0018249400538977827 -0.028014318286231844 0 -0.0017242417462052073 -0.027884605264897909 0 -0.0017321708119916583 -0.027834064234256245 0 -0.0017945750532049154 -0.027907902561656695 0 -0.0017775432090319954 -0.027895141414376379 0 -0.0018025402679761632 -0.027519972635795004 0 -0.0017791830199816081 -0.027757619672217956 0 -0.0017725925028326895 -0.02776517472077579 0 -0.001784565984683217 -0.027732749911279362 0 -0.0018806926354061387 -0.028163594184972864 0 -0.0018025402679761632 -0.027519972635795004 0 -0.0017725925028326895 -0.02776517472077579 0 -0.0017321708119916583 -0.027834064234256245 0 -0.0017945750532049154 -0.027907902561656695 0 -0.0018025402679761632 -0.027519972635795004 0 -0.0018539943703706945 -0.027487707158464478 0 -0.0018806926354061387 -0.028163594184972864 0 -0.0018539943703706945 -0.027487707158464478 0 -0.0019997546766224966 -0.027870771652158413 0 -0.0017497814245422741 -0.02778676413871425 0 -0.0017237901781409573 -0.027577797124658358 0 -0.0018095988451872294 -0.028640173988305741 0 -0.0019222107466146938 -0.028764731289320642 0 -0.0018462387762754903 -0.028791350433882593 0 -0.0018095988451872294 -0.028640173988305741 0 -0.0017247127224933911 -0.028761087646998446 0 -0.0018462387762754903 -0.028791350433882593 0 -0.0017247127224933911 -0.028761087646998446 0 -0.001792251907321925 -0.028854443010943875 0 -0.0017456156304024287 -0.02890527764230939 0 -0.0017247127224933911 -0.028761087646998446 0 -0.001792251907321925 -0.028854443010943875 0 -0.0018462387762754903 -0.028791350433882593 0 -0.001792251907321925 -0.028854443010943875 0 -0.0017456156304024287 -0.02890527764230939 0 -0.001782684101530845 -0.028902945117235745 0 -0.0018462387762754903 -0.028791350433882593 0 -0.0019071540648631076 -0.028911692617364523 0 -0.0019273710343298287 -0.028809025976477755 0 -0.0018910030674496165 -0.02892630852308856 0 -0.0017535033388483804 -0.028373380928526391 0 -0.001792251907321925 -0.028854443010943875 0 -0.0017748549487365964 -0.028923416219202674 0 -0.001782684101530845 -0.028902945117235745 0 -0.001792251907321925 -0.028854443010943875 0 -0.0018462387762754903 -0.028791350433882593 0 -0.0019071540648631076 -0.028911692617364523 0 -0.0017535033388483804 -0.028373380928526391 0 -0.0016605387909953933 -0.027210250558939948 0 -0.0019222107466146938 -0.028764731289320642 0 -0.0018462387762754903 -0.028791350433882593 0 -0.0019273710343298287 -0.028809025976477755 0 -0.0018539943703706945 -0.027487707158464478 0 -0.0016605387909953933 -0.027210250558939948 0 -0.0014727102043180251 -0.028682372867600857 0 -0.001604584560485942 -0.028703481535403707 0 -0.0014881072336829899 -0.028843486386276842 0 -0.0017247127224933911 -0.028761087646998446 0 -0.001604584560485942 -0.028703481535403707 0 -0.0016248350729395876 -0.028832187347909072 0 -0.0016356301335438467 -0.028574908652687362 0 -0.0017247127224933911 -0.028761087646998446 0 -0.001604584560485942 -0.028703481535403707 0 -0.0016248350729395876 -0.028832187347909072 0 -0.00158405550619824 -0.028984001526821467 0 -0.0016673629357985035 -0.028923035795823119 0 -0.0017247127224933911 -0.028761087646998446 0 -0.0017456156304024287 -0.02890527764230939 0 -0.0016248350729395876 -0.028832187347909072 0 -0.0017456156304024287 -0.02890527764230939 0 -0.0016248350729395876 -0.028832187347909072 0 -0.0016673629357985035 -0.028923035795823119 0 -0.001604584560485942 -0.028703481535403707 0 -0.0016248350729395876 -0.028832187347909072 0 -0.0014881072336829899 -0.028843486386276842 0 -0.0016248350729395876 -0.028832187347909072 0 -0.0014881072336829899 -0.028843486386276842 0 -0.00158405550619824 -0.028984001526821467 0 -0.0013640784352773262 -0.029009915433866093 0 -0.00158405550619824 -0.028984001526821467 0 -0.0014909305580620669 -0.029181352942921915 0 -0.0013640784352773262 -0.029009915433866093 0 -0.0014881072336829899 -0.028843486386276842 0 -0.00158405550619824 -0.028984001526821467 0 -0.00158405550619824 -0.028984001526821467 0 -0.0016673629357985035 -0.028923035795823119 0 -0.0017421023543545387 -0.028974081226692108 0 -0.00158405550619824 -0.028984001526821467 0 -0.001708025471623688 -0.029118176613454373 0 -0.0017421023543545387 -0.028974081226692108 0 -0.00158405550619824 -0.028984001526821467 0 -0.001708025471623688 -0.029118176613454373 0 -0.0014909305580620669 -0.029181352942921915 0 -0.0021790223436065647 -0.030411770722620662 0 -0.0018246793059266378 -0.030972743482327546 0 -0.0021790223436065647 -0.030411770722620662 0 -0.0020450538160232466 -0.028885091697287119 0 -0.0017725637390358295 -0.028913842743671894 0 -0.0017777972266219662 -0.028916671063929419 0 -0.0017781574160862274 -0.02892170070175307 0 -0.0017771701280973136 -0.0289187539174523 0 -0.0017725637390358295 -0.028913842743671894 0 -0.0017781574160862274 -0.02892170070175307 0 -0.0017771701280973136 -0.0289187539174523 0 -0.0017725637390358295 -0.028913842743671894 0 -0.0017806292386499331 -0.028887882152722057 0 -0.0017725637390358295 -0.028913842743671894 0 -0.001769633361435309 -0.028920084917581426 0 -0.0017500302619278519 -0.028925174157978746 0 -0.0017725637390358295 -0.028913842743671894 0 -0.001769633361435309 -0.028920084917581426 0 -0.0017777972266219662 -0.028916671063929419 0 -0.001769633361435309 -0.028920084917581426 0 -0.0017748549487365964 -0.028923416219202674 0 -0.0017500302619278519 -0.028925174157978746 0 -0.0017535033388483804 -0.028373380928526391 0 -0.0014979471572364935 -0.02759737703471243 0 -0.001769633361435309 -0.028920084917581426 0 -0.0017748549487365964 -0.028923416219202674 0 -0.0017777972266219662 -0.028916671063929419 0 -0.0017748549487365964 -0.028923416219202674 0 -0.0017777972266219662 -0.028916671063929419 0 -0.001782684101530845 -0.028902945117235745 0 -0.0017777972266219662 -0.028916671063929419 0 -0.0017781574160862274 -0.02892170070175307 0 -0.001782684101530845 -0.028902945117235745 0 -0.0017456156304024287 -0.02890527764230939 0 -0.0017781574160862274 -0.02892170070175307 0 -0.001782684101530845 -0.028902945117235745 0 -0.0017456156304024287 -0.02890527764230939 0 -0.0017781574160862274 -0.02892170070175307 0 -0.0017655803960336383 -0.028949098097481057 0 -0.0017456156304024287 -0.02890527764230939 0 -0.0016673629357985035 -0.028923035795823119 0 -0.0017421023543545387 -0.028974081226692108 0 -0.0017456156304024287 -0.02890527764230939 0 -0.0017421023543545387 -0.028974081226692108 0 -0.0017655803960336383 -0.028949098097481057 0 -0.0017771701280973136 -0.0289187539174523 0 -0.0017781574160862274 -0.02892170070175307 0 -0.0017655803960336383 -0.028949098097481057 0 -0.0020326564842072918 -0.028869259327634227 0 -0.0018945563730498919 -0.028784783554558914 0 -0.0017806292386499331 -0.028887882152722057 0 -0.0021790223436065647 -0.030411770722620662 0 -0.0016842575431304939 -0.028570973156849002 0 -0.00175181932544102 -0.028988104716105773 0 -0.0017655803960336383 -0.028949098097481057 0 -0.0017806292386499331 -0.028887882152722057 0 -0.00175181932544102 -0.028988104716105773 0 -0.0017421023543545387 -0.028974081226692108 0 -0.0017655803960336383 -0.028949098097481057 0 -0.0017702345367488304 -0.028746810889095632 0 -0.0018945563730498919 -0.028784783554558914 0 -0.0017806292386499331 -0.028887882152722057 0 -0.0017771701280973136 -0.0289187539174523 0 -0.0017655803960336383 -0.028949098097481057 0 -0.0017806292386499331 -0.028887882152722057 0 -0.0017725637390358295 -0.028913842743671894 0 -0.0017806292386499331 -0.028887882152722057 0 -0.0016997941375184395 -0.028868495093161761 0 -0.0017702345367488304 -0.028746810889095632 0 -0.0017806292386499331 -0.028887882152722057 0 -0.0016997941375184395 -0.028868495093161761 0 -0.0016689543508080662 -0.028612567532980505 0 -0.0016943332948943302 -0.02887555898716803 0 -0.0016835010533000994 -0.028667127307757129 0 -0.0016311620631117012 -0.028534506523376635 0 -0.0017208315120486573 -0.028587276664243235 0 -0.0016311620631117012 -0.028534506523376635 0 -0.0017208315120486573 -0.028587276664243235 0 -0.0017387493071970227 -0.028491990619468492 0 -0.0016835010533000994 -0.028667127307757129 0 -0.0017702345367488304 -0.028746810889095632 0 -0.0016997941375184395 -0.028868495093161761 0 -0.0014790254599018303 -0.026899578221632608 0 -0.0012433975679358546 -0.026556962019262352 0 -0.0017208315120486573 -0.028587276664243235 0 -0.0017387493071970227 -0.028491990619468492 0 -0.001842789494524032 -0.028559061961041635 0 -0.0011738361444942232 -0.025330285945224629 0 -0.00098770781411323255 -0.025359861832799722 0 -0.00093082834844125065 -0.025211952947502808 0 -0.0011269349679276174 -0.025483545289788315 0 -0.0010029838766027971 -0.025480589859634552 0 -0.00098770781411323255 -0.025359861832799722 0 -0.0011738361444942232 -0.025330285945224629 0 -0.0011269349679276174 -0.025483545289788315 0 -0.00098770781411323255 -0.025359861832799722 0 -0.0011711291418569309 -0.025538084888114324 0 -0.0012137952741825106 -0.025618233449427388 0 -0.0011269349679276174 -0.025483545289788315 0 -0.0010735785272505136 -0.025569728114801901 0 -0.0010029838766027971 -0.025480589859634552 0 -0.0016311620631117012 -0.028534506523376635 0 -0.0017387493071970227 -0.028491990619468492 0 -0.0016109465111405709 -0.028398988118667829 0 -0.0011738361444942232 -0.025330285945224629 0 -0.0011269349679276174 -0.025483545289788315 0 -0.0015688690557161668 -0.025563925377539948 0 -0.0017725637390358295 -0.028913842743671894 0 -0.0016997941375184395 -0.028868495093161761 0 -0.0017500302619278519 -0.028925174157978746 0 -0.0011269349679276174 -0.025483545289788315 0 -0.0015688690557161668 -0.025563925377539948 0 -0.0013560953117668958 -0.025767047565142608 0 -0.0016943332948943302 -0.02887555898716803 0 -0.0014979471572364935 -0.02759737703471243 0 -0.0014790254599018303 -0.026899578221632608 0 -0.0014979471572364935 -0.02759737703471243 0 -0.0015649761501194701 -0.027875287976381575 0 -0.0017479110022171392 -0.027991548655351483 0 -0.0016691253287819117 -0.027346863612310347 0 -0.0014979471572364935 -0.02759737703471243 0 -0.0016605387909953933 -0.027210250558939948 0 -0.0015688690557161668 -0.025563925377539948 0 -0.0016279018835188893 -0.025945087067757375 0 -0.0013560953117668958 -0.025767047565142608 0 -0.0012421928017691914 -0.02559308760683153 0 -0.001035545780614172 -0.025742455037155488 0 -0.0013657448482024689 -0.025726140223142929 0 -0.0012137952741825106 -0.025618233449427388 0 -0.0015583827734739885 -0.026717609627570024 0 -0.0016279018835188893 -0.025945087067757375 0 -0.0013560953117668958 -0.025767047565142608 0 -0.0016077741361966908 -0.026048551163423635 0 -0.0016315545838503896 -0.026956830653592345 0 -0.0016552588643575005 -0.027166222416755481 0 -0.0016864694553726026 -0.027015132412843628 0 -0.0016605387909953933 -0.027210250558939948 0 -0.0015583827734739885 -0.026717609627570024 0 -0.0011269349679276174 -0.025483545289788315 0 -0.0012421928017691914 -0.02559308760683153 0 -0.0010735785272505136 -0.025569728114801901 0 -0.0012421928017691914 -0.02559308760683153 0 -0.0010735785272505136 -0.025569728114801901 0 -0.001035545780614172 -0.025742455037155488 0 -0.00099380778067153673 -0.025531727226596114 0 -0.0014515108997078627 -0.026628888627262853 0 -0.001168483285171077 -0.026030499365305652 0 -0.001035545780614172 -0.025742455037155488 0 -0.0014617459706194194 -0.025886163911966839 0 -0.001035545780614172 -0.025742455037155488 0 -0.0013413544871738528 -0.025858654112089048 0 -0.0013657448482024689 -0.025726140223142929 0 -0.0016184910579846918 -0.027040187380438299 0 -0.0016299582431244597 -0.027142119699682339 0 -0.0016640219091912135 -0.027054295632259008 0 -0.0018025402679761632 -0.027519972635795004 0 -0.0014515108997078627 -0.026628888627262853 0 -0.0014515108997078627 -0.026628888627262853 0 -0.0015583827734739885 -0.026717609627570024 0 -0.0016299582431244597 -0.027142119699682339 0 -0.0016640219091912135 -0.027054295632259008 0 -0.0016433138602085899 -0.027156146955957659 0 -0.0018539943703706945 -0.027487707158464478 0 -0.0015583827734739885 -0.026717609627570024 0 -0.00073541151057444063 -0.025697279900020863 0 -0.00064876250600468053 -0.025666664759365878 0 -0.00068657867688436797 -0.025605024886344661 0 -0.00082508972777528089 -0.02592590243618513 0 -0.00087191665494931248 -0.025701665954143069 0 -0.00068657867688436797 -0.025605024886344661 0 -0.0007806296973197393 -0.025809221812995539 0 -0.00069073163162104744 -0.025625240231361712 0 -0.001168483285171077 -0.026030499365305652 0 -0.00082508972777528089 -0.02592590243618513 0 -0.001035545780614172 -0.025742455037155488 0 -0.00082508972777528089 -0.02592590243618513 0 -0.001035545780614172 -0.025742455037155488 0 -0.00087191665494931248 -0.025701665954143069 0 -0.00087191665494931248 -0.025701665954143069 0 -0.0009358031474503149 -0.025560671417027843 0 -0.00068657867688436797 -0.025605024886344661 0 -0.0009358031474503149 -0.025560671417027843 0 -0.00068657867688436797 -0.025605024886344661 0 -0.00085817137786525755 -0.025435214815384945 0 -0.0010735785272505136 -0.025569728114801901 0 -0.001035545780614172 -0.025742455037155488 0 -0.0009358031474503149 -0.025560671417027843 0 -0.001035545780614172 -0.025742455037155488 0 -0.00087191665494931248 -0.025701665954143069 0 -0.0009358031474503149 -0.025560671417027843 0 -0.0010735785272505136 -0.025569728114801901 0 -0.0009358031474503149 -0.025560671417027843 0 -0.0010029838766027971 -0.025480589859634552 0 -0.00068657867688436797 -0.025605024886344661 0 -0.0007070529783211782 -0.025401331499507011 0 -0.00085817137786525755 -0.025435214815384945 0 -0.0007070529783211782 -0.025401331499507011 0 -0.00085817137786525755 -0.025435214815384945 0 -0.00093082834844125065 -0.025211952947502808 0 -0.0009358031474503149 -0.025560671417027843 0 -0.0010029838766027971 -0.025480589859634552 0 -0.00085817137786525755 -0.025435214815384945 0 -0.0010029838766027971 -0.025480589859634552 0 -0.00085817137786525755 -0.025435214815384945 0 -0.00098770781411323255 -0.025359861832799722 0 -0.00085817137786525755 -0.025435214815384945 0 -0.00098770781411323255 -0.025359861832799722 0 -0.00093082834844125065 -0.025211952947502808 0 -0.0011899542748426016 -0.026055288045410643 0 -0.0012433975679358546 -0.026556962019262352 0 -0.00073520099910512717 -0.025204191973519596 0 -0.0012433975679358546 -0.026556962019262352 0 -0.00073053103142755324 -0.025387021658720609 0 -0.00089648737025481342 -0.025266344617128216 0 -0.00070766203997833267 -0.025274954206028405 0 -0.00078561907103645828 -0.025186889244866156 0 -0.00089648737025481342 -0.025266344617128216 0 -0.00070766203997833267 -0.025274954206028405 0 -0.00078561907103645828 -0.025186889244866156 0 -0.00061111554522144207 -0.025204487933963397 0 -0.00070766203997833267 -0.025274954206028405 0 -0.00061111554522144207 -0.025204487933963397 0 -0.00070766203997833267 -0.025274954206028405 0 -0.00053199637029766717 -0.025358238517424962 0 -0.00073053103142755324 -0.025387021658720609 0 -0.00070766203997833267 -0.025274954206028405 0 -0.00053199637029766717 -0.025358238517424962 0 -0.0010757473676161612 -0.025814670826580538 0 -0.00078158382186217421 -0.026169222565845938 0 -0.00061111554522144207 -0.025204487933963397 0 -0.00053199637029766717 -0.025358238517424962 0 -0.00040363021989008881 -0.025222914331892405 0 -0.00053199637029766717 -0.025358238517424962 0 -0.00040363021989008881 -0.025222914331892405 0 -0.00035407726527054111 -0.025355189858062132 0 -0.00053199637029766717 -0.025358238517424962 0 -0.00035407726527054111 -0.025355189858062132 0 -0.00042497814311439453 -0.0255398139481396 0 -0.00073053103142755324 -0.025387021658720609 0 -0.00053199637029766717 -0.025358238517424962 0 -0.00055424079767632669 -0.025519625989123308 0 -0.00073520099910512717 -0.025204191973519596 0 -0.00054000731325749124 -0.02557170624440664 0 -0.00040065504963567814 -0.026356269761817049 0 -0.00024897207830275477 -0.026773929579322838 0 -0.0011089039520892126 -0.02660292395022781 0 -0.00017947089408814316 -0.025228719254015215 0 -0.00019752653178016112 -0.025227989618427277 0 -0.00024110668934258303 -0.02544451440322892 0 0.00014033104444314889 -0.023702648726829791 0 -0.00078158382186217421 -0.026169222565845938 0 0.00014033104444314889 -0.023702648726829791 0 0.00047954756349156855 -0.023471021939338949 0 -0.00040065504963567814 -0.026356269761817049 0 -0.00024897207830275477 -0.026773929579322838 0 -0.00015516087522494606 -0.026737470252385931 0 0.00087506663891259815 -0.023831471447643013 0 0.00028443916854083829 -0.023738879230376674 0 0.00098655662260773835 -0.023412027085034207 0 0.00038088229592136513 -0.022824039026127466 0 0.00047954756349156855 -0.023471021939338949 0 0.00038088229592136513 -0.022824039026127466 0 0.00014033104444314889 -0.023702648726829791 0 -0.00019752653178016112 -0.025227989618427277 0 -0.00040363021989008881 -0.025222914331892405 0 -0.00035407726527054111 -0.025355189858062132 0 -0.00019752653178016112 -0.025227989618427277 0 -0.00035407726527054111 -0.025355189858062132 0 -0.00024110668934258303 -0.02544451440322892 0 0.00044787955110883227 -0.020546688990085923 0 0.00025996587856653758 -0.021240292354393085 0 0.0006278816378740632 -0.020851194560721303 0 0.00038088229592136513 -0.022824039026127466 0 -2.1257878251176177e-05 -0.023356880207081349 0 0.00025996587856653758 -0.021240292354393085 0 7.8367597829930447e-05 -0.021949984447142433 0 0.00049509992609727117 -0.021543305688266543 0 -2.1257878251176177e-05 -0.023356880207081349 0 -0.00012435711787368671 -0.023810950213901814 0 -0.00024110668934258303 -0.02544451440322892 0 -0.00042497814311439453 -0.0255398139481396 0 -0.00030625858704682858 -0.025639020436718681 0 -0.00035407726527054111 -0.025355189858062132 0 -0.00024110668934258303 -0.02544451440322892 0 -0.00042497814311439453 -0.0255398139481396 0 -0.00042497814311439453 -0.0255398139481396 0 -0.00030625858704682858 -0.025639020436718681 0 -0.00042821152277404477 -0.025711471974413952 0 7.8367597829930447e-05 -0.021949984447142433 0 0.00050078990887399285 -0.021977124226748412 0 0.00049509992609727117 -0.021543305688266543 0 -0.00068657867688436797 -0.025605024886344661 0 -0.0007070529783211782 -0.025401331499507011 0 -0.00055424079767632669 -0.025519625989123308 0 -0.00064876250600468053 -0.025666664759365878 0 -0.00068657867688436797 -0.025605024886344661 0 -0.00055424079767632669 -0.025519625989123308 0 -0.00053199637029766717 -0.025358238517424962 0 -0.00042497814311439453 -0.0255398139481396 0 -0.00055424079767632669 -0.025519625989123308 0 -0.00042497814311439453 -0.0255398139481396 0 -0.00054897458506994554 -0.025687608792450023 0 -0.00042821152277404477 -0.025711471974413952 0 -0.00042497814311439453 -0.0255398139481396 0 -0.00055424079767632669 -0.025519625989123308 0 -0.00054897458506994554 -0.025687608792450023 0 -0.00064876250600468053 -0.025666664759365878 0 -0.00055424079767632669 -0.025519625989123308 0 -0.00054897458506994554 -0.025687608792450023 0 -0.00066045311645006734 -0.025778347395911932 0 -0.00064876250600468053 -0.025666664759365878 0 -0.00054897458506994554 -0.025687608792450023 0 -0.00066045311645006734 -0.025778347395911932 0 -0.00054897458506994554 -0.025687608792450023 0 -0.00054661498528534318 -0.025855670350355527 0 -0.00016054866083426008 -0.02573041461575367 0 -0.00012520303107294085 -0.024130147578171182 0 0.00029199843195626749 -0.025199562781782273 0 0.00029103761172906498 -0.02519219622404047 0 0.00019691437574980198 -0.02519984591551281 0 -0.00054661498528534318 -0.025855670350355527 0 -0.00042821152277404477 -0.025711471974413952 0 -0.00035995452136816544 -0.025810563505638241 0 -0.00054897458506994554 -0.025687608792450023 0 -0.00054661498528534318 -0.025855670350355527 0 -0.00042821152277404477 -0.025711471974413952 0 -0.00012435711787368671 -0.023810950213901814 0 -0.00012520303107294085 -0.024130147578171182 0 7.8367597829930447e-05 -0.021949984447142433 0 0.00014082139300097225 -0.022583237773272834 0 -9.7866481519442904e-05 -0.022637120815968362 0 -0.00030625858704682858 -0.025639020436718681 0 -0.00042821152277404477 -0.025711471974413952 0 -0.00035995452136816544 -0.025810563505638241 0 7.8367597829930447e-05 -0.021949984447142433 0 0.00029159691455516704 -0.02232711948542462 0 0.00014082139300097225 -0.022583237773272834 0 7.8367597829930447e-05 -0.021949984447142433 0 0.00029159691455516704 -0.02232711948542462 0 0.00050078990887399285 -0.021977124226748412 0 0.00042006930413726292 -0.020292781021320448 0 0.00040287172721885134 -0.020839021491663477 0 0.00042006930413726292 -0.020292781021320448 0 0.00050397170753178639 -0.020443779076840335 0 0.00047043744264336032 -0.018784382401166203 0 0.00079338308669320865 -0.018708176103679763 0 0.00051972019801863653 -0.018362748207737836 0 0.00063711959444647589 -0.018974116794031295 0 0.00047043744264336032 -0.018784382401166203 0 0.00077702999608828276 -0.018738973741107185 0 0.00073050455375920438 -0.019124494558783501 0 0.00050397170753178639 -0.020443779076840335 0 -7.4373077606884109e-05 -0.021972113798943538 0 0.00033516728731426834 -0.021891981544481055 0 0.00062130206707816269 -0.020789045225839943 0 0.00050397170753178639 -0.020443779076840335 0 -0.00012520303107294085 -0.024130147578171182 0 0.00050397170753178639 -0.020443779076840335 0 0.0007752832269908058 -0.020484292741245837 0 0.00079338308669320865 -0.018708176103679763 0 0.0011002572951882828 -0.018043054600018267 0 0.00083263730794888731 -0.018187271515470366 0 0.00029103761172906498 -0.02519219622404047 0 0.00019691437574980198 -0.02519984591551281 0 0.00018848116082991235 -0.024982932976888601 0 -0.00012520303107294085 -0.024130147578171182 0 0.0007752832269908058 -0.020484292741245837 0 0.00079338308669320865 -0.018708176103679763 0 0.00051972019801863653 -0.018362748207737836 0 0.00083263730794888731 -0.018187271515470366 0 0.00051972019801863653 -0.018362748207737836 0 0.00083263730794888731 -0.018187271515470366 0 0.0008987419657960718 -0.017854456109204078 0 0.00072259934211333754 -0.018012421443903592 0 0.00087723482304490519 -0.017872526136841975 0 0.0008987419657960718 -0.017854456109204078 0 0.00092217767700556624 -0.017764063093127662 0 0.00091390876108725112 -0.017784464412302945 0 0.00090823291320150685 -0.017725117837368923 0 0.0008987419657960718 -0.017854456109204078 0 0.00092217767700556624 -0.017764063093127662 0 0.0008987419657960718 -0.017854456109204078 0 0.00094406702542371688 -0.017801002222529869 0 0.00091390876108725112 -0.017784464412302945 0 0.0007752832269908058 -0.020484292741245837 0 0.0012660581911196182 -0.017082014149005564 0 0.0011002572951882828 -0.018043054600018267 0 0.0010003972208431472 -0.017867001386071869 0 0.0010759524788222631 -0.017876321950047461 0 0.0011002572951882828 -0.018043054600018267 0 0.0008987419657960718 -0.017854456109204078 0 0.0010003972208431472 -0.017867001386071869 0 0.0011002572951882828 -0.018043054600018267 0 0.00083263730794888731 -0.018187271515470366 0 0.0008987419657960718 -0.017854456109204078 0 0.0008987419657960718 -0.017854456109204078 0 0.0010003972208431472 -0.017867001386071869 0 0.00094406702542371688 -0.017801002222529869 0 0.00042878118947564669 -0.025562195449333705 0 0.0002466170161402767 -0.025465082523791423 0 0.00027179253282461128 -0.025361609975812913 0 0.00096087150109896568 -0.018281644013914831 0 0.0011162581044911891 -0.018005701736842405 0 0.0010759524788222631 -0.017876321950047461 0 0.0007752832269908058 -0.020484292741245837 0 0.00055758555319859293 -0.022848889692050307 0 0.00042878118947564669 -0.025562195449333705 0 0.00022967695390111308 -0.025605141734425824 0 0.0002466170161402767 -0.025465082523791423 0 8.247456286272832e-05 -0.025667461386305199 0 0.00022967695390111308 -0.025605141734425824 0 0.00013793132717291099 -0.025440395836631279 0 0.00022967695390111308 -0.025605141734425824 0 0.0002466170161402767 -0.025465082523791423 0 0.00013793132717291099 -0.025440395836631279 0 0.0002466170161402767 -0.025465082523791423 0 0.00027179253282461128 -0.025361609975812913 0 0.00013793132717291099 -0.025440395836631279 0 0.00029199843195626749 -0.025199562781782273 0 0.00027179253282461128 -0.025361609975812913 0 0.00013793132717291099 -0.025440395836631279 0 -6.0726225213573845e-05 -0.025307516787102954 0 0.00029199843195626749 -0.025199562781782273 0 0.00013793132717291099 -0.025440395836631279 0 0.00029199843195626749 -0.025199562781782273 0 0.00029103761172906498 -0.02519219622404047 0 0.00027179253282461128 -0.025361609975812913 0 0.00029103761172906498 -0.02519219622404047 0 0.00018848116082991235 -0.024982932976888601 0 0.00028249304405195878 -0.024823672895656169 0 0.00029103761172906498 -0.02519219622404047 0 0.00042878118947564669 -0.025562195449333705 0 0.00027179253282461128 -0.025361609975812913 0 0.00032050307273258767 -0.026192116407361847 0 0.00055758555319859293 -0.022848889692050307 0 0.00089245038131852237 -0.017674642949068751 0 0.00091494499949610144 -0.017682449868499334 0 0.00091754738698004339 -0.017706523721352511 0 0.00089245038131852237 -0.017674642949068751 0 0.000894099262748183 -0.01762430400446036 0 0.00091494499949610144 -0.017682449868499334 0 0.00078396857024512392 -0.017459327231232544 0 0.00090233721951216779 -0.017502804303106755 0 0.00089245038131852237 -0.017674642949068751 0 0.000894099262748183 -0.01762430400446036 0 0.00092730962106355071 -0.017517912782078832 0 0.00091494499949610144 -0.017682449868499334 0 0.0009227780686193735 -0.017711019858089063 0 0.00090714164624040991 -0.017673824911557969 0 0.000894099262748183 -0.01762430400446036 0 0.00091494499949610144 -0.017682449868499334 0 0.00090714164624040991 -0.017673824911557969 0 0.00091494499949610144 -0.017682449868499334 0 0.0009227780686193735 -0.017711019858089063 0 0.00092436705444079567 -0.017715972926553577 0 0.0009227780686193735 -0.017711019858089063 0 0.00092217767700556624 -0.017764063093127662 0 0.00092436705444079567 -0.017715972926553577 0 0.00092217767700556624 -0.017764063093127662 0 0.00091390876108725112 -0.017784464412302945 0 0.00093308248922284508 -0.017733352106262226 0 0.0009227780686193735 -0.017711019858089063 0 0.00092217767700556624 -0.017764063093127662 0 0.00093308248922284508 -0.017733352106262226 0 0.00090823291320150685 -0.017725117837368923 0 0.00092217767700556624 -0.017764063093127662 0 0.00092121623220964158 -0.017730555971571204 0 0.00090823291320150685 -0.017725117837368923 0 0.00092121623220964158 -0.017730555971571204 0 0.00092051598086794546 -0.017717858976741035 0 0.00092217767700556624 -0.017764063093127662 0 0.00092121623220964158 -0.017730555971571204 0 0.00092436705444079567 -0.017715972926553577 0 0.00092121623220964158 -0.017730555971571204 0 0.00092436705444079567 -0.017715972926553577 0 0.00092051598086794546 -0.017717858976741035 0 0.00091494499949610144 -0.017682449868499334 0 0.00092436705444079567 -0.017715972926553577 0 0.00091754738698004339 -0.017706523721352511 0 0.00092436705444079567 -0.017715972926553577 0 0.00091754738698004339 -0.017706523721352511 0 0.00092051598086794546 -0.017717858976741035 0 0.00091754738698004339 -0.017706523721352511 0 0.00092051598086794546 -0.017717858976741035 0 0.00091888182725384775 -0.017718052504403174 0 0.00091754738698004339 -0.017706523721352511 0 0.00091888182725384775 -0.017718052504403174 0 0.00090738230283579819 -0.017713929632854404 0 0.00072259934211333754 -0.018012421443903592 0 0.00060199772664314654 -0.018517966302645943 0 0.00090823291320150685 -0.017725117837368923 0 0.00092051598086794546 -0.017717858976741035 0 0.00091888182725384775 -0.017718052504403174 0 0.00047043744264336032 -0.018784382401166203 0 0.00051972019801863653 -0.018362748207737836 0 0.00016809527636839756 -0.018934874017215098 0 0.00063711959444647589 -0.018974116794031295 0 0.00047043744264336032 -0.018784382401166203 0 0.00016809527636839756 -0.018934874017215098 0 0.00042006930413726292 -0.020292781021320448 0 0.00060199772664314654 -0.018517966302645943 0 0.00038839956899095921 -0.019468743593581774 0 0.00062145936941713695 -0.019477949347227828 0 0.00048947578288339338 -0.019298530251868961 0 0.00062145936941713695 -0.019477949347227828 0 0.00048947578288339338 -0.019298530251868961 0 0.00079361315920934144 -0.019199782112471597 0 0.00060199772664314654 -0.018517966302645943 0 0.000657125972138901 -0.016989537787332188 0 0.00063920948559957234 -0.017697241703891378 0 0.00064948411810865792 -0.01768989592433674 0 0.00064487319135074831 -0.017685455976019698 0 0.00060199772664314654 -0.018517966302645943 0 0.00077096055173977735 -0.017593597009395938 0 0.000657125972138901 -0.016989537787332188 0 0.00077096055173977735 -0.017593597009395938 0 0.00089245038131852237 -0.017674642949068751 0 0.00091754738698004339 -0.017706523721352511 0 0.00090738230283579819 -0.017713929632854404 0 0.00078396857024512392 -0.017459327231232544 0 0.000657125972138901 -0.016989537787332188 0 0.00063354146094985462 -0.017149486016490981 0 0.00038926816289835617 -0.016769630065482103 0 0.0008330796707668723 -0.016793927728999288 0 0.00078571597413404945 -0.016043360074944585 0 0.00018877805442728612 -0.016554314089535449 0 0.00014920983403662842 -0.015978672315431462 0 0.000657125972138901 -0.016989537787332188 0 0.00078914219286544036 -0.016675010788754958 0 0.00078571597413404945 -0.016043360074944585 0 0.0006767183269023139 -0.01667502188715347 0 0.00018877805442728612 -0.016554314089535449 0 0.0006767183269023139 -0.01667502188715347 0 0.00032663559393606827 -0.0169270599774764 0 0.00018877805442728612 -0.016554314089535449 0 0.0006767183269023139 -0.01667502188715347 0 0.00095422946634487267 -0.016955851280137664 0 0.001158273675388354 -0.016630401241724137 0 0.00078571597413404945 -0.016043360074944585 0 0.0006767183269023139 -0.01667502188715347 0 0.001158273675388354 -0.016630401241724137 0 0.0006767183269023139 -0.01667502188715347 0 0.00095422946634487267 -0.016955851280137664 0 0.00065502391135976957 -0.017060853742122638 0 0.00095422946634487267 -0.016955851280137664 0 0.00065502391135976957 -0.017060853742122638 0 0.00085153202673673306 -0.017273582293139186 0 0.0006767183269023139 -0.01667502188715347 0 0.00065502391135976957 -0.017060853742122638 0 0.00032663559393606827 -0.0169270599774764 0 0.00050078990887399285 -0.021977124226748412 0 0.00049509992609727117 -0.021543305688266543 0 0.00086963363916358629 -0.021349557470070474 0 0.00048947578288339338 -0.019298530251868961 0 0.00079361315920934144 -0.019199782112471597 0 0.00066481767406822967 -0.019007166867749371 0 0.00040287172721885134 -0.020839021491663477 0 0.00085944009045779755 -0.019528915594139776 0 0.00095422946634487267 -0.016955851280137664 0 0.001368125785312993 -0.017040020601119896 0 0.00085153202673673306 -0.017273582293139186 0 0.00095422946634487267 -0.016955851280137664 0 0.0011337053255566531 -0.01668585367031232 0 0.001368125785312993 -0.017040020601119896 0 0.00077096055173977735 -0.017593597009395938 0 0.00085944009045779755 -0.019528915594139776 0 0.0011482298294409657 -0.016680216684179166 0 0.00077096055173977735 -0.017593597009395938 0 0.00025996587856653758 -0.021240292354393085 0 0.00049509992609727117 -0.021543305688266543 0 0.00070158222609902955 -0.021096645791350392 0 0.00049509992609727117 -0.021543305688266543 0 0.00086963363916358629 -0.021349557470070474 0 0.00070158222609902955 -0.021096645791350392 0 0.00085944009045779755 -0.019528915594139776 0 0.0011309539258983652 -0.021170039186769032 0 0.00085808269086412505 -0.021328154115855192 0 0.00070158222609902955 -0.021096645791350392 0 0.00087473434701118959 -0.020892180446594872 0 0.00025996587856653758 -0.021240292354393085 0 0.0006278816378740632 -0.020851194560721303 0 0.00070158222609902955 -0.021096645791350392 0 0.0006278816378740632 -0.020851194560721303 0 0.00087473434701118959 -0.020892180446594872 0 0.00085556600135097834 -0.020597275757951179 0 0.0006278816378740632 -0.020851194560721303 0 0.00070158222609902955 -0.021096645791350392 0 0.00087473434701118959 -0.020892180446594872 0 0.00085808269086412505 -0.021328154115855192 0 0.00087473434701118959 -0.020892180446594872 0 0.0012587236183291572 -0.020649716525537671 0 0.00085944009045779755 -0.019528915594139776 0 0.0011055849533756575 -0.018718216282136033 0 0.001368125785312993 -0.017040020601119896 0 0.0010194918327862954 -0.017635736745257244 0 0.00085153202673673306 -0.017273582293139186 0 0.00073512924471981576 -0.01797511100111792 0 0.00093936996556451974 -0.017905780162337414 0 0.00073565174282740769 -0.017838088080635552 0 0.0008364249257386897 -0.018069848373041306 0 0.00073512924471981576 -0.01797511100111792 0 0.00093936996556451974 -0.017905780162337414 0 0.00075417735875440138 -0.017815030474793162 0 0.00093936996556451974 -0.017905780162337414 0 0.00073565174282740769 -0.017838088080635552 0 0.0011055849533756575 -0.018718216282136033 0 0.0011351304622775936 -0.018544925621466622 0 0.0011055849533756575 -0.018718216282136033 0 0.00084742921985642736 -0.019356814821262697 0 0.00087473434701118959 -0.020892180446594872 0 0.0012587236183291572 -0.020649716525537671 0 0.00085556600135097834 -0.020597275757951179 0 0.0008364249257386897 -0.018069848373041306 0 0.0010921894828766624 -0.017989400403078913 0 0.00093936996556451974 -0.017905780162337414 0 0.0010959184639538779 -0.0179758561235633 0 0.0010921894828766624 -0.017989400403078913 0 0.00093936996556451974 -0.017905780162337414 0 0.00038088229592136513 -0.022824039026127466 0 0.00084742921985642736 -0.019356814821262697 0 0.00044787955110883227 -0.020546688990085923 0 0.0006278816378740632 -0.020851194560721303 0 0.00085556600135097834 -0.020597275757951179 0 0.00032663559393606827 -0.0169270599774764 0 0.00048846276921307784 -0.017545397226860639 0 8.8000635327224339e-07 -0.017089119551934876 0 0.00065502391135976957 -0.017060853742122638 0 0.00032663559393606827 -0.0169270599774764 0 0.00048846276921307784 -0.017545397226860639 0 0.00065502391135976957 -0.017060853742122638 0 0.00085153202673673306 -0.017273582293139186 0 0.00048846276921307784 -0.017545397226860639 0 0.0010194918327862954 -0.017635736745257244 0 0.00085153202673673306 -0.017273582293139186 0 0.00048846276921307784 -0.017545397226860639 0 0.00076217697068137777 -0.017796763824723894 0 0.00073565174282740769 -0.017838088080635552 0 0.00039059124166993632 -0.017627182807139381 0 0.00073565174282740769 -0.017838088080635552 0 0.00057259943171385577 -0.017889893078759947 0 0.00039059124166993632 -0.017627182807139381 0 0.0011055849533756575 -0.018718216282136033 0 0.00035719854898437139 -0.017495036890999068 0 0.00073512924471981576 -0.01797511100111792 0 0.00073565174282740769 -0.017838088080635552 0 0.00057259943171385577 -0.017889893078759947 0 0.0003708765501493483 -0.017965224540944975 0 0.00039059124166993632 -0.017627182807139381 0 5.3984324642483398e-05 -0.017839868435160822 0 0.0003708765501493483 -0.017965224540944975 0 0.00057259943171385577 -0.017889893078759947 0 0.00039059124166993632 -0.017627182807139381 0 0.00039059124166993632 -0.017627182807139381 0 5.3984324642483398e-05 -0.017839868435160822 0 -6.2066060079438113e-05 -0.017447500823179387 0 5.3984324642483398e-05 -0.017839868435160822 0 -6.2066060079438113e-05 -0.017447500823179387 0 -0.00034612821472997969 -0.017722187582222635 0 0.00048846276921307784 -0.017545397226860639 0 -6.2066060079438113e-05 -0.017447500823179387 0 8.8000635327224339e-07 -0.017089119551934876 0 0.00035719854898437139 -0.017495036890999068 0 -7.9054269423201563e-07 -0.017483149898672681 0 -6.2066060079438113e-05 -0.017447500823179387 0 -0.00053108013367185946 -0.017326920293466521 0 8.8000635327224339e-07 -0.017089119551934876 0 -6.2066060079438113e-05 -0.017447500823179387 0 -0.00034612821472997969 -0.017722187582222635 0 -0.00053108013367185946 -0.017326920293466521 0 -0.00092665184538953704 -0.01785341668146433 0 -0.00034612821472997969 -0.017722187582222635 0 -0.00053108013367185946 -0.017326920293466521 0 -0.001189350857583511 -0.017954842631187285 0 -0.00092665184538953704 -0.01785341668146433 0 -0.0012416158872392787 -0.01735952223422697 0 -0.00092665184538953704 -0.01785341668146433 0 -0.00053108013367185946 -0.017326920293466521 0 -0.0012416158872392787 -0.01735952223422697 0 -0.00053108013367185946 -0.017326920293466521 0 -0.0006742816122842669 -0.016968986998531894 0 -0.0012416158872392787 -0.01735952223422697 0 -0.0024933611433187114 -0.013320267425482432 0 -0.0022463118616913367 -0.013018206838985974 0 -0.0022775261049817423 -0.012909371666742032 0 -0.0006742816122842669 -0.016968986998531894 0 -0.00078401995944125393 -0.016772275085848946 0 -0.00093907125361790303 -0.016750343809495884 0 -0.0006742816122842669 -0.016968986998531894 0 -0.00060772765315936651 -0.016647925382959134 0 -0.00030568593597605137 -0.016822780446506921 0 -0.0006742816122842669 -0.016968986998531894 0 -0.00078401995944125393 -0.016772275085848946 0 -0.00060772765315936651 -0.016647925382959134 0 -0.0006742816122842669 -0.016968986998531894 0 -0.00093907125361790303 -0.016750343809495884 0 -0.0012416158872392787 -0.01735952223422697 0 -0.0020120946592873772 -0.013358043799701919 0 -0.002614999856539733 -0.011516163740701949 0 -0.0028734325462641719 -0.0098967482117115878 0 -0.0029283053478101483 -0.0099189188175193878 0 -0.0029157303358565102 -0.0098687043548626001 0 -0.0020120946592873772 -0.013358043799701919 0 -0.0017850596536947909 -0.015809045230367549 0 -0.0028734325462641719 -0.0098967482117115878 0 -0.0029157303358565102 -0.0098687043548626001 0 -0.0029051717474319109 -0.0098255187156331136 0 -0.0028734325462641719 -0.0098967482117115878 0 -0.0028316689582062438 -0.0098524185701374979 0 -0.0029051717474319109 -0.0098255187156331136 0 -0.00093907125361790303 -0.016750343809495884 0 -0.00060772765315936651 -0.016647925382959134 0 -0.00072302190234552091 -0.016326309941148472 0 -0.00060772765315936651 -0.016647925382959134 0 -0.00029608999584414177 -0.016359628599902722 0 -0.00072302190234552091 -0.016326309941148472 0 -0.0020120946592873772 -0.013358043799701919 0 -0.001783911164692741 -0.013037831787481545 0 -0.00078401995944125393 -0.016772275085848946 0 -0.00093907125361790303 -0.016750343809495884 0 -0.00060772765315936651 -0.016647925382959134 0 -0.00060772765315936651 -0.016647925382959134 0 -0.00030568593597605137 -0.016822780446506921 0 -0.00029608999584414177 -0.016359628599902722 0 0.00018877805442728612 -0.016554314089535449 0 -0.00030568593597605137 -0.016822780446506921 0 -0.00029608999584414177 -0.016359628599902722 0 0.00032663559393606827 -0.0169270599774764 0 0.00018877805442728612 -0.016554314089535449 0 8.8000635327224339e-07 -0.017089119551934876 0 0.00018877805442728612 -0.016554314089535449 0 8.8000635327224339e-07 -0.017089119551934876 0 -0.00030568593597605137 -0.016822780446506921 0 -0.00053108013367185946 -0.017326920293466521 0 -0.0006742816122842669 -0.016968986998531894 0 -0.00030568593597605137 -0.016822780446506921 0 -0.00053108013367185946 -0.017326920293466521 0 8.8000635327224339e-07 -0.017089119551934876 0 -0.00030568593597605137 -0.016822780446506921 0 -0.002263800286239276 -0.0062147842100963189 0 -0.0027120334551657414 -0.0060673805728683489 0 -0.0024419485285107584 -0.0055701240919708191 0 -0.0028268295746654618 -0.0053309478242188641 0 -0.0024419485285107584 -0.0055701240919708191 0 -0.0030376897094727935 -0.0057340900660304492 0 -0.0027120334551657414 -0.0060673805728683489 0 -0.0024419485285107584 -0.0055701240919708191 0 -0.0030376897094727935 -0.0057340900660304492 0 -0.0024636162197075573 -0.0016563260415890357 0 -0.0023031839737887205 -0.0026178402433563457 0 -0.0023481370500910144 -0.0025332174770568839 0 -0.0032039188412688185 -0.0051309342988916564 0 -0.0028268295746654618 -0.0053309478242188641 0 -0.0030376897094727935 -0.0057340900660304492 0 -0.0027120334551657414 -0.0060673805728683489 0 -0.0030376897094727935 -0.0057340900660304492 0 -0.0030525603286652276 -0.0062235203407440647 0 -0.0030376897094727935 -0.0057340900660304492 0 -0.0030525603286652276 -0.0062235203407440647 0 -0.0034517975599333197 -0.0061324888690629398 0 -0.0014756402960241144 -0.017833604587808999 0 -0.001189350857583511 -0.017954842631187285 0 -0.0012416158872392787 -0.01735952223422697 0 -0.0032839885015910372 -0.0077154374154097399 0 -0.0030367309955766919 -0.0093059879923450932 0 -0.0029705081251569115 -0.0099015419297902932 0 -0.0029600128529586769 -0.0099282526190896756 0 -0.0029283053478101483 -0.0099189188175193878 0 -0.0029705081251569115 -0.0099015419297902932 0 -0.0029283053478101483 -0.0099189188175193878 0 -0.0029636017026023346 -0.0098840751210234508 0 -0.0032039188412688185 -0.0051309342988916564 0 -0.0030376897094727935 -0.0057340900660304492 0 -0.0036013242003770088 -0.0056248805611820692 0 -0.0030376897094727935 -0.0057340900660304492 0 -0.0034517975599333197 -0.0061324888690629398 0 -0.0036013242003770088 -0.0056248805611820692 0 -0.0019897817999369395 -0.013397508841581125 0 -0.0030367309955766919 -0.0093059879923450932 0 -0.002045259495674349 -0.012484539458078812 0 -0.0019850881948329682 -0.012703339631053334 0 -0.0022775261049817423 -0.012909371666742032 0 -0.0019897817999369395 -0.013397508841581125 0 -0.0017850596536947909 -0.015809045230367549 0 -0.0019850881948329682 -0.012703339631053334 0 -0.0022463118616913367 -0.013018206838985974 0 -0.0022775261049817423 -0.012909371666742032 0 -0.0030367309955766919 -0.0093059879923450932 0 -0.002614999856539733 -0.011516163740701949 0 -0.0029283053478101483 -0.0099189188175193878 0 -0.0029491153428462965 -0.0098693673100835461 0 -0.0029157303358565102 -0.0098687043548626001 0 -0.0029283053478101483 -0.0099189188175193878 0 -0.0029491153428462965 -0.0098693673100835461 0 -0.0029636017026023346 -0.0098840751210234508 0 -0.0029157303358565102 -0.0098687043548626001 0 -0.002958631313260783 -0.0098032723733594476 0 -0.0029051717474319109 -0.0098255187156331136 0 -0.0029491153428462965 -0.0098693673100835461 0 -0.0029157303358565102 -0.0098687043548626001 0 -0.002958631313260783 -0.0098032723733594476 0 -0.0030520145968939926 -0.0097581308264326049 0 -0.0031311971805819236 -0.0099812736726386016 0 -0.0033332046466790178 -0.0094136057321053419 0 -0.0029491153428462965 -0.0098693673100835461 0 -0.0030520145968939926 -0.0097581308264326049 0 -0.0031311971805819236 -0.0099812736726386016 0 -0.0029491153428462965 -0.0098693673100835461 0 -0.002958631313260783 -0.0098032723733594476 0 -0.0030520145968939926 -0.0097581308264326049 0 -0.002958631313260783 -0.0098032723733594476 0 -0.0030520145968939926 -0.0097581308264326049 0 -0.0029991289283000785 -0.0097692849804495892 0 -0.0030347329690864604 -0.0097434944752406247 0 -0.0029536639377365408 -0.0094994869842529028 0 -0.0032839885015910372 -0.0077154374154097399 0 -0.0032721133698963138 -0.008474341934520669 0 -0.0029705081251569115 -0.0099015419297902932 0 -0.0029855027725926636 -0.0098622726161417713 0 -0.0029636017026023346 -0.0098840751210234508 0 -0.0029491153428462965 -0.0098693673100835461 0 -0.0029855027725926636 -0.0098622726161417713 0 -0.0029636017026023346 -0.0098840751210234508 0 -0.0029830854426317094 -0.0098179875905802239 0 -0.0032721133698963138 -0.008474341934520669 0 -0.0030525603286652276 -0.0062235203407440647 0 -0.0034517975599333197 -0.0061324888690629398 0 -0.0033081576334666224 -0.0066452242554622589 0 -0.0030525603286652276 -0.0062235203407440647 0 -0.0033081576334666224 -0.0066452242554622589 0 -0.0027552931407369809 -0.0065385433018480005 0 -0.0027120334551657414 -0.0060673805728683489 0 -0.0030525603286652276 -0.0062235203407440647 0 -0.0027552931407369809 -0.0065385433018480005 0 -0.0032721133698963138 -0.008474341934520669 0 -0.0031773600058457021 -0.0070480972530167826 0 -0.0036882166338058509 -0.0073272431821164658 0 -0.003470432015884338 -0.0075088225780290353 0 -0.0033290603344891291 -0.0073075221907280188 0 -0.0032721133698963138 -0.008474341934520669 0 -0.0034773745096715004 -0.008637458129246562 0 -0.0036882166338058509 -0.0073272431821164658 0 -0.003470432015884338 -0.0075088225780290353 0 -0.0036462340257555439 -0.007776420744000272 0 -0.003470432015884338 -0.0075088225780290353 0 -0.0033113129558148503 -0.0077111862087786559 0 -0.0036462340257555439 -0.007776420744000272 0 -0.003470432015884338 -0.0075088225780290353 0 -0.0033102641354973649 -0.0075246210540343044 0 -0.0033113129558148503 -0.0077111862087786559 0 -0.0033102641354973649 -0.0075246210540343044 0 -0.0031855441693545389 -0.0075235653721479178 0 -0.0033290603344891291 -0.0073075221907280188 0 -0.003470432015884338 -0.0075088225780290353 0 -0.0033102641354973649 -0.0075246210540343044 0 -0.0033290603344891291 -0.0073075221907280188 0 -0.0033102641354973649 -0.0075246210540343044 0 -0.0031855441693545389 -0.0075235653721479178 0 -0.0033113129558148503 -0.0077111862087786559 0 -0.002263800286239276 -0.0062147842100963189 0 -0.0022096233292776216 -0.0064255657093560516 0 -0.0027552931407369809 -0.0065385433018480005 0 -0.0030632331233614394 -0.007273519769297198 0 -0.0031855441693545389 -0.0075235653721479178 0 -0.0033290603344891291 -0.0073075221907280188 0 -0.002263800286239276 -0.0062147842100963189 0 -0.0027120334551657414 -0.0060673805728683489 0 -0.0027552931407369809 -0.0065385433018480005 0 -0.0024305672038396429 -0.0029528022312215211 0 -0.0031773600058457021 -0.0070480972530167826 0 -0.0031817029512827611 -0.0077347268630094381 0 -0.0031699507110657188 -0.0078332512377366301 0 -0.0033047228892847799 -0.0078494027756023012 0 -0.003253929425336879 -0.0082920473457031938 0 -0.003306996561261748 -0.0077496409007383948 0 -0.0031817029512827611 -0.0077347268630094381 0 -0.0031855441693545389 -0.0075235653721479178 0 -0.0033113129558148503 -0.0077111862087786559 0 -0.0031817029512827611 -0.0077347268630094381 0 -0.0033047228892847799 -0.0078494027756023012 0 -0.0033113129558148503 -0.0077111862087786559 0 -0.0033332046466790178 -0.0094136057321053419 0 -0.0033883258016643518 -0.0087053478427444059 0 -0.003154745434137319 -0.0090731755680965812 0 -0.0034015702530689061 -0.0081889053378980288 0 -0.0036462340257555439 -0.007776420744000272 0 -0.0033883258016643518 -0.0087053478427444059 0 -0.0034773745096715004 -0.008637458129246562 0 -0.0034073438811157574 -0.0086937920990050079 0 -0.0031834259581829316 -0.0087776276645979388 0 -0.0034015702530689061 -0.0081889053378980288 0 -0.0033113129558148503 -0.0077111862087786559 0 -0.0034015702530689061 -0.0081889053378980288 0 -0.0033113129558148503 -0.0077111862087786559 0 -0.0036462340257555439 -0.007776420744000272 0 -0.0033883258016643518 -0.0087053478427444059 0 -0.003169446110908141 -0.0088326432740905361 0 -0.003154745434137319 -0.0090731755680965812 0 -0.0031834259581829316 -0.0087776276645979388 0 -0.0034015702530689061 -0.0081889053378980288 0 -0.0033883258016643518 -0.0087053478427444059 0 -0.0031834259581829316 -0.0087776276645979388 0 -0.0033883258016643518 -0.0087053478427444059 0 -0.0032496264423764283 -0.0087729624354516318 0 -0.0033883258016643518 -0.0087053478427444059 0 -0.003169446110908141 -0.0088326432740905361 0 -0.0032416867214187343 -0.0087527041867650236 0 -0.0031388053779361656 -0.0088277477262306264 0 -0.003169446110908141 -0.0088326432740905361 0 -0.0031658581086994146 -0.0087810727422251034 0 -0.003169446110908141 -0.0088326432740905361 0 -0.0031658581086994146 -0.0087810727422251034 0 -0.0032416867214187343 -0.0087527041867650236 0 -0.0028000109010196837 -0.008860746878754119 0 -0.003169446110908141 -0.0088326432740905361 0 -0.003154745434137319 -0.0090731755680965812 0 -0.0029944761183178358 -0.009556728040687943 0 -0.0031491087370179149 -0.009012116872949132 0 -0.0028000109010196837 -0.008860746878754119 0 -0.003154745434137319 -0.0090731755680965812 0 -0.0029120466126951101 -0.009302540903987468 0 -0.0033332046466790178 -0.0094136057321053419 0 -0.003154745434137319 -0.0090731755680965812 0 -0.0029120466126951101 -0.009302540903987468 0 -0.0030520145968939926 -0.0097581308264326049 0 -0.0033332046466790178 -0.0094136057321053419 0 -0.0029120466126951101 -0.009302540903987468 0 -0.0029825839849479713 -0.0097323207475783439 0 -0.0029991289283000785 -0.0097692849804495892 0 -0.0029483748737818404 -0.0097792787172154057 0 -0.0029944761183178358 -0.009556728040687943 0 -0.0029536639377365408 -0.0094994869842529028 0 -0.002958631313260783 -0.0098032723733594476 0 -0.0029991289283000785 -0.0097692849804495892 0 -0.0029483748737818404 -0.0097792787172154057 0 -0.002958631313260783 -0.0098032723733594476 0 -0.0029483748737818404 -0.0097792787172154057 0 -0.0029051717474319109 -0.0098255187156331136 0 -0.0029825839849479713 -0.0097323207475783439 0 -0.0029483748737818404 -0.0097792787172154057 0 -0.0028906382871883682 -0.0097628570108002789 0 -0.0029944761183178358 -0.009556728040687943 0 -0.0031706083658241588 -0.0098440193492519736 0 -0.0033758323660602481 -0.010458803046820482 0 -0.0029300153087225629 -0.010176182129292723 0 -0.0027345704412906533 -0.010519086233262457 0 -0.0033758323660602481 -0.010458803046820482 0 -0.0029300153087225629 -0.010176182129292723 0 -0.0032408793105183093 -0.0099527650249944116 0 -0.0029944761183178358 -0.009556728040687943 0 -0.0031981700158254236 -0.0093853888604404235 0 -0.0029300153087225629 -0.010176182129292723 0 -0.0032408793105183093 -0.0099527650249944116 0 -0.0028387892433769709 -0.0098492351551723051 0 -0.0031981700158254236 -0.0093853888604404235 0 -0.0030749057440206634 -0.0090628929654118316 0 -0.0032408793105183093 -0.0099527650249944116 0 -0.0031037271783059435 -0.0094225679050885022 0 -0.0028387892433769709 -0.0098492351551723051 0 -0.0031169487474661862 -0.008765616772754687 0 -0.0030688539706811659 -0.00873527752294544 0 -0.0031360084356452655 -0.0087150904829022269 0 -0.0031360084356452655 -0.0087150904829022269 0 -0.0032007226466724114 -0.0087479610785523767 0 -0.0032028256552767875 -0.0086864681091990258 0 -0.0031169487474661862 -0.008765616772754687 0 -0.0031360084356452655 -0.0087150904829022269 0 -0.0032007226466724114 -0.0087479610785523767 0 -0.0031169487474661862 -0.008765616772754687 0 -0.0031658581086994146 -0.0087810727422251034 0 -0.0032007226466724114 -0.0087479610785523767 0 -0.0031388053779361656 -0.0088277477262306264 0 -0.0031169487474661862 -0.008765616772754687 0 -0.0031658581086994146 -0.0087810727422251034 0 -0.0031658581086994146 -0.0087810727422251034 0 -0.0032416867214187343 -0.0087527041867650236 0 -0.0032007226466724114 -0.0087479610785523767 0 -0.0033883258016643518 -0.0087053478427444059 0 -0.0032416867214187343 -0.0087527041867650236 0 -0.0032496264423764283 -0.0087729624354516318 0 -0.0032416867214187343 -0.0087527041867650236 0 -0.0032496264423764283 -0.0087729624354516318 0 -0.0032007226466724114 -0.0087479610785523767 0 -0.0032007226466724114 -0.0087479610785523767 0 -0.0032932335687479554 -0.0087326753679104752 0 -0.0032028256552767875 -0.0086864681091990258 0 -0.0032496264423764283 -0.0087729624354516318 0 -0.0032007226466724114 -0.0087479610785523767 0 -0.0032932335687479554 -0.0087326753679104752 0 -0.0031621857603102185 -0.0079509809690879538 0 -0.0033047228892847799 -0.0078494027756023012 0 -0.0033434022651513957 -0.0081204085142628276 0 -0.0031699507110657188 -0.0078332512377366301 0 -0.0031621857603102185 -0.0079509809690879538 0 -0.0033047228892847799 -0.0078494027756023012 0 -0.0031834259581829316 -0.0087776276645979388 0 -0.0032496264423764283 -0.0087729624354516318 0 -0.0032932335687479554 -0.0087326753679104752 0 -0.003253929425336879 -0.0082920473457031938 0 -0.0033118309455793045 -0.0084302943164617263 0 -0.0010009179069284113 -0.013358797508679628 0 0.00078914219286544036 -0.016675010788754958 0 0.0012892162333183084 -0.016784353103447915 0 0.00092734747349657259 -0.017027111159610853 0 0.0010418928474089032 -0.017309709468845445 0 0.00063354146094985462 -0.017149486016490981 0 0.0008330796707668723 -0.016793927728999288 0 0.00092734747349657259 -0.017027111159610853 0 0.0012892162333183084 -0.016784353103447915 0 0.0008330796707668723 -0.016793927728999288 0 0.00092734747349657259 -0.017027111159610853 0 0.00018877805442728612 -0.016554314089535449 0 0.00014920983403662842 -0.015978672315431462 0 -0.00029608999584414177 -0.016359628599902722 0 -0.00049202639907357237 -0.015902953744629748 0 -0.00029608999584414177 -0.016359628599902722 0 -0.00072302190234552091 -0.016326309941148472 0 -0.00049202639907357237 -0.015902953744629748 0 0.00014920983403662842 -0.015978672315431462 0 -0.00029608999584414177 -0.016359628599902722 0 -0.0010009179069284113 -0.013358797508679628 0 -0.001783911164692741 -0.013037831787481545 0 -0.0027850454296688065 -0.009808645102892484 0 -0.0028316689582062438 -0.0098524185701374979 0 -0.0028906382871883682 -0.0097628570108002789 0 -0.0028316689582062438 -0.0098524185701374979 0 -0.0029051717474319109 -0.0098255187156331136 0 -0.0028906382871883682 -0.0097628570108002789 0 -0.0029483748737818404 -0.0097792787172154057 0 -0.0029051717474319109 -0.0098255187156331136 0 -0.0028906382871883682 -0.0097628570108002789 0 -0.0029300153087225629 -0.010176182129292723 0 -0.0027345704412906533 -0.010519086233262457 0 -0.0024569689826471892 -0.010096264653101076 0 -0.0020898528875838559 -0.010585420133371343 0 -0.0027345704412906533 -0.010519086233262457 0 -0.0024569689826471892 -0.010096264653101076 0 -0.0010009179069284113 -0.013358797508679628 0 -0.0031706083658241588 -0.0098440193492519736 0 -0.0029300153087225629 -0.010176182129292723 0 -0.0024569689826471892 -0.010096264653101076 0 -0.0028387892433769709 -0.0098492351551723051 0 -0.0031037271783059435 -0.0094225679050885022 0 -0.0028387892433769709 -0.0098492351551723051 0 -0.0023575454873152367 -0.0094832401732885749 0 -0.0024569689826471892 -0.010096264653101076 0 -0.0028387892433769709 -0.0098492351551723051 0 -0.0023575454873152367 -0.0094832401732885749 0 -0.0024569689826471892 -0.010096264653101076 0 -0.0023575454873152367 -0.0094832401732885749 0 -0.0017489825166588317 -0.009914395947937386 0 -0.0023575454873152367 -0.0094832401732885749 0 -0.0017489825166588317 -0.009914395947937386 0 -0.0019225965988977911 -0.0092945688632978148 0 -0.0020898528875838559 -0.010585420133371343 0 -0.0024569689826471892 -0.010096264653101076 0 -0.0017489825166588317 -0.009914395947937386 0 -0.0010009179069284113 -0.013358797508679628 0 -0.00026763808079673698 -0.013648239687590951 0 0.00063354146094985462 -0.017149486016490981 0 0.0010418928474089032 -0.017309709468845445 0 0.00092730962106355071 -0.017517912782078832 0 0.00063354146094985462 -0.017149486016490981 0 0.00092734747349657259 -0.017027111159610853 0 0.0010418928474089032 -0.017309709468845445 0 -0.00026763808079673698 -0.013648239687590951 0 -0.00033296927903515568 -0.013551740380503835 0 -0.0017489825166588317 -0.009914395947937386 0 -0.0015174863305652505 -0.0093128551245322023 0 -0.0019225965988977911 -0.0092945688632978148 0 0.0010418928474089032 -0.017309709468845445 0 0.00092730962106355071 -0.017517912782078832 0 0.00088760674035890318 -0.017667788997978679 0 -0.0015174863305652505 -0.0093128551245322023 0 -0.0019280101640124891 -0.0088955868219689517 0 -0.0016478525016501043 -0.0088536169277875706 0 -0.0015174863305652505 -0.0093128551245322023 0 -0.0019280101640124891 -0.0088955868219689517 0 -0.0019225965988977911 -0.0092945688632978148 0 -0.0023575454873152367 -0.0094832401732885749 0 -0.0019225965988977911 -0.0092945688632978148 0 -0.0025015575037483904 -0.0090085346029332089 0 -0.0031037271783059435 -0.0094225679050885022 0 -0.0023575454873152367 -0.0094832401732885749 0 -0.0025015575037483904 -0.0090085346029332089 0 -0.0031037271783059435 -0.0094225679050885022 0 -0.0025015575037483904 -0.0090085346029332089 0 -0.0029487334879675386 -0.0087883123437959183 0 -0.0025787118080102798 -0.0085830632976610088 0 -0.0029487334879675386 -0.0087883123437959183 0 -0.0030477629351339242 -0.008477515994452527 0 -0.0025015575037483904 -0.0090085346029332089 0 -0.0025787118080102798 -0.0085830632976610088 0 -0.0029487334879675386 -0.0087883123437959183 0 -0.0019280101640124891 -0.0088955868219689517 0 -0.0025015575037483904 -0.0090085346029332089 0 -0.0025787118080102798 -0.0085830632976610088 0 -0.0019642070411586741 -0.0088682724281191165 0 -0.0023879940031569769 -0.0087162637913683911 0 -0.0019280101640124891 -0.0088955868219689517 0 -0.0019225965988977911 -0.0092945688632978148 0 -0.0025015575037483904 -0.0090085346029332089 0 -0.0019280101640124891 -0.0088955868219689517 0 -0.0022041722739155 -0.0088294556666296594 0 -0.0020942763818847859 -0.0086544099585125021 0 -0.0022041722739155 -0.0088294556666296594 0 -0.0023190836496056921 -0.0086436794206674866 0 -0.0020942763818847859 -0.0086544099585125021 0 -0.0022041722739155 -0.0088294556666296594 0 -0.0023190836496056921 -0.0086436794206674866 0 -0.0024981024021685561 -0.0087281141231118544 0 -0.0023879940031569769 -0.0087162637913683911 0 -0.002766655647322236 -0.0085984803659115254 0 -0.0023190836496056921 -0.0086436794206674866 0 -0.0020942763818847859 -0.0086544099585125021 0 -0.0022835354700484365 -0.0084857595071454166 0 -0.0020942763818847859 -0.0086544099585125021 0 -0.0018356946002018087 -0.0086442147368337319 0 -0.0020547184856653071 -0.0084714185298190945 0 -0.0020942763818847859 -0.0086544099585125021 0 -0.0020547184856653071 -0.0084714185298190945 0 -0.0022835354700484365 -0.0084857595071454166 0 -0.0018012198816085864 -0.0086499765911252861 0 -0.0016140658902519429 -0.0086341566778838624 0 -0.0018356946002018087 -0.0086442147368337319 0 -0.0015977211291100183 -0.008645814042075213 0 -0.0016478525016501043 -0.0088536169277875706 0 -0.0018356946002018087 -0.0086442147368337319 0 -0.0015813867248949513 -0.0086337605353152373 0 -0.0017204492195881387 -0.0085213474128683544 0 -0.0015977211291100183 -0.008645814042075213 0 -0.0016478525016501043 -0.0088536169277875706 0 -0.0015053639804267702 -0.0087916378261144873 0 -0.0019280101640124891 -0.0088955868219689517 0 -0.0018356946002018087 -0.0086442147368337319 0 -0.0016478525016501043 -0.0088536169277875706 0 -0.0019280101640124891 -0.0088955868219689517 0 -0.0020942763818847859 -0.0086544099585125021 0 -0.0018356946002018087 -0.0086442147368337319 0 -0.0032824241562233263 -0.0084981218259330502 0 -0.0033165248040819472 -0.008438299832241182 0 -0.0033408775098104442 -0.0083085687821154719 0 -0.0033349608332421416 -0.0084896766237844094 0 -0.0032465503971819609 -0.0085823809145431362 0 -0.0032597524780284535 -0.0084573103131158275 0 -0.0032824241562233263 -0.0084981218259330502 0 -0.0033165248040819472 -0.008438299832241182 0 -0.0033349608332421416 -0.0084896766237844094 0 -0.0033165248040819472 -0.008438299832241182 0 -0.0033349608332421416 -0.0084896766237844094 0 -0.0032597524780284535 -0.0084573103131158275 0 -0.0032263470255669674 -0.0083019604237946163 0 -0.0033434022651513957 -0.0081204085142628276 0 -0.0033349608332421416 -0.0084896766237844094 0 -0.0033118309455793045 -0.0084302943164617263 0 -0.0033325411673299399 -0.0084866529298683775 0 -0.0032932335687479554 -0.0087326753679104752 0 -0.0033349608332421416 -0.0084896766237844094 0 -0.0032465503971819609 -0.0085823809145431362 0 -0.0032932335687479554 -0.0087326753679104752 0 -0.0032465503971819609 -0.0085823809145431362 0 -0.0032028256552767875 -0.0086864681091990258 0 -0.0032465503971819609 -0.0085823809145431362 0 -0.0032028256552767875 -0.0086864681091990258 0 -0.0031648083076958509 -0.0086274105743317578 0 -0.0032597524780284535 -0.0084573103131158275 0 -0.0031536104445093788 -0.0085232188283297788 0 -0.0031648083076958509 -0.0086274105743317578 0 -0.0032465503971819609 -0.0085823809145431362 0 -0.0032597524780284535 -0.0084573103131158275 0 -0.0031648083076958509 -0.0086274105743317578 0 -0.0031536104445093788 -0.0085232188283297788 0 -0.0030798778149647354 -0.008690353489342658 0 -0.0030477629351339242 -0.008477515994452527 0 -0.0031536104445093788 -0.0085232188283297788 0 -0.0030798778149647354 -0.008690353489342658 0 -0.0031648083076958509 -0.0086274105743317578 0 -0.0030688539706811659 -0.00873527752294544 0 -0.0031360084356452655 -0.0087150904829022269 0 -0.0030798778149647354 -0.008690353489342658 0 -0.0031360084356452655 -0.0087150904829022269 0 -0.0032028256552767875 -0.0086864681091990258 0 -0.0031648083076958509 -0.0086274105743317578 0 -0.0031360084356452655 -0.0087150904829022269 0 -0.0030798778149647354 -0.008690353489342658 0 -0.0031648083076958509 -0.0086274105743317578 0 -0.0030749057440206634 -0.0090628929654118316 0 -0.0029686749675532768 -0.0088036172007146512 0 -0.0030688539706811659 -0.00873527752294544 0 -0.0030798778149647354 -0.008690353489342658 0 -0.0029487334879675386 -0.0087883123437959183 0 -0.0030798778149647354 -0.008690353489342658 0 -0.0029487334879675386 -0.0087883123437959183 0 -0.0030477629351339242 -0.008477515994452527 0 -0.0023190836496056921 -0.0086436794206674866 0 -0.002502423180588412 -0.0085246575804918297 0 -0.0022835354700484365 -0.0084857595071454166 0 -0.0023190836496056921 -0.0086436794206674866 0 -0.0024981024021685561 -0.0087281141231118544 0 -0.002502423180588412 -0.0085246575804918297 0 -0.0024981024021685561 -0.0087281141231118544 0 -0.002502423180588412 -0.0085246575804918297 0 -0.002643466415590916 -0.0085230724762165762 0 -0.002502423180588412 -0.0085246575804918297 0 -0.002643466415590916 -0.0085230724762165762 0 -0.0026448267592419305 -0.0083894829356014212 0 -0.0031536104445093788 -0.0085232188283297788 0 -0.0030477629351339242 -0.008477515994452527 0 -0.0032216987227546125 -0.0083753678524353323 0 -0.0024981024021685561 -0.0087281141231118544 0 -0.002643466415590916 -0.0085230724762165762 0 -0.0027350626924040628 -0.0086006874571089836 0 -0.002766655647322236 -0.0085984803659115254 0 -0.0029797241029209938 -0.0084891464122510297 0 -0.0032597524780284535 -0.0084573103131158275 0 -0.0032216987227546125 -0.0083753678524353323 0 -0.0033408775098104442 -0.0083085687821154719 0 -0.0032597524780284535 -0.0084573103131158275 0 -0.0031536104445093788 -0.0085232188283297788 0 -0.0032216987227546125 -0.0083753678524353323 0 -0.0027350626924040628 -0.0086006874571089836 0 -0.0028480186501660767 -0.0084425855206280119 0 -0.0027919292246341822 -0.0084095045400587581 0 -0.002643466415590916 -0.0085230724762165762 0 -0.0027350626924040628 -0.0086006874571089836 0 -0.0027919292246341822 -0.0084095045400587581 0 -0.0027350626924040628 -0.0086006874571089836 0 -0.0028480186501660767 -0.0084425855206280119 0 -0.0028869710656723104 -0.008465217568571503 0 -0.0028666477550568789 -0.0084078817913169606 0 -0.0028659779484453158 -0.008436200582160604 0 -0.0028480186501660767 -0.0084425855206280119 0 -0.0028659779484453158 -0.008436200582160604 0 -0.0028480186501660767 -0.0084425855206280119 0 -0.0028869710656723104 -0.008465217568571503 0 -0.0031801309318024952 -0.008187557309581716 0 -0.0033220524596383936 -0.0083114866139801669 0 -0.0033408775098104442 -0.0083085687821154719 0 -0.0029797241029209938 -0.0084891464122510297 0 -0.0030807538116641637 -0.0083850603489436671 0 -0.0032098024721834268 -0.0079519700408230143 0 -0.0033518169294867494 -0.0082838798086938177 0 -0.0032216987227546125 -0.0083753678524353323 0 -0.0033220524596383936 -0.0083114866139801669 0 -0.0033408775098104442 -0.0083085687821154719 0 -0.0033165248040819472 -0.008438299832241182 0 -0.0032597524780284535 -0.0084573103131158275 0 -0.0033408775098104442 -0.0083085687821154719 0 -0.0028866078463136357 -0.0083067486682469188 0 -0.0027608711384568452 -0.008274281877376926 0 -0.0028131069218271239 -0.0080996397261365732 0 -0.0023268584718161285 -0.0067669850631845241 0 -0.002532681132953143 -0.0070602171383695707 0 -0.0028666477550568789 -0.0084078817913169606 0 -0.0028866078463136357 -0.0083067486682469188 0 -0.0027919292246341822 -0.0084095045400587581 0 -0.0028866078463136357 -0.0083067486682469188 0 -0.0027919292246341822 -0.0084095045400587581 0 -0.0027608711384568452 -0.008274281877376926 0 -0.0028666477550568789 -0.0084078817913169606 0 -0.0028480186501660767 -0.0084425855206280119 0 -0.0027919292246341822 -0.0084095045400587581 0 -0.0027919292246341822 -0.0084095045400587581 0 -0.0027608711384568452 -0.008274281877376926 0 -0.0026448267592419305 -0.0083894829356014212 0 -0.002643466415590916 -0.0085230724762165762 0 -0.0027919292246341822 -0.0084095045400587581 0 -0.0026448267592419305 -0.0083894829356014212 0 -0.0027608711384568452 -0.008274281877376926 0 -0.0026062866875538188 -0.0082656353654866586 0 -0.0026916548229471661 -0.008128243701947287 0 -0.0027608711384568452 -0.008274281877376926 0 -0.0026062866875538188 -0.0082656353654866586 0 -0.0026448267592419305 -0.0083894829356014212 0 -0.0026062866875538188 -0.0082656353654866586 0 -0.0024360569729643127 -0.0081704420612591575 0 -0.0026916548229471661 -0.008128243701947287 0 -0.0026062866875538188 -0.0082656353654866586 0 -0.0026448267592419305 -0.0083894829356014212 0 -0.0024592550399703279 -0.0083587565621449471 0 -0.002502423180588412 -0.0085246575804918297 0 -0.0024592550399703279 -0.0083587565621449471 0 -0.0022835354700484365 -0.0084857595071454166 0 -0.002502423180588412 -0.0085246575804918297 0 -0.0026448267592419305 -0.0083894829356014212 0 -0.0024592550399703279 -0.0083587565621449471 0 -0.0026062866875538188 -0.0082656353654866586 0 -0.0024592550399703279 -0.0083587565621449471 0 -0.0024360569729643127 -0.0081704420612591575 0 -0.0024128553192459155 -0.0082771709281905474 0 -0.00254490904165275 -0.0080425877055165778 0 -0.0023679164227671922 -0.0079485835572417254 0 -0.00254490904165275 -0.0080425877055165778 0 -0.0023679164227671922 -0.0079485835572417254 0 -0.0027036377968403733 -0.0077980991875991994 0 -0.00254490904165275 -0.0080425877055165778 0 -0.0027036377968403733 -0.0077980991875991994 0 -0.0026916548229471661 -0.008128243701947287 0 -0.0027036377968403733 -0.0077980991875991994 0 -0.0026916548229471661 -0.008128243701947287 0 -0.0028131069218271239 -0.0080996397261365732 0 -0.0024128553192459155 -0.0082771709281905474 0 -0.00254490904165275 -0.0080425877055165778 0 -0.0026916548229471661 -0.008128243701947287 0 -0.0024231114504156045 -0.0082233302513527954 0 -0.0026691112932313269 -0.008137213490975263 0 -0.0027608711384568452 -0.008274281877376926 0 -0.0026916548229471661 -0.008128243701947287 0 -0.0028131069218271239 -0.0080996397261365732 0 -0.002550140598233649 -0.0071787633444240773 0 -0.002532681132953143 -0.0070602171383695707 0 -0.0021259405241365243 -0.006495591279349529 0 -0.002465566855345215 -0.0065934668354394 0 -0.0022422544148758511 -0.0059888520041667679 0 -0.0021259405241365243 -0.006495591279349529 0 -0.0022422544148758511 -0.0059888520041667679 0 -0.0019874305485694829 -0.0061235240040229452 0 -0.0018466330241335004 -0.006352055498153833 0 -0.0021259405241365243 -0.006495591279349529 0 -0.0019874305485694829 -0.0061235240040229452 0 -0.0018947418724492664 -0.0054667956595748886 0 -0.0022422544148758511 -0.0059888520041667679 0 -0.0019874305485694829 -0.0061235240040229452 0 -0.0016954094343058508 -0.0060323033540439046 0 -0.0018947418724492664 -0.0054667956595748886 0 -0.0019874305485694829 -0.0061235240040229452 0 -0.0018196905548869889 -0.0082880946429995019 0 -0.001750318949231401 -0.0084669224645535623 0 -0.0015706259404846055 -0.0082861820971087841 0 -0.0015487791819830464 -0.0084897764370519165 0 -0.001750318949231401 -0.0084669224645535623 0 -0.0015706259404846055 -0.0082861820971087841 0 -0.0015487791819830464 -0.0084897764370519165 0 -0.0017204492195881387 -0.0085213474128683544 0 -0.0018733863394037752 -0.0083349708575308577 0 -0.0015707929571589045 -0.0084817407547628162 0 -0.0018134227814405749 -0.0084033532254303295 0 -0.0015813867248949513 -0.0086337605353152373 0 -0.0015487791819830464 -0.0084897764370519165 0 -0.0017204492195881387 -0.0085213474128683544 0 -0.0018356946002018087 -0.0086442147368337319 0 -0.0018733863394037752 -0.0083349708575308577 0 -0.0020547184856653071 -0.0084714185298190945 0 -0.0018356946002018087 -0.0086442147368337319 0 -0.0017204492195881387 -0.0085213474128683544 0 -0.0018733863394037752 -0.0083349708575308577 0 -0.0020547184856653071 -0.0084714185298190945 0 -0.0022835354700484365 -0.0084857595071454166 0 -0.0021698762023523214 -0.0082402787112264737 0 -0.0018733863394037752 -0.0083349708575308577 0 -0.0020547184856653071 -0.0084714185298190945 0 -0.0021698762023523214 -0.0082402787112264737 0 -0.0024592550399703279 -0.0083587565621449471 0 -0.0022835354700484365 -0.0084857595071454166 0 -0.0021698762023523214 -0.0082402787112264737 0 -0.0024592550399703279 -0.0083587565621449471 0 -0.0024360569729643127 -0.0081704420612591575 0 -0.0021698762023523214 -0.0082402787112264737 0 -0.0024128553192459155 -0.0082771709281905474 0 -0.0020597801365545712 -0.0084076033471881771 0 -0.0020487106354089442 -0.0081444457754566348 0 -0.0024231114504156045 -0.0082233302513527954 0 -0.00211486760528996 -0.0083215436548218311 0 -0.0018134227814405749 -0.0084033532254303295 0 -0.00211486760528996 -0.0083215436548218311 0 -0.0018196905548869889 -0.0082880946429995019 0 -0.0020597801365545712 -0.0084076033471881771 0 -0.0020487106354089442 -0.0081444457754566348 0 -0.0018196905548869889 -0.0082880946429995019 0 -0.001750318949231401 -0.0084669224645535623 0 -0.0020597801365545712 -0.0084076033471881771 0 -0.0018196905548869889 -0.0082880946429995019 0 -0.0020487106354089442 -0.0081444457754566348 0 -0.0017515387639161582 -0.0081239739964792182 0 -0.0024128553192459155 -0.0082771709281905474 0 -0.0023679164227671922 -0.0079485835572417254 0 -0.0020487106354089442 -0.0081444457754566348 0 -0.0023679164227671922 -0.0079485835572417254 0 -0.0020487106354089442 -0.0081444457754566348 0 -0.0020669650350645073 -0.0078271560984384952 0 -0.0020487106354089442 -0.0081444457754566348 0 -0.0020669650350645073 -0.0078271560984384952 0 -0.0017515387639161582 -0.0081239739964792182 0 -0.001764805227948427 -0.0079029755685520887 0 -0.0017515387639161582 -0.0081239739964792182 0 -0.0015068580676653553 -0.0081143825330693194 0 -0.001764805227948427 -0.0079029755685520887 0 -0.0020669650350645073 -0.0078271560984384952 0 -0.0017515387639161582 -0.0081239739964792182 0 -0.0018196905548869889 -0.0082880946429995019 0 -0.0017515387639161582 -0.0081239739964792182 0 -0.0015706259404846055 -0.0082861820971087841 0 -0.0017515387639161582 -0.0081239739964792182 0 -0.0015706259404846055 -0.0082861820971087841 0 -0.0015068580676653553 -0.0081143825330693194 0 -0.0013628185513752174 -0.0081160109265658309 0 -0.0015068580676653553 -0.0081143825330693194 0 -0.0013698056559781661 -0.0081463480787280339 0 -0.0010816955798296458 -0.0095988601732190509 0 -0.00074414217793926818 -0.0092399181957177456 0 -0.00058952409991599173 -0.0097854671399936945 0 -0.0010816955798296458 -0.0095988601732190509 0 -0.0010879308605447554 -0.010366433938430007 0 -0.00058952409991599173 -0.0097854671399936945 0 -0.0012182272053760175 -0.0088376899551813101 0 -0.0012558710884673127 -0.0094372991351747253 0 -0.0015706259404846055 -0.0082861820971087841 0 -0.0013698056559781661 -0.0081463480787280339 0 -0.0013963405386178448 -0.0083606931123258819 0 -0.0015706259404846055 -0.0082861820971087841 0 -0.0015068580676653553 -0.0081143825330693194 0 -0.0013698056559781661 -0.0081463480787280339 0 -0.0015487791819830464 -0.0084897764370519165 0 -0.0015706259404846055 -0.0082861820971087841 0 -0.0013963405386178448 -0.0083606931123258819 0 -0.0010879308605447554 -0.010366433938430007 0 -0.00033117565024074993 -0.010446673658801444 0 -0.00058952409991599173 -0.0097854671399936945 0 -0.0010879308605447554 -0.010366433938430007 0 -0.0011063651902312465 -0.011232227481893663 0 -0.00070975737106475562 -0.01117873841420019 0 -0.0010879308605447554 -0.010366433938430007 0 -0.00033117565024074993 -0.010446673658801444 0 -0.00070975737106475562 -0.01117873841420019 0 -0.0015487791819830464 -0.0084897764370519165 0 -0.0013963405386178448 -0.0083606931123258819 0 -0.0013993817202659906 -0.0086036829771908852 0 -0.0012558710884673127 -0.0094372991351747253 0 -0.0011494070513214305 -0.0096131517433606303 0 0.0032641467269247278 -0.021167823449911853 0 0.0028447279168803625 -0.020515427476671375 0 0.0036235892845618615 -0.0205887862562712 0 0.0032641467269247278 -0.021167823449911853 0 0.0028447279168803625 -0.020515427476671375 0 0.0024226920993010181 -0.021208137116709359 0 0.0012270894547733665 -0.015766896823878676 0 0.00049746705575509957 -0.014875241803858342 0 0.0028447279168803625 -0.020515427476671375 0 0.0032387225103686209 -0.019747626281685225 0 0.0036235892845618615 -0.0205887862562712 0 0.0032387225103686209 -0.019747626281685225 0 0.0037822022765770266 -0.020101937797713239 0 0.0036235892845618615 -0.0205887862562712 0 -0.00033117565024074993 -0.010446673658801444 0 -7.3007792233680189e-05 -0.0096216896046418809 0 -0.00058952409991599173 -0.0097854671399936945 0 0.0012270894547733665 -0.015766896823878676 0 0.0016064758205743669 -0.014416564256295089 0 -0.00074414217793926818 -0.0092399181957177456 0 -0.00058952409991599173 -0.0097854671399936945 0 -0.000340834455398233 -0.0094125487227523907 0 -7.3007792233680189e-05 -0.0096216896046418809 0 -0.00058952409991599173 -0.0097854671399936945 0 -0.000340834455398233 -0.0094125487227523907 0 -0.00044795018776125827 -0.0090705443695464731 0 -0.00074414217793926818 -0.0092399181957177456 0 -0.000340834455398233 -0.0094125487227523907 0 -4.0497405119828508e-05 -0.0092801945852339657 0 -7.3007792233680189e-05 -0.0096216896046418809 0 -0.000340834455398233 -0.0094125487227523907 0 -0.00039963261967016856 -0.0092561793240645181 0 -4.0497405119828508e-05 -0.0092801945852339657 0 -7.3007792233680189e-05 -0.0096216896046418809 0 0.0017750205160679293 -0.015274480566444525 0 0.0016064758205743669 -0.014416564256295089 0 0.0048944364544807962 -0.023790454950281294 0 0.0052638865452560232 -0.02373772919574927 0 0.0051777941568143387 -0.023270298822612608 0 0.0036922533140444618 -0.018812992104451955 0 0.0032387225103686209 -0.019747626281685225 0 0.0040217500721918386 -0.019610784077335498 0 0.0017750205160679293 -0.015274480566444525 0 0.0051055011177758586 -0.022603568979297169 0 0.0051777941568143387 -0.023270298822612608 0 0.0045663141412529721 -0.023537368007726583 0 0.0047055112897558104 -0.022950189654684591 0 0.0055244950307675655 -0.024915315286760158 0 0.0044647081427986708 -0.023337333825402581 0 0.0048944364544807962 -0.023790454950281294 0 0.0051777941568143387 -0.023270298822612608 0 0.0045663141412529721 -0.023537368007726583 0 0.0051777941568143387 -0.023270298822612608 0 0.0047055112897558104 -0.022950189654684591 0 0.0049096379904079081 -0.022208155950218404 0 0.0045663141412529721 -0.023537368007726583 0 0.0047055112897558104 -0.022950189654684591 0 0.0041274952171185299 -0.022722426600693478 0 0.0047055112897558104 -0.022950189654684591 0 0.0041274952171185299 -0.022722426600693478 0 0.0049096379904079081 -0.022208155950218404 0 0.0051055011177758586 -0.022603568979297169 0 0.0044247376402486074 -0.021067026562842133 0 0.0032387225103686209 -0.019747626281685225 0 0.0040217500721918386 -0.019610784077335498 0 0.0037822022765770266 -0.020101937797713239 0 0.0040217500721918386 -0.019610784077335498 0 0.0037822022765770266 -0.020101937797713239 0 0.0042512575268754994 -0.020418752974488447 0 0.0026223529792834487 -0.024967739972620258 0 0.0027906076821088976 -0.023596666971746966 0 0.003638763964368151 -0.023755887875873172 0 0.0027906076821088976 -0.023596666971746966 0 0.003638763964368151 -0.023755887875873172 0 0.003290666842052111 -0.02290995471327225 0 0.0045663141412529721 -0.023537368007726583 0 0.003638763964368151 -0.023755887875873172 0 0.0041274952171185299 -0.022722426600693478 0 0.0038309673458640893 -0.024715311314188748 0 0.0045663141412529721 -0.023537368007726583 0 0.003638763964368151 -0.023755887875873172 0 0.003638763964368151 -0.023755887875873172 0 0.0041274952171185299 -0.022722426600693478 0 0.003290666842052111 -0.02290995471327225 0 0.0041274952171185299 -0.022722426600693478 0 0.003290666842052111 -0.02290995471327225 0 0.0035505737289429073 -0.02192963025990283 0 0.0023499502495975197 -0.022561212393524096 0 0.003290666842052111 -0.02290995471327225 0 0.0035105378810932971 -0.022155581128256639 0 0.0023499502495975197 -0.022561212393524096 0 0.0027906076821088976 -0.023596666971746966 0 0.003290666842052111 -0.02290995471327225 0 0.0033221358523933043 -0.022765952895410061 0 0.0034694756324392746 -0.022104946709951549 0 0.0023499502495975197 -0.022561212393524096 0 0.0025780710770571921 -0.021556713582179771 0 0.0035105378810932971 -0.022155581128256639 0 0.0035505737289429073 -0.02192963025990283 0 0.0041327453350668408 -0.02176619424416314 0 0.0040262243350949849 -0.021156360247887047 0 0.0034694756324392746 -0.022104946709951549 0 0.0022962826846572408 -0.020495715404034654 0 0.0041274952171185299 -0.022722426600693478 0 0.0035505737289429073 -0.02192963025990283 0 0.0041327453350668408 -0.02176619424416314 0 0.0041327453350668408 -0.02176619424416314 0 0.0040262243350949849 -0.021156360247887047 0 0.0041890236274203197 -0.021123239117234762 0 0.00070695547486855615 -0.022266263258269619 0 0.0013780065883809798 -0.022144668896404214 0 0.00098636740858822373 -0.021663496565193268 0 0.0017378318547071677 -0.021917358486575129 0 0.0022962826846572408 -0.020495715404034654 0 0.0025780710770571921 -0.021556713582179771 0 0.0035105378810932971 -0.022155581128256639 0 0.0037367558409540048 -0.021371163126768841 0 0.0037822022765770266 -0.020101937797713239 0 0.0036235892845618615 -0.0205887862562712 0 0.0042512575268754994 -0.020418752974488447 0 0.0036235892845618615 -0.0205887862562712 0 0.0042512575268754994 -0.020418752974488447 0 0.0041953225715077253 -0.021094220717050163 0 0.0041327453350668408 -0.02176619424416314 0 0.0049096379904079081 -0.022208155950218404 0 0.0041890236274203197 -0.021123239117234762 0 0.0044247376402486074 -0.021067026562842133 0 0.0043122104417693784 -0.021208931447619692 0 0.0041274952171185299 -0.022722426600693478 0 0.0041327453350668408 -0.02176619424416314 0 0.0049096379904079081 -0.022208155950218404 0 0.0042512575268754994 -0.020418752974488447 0 0.0041890236274203197 -0.021123239117234762 0 0.0041953225715077253 -0.021094220717050163 0 0.0010662169617610903 -0.017712473490835216 0 0.001025389421432976 -0.017686926999007997 0 0.0010374006015513495 -0.017703437620009789 0 0.0040262243350949849 -0.021156360247887047 0 0.0041890236274203197 -0.021123239117234762 0 0.0041953225715077253 -0.021094220717050163 0 0.0022962826846572408 -0.020495715404034654 0 0.0026365573078340316 -0.019217251410949456 0 0.0032641467269247278 -0.021167823449911853 0 0.0036235892845618615 -0.0205887862562712 0 0.0041953225715077253 -0.021094220717050163 0 0.0022916815861223267 -0.019911230480372338 0 0.0026365573078340316 -0.019217251410949456 0 0.001025389421432976 -0.017686926999007997 0 0.00099701027139096482 -0.017685720590847234 0 0.0010165970624749277 -0.017700323674381686 0 0.00097979898711890619 -0.017654215202162312 0 0.001025389421432976 -0.017686926999007997 0 0.00099701027139096482 -0.017685720590847234 0 0.00099701027139096482 -0.017685720590847234 0 0.0010165970624749277 -0.017700323674381686 0 0.0010095280442025264 -0.017704148483371922 0 0.001025389421432976 -0.017686926999007997 0 0.0010374006015513495 -0.017703437620009789 0 0.0010165970624749277 -0.017700323674381686 0 0.0010374006015513495 -0.017703437620009789 0 0.0010181287115546547 -0.017720717544755508 0 0.0010565311868291187 -0.01771907635388496 0 0.0010374006015513495 -0.017703437620009789 0 0.0010181287115546547 -0.017720717544755508 0 0.0010165970624749277 -0.017700323674381686 0 0.0010181287115546547 -0.017720717544755508 0 0.0010165970624749277 -0.017700323674381686 0 0.0010095280442025264 -0.017704148483371922 0 0.00093749998718519389 -0.017320353994856919 0 0.0010507838731147682 -0.018982012062580361 0 0.0012583134816099102 -0.019602441279458011 0 0.0010507838731147682 -0.018982012062580361 0 0.0010181287115546547 -0.017720717544755508 0 0.0010111324026386391 -0.017710741668414659 0 0.0010112886492565361 -0.017714282338459238 0 0.0010181287115546547 -0.017720717544755508 0 0.0010565311868291187 -0.01771907635388496 0 0.0010409712081456443 -0.017833373551604682 0 0.0010181287115546547 -0.017720717544755508 0 0.0010111324026386391 -0.017710741668414659 0 0.0010095280442025264 -0.017704148483371922 0 0.0010111324026386391 -0.017710741668414659 0 0.001006750664121561 -0.01771285352040735 0 0.0010112886492565361 -0.017714282338459238 0 0.0010111324026386391 -0.017710741668414659 0 0.00099960167207385352 -0.01770339834985267 0 0.001006750664121561 -0.01771285352040735 0 0.00099701027139096482 -0.017685720590847234 0 0.00099960167207385352 -0.01770339834985267 0 0.0010095280442025264 -0.017704148483371922 0 0.00099701027139096482 -0.017685720590847234 0 0.00099960167207385352 -0.01770339834985267 0 0.00096777600395457066 -0.017692818665209914 0 0.0010111324026386391 -0.017710741668414659 0 0.00099960167207385352 -0.01770339834985267 0 0.0010095280442025264 -0.017704148483371922 0 0.0010662169617610903 -0.017712473490835216 0 0.0010374006015513495 -0.017703437620009789 0 0.0010565311868291187 -0.01771907635388496 0 0.0022962826846572408 -0.020495715404034654 0 0.0012583134816099102 -0.019602441279458011 0 0.0013780065883809798 -0.022144668896404214 0 0.00098636740858822373 -0.021663496565193268 0 0.0015643239011165428 -0.021504953249073928 0 0.00098636740858822373 -0.021663496565193268 0 0.0015643239011165428 -0.021504953249073928 0 0.0012096656241766151 -0.020989921996326079 0 0.0015643239011165428 -0.021504953249073928 0 0.0012096656241766151 -0.020989921996326079 0 0.0017542270375612615 -0.020857120025070744 0 0.00039709397488639812 -0.02254653413025549 0 6.10643323065741e-05 -0.022716214957268423 0 0.00033232910831778331 -0.022256767357479276 0 0.00098636740858822373 -0.021663496565193268 0 0.0012096656241766151 -0.020989921996326079 0 0.00069557814642046557 -0.021250069264261991 0 0.0008772955205441366 -0.021732964530366831 0 0.00029300824855908009 -0.023722921983812328 0 0.00029300824855908009 -0.023722921983812328 0 0.00017465359842826737 -0.024340669696818897 0 -4.0251658249841751e-05 -0.025924736757039827 0 3.2303387252677278e-05 -0.026030976959538068 0 0.00022139300143191702 -0.025845377931462649 0 0.00033232910831778331 -0.022256767357479276 0 0.00065330825551606557 -0.022097857821051035 0 0.0007202592667009376 -0.022374796250497632 0 0.00039709397488639812 -0.02254653413025549 0 0.00033232910831778331 -0.022256767357479276 0 0.0007202592667009376 -0.022374796250497632 0 0.0012096656241766151 -0.020989921996326079 0 0.0017542270375612615 -0.020857120025070744 0 0.0017252815644851994 -0.020729235610089124 0 0.0008772955205441366 -0.021732964530366831 0 0.00089109767908548 -0.020008419764718441 0 0.00042878118947564669 -0.025562195449333705 0 0.00022967695390111308 -0.025605141734425824 0 0.00022139300143191702 -0.025845377931462649 0 0.00055758555319859293 -0.022848889692050307 0 0.00017465359842826737 -0.024340669696818897 0 0.00059393569845674066 -0.021827985740013687 0 0.00033232910831778331 -0.022256767357479276 0 0.00065330825551606557 -0.022097857821051035 0 0.0011162581044911891 -0.018005701736842405 0 0.0010501447222469157 -0.017744378042527369 0 0.0010759524788222631 -0.017876321950047461 0 0.00055758555319859293 -0.022848889692050307 0 0.00072831271738899234 -0.019542539604076904 0 8.247456286272832e-05 -0.025667461386305199 0 -1.7767466073463567e-05 -0.025800447410659146 0 0.00022139300143191702 -0.025845377931462649 0 8.247456286272832e-05 -0.025667461386305199 0 0.00022967695390111308 -0.025605141734425824 0 0.00022139300143191702 -0.025845377931462649 0 0.00099960167207385352 -0.01770339834985267 0 0.00099278625682222956 -0.017721674067399957 0 0.00096777600395457066 -0.017692818665209914 0 0.00099960167207385352 -0.01770339834985267 0 0.00099278625682222956 -0.017721674067399957 0 0.001006750664121561 -0.01771285352040735 0 0.0009783720585655525 -0.01765636859282407 0 0.0012501876628730852 -0.018864074033613804 0 0.00091667445797362606 -0.017758479845655092 0 0.0010008387779164326 -0.017717323671015511 0 0.00098030031553503335 -0.01775841975712528 0 0.00091667445797362606 -0.017758479845655092 0 0.0010029794217465433 -0.017710272716464401 0 0.0010008387779164326 -0.017717323671015511 0 0.00099278625682222956 -0.017721674067399957 0 0.001006750664121561 -0.01771285352040735 0 0.001012743717712679 -0.017718769690581181 0 0.001006750664121561 -0.01771285352040735 0 0.0010112886492565361 -0.017714282338459238 0 0.001012743717712679 -0.017718769690581181 0 0.0010507838731147682 -0.018982012062580361 0 0.00089109767908548 -0.020008419764718441 0 0.0010507838731147682 -0.018982012062580361 0 0.0012501876628730852 -0.018864074033613804 0 0.0012501876628730852 -0.018864074033613804 0 0.00089109767908548 -0.020008419764718441 0 0.0010019404163509708 -0.017715268050056045 0 0.00100733371057419 -0.017713784478635856 0 0.0010008387779164326 -0.017717323671015511 0 0.0012501876628730852 -0.018864074033613804 0 0.0012646048535637213 -0.018768730951556935 0 0.00089816850790638174 -0.01925173538738801 0 0.00082183883205969618 -0.019510070322928258 0 0.00094343106410709333 -0.019452999500572207 0 0.0010501447222469157 -0.017744378042527369 0 0.00100733371057419 -0.017713784478635856 0 0.0010008387779164326 -0.017717323671015511 0 0.00072831271738899234 -0.019542539604076904 0 0.00089109767908548 -0.020008419764718441 0 0.0010501447222469157 -0.017744378042527369 0 0.00098030031553503335 -0.01775841975712528 0 0.0010026688746260172 -0.017809462710714739 0 0.0010501447222469157 -0.017744378042527369 0 0.0010008387779164326 -0.017717323671015511 0 0.00098030031553503335 -0.01775841975712528 0 0.0010003972208431472 -0.017867001386071869 0 0.0010759524788222631 -0.017876321950047461 0 0.0010026688746260172 -0.017809462710714739 0 0.0010501447222469157 -0.017744378042527369 0 0.0010759524788222631 -0.017876321950047461 0 0.0010026688746260172 -0.017809462710714739 0 0.0010003972208431472 -0.017867001386071869 0 0.0010026688746260172 -0.017809462710714739 0 0.00094406702542371688 -0.017801002222529869 0 0.00098030031553503335 -0.01775841975712528 0 0.0010026688746260172 -0.017809462710714739 0 0.00094406702542371688 -0.017801002222529869 0 0.00091667445797362606 -0.017758479845655092 0 0.00094406702542371688 -0.017801002222529869 0 0.00091390876108725112 -0.017784464412302945 0 0.00091667445797362606 -0.017758479845655092 0 0.00091390876108725112 -0.017784464412302945 0 0.00093308248922284508 -0.017733352106262226 0 0.00091667445797362606 -0.017758479845655092 0 0.00098030031553503335 -0.01775841975712528 0 0.00094406702542371688 -0.017801002222529869 0 0.0009783720585655525 -0.01765636859282407 0 0.00091945348248628539 -0.017752136363656818 0 0.00093308248922284508 -0.017733352106262226 0 0.00096777600395457066 -0.017692818665209914 0 0.00092709964789832431 -0.017686590811870941 0 0.00099278625682222956 -0.017721674067399957 0 0.00093308248922284508 -0.017733352106262226 0 0.00096777600395457066 -0.017692818665209914 0 0.00096777600395457066 -0.017692818665209914 0 0.00092709964789832431 -0.017686590811870941 0 0.00095164636408085889 -0.017660111499822415 0 0.0009227780686193735 -0.017711019858089063 0 0.00093308248922284508 -0.017733352106262226 0 0.00092709964789832431 -0.017686590811870941 0 0.0009227780686193735 -0.017711019858089063 0 0.00092709964789832431 -0.017686590811870941 0 0.00090714164624040991 -0.017673824911557969 0 0.000894099262748183 -0.01762430400446036 0 0.00090714164624040991 -0.017673824911557969 0 0.0008998564201994734 -0.017664948119722811 0 0.00090714164624040991 -0.017673824911557969 0 0.0008998564201994734 -0.017664948119722811 0 0.00091065986133147129 -0.017666845250772396 0 0.00092709964789832431 -0.017686590811870941 0 0.00090714164624040991 -0.017673824911557969 0 0.00091065986133147129 -0.017666845250772396 0 0.000894099262748183 -0.01762430400446036 0 0.00092730962106355071 -0.017517912782078832 0 0.00088760674035890318 -0.017667788997978679 0 0.000894099262748183 -0.01762430400446036 0 0.00088760674035890318 -0.017667788997978679 0 0.0008998564201994734 -0.017664948119722811 0 0.00088760674035890318 -0.017667788997978679 0 0.0008998564201994734 -0.017664948119722811 0 0.00090277050788613018 -0.017628362624632948 0 -0.0015174863305652505 -0.0093128551245322023 0 -0.0016478525016501043 -0.0088536169277875706 0 -0.0013739737076279401 -0.0089154703712346749 0 -0.00033296927903515568 -0.013551740380503835 0 -0.00028276826123288946 -0.012950657694305593 0 0.0008998564201994734 -0.017664948119722811 0 0.00091065986133147129 -0.017666845250772396 0 0.00090277050788613018 -0.017628362624632948 0 0.00092709964789832431 -0.017686590811870941 0 0.00091065986133147129 -0.017666845250772396 0 0.00090277050788613018 -0.017628362624632948 0 -0.0013739737076279401 -0.0089154703712346749 0 -0.0013684234467392607 -0.0088304711369143595 0 -0.0012906986379328425 -0.0087891579010782907 0 0.00092709964789832431 -0.017686590811870941 0 0.00090277050788613018 -0.017628362624632948 0 0.00095164636408085889 -0.017660111499822415 0 0.00090277050788613018 -0.017628362624632948 0 0.00093378019238762443 -0.017616817843053509 0 0.00095164636408085889 -0.017660111499822415 0 -0.0016478525016501043 -0.0088536169277875706 0 -0.0013739737076279401 -0.0089154703712346749 0 -0.0015053639804267702 -0.0087916378261144873 0 -0.0013739737076279401 -0.0089154703712346749 0 -0.0013684234467392607 -0.0088304711369143595 0 -0.0015053639804267702 -0.0087916378261144873 0 -0.0015813867248949513 -0.0086337605353152373 0 -0.0015487791819830464 -0.0084897764370519165 0 -0.0013993817202659906 -0.0086036829771908852 0 -0.0015977211291100183 -0.008645814042075213 0 -0.0015053639804267702 -0.0087916378261144873 0 -0.001367023780535182 -0.0086478439915087992 0 -0.0016140658902519429 -0.0086341566778838624 0 -0.0011494070513214305 -0.0096131517433606303 0 -0.001303642166683338 -0.0086406403959478559 0 -0.0011494070513214305 -0.0096131517433606303 0 -0.0013684234467392607 -0.0088304711369143595 0 -0.0015053639804267702 -0.0087916378261144873 0 -0.001367023780535182 -0.0086478439915087992 0 -0.00028276826123288946 -0.012950657694305593 0 0.00049746705575509957 -0.014875241803858342 0 -0.0013684234467392607 -0.0088304711369143595 0 -0.0013539872452654833 -0.0087936557745880977 0 -0.0012906986379328425 -0.0087891579010782907 0 -0.0011494070513214305 -0.0096131517433606303 0 0.00049746705575509957 -0.014875241803858342 0 0.00097979898711890619 -0.017654215202162312 0 0.00093378019238762443 -0.017616817843053509 0 0.00095164636408085889 -0.017660111499822415 0 0.0022916815861223267 -0.019911230480372338 0 0.00049746705575509957 -0.014875241803858342 0 0.00097979898711890619 -0.017654215202162312 0 0.00099701027139096482 -0.017685720590847234 0 0.00095164636408085889 -0.017660111499822415 0 0.00099701027139096482 -0.017685720590847234 0 0.00096777600395457066 -0.017692818665209914 0 0.00095164636408085889 -0.017660111499822415 0 
</DataArray>
</PointData>
<CellData Scalars="region_id,cross_section_updated," Vectors="" Tensors="stress,">
<DataArray type="Float64" Name="region_id" format="ascii">
5 5 5 5 5 5 5 5 5 6 5 5 6 5 5 5 5 5 5 6 5 6 5 5 6 5 5 5 6 5 5 5 6 5 6 6 5 5 5 6 5 5 5 5 6 6 5 6 5 5 5 5 5 6 5 6 5 5 5 5 6 5 5 5 5 5 5 5 5 5 5 5 5 5 6 5 5 5 6 5 5 5 5 5 5 5 5 5 5 5 5 5 5 6 5 5 5 5 5 6 5 5 6 5 5 5 5 6 5 5 6 5 5 5 5 5 5 6 5 5 5 5 5 5 5 6 5 5 6 5 5 5 5 5 5 5 5 5 5 5 5 5 5 5 5 6 5 5 5 6 5 5 5 6 5 6 5 5 6 5 6 5 5 6 5 5 5 5 5 5 5 5 6 5 5 6 5 5 5 5 5 5 5 5 5 5 6 5 5 5 6 5 5 5 5 5 5 5 5 5 5 5 5 5 6 5 5 5 6 6 5 5 5 5 5 5 5 5 6 5 5 5 5 5 6 5 5 5 5 5 5 5 5 5 5 5 5 5 5 5 5 6 5 5 5 5 5 5 5 5 5 6 5 5 5 5 5 5 5 5 5 6 6 5 5 5 5 5 5 5 5 5 5 5 5 5 5 5 5 5 5 5 5 5 5 5 5 5 5 5 5 5 5 5 5 5 5 5 5 6 5 5 5 5 5 5 5 6 5 5 5 5 5 6 5 5 5 5 5 5 5 5 5 5 5 5 5 5 5 5 5 5 5 5 5 5 5 5 6 5 5 6 6 5 5 5 5 5 5 5 6 6 5 5 5 5 5 5 5 5 5 5 5 5 5 5 5 5 6 5 5 5 5 5 5 5 5 6 5 6 5 5 5 5 6 6 5 5 5 5 5 5 5 6 5 5 5 5 5 5 5 6 5 5 5 6 5 5 5 5 5 5 5 5 5 5 5 5 5 5 5 5 5 5 5 5 5 5 5 6 5 5 5 5 5 5 5 6 6 5 5 5 6 5 5 5 5 5 5 5 5 5 5 5 5 5 5 5 6 5 5 5 5 6 5 5 5 6 5 5 5 5 6 5 5 5 5 5 5 5 5 5 5 5 5 6 5 5 5 5 6 5 5 5 5 6 5 5 6 5 5 5 5 5 6 5 6 6 5 5 6 5 5 5 5 5 5 5 6 5 5 5 6 6 5 5 5 5 6 5 5 5 5 5 5 5 6 5 6 6 5 5 5 5 5 5 5 5 5 5 5 5 5 5 5 5 5 5 5 5 5 5 5 5 5 5 5 6 5 5 5 5 5 6 5 5 5 5 5 5 6 5 6 5 5 6 5 5 6 5 5 6 6 5 5 5 6 5 6 5 5 5 5 5 5 5 6 5 5 6 5 5 5 6 5 5 6 5 5 5 5 6 5 5 5 5 5 6 5 5 5 5 5 5 5 5 5 5 6 5 5 6 5 5 5 6 5 5 5 5 6 5 5 6 5 5 5 5 5 5 5 5 5 5 5 5 5 5 5 5 6 5 5 5 5 6 5 5 5 6 5 5 5 5 5 5 5 6 5 5 5 5 5 5 5 5 5 5 5 5 5 5 5 5 5 5 5 5 6 5 5 5 5 5 5 5 6 5 5 5 6 5 5 5 5 5 6 6 5 5 5 5 5 5 5 5 5 6 5 5 6 5 5 5 5 5 6 5 5 5 5 5 5 5 6 5 5 5 5 6 5 6 5 5 5 6 5 5 5 5 5 5 5 5 5 5 5 6 5 5 5 5 5 5 5 5 5 6 5 5 5 5 5 5 5 5 5 6 5 5 5 5 5 5 6 5 5 5 5 5 5 6 5 5 6 6 5 5 5 6 5 5 5 5 6 5 5 5 5 5 5 5 6 5 5 5 5 5 5 5 5 5 5 5 5 5 6 5 5 5 5 5 5 5 5 5 5 5 5 5 5 5 5 5 6 5 5 5 5 5 5 5 5 5 5 5 5 6 5 5 5 5 5 5 6 5 5 6 6 5 6 5 5 5 5 5 5 5 5 5 5 5 5 5 5 5 5 5 5 6 5 5 5 5 5 5 5 5 5 5 5 5 5 5 6 6 6 5 5 5 5 6 5 5 5 5 5 5 5 5 5 5 5 6 5 5 5 5 6 6 5 5 6 5 5 5 6 5 5 6 5 5 5 5 5 5 5 5 5 5 5 5 5 5 5 5 5 5 5 5 5 5 5 5 5 5 5 5 5 5 5 5 5 5 5 5 5 5 5 5 5 5 5 6 5 5 5 6 5 5 5 6 5 5 5 5 5 5 5 6 5 5 5 5 6 5 6 5 5 6 5 6 5 5 5 5 5 5 5 5 5 5 5 5 5 5 5 5 6 5 5 5 5 5 6 5 5 6 5 6 5 5 5 5 5 6 5 5 5 5 5 5 5 5 5 5 5 5 5 5 5 5 6 5 5 5 5 5 6 5 5 5 5 5 5 5 5 5 5 5 6 6 5 5 5 5 5 6 5 5 5 5 5 5 5 5 5 5 5 5 6 5 5 5 5 5 5 5 5 6 5 5 6 5 5 6 5 5 5 5 5 6 5 5 5 5 6 5 6 6 5 5 5 5 6 5 5 5 6 5 5 5 6 5 5 5 5 5 6 5 5 5 6 5 5 5 5 5 5 5 5 5 5 5 5 5 5 5 5 5 5 5 5 5 5 5 5 5 5 5 5 5 5 5 6 5 5 5 5 5 5 6 5 5 5 5 5 5 5 5 5 5 5 5 5 5 6 5 6 5 5 5 5 5 6 5 5 6 5 5 5 5 5 5 5 5 5 6 6 5 6 5 5 5 6 5 5 5 6 5 5 5 5 5 5 5 6 5 5 5 5 5 6 5 6 5 5 5 6 5 5 5 6 5 6 5 5 5 6 5 5 5 5 5 6 6 5 6 5 6 6 5 6 5 5 6 6 5 6 6 5 5 6 5 5 6 6 5 5 6 5 5 5 5 5 5 5 5 5 5 5 5 5 5 6 5 5 6 5 6 5 5 5 5 5 6 5 5 6 5 5 5 5 5 6 5 5 6 5 5 5 6 6 6 5 6 5 6 5 6 5 5 6 6 5 6 6 5 5 6 5 6 6 5 5 5 6 5 5 5 6 6 5 5 5 6 5 5 6 5 5 5 5 6 5 6 6 5 5 5 6 5 5 5 5 5 5 5 5 6 5 5 6 5 6 5 5 5 5 6 5 5 6 5 5 6 5 5 5 6 5 6 5 5 6 5 5 6 5 5 5 5 5 5 5 5 5 5 6 5 5 5 5 5 5 6 5 5 5 6 5 6 5 6 5 5 5 5 5 5 5 5 5 5 6 5 5 5 5 5 5 6 5 5 5 5 5 5 5 5 5 5 5 5 5 5 5 5 5 5 5 6 5 5 5 5 5 5 5 5 5 5 5 5 5 5 5 5 5 5 5 5 5 5 5 5 5 5 6 5 5 5 6 5 5 5 5 5 5 5 5 5 5 5 5 5 5 5 5 5 5 5 5 5 6 5 5 5 5 5 5 5 5 5 5 6 5 5 6 5 5 5 5 6 5 5 5 5 6 5 5 5 5 5 5 5 5 5 5 5 5 5 5 5 6 5 5 5 5 5 5 5 5 5 5 5 5 6 5 5 5 5 6 5 5 5 5 5 5 5 6 5 5 5 5 6 5 5 5 5 6 5 5 5 5 5 5 5 5 5 6 5 5 5 6 5 6 5 5 5 5 5 5 5 5 5 5 5 5 5 5 5 5 5 5 5 5 5 5 5 5 5 5 6 5 5 5 5 5 5 5 6 5 5 5 5 6 5 5 5 5 5 5 5 5 5 5 5 5 5 5 5 6 5 5 5 5 6 5 5 5 5 5 5 5 6 5 5 5 5 5 5 5 5 5 5 5 5 5 5 5 5 5 5 5 5 5 5 5 5 5 5 5 5 5 5 5 5 5 5 5 5 5 5 5 5 5 5 5 5 5 5 5 5 5 5 5 5 5 5 5 5 5 5 5 5 5 5 6 5 5 5 5 5 6 5 5 5 5 5 5 5 5 5 5 5 5 6 5 5 5 5 6 5 5 5 6 5 5 5 5 5 6 5 5 5 5 6 6 6 5 5 5 5 5 5 6 6 5 5 6 5 5 5 5 5 6 6 5 6 5 5 5 5 5 6 5 6 6 5 5 5 5 5 5 5 5 5 5 5 5 5 5 5 5 5 5 5 5 6 5 5 5 5 5 5 5 5 6 5 5 6 5 5 5 5 5 6 6 5 5 5 5 6 6 5 6 5 5 5 5 6 5 5 5 5 5 6 5 5 5 5 6 5 5 5 5 5 5 5 5 5 5 5 6 5 5 6 5 6 5 5 5 5 5 5 5 5 5 5 5 5 5 5 5 5 6 6 6 5 5 6 5 5 5 5 5 5 5 5 5 5 5 5 5 5 5 5 5 5 5 5 5 5 5 5 5 5 5 5 5 5 5 5 5 5 5 6 5 5 5 5 5 5 5 5 6 5 5 5 5 5 5 5 5 6 5 5 5 5 5 5 5 5 6 5 5 5 5 5 5 5 5 5 5 6 5 5 5 6 5 5 5 5 5 6 5 5 5 5 6 5 5 5 5 5 5 6 5 5 5 6 5 5 6 5 5 6 6 5 5 6 6 5 5 6 5 5 5 5 6 5 6 5 5 5 6 6 5 5 5 5 5 5 5 5 5 5 5 5 5 5 5 5 5 5 5 5 5 5 5 5 5 5 5 5 5 5 5 5 5 5 5 5 5 5 5 5 5 5 5 5 5 5 5 5 6 5 5 5 5 5 5 5 5 5 5 5 5 5 5 5 5 5 5 5 5 6 5 5 5 5 5 5 5 5 5 5 6 5 5 5 5 6 5 5 5 5 5 5 5 5 5 5 5 6 5 5 5 5 6 5 6 5 5 5 6 5 6 6 5 5 6 5 5 5 5 5 6 5 5 5 5 5 5 5 5 5 5 5 5 6 5 5 6 5 5 5 5 5 5 5 6 5 5 5 6 5 5 5 5 5 5 5 6 5 5 5 5 6 5 5 6 6 5 5 5 5 6 5 5 5 5 5 5 5 5 5 5 5 5 5 5 5 5 5 5 5 5 5 5 5 5 5 6 6 5 5 5 5 5 5 5 5 5 5 5 5 5 6 6 6 5 5 6 6 5 5 5 5 5 6 5 5 5 6 5 5 5 5 5 6 5 5 5 6 5 5 5 5 5 5 5 5 5 6 5 5 5 6 5 6 5 5 6 5 6 5 5 5 5 6 5 5 6 5 5 5 5 5 6 5 5 6 5 6 5 6 5 5 5 5 5 5 5 6 5 5 5 5 5 5 5 5 5 5 5 5 5 5 6 5 6 5 5 5 5 5 6 5 6 5 5 6 5 5 5 5 5 6 5 5 5 5 6 5 6 5 6 5 5 6 5 5 5 5 6 5 6 5 5 5 5 6 6 6 5 5 6 5 5 6 6 5 5 5 6 5 5 6 6 5 5 5 5 6 5 5 5 5 5 5 5 5 5 5 5 5 6 5 5 6 5 5 5 5 5 5 5 5 5 5 5 5 5 5 5 5 5 5 5 5 5 5 5 5 5 5 5 6 5 5 5 5 5 5 5 5 5 5 5 5 5 5 5 5 5 5 5 5 5 5 5 5 5 5 5 5 5 5 5 5 5 5 5 5 6 5 5 5 5 5 6 6 5 5 5 5 5 5 6 5 5 5 5 5 5 6 5 6 5 6 5 5 5 5 5 5 5 5 5 5 5 5 5 5 5 5 5 5 5 5 5 5 6 5 5 5 5 5 5 5 5 5 5 5 5 5 6 5 5 5 5 5 5 6 5 5 5 5 5 5 5 5 5 6 5 5 6 5 5 5 5 5 5 5 6 5 5 5 5 5 6 5 5 6 5 5 6 5 6 5 5 6 5 6 5 5 6 6 5 5 6 6 5 6 5 6 5 5 5 5 6 5 6 5 5 5 5 5 5 5 5 5 5 5 5 5 6 5 5 6 6 5 5 5 6 5 5 5 5 5 6 5 6 5 5 5 5 5 5 5 5 5 5 6 5 6 5 5 6 5 5 5 6 6 6 5 5 5 6 5 5 5 5 6 5 5 5 6 5 5 5 5 5 6 5 5 5 5 5 5 5 5 5 5 5 5 5 5 5 5 6 5 5 6 5 5 5 5 5 5 5 5 5 5 5 5 5 5 5 5 5 5 5 5 6 6 5 6 5 5 5 5 5 5 5 5 5 5 5 6 5 5 5 5 5 5 5 5 5 5 5 6 5 5 5 5 5 6 6 5 5 5 6 5 5 6 5 5 6 6 6 5 5 5 5 5 6 5 5 5 5 5 6 5 5 5 5 5 5 5 6 5 5 5 5 5 6 5 5 6 5 5 5 5 5 5 6 6 5 5 5 5 5 6 5 6 5 6 5 5 5 6 5 5 5 6 5 5 6 5 5 5 5 5 5 6 5 5 5 5 5 5 5 5 5 5 5 5 5 5 5 5 5 6 5 5 5 6 5 5 5 5 5 5 6 5 5 6 5 5 5 5 6 5 5 5 5 5 5 5 5 5 5 5 5 5 5 5 5 5 5 5 6 5 5 5 6 6 5 5 5 6 5 5 5 6 5 5 6 5 5 5 5 5 5 5 5 5 5 5 5 5 5 5 5 5 5 5 5 5 5 6 5 5 5 6 5 5 5 5 5 5 5 5 5 5 5 5 5 5 5 5 5 5 5 5 5 6 5 5 5 6 5 5 5 5 5 5 5 5 5 5 5 5 5 6 6 6 5 6 6 5 5 5 5 5 5 6 5 6 6 5 5 5 5 5 5 6 5 5 6 5 6 5 6 5 5 5 5 5 5 5 5 5 6 5 5 5 5 5 5 6 6 5 5 5 5 5 5 5 5 5 5 5 5 5 5 5 5 5 5 5 5 5 5 6 5 5 5 5 6 5 6 5 5 5 5 5 6 5 5 5 5 5 5 5 6 5 5 5 6 5 5 5 5 5 5 5 5 5 5 5 5 5 5 5 5 5 5 5 5 5 5 5 5 6 5 5 5 5 6 5 5 5 5 5 5 5 5 5 5 5 5 5 5 5 5 5 5 5 5 5 5 5 5 5 5 5 5 5 6 5 5 5 5 6 5 6 5 5 5 5 5 5 5 5 6 5 5 6 5 5 5 5 5 5 5 5 5 5 5 5 5 5 5 5 5 5 5 5 5 5 5 5 5 5 5 5 5 5 5 5 5 5 5 5 5 5 5 6 5 5 5 5 5 5 5 5 5 5 5 5 5 6 5 5 5 5 5 5 5 5 5 5 6 5 5 5 6 6 5 5 5 6 5 5 5 5 5 5 5 5 5 5 5 5 5 5 5 5 6 5 5 5 5 6 5 5 5 5 5 5 5 5 5 5 5 5 5 5 5 5 6 5 5 5 5 5 5 5 5 5 5 5 5 5 5 5 5 6 5 5 5 5 5 5 5 5 5 5 5 5 6 5 5 6 5 5 5 5 5 5 5 5 6 5 6 5 5 5 5 5 5 5 5 5 5 5 5 5 6 5 5 5 5 6 5 5 5 5 5 5 5 6 5 5 6 5 5 5 5 5 5 5 5 5 6 5 5 5 5 5 5 5 5 6 5 5 5 6 5 5 5 5 5 5 5 5 5 5 5 5 5 5 5 5 5 5 6 5 5 5 5 5 5 5 6 5 5 6 5 5 5 5 5 5 5 5 5 5 5 5 5 5 5 5 5 5 5 5 5 5 5 5 5 5 5 5 5 5 5 6 5 5 5 5 6 5 5 5 6 5 5 5 5 5 6 5 5 5 5 5 5 5 5 5 5 5 5 5 5 5 5 5 5 5 6 5 5 5 5 5 5 5 5 5 5 5 5 6 5 5 5 5 5 5 5 5 5 5 5 5 5 5 5 5 5 5 5 5 5 6 5 5 5 5 5 5 5 6 5 6 5 5 5 5 5 5 5 5 5 5 5 5 5 5 5 5 5 5 5 6 5 5 5 5 5 5 5 5 5 5 5 5 5 5 5 5 5 5 5 5 5 5 6 5 5 5 5 5 5 5 5 5 5 5 5 5 5 5 6 5 5 5 5 5 5 5 5 5 5 6 5 5 5 5 5 5 6 5 5 5 5 5 6 5 5 5 5 6 5 5 5 6 5 5 6 5 5 5 5 5 5 5 5 5 5 5 5 6 5 5 5 5 5 5 6 5 5 5 6 5 6 5 6 5 5 5 5 5 5 5 6 5 6 5 5 5 5 5 5 5 5 5 5 5 5 5 5 5 5 5 5 5 5 5 5 5 5 6 5 5 5 5 5 5 5 5 5 5 5 5 5 5 5 5 5 5 5 6 6 5 5 5 5 5 5 5 5 6 6 5 5 5 5 5 5 5 5 6 5 5 6 5 5 5 5 6 5 5 5 5 6 6 5 5 5 5 5 6 6 5 5 6 5 5 5 5 5 5 5 5 5 5 5 5 5 5 5 5 5 5 5 5 5 5 5 5 5 5 5 5 5 5 5 5 6 5 5 5 6 5 5 5 5 5 6 5 6 5 5 5 5 5 5 5 5 5 6 5 5 5 5 5 5 5 5 5 5 5 5 5 5 5 5 5 5 5 5 5 5 5 5 5 6 5 6 5 6 5 5 5 6 5 5 5 5 5 5 5 5 6 5 5 5 5 5 5 5 5 5 5 5 5 6 5 5 5 5 5 5 5 5 5 5 5 6 5 5 5 5 5 5 5 5 5 5 5 5 5 5 5 5 5 5 5 5 5 5 5 5 5 5 6 5 6 5 5 6 5 5 5 5 5 6 5 5 5 5 5 5 5 5 6 5 5 5 5 5 5 5 6 5 5 6 5 5 5 5 5 5 5 5 5 6 5 5 5 5 5 5 5 6 5 5 6 5 5 5 5 5 5 6 5 6 5 5 5 5 5 5 5 5 5 5 5 5 6 5 5 5 5 6 5 5 5 5 5 5 5 6 5 5 5 5 6 5 5 6 5 5 6 5 5 5 5 5 5 5 5 5 5 5 5 5 5 5 5 5 5 5 5 5 5 5 6 5 6 5 5 5 5 5 6 5 5 5 5 5 5 6 5 5 5 5 5 6 5 5 5 6 5 5 5 5 6 5 5 6 6 6 6 5 5 5 5 6 5 5 5 5 5 5 5 5 5 5 5 6 5 5 5 5 6 5 5 5 5 5 5 5 5 5 5 5 5 5 5 5 5 5 5 6 5 5 5 5 5 5 6 5 5 6 5 5 6 5 5 5 5 5 5 5 5 6 5 5 5 5 6 5 5 5 5 5 5 5 5 5 5 5 5 5 5 5 5 5 5 6 6 6 5 5 6 5 5 5 6 5 5 5 5 5 5 5 5 5 5 5 5 5 5 6 5 6 5 5 5 6 5 5 5 5 5 5 5 5 5 5 5 5 5 5 6 5 5 5 6 6 5 5 5 5 5 5 5 5 5 5 5 5 5 5 5 5 5 5 5 5 5 5 5 5 5 5 5 6 5 6 5 5 6 5 5 6 5 5 5 5 6 6 5 5 5 5 5 5 5 5 6 5 5 5 5 5 5 5 5 5 5 5 5 5 5 5 5 5 6 5 6 5 5 5 5 5 5 5 5 5 5 5 5 5 5 5 5 5 5 5 5 5 5 6 5 5 5 5 5 5 5 5 5 5 5 5 5 5 5 5 6 5 5 5 5 5 5 6 5 6 5 5 5 5 5 5 5 6 5 6 5 6 5 5 5 5 5 5 6 5 6 5 5 5 5 5 5 5 5 5 5 5 5 5 6 5 5 5 5 5 5 6 5 5 5 5 6 5 5 6 5 6 5 5 6 6 5 5 5 5 5 6 5 5 5 6 5 5 5 5 5 5 5 5 6 5 5 5 5 5 5 5 5 5 5 5 5 5 5 5 5 5 5 5 5 5 5 5 5 5 5 6 5 6 6 5 5 5 5 5 5 5 6 5 5 5 5 6 6 6 6 5 5 5 5 6 5 6 5 5 5 6 6 5 5 5 6 5 6 5 5 5 5 5 5 5 6 5 5 5 6 5 5 5 6 5 6 5 5 5 6 6 5 5 6 5 5 6 6 5 5 6 5 5 5 5 6 6 5 5 5 5 5 6 5 6 5 5 5 5 5 5 6 5 5 5 5 5 5 6 5 5 5 6 5 5 5 5 5 5 5 5 5 5 5 5 5 5 6 6 6 5 6 5 5 5 5 6 5 5 5 5 5 5 5 5 5 5 5 5 5 5 5 5 5 5 5 5 5 6 5 5 5 6 5 6 5 6 5 5 5 6 5 5 5 5 5 5 5 5 5 5 5 6 5 5 5 6 5 5 5 5 6 5 5 5 6 5 6 6 5 6 5 5 5 5 5 5 5 5 5 5 5 5 5 5 5 5 5 5 5 5 5 6 6 5 5 5 5 6 5 5 6 5 5 5 5 5 5 5 5 5 5 6 5 5 5 6 5 6 6 5 5 5 5 5 5 5 5 5 6 5 6 5 5 6 5 6 5 6 5 5 6 5 5 5 6 5 5 5 5 5 5 5 5 6 5 5 5 5 6 5 5 5 5 5 5 6 5 5 6 5 6 5 5 5 5 6 6 5 5 5 6 5 6 5 5 5 6 5 5 5 6 5 5 5 5 5 5 5 5 5 5 5 5 5 5 5 5 5 5 5 5 5 5 5 5 5 6 6 5 5 5 5 5 5 6 5 5 5 6 5 5 5 6 5 6 6 5 5 5 5 5 5 5 5 5 5 5 5 5 6 6 5 5 5 6 5 5 5 5 5 5 5 5 5 5 5 5 5 5 6 5 5 6 5 6 5 6 5 5 5 5 5 5 5 5 5 6 5 5 5 5 5 6 5 5 5 6 5 5 5 5 5 6 5 5 6 5 5 5 5 5 5 5 5 6 5 5 6 5 6 5 5 6 6 5 6 5 6 5 5 5 5 5 6 5 6 5 6 5 5 5 5 6 6 5 6 5 6 5 5 5 5 6 6 5 5 5 5 5 6 5 5 5 6 5 6 6 5 6 5 5 5 5 5 5 6 5 5 5 5 6 5 5 5 5 6 6 5 5 5 5 5 5 5 5 5 5 5 5 6 5 5 5 5 5 5 5 5 5 5 5 5 5 5 5 5 6 5 5 5 6 5 5 5 5 6 6 5 5 5 5 5 6 5 5 6 5 5 5 6 5 6 5 6 6 5 6 5 5 5 6 5 5 6 6 5 5 5 6 6 5 6 5 5 6 5 5 5 5 6 5 5 5 5 5 5 5 5 6 6 5 5 5 5 5 6 5 6 5 5 5 5 5 5 5 5 5 5 5 6 6 5 5 5 5 5 5 5 5 6 5 5 6 5 5 5 5 6 5 6 5 5 5 5 5 5 5 5 5 6 5 5 5 5 5 5 5 5 5 5 5 5 5 5 5 5 5 5 5 5 5 5 5 5 5 5 6 5 5 5 5 5 5 5 5 5 6 5 5 6 5 5 5 5 5 5 5 5 5 5 5 5 5 5 5 5 6 5 6 5 5 5 5 5 6 5 5 5 6 5 5 6 5 5 5 5 5 5 5 5 5 5 5 5 5 5 5 5 5 6 5 5 5 5 5 5 5 5 5 5 6 5 5 5 5 5 5 5 5 5 5 5 5 5 5 5 5 5 5 5 5 5 5 5 5 5 6 5 5 5 5 5 5 5 5 5 5 5 5 5 5 5 5 5 5 5 5 5 5 5 5 5 5 6 6 5 5 5 6 5 6 5 6 6 5 5 5 5 5 5 5 5 6 5 6 5 5 6 5 5 6 5 5 5 5 5 5 5 5 5 5 5 5 5 5 5 5 5 5 5 5 5 5 5 5 5 5 5 5 5 5 5 5 5 5 5 5 5 6 6 5 5 5 5 5 5 5 5 6 6 5 5 5 5 5 5 5 5 5 5 5 5 5 5 5 5 5 5 5 5 6 6 5 5 5 6 5 5 5 5 5 5 6 5 5 5 5 5 5 5 5 5 5 5 6 5 5 6 5 5 6 5 5 5 5 5 5 5 5 5 5 5 5 5 6 5 6 5 5 5 5 6 5 5 6 5 6 5 6 5 5 6 5 5 6 5 5 5 5 5 5 5 5 5 5 5 5 5 5 5 5 5 5 5 5 5 5 5 5 5 5 6 5 5 6 5 5 5 5 5 5 6 5 5 5 5 5 5 5 5 5 5 6 5 5 5 5 5 5 5 5 5 5 5 6 5 5 5 6 6 5 5 5 5 5 5 6 5 5 5 6 5 5 6 5 5 6 5 6 5 5 5 5 5 5 5 6 5 5 6 6 5 5 5 6 6 5 6 5 6 5 5 5 6 5 5 5 6 6 5 5 5 5 6 5 5 5 5 6 6 5 5 5 6 6 5 5 5 5 5 6 5 5 5 6 6 5 5 5 5 6 5 5 5 5 5 5 5 5 5 5 5 5 5 5 5 6 6 5 5 5 5 5 6 5 5 5 5 5 6 6 5 5 5 5 5 5 6 5 5 5 5 5 5 5 5 5 5 5 5 6 5 6 5 5 5 5 5 5 5 6 5 5 6 5 6 5 5 5 5 5 6 5 5 5 6 5 5 5 5 5 5 6 5 5 5 5 5 5 5 5 5 5 5 5 5 5 5 5 5 5 5 5 5 6 5 6 5 5 6 5 5 5 5 5 5 6 5 5 5 5 5 5 5 5 5 5 5 5 5 5 5 6 5 5 5 5 5 5 5 6 5 5 6 5 5 5 5 5 5 5 5 5 5 5 5 5 5 5 5 5 5 5 5 5 5 5 5 5 5 5 5 5 5 5 5 5 5 5 5 5 5 5 5 6 6 5 5 5 5 5 5 5 5 6 5 6 5 6 6 5 6 5 5 5 5 6 5 5 5 5 5 5 5 5 5 5 5 5 5 5 5 5 5 5 5 5 5 5 5 5 5 5 5 5 5 5 5 5 6 5 5 5 5 6 6 5 5 5 5 5 5 5 5 5 5 5 5 5 5 5 5 5 5 6 5 5 5 5 5 5 6 5 6 6 5 6 6 5 5 5 5 6 6 5 5 5 5 5 5 5 5 5 5 5 5 5 5 5 5 5 5 5 5 5 5 5 5 5 5 5 5 5 5 5 5 5 5 5 5 5 5 5 5 5 6 5 6 5 5 6 5 5 5 6 6 5 6 5 5 5 5 5 5 6 5 5 5 6 5 5 5 6 5 5 6 6 6 5 5 5 6 5 5 5 6 5 5 5 5 6 5 5 5 5 5 5 6 5 5 5 5 5 5 5 5 5 5 5 6 5 5 5 5 5 6 5 5 5 5 6 5 5 5 5 5 5 5 5 5 5 5 5 5 5 5 6 5 5 5 5 5 5 5 5 5 5 5 5 5 5 5 5 5 5 5 5 5 5 5 5 5 5 6 5 5 5 5 5 5 5 5 5 5 5 5 5 5 5 5 5 6 5 5 5 5 5 5 5 5 5 5 5 5 5 6 6 5 5 6 5 6 5 5 5 5 5 5 5 5 5 5 5 5 5 6 5 5 5 5 5 6 5 5 5 5 5 5 5 5 5 5 5 5 5 5 5 5 5 5 5 5 5 5 5 5 5 5 5 5 5 6 5 5 5 5 5 5 5 5 5 5 6 5 5 5 5 5 5 5 5 5 5 5 5 5 5 5 5 5 5 5 5 5 5 5 5 5 5 5 5 5 5 5 5 5 5 5 5 5 6 5 5 5 6 5 5 5 5 5 5 5 5 6 5 5 5 5 5 5 6 5 5 6 5 5 5 5 5 5 5 5 5 5 5 5 5 5 5 5 6 5 5 5 6 5 5 5 5 5 5 5 5 5 5 5 5 5 5 5 6 5 5 6 5 5 5 5 5 5 5 5 5 5 5 5 6 5 6 5 5 5 5 6 5 5 6 5 5 6 6 6 5 5 5 5 5 5 5 6 5 5 5 5 5 5 6 5 5 5 6 5 6 5 5 5 5 5 5 5 5 5 5 5 5 5 5 5 5 5 5 6 5 6 5 5 5 6 5 6 5 5 6 5 5 5 5 5 6 5 5 5 6 5 5 5 5 5 5 5 5 5 5 5 5 5 5 5 5 5 5 5 6 5 5 6 5 6 5 5 6 5 5 5 6 5 5 5 5 6 5 5 5 5 5 5 5 6 5 5 6 5 5 6 5 5 5 6 5 5 5 5 6 5 5 5 5 5 5 5 5 6 5 5 5 5 5 5 6 5 5 5 5 5 6 5 5 5 5 5 5 6 5 5 5 5 5 5 5 5 6 5 5 5 5 5 5 5 5 5 5 5 5 5 5 5 5 5 5 5 5 5 5 5 5 5 6 5 6 6 5 5 5 5 5 5 6 5 5 5 5 5 5 5 5 5 5 5 5 6 5 5 5 5 5 5 5 5 5 6 5 5 5 6 5 5 6 6 5 5 5 5 5 5 5 5 5 5 5 5 5 5 5 5 5 5 5 5 5 6 5 5 5 5 6 5 5 5 5 6 5 6 5 5 5 5 6 5 5 5 5 5 5 6 5 5 5 5 5 5 5 5 6 5 6 5 5 5 6 5 5 5 6 5 6 5 5 6 5 5 5 6 6 5 5 5 5 6 5 5 6 5 5 5 6 5 5 5 5 5 5 6 5 5 5 5 6 5 6 6 5 5 5 5 6 5 5 6 5 5 5 6 5 5 5 5 5 5 6 5 6 6 5 5 5 5 5 5 6 5 5 5 5 5 5 5 5 5 5 5 5 5 5 5 5 5 5 5 5 5 6 5 6 5 5 5 5 5 5 5 5 5 5 5 5 5 5 5 5 5 5 5 5 5 5 5 5 5 5 5 5 5 5 5 5 5 5 5 5 5 5 5 5 5 5 5 5 5 5 5 5 5 5 5 5 5 5 5 5 5 5 6 5 5 5 5 5 6 5 5 5 5 5 5 5 5 6 5 5 5 5 5 5 5 5 5 5 6 5 5 5 5 5 5 5 5 5 5 5 5 5 5 5 5 5 5 5 5 5 5 5 5 5 5 5 5 5 5 5 5 5 5 5 5 5 5 5 5 5 5 5 5 5 5 5 5 5 5 5 5 5 5 5 5 5 5 5 5 5 5 5 5 5 5 5 5 5 5 5 5 6 5 5 6 5 6 5 5 5 5 5 5 6 5 6 5 5 5 5 5 5 5 5 6 5 5 6 5 5 5 5 5 5 5 5 6 5 5 5 5 6 5 5 6 5 5 5 5 5 5 6 6 5 5 5 5 5 5 5 5 5 5 5 5 6 5 5 6 6 5 5 5 5 5 6 5 6 5 5 5 5 5 6 6 5 5 5 6 5 5 5 5 5 5 6 5 5 5 5 5 6 5 5 6 5 5 5 5 5 6 5 5 6 6 5 6 5 6 5 5 5 5 6 5 5 5 5 5 5 5 5 6 5 5 5 6 5 5 5 5 5 6 6 6 5 5 6 5 6 5 6 6 6 6 5 5 5 5 5 5 5 5 6 5 5 5 5 5 5 5 5 5 5 5 6 5 5 5 5 5 5 5 5 5 6 6 5 5 5 5 5 5 5 5 5 5 5 5 5 5 5 5 5 5 6 5 5 5 5 5 5 5 5 5 5 5 5 5 5 6 5 5 5 5 5 6 5 6 6 5 5 6 5 5 6 5 5 5 5 5 5 5 5 5 5 5 5 5 5 5 5 5 5 5 5 5 5 6 6 5 5 5 5 5 6 5 5 6 5 5 6 5 5 5 5 5 6 5 5 5 6 5 5 5 5 6 6 5 5 5 5 6 5 6 5 5 5 6 6 5 5 5 5 5 5 5 5 5 5 6 5 5 5 5 6 5 5 5 5 5 5 5 6 5 5 5 5 5 5 5 5 5 5 5 6 5 5 6 5 5 5 5 5 5 5 5 5 5 5 6 5 5 6 5 5 5 5 5 6 5 6 5 6 5 5 5 5 5 6 5 6 5 5 5 6 5 5 5 5 5 6 5 5 6 5 6 5 5 5 5 5 5 5 5 5 5 5 5 5 5 5 5 5 5 6 5 5 5 5 5 5 6 5 5 6 5 5 5 6 5 5 5 5 6 5 5 5 5 5 5 6 5 5 6 5 5 5 5 5 5 5 5 5 5 5 5 5 5 5 5 5 5 5 5 5 5 5 6 5 5 5 5 5 6 5 5 5 6 5 6 5 6 5 5 5 5 5 6 5 5 6 5 6 5 5 5 5 5 5 5 5 5 5 6 5 5 5 5 6 6 5 5 5 6 5 5 6 5 5 5 5 5 5 5 5 5 5 5 5 5 5 6 5 5 5 5 5 5 5 6 5 5 5 5 5 5 5 5 5 5 6 6 5 6 5 6 5 5 6 5 5 5 5 5 5 5 5 5 5 6 5 5 5 6 5 5 5 5 6 5 5 5 5 5 5 5 5 5 6 5 5 5 5 5 5 5 5 5 5 5 5 5 5 5 5 5 5 5 5 5 5 5 5 5 5 5 5 5 5 5 5 5 5 5 5 5 5 5 5 5 5 5 5 5 5 5 5 5 5 6 5 5 5 5 5 5 5 5 5 5 5 5 5 5 5 5 6 5 5 5 5 6 5 5 5 5 5 6 5 6 5 6 5 5 5 6 5 5 5 5 5 5 6 5 6 5 5 5 5 5 6 5 5 5 5 5 5 5 6 5 5 5 5 5 5 5 5 5 5 5 5 5 5 6 5 6 5 5 5 5 5 5 5 5 6 5 5 6 5 5 5 5 6 5 6 5 5 5 5 5 6 5 5 5 5 5 5 6 5 5 5 5 5 6 5 5 5 6 5 5 6 5 5 6 5 5 5 6 5 6 5 5 5 5 5 5 5 5 5 5 5 5 5 5 5 5 5 5 5 6 5 5 5 5 5 5 5 5 5 5 5 5 5 5 6 5 5 5 5 6 6 5 6 5 5 6 5 6 5 6 5 6 5 5 5 5 5 5 5 6 5 5 5 5 5 5 5 6 6 5 6 5 5 6 6 5 5 5 6 5 5 6 5 5 6 5 5 5 6 6 5 5 5 5 5 5 6 5 5 5 5 5 5 5 5 5 5 5 5 5 5 5 5 5 6 5 5 5 5 6 5 5 5 5 5 5 6 5 5 5 6 5 5 5 5 6 5 6 5 5 6 5 6 6 5 5 5 6 5 5 6 5 6 5 6 6 5 5 6 5 5 5 5 5 5 5 5 5 5 5 5 5 6 5 5 5 5 5 5 5 5 5 5 5 6 5 5 5 5 5 5 5 5 5 5 5 5 6 5 5 6 5 5 6 5 5 5 6 5 5 5 5 5 5 5 5 6 5 5 5 5 5 5 5 5 5 5 6 5 5 6 5 5 6 5 5 5 5 5 5 6 5 5 5 5 5 5 5 5 5 6 5 5 5 5 5 5 5 5 6 6 5 5 5 5 5 5 5 5 5 5 5 5 5 5 5 5 5 6 5 5 5 5 5 5 5 5 5 5 6 5 5 5 5 5 5 5 5 6 5 5 5 5 5 5 6 6 5 5 6 5 5 6 5 5 5 5 6 5 5 6 5 5 5 5 5 5 5 5 5 5 5 5 5 5 5 5 5 5 5 5 5 5 5 5 6 5 5 5 5 5 5 5 5 5 5 5 5 5 5 5 6 5 5 5 5 5 5 6 5 5 5 5 5 5 5 5 5 5 5 5 5 5 5 5 5 5 5 5 5 6 5 5 5 5 6 5 5 6 6 5 5 5 5 5 5 5 5 5 5 5 5 5 5 5 5 5 5 6 5 5 5 5 5 5 5 5 5 5 5 5 5 5 5 5 5 6 5 5 5 5 6 5 5 5 5 5 5 5 5 5 6 5 6 5 5 5 5 5 6 6 5 5 5 6 5 6 5 6 5 5 6 5 6 5 5 6 6 5 5 5 6 5 5 5 5 6 5 5 5 5 5 5 5 5 6 5 6 6 6 5 5 6 5 6 5 5 5 6 6 5 6 5 6 5 5 6 5 6 6 5 6 5 6 5 5 5 6 5 6 5 5 6 5 5 5 5 5 5 6 5 5 5 5 6 5 6 5 5 6 5 6 5 6 5 6 5 5 5 6 5 5 5 5 5 6 5 6 5 5 5 6 5 5 5 5 5 5 5 5 5 5 5 5 5 5 5 6 5 6 5 5 5 5 5 5 5 5 5 5 5 5 5 5 5 5 6 5 6 5 6 5 5 6 5 5 6 5 6 5 5 5 5 5 5 5 5 5 5 5 5 5 5 5 5 5 5 5 5 6 5 5 5 5 5 5 5 5 5 5 5 5 5 5 6 5 5 5 5 5 5 5 5 5 5 5 5 5 5 5 5 5 5 5 6 5 5 5 5 5 6 5 5 5 5 6 5 5 5 5 5 5 5 5 5 5 5 5 5 5 5 5 5 5 5 5 5 5 5 5 5 5 5 6 5 5 5 5 5 5 5 5 5 5 5 6 5 5 5 5 5 5 6 5 5 5 5 5 5 5 5 5 5 5 5 5 5 5 5 6 5 5 6 5 5 5 5 6 5 5 5 5 5 5 5 5 5 5 6 5 5 5 5 5 5 5 5 5 5 6 5 5 5 5 5 6 5 5 5 5 5 6 5 5 5 5 5 5 5 5 5 5 5 6 5 5 5 6 5 6 5 5 5 5 5 6 5 5 5 5 5 5 5 5 5 5 5 5 5 6 5 5 5 5 5 5 5 5 5 5 5 5 5 6 5 5 6 5 5 5 5 5 5 5 5 5 5 5 5 6 5 5 6 5 6 6 5 5 5 5 5 6 6 5 5 6 5 6 5 5 5 5 5 5 5 5 5 5 5 5 5 5 5 5 5 5 5 6 5 5 5 5 5 5 5 5 5 5 6 5 5 5 6 5 6 5 5 5 6 5 5 5 5 5 5 6 5 5 5 5 5 5 6 5 5 5 5 6 5 5 6 5 5 5 6 5 5 5 5 5 6 5 5 6 5 6 5 5 5 5 5 5 5 5 6 5 5 5 5 5 5 5 5 6 5 5 6 5 5 5 5 5 6 5 6 5 5 5 5 5 5 6 5 5 5 5 5 6 5 5 5 5 5 6 5 6 5 5 5 5 5 5 5 5 5 5 5 5 5 5 5 5 5 5 5 5 5 5 5 5 5 5 5 6 5 5 5 5 5 5 5 5 5 5 5 5 5 5 5 5 6 5 5 6 5 5 5 6 5 6 5 5 5 5 5 5 6 6 5 5 5 5 5 5 5 5 5 5 5 5 5 6 5 6 5 6 5 6 5 5 5 5 6 5 6 5 5 5 5 5 5 5 6 5 5 6 5 5 5 5 5 5 5 5 5 5 5 5 5 5 6 5 6 5 6 5 5 6 5 5 6 5 5 5 5 5 6 5 5 5 5 5 5 6 5 5 5 5 5 5 5 5 5 5 5 5 6 6 5 6 5 5 5 5 5 5 5 5 5 5 5 6 5 5 5 5 5 5 5 5 5 5 5 5 5 5 5 5 5 5 5 5 5 5 5 6 5 5 5 5 5 6 5 5 5 5 5 6 5 5 5 6 5 5 5 5 5 5 5 5 5 5 5 5 5 5 5 5 5 5 5 5 5 5 5 5 5 6 5 5 5 5 5 5 5 5 5 5 5 5 5 5 5 5 5 5 6 5 5 5 5 5 5 5 5 5 5 5 5 5 5 5 5 5 5 6 6 5 5 5 5 5 5 6 5 5 5 5 5 5 5 5 6 5 5 6 5 5 5 5 5 5 5 5 5 5 5 5 5 5 5 5 5 5 5 5 5 5 5 5 5 5 5 5 5 5 5 5 6 5 5 5 5 5 5 5 5 5 5 6 5 5 5 5 5 5 5 5 5 5 5 5 5 5 6 5 5 5 5 5 5 6 5 5 5 5 5 5 6 5 5 5 5 5 5 5 6 5 5 5 5 5 5 5 5 5 5 5 5 5 5 5 5 6 5 6 5 5 5 5 5 5 5 5 6 5 5 5 5 5 6 5 5 5 6 5 5 5 5 5 5 5 5 5 5 5 5 6 5 6 5 5 5 6 5 5 5 6 5 5 5 5 5 5 6 5 5 5 5 6 5 5 5 6 6 6 5 5 5 5 6 5 5 5 5 5 5 5 6 5 6 5 5 5 5 5 6 5 5 5 6 5 5 6 5 5 6 5 5 6 5 5 5 6 5 5 5 5 5 5 5 6 5 5 5 5 5 5 5 5 5 6 5 5 5 5 6 5 5 6 5 5 5 5 5 5 5 6 5 5 5 6 6 5 5 5 6 5 5 5 6 5 5 6 5 6 6 5 5 5 5 6 5 5 6 5 5 6 5 6 5 5 5 5 5 5 5 5 6 5 6 5 5 5 5 5 5 5 5 5 5 5 5 5 5 5 5 5 5 5 5 5 5 5 5 5 5 5 6 5 6 5 5 5 5 5 5 6 5 5 5 6 5 6 5 5 5 5 5 5 5 5 5 5 5 5 5 5 5 5 5 5 5 5 5 5 5 5 6 5 5 5 5 5 6 5 5 5 5 5 5 5 5 5 6 5 5 5 6 5 5 5 6 5 5 5 6 5 5 5 5 5 5 5 5 5 5 5 6 5 5 5 6 5 5 5 5 5 5 5 6 5 5 5 5 5 6 5 5 5 5 5 5 5 5 5 5 5 5 5 5 5 5 5 5 5 5 5 5 5 5 5 5 5 5 5 5 5 5 5 5 5 5 5 5 5 5 5 5 5 5 5 5 5 5 5 5 5 5 5 5 5 5 5 5 5 6 5 5 5 5 6 5 5 5 5 5 6 6 5 5 5 5 6 5 5 6 5 5 5 5 6 5 5 5 6 5 6 5 5 6 5 5 5 6 5 5 5 5 5 5 6 5 5 5 6 6 5 6 5 5 5 6 6 5 5 5 6 5 6 5 6 5 5 6 5 5 6 5 5 5 5 5 5 5 5 5 5 5 6 5 6 5 5 5 5 5 5 5 5 5 5 5 5 6 5 6 5 6 5 5 5 5 5 5 5 5 5 5 6 5 5 6 5 5 5 5 5 5 5 5 5 5 5 5 5 5 5 5 5 5 5 5 5 5 5 5 5 5 5 5 5 5 5 5 5 6 5 5 6 5 5 5 5 5 5 6 6 5 5 5 5 5 6 5 5 5 5 5 5 5 5 6 5 5 5 5 6 5 5 5 5 5 5 5 6 5 5 5 5 5 5 5 6 5 6 5 5 5 6 5 5 5 5 6 5 5 5 5 6 5 5 5 5 5 5 5 5 5 6 6 5 5 5 5 5 6 5 5 6 5 6 6 5 6 6 5 5 6 6 5 5 5 5 5 6 5 5 5 5 6 6 5 5 6 5 5 6 5 5 6 6 5 5 5 5 5 5 5 5 6 5 6 5 5 5 5 5 6 5 5 5 6 5 6 5 5 5 5 5 5 5 5 5 5 5 5 6 5 5 5 5 6 6 5 5 5 5 5 5 5 5 5 5 5 5 5 5 5 6 5 5 5 5 5 5 5 5 5 6 5 5 5 5 6 5 5 5 5 5 5 5 5 5 5 5 5 6 5 5 6 5 5 5 5 5 5 5 5 5 5 5 5 5 5 5 5 5 5 5 5 5 5 5 5 6 6 5 5 5 5 5 5 5 5 5 5 5 5 6 5 5 5 5 5 6 5 5 5 6 5 5 6 6 6 5 5 6 5 5 6 5 6 5 5 5 5 5 5 5 5 5 6 5 6 5 5 5 6 5 5 6 5 6 6 5 6 5 6 5 5 6 5 5 6 5 5 5 5 5 5 5 5 5 5 5 5 5 5 5 5 5 6 5 5 5 5 6 5 6 6 6 5 5 5 5 5 6 5 6 5 5 5 6 5 5 5 5 5 6 5 5 5 5 5 6 5 5 5 5 5 6 5 5 5 5 5 5 5 5 5 5 6 5 6 5 5 5 5 5 5 5 5 5 5 5 5 5 5 5 5 5 5 5 5 5 5 5 5 5 5 5 5 5 5 5 6 6 5 5 6 5 5 5 6 5 5 6 5 5 5 6 6 5 5 6 5 5 5 5 5 6 5 6 5 5 5 5 5 6 5 5 5 5 5 5 5 5 5 6 5 5 5 5 5 6 5 5 5 5 6 5 5 5 5 5 5 6 5 5 6 5 5 5 5 6 5 6 5 5 5 5 6 5 5 6 5 6 5 6 5 5 6 5 5 6 5 5 5 5 6 5 5 6 5 5 5 5 5 5 5 5 5 5 5 5 6 5 5 5 5 5 5 5 5 5 6 5 6 5 5 6 5 6 5 5 5 5 5 6 5 5 6 5 5 6 5 5 6 5 5 5 6 5 5 6 5 5 5 6 5 5 5 5 5 5 5 5 5 5 6 5 6 5 6 5 5 5 5 5 5 5 5 6 5 5 5 6 5 5 5 5 5 5 5 5 5 5 5 5 5 5 5 6 5 5 6 5 5 6 6 5 5 5 5 5 5 5 5 5 5 5 6 5 6 5 5 6 5 6 5 6 6 5 5 5 5 5 5 5 6 5 5 6 5 6 5 5 5 5 5 5 5 5 5 5 5 5 5 6 6 5 5 5 5 5 5 6 5 5 5 5 5 5 5 5 5 6 5 5 5 5 5 5 6 5 5 5 6 5 5 5 5 6 5 5 5 5 5 6 6 5 6 5 5 6 5 5 6 5 5 6 5 5 5 6 6 5 6 5 5 6 5 5 5 5 5 5 5 5 5 5 5 5 6 6 5 5 5 5 5 6 5 5 5 5 6 5 5 6 6 5 5 6 6 5 5 5 6 5 6 5 5 5 5 5 5 5 5 5 5 5 5 6 5 5 5 6 5 5 5 5 6 6 5 5 6 5 6 6 5 5 6 5 5 6 5 5 5 6 5 5 5 5 5 5 6 5 5 5 5 5 5 5 5 5 6 5 5 6 5 5 5 5 5 5 5 5 5 5 5 5 5 5 5 6 5 5 5 6 5 5 6 5 6 6 5 6 5 5 6 5 5 5 5 5 5 5 5 5 6 5 5 6 6 5 5 6 5 5 5 5 5 6 5 5 5 5 6 6 5 5 5 6 5 5 5 5 5 5 5 6 5 5 5 5 5 5 6 5 5 5 5 5 5 5 5 5 5 5 6 5 6 5 5 5 5 6 5 5 5 5 5 5 5 5 5 5 5 5 5 5 5 6 5 5 5 5 6 5 6 5 6 5 5 5 5 5 5 5 5 6 6 5 5 6 5 5 5 6 5 6 5 5 5 5 5 5 5 5 5 6 5 6 5 5 5 5 6 5 5 5 5 5 5 5 5 5 6 5 5 5 5 6 5 5 5 6 5 5 6 5 6 5 5 5 5 5 5 5 5 5 5 5 5 5 5 6 6 5 5 5 5 5 5 6 5 5 5 5 5 6 5 5 5 5 5 5 6 5 5 6 5 5 5 5 5 5 5 5 5 5 6 5 5 5 5 6 5 5 5 6 5 5 5 5 5 5 5 5 5 5 6 5 5 5 5 5 5 5 5 5 5 6 5 5 5 5 5 5 5 5 6 5 5 5 5 5 5 5 5 6 6 5 5 5 6 5 5 5 5 5 5 5 5 5 5 5 5 5 5 5 5 5 6 5 6 5 5 5 5 5 5 5 5 6 5 5 5 5 5 5 5 5 6 6 5 5 5 5 5 5 5 5 5 5 5 5 5 6 5 5 5 5 5 5 5 6 5 5 6 5 5 5 6 5 5 5 5 5 6 5 5 6 5 6 5 5 5 5 6 5 5 5 5 5 5 5 5 5 5 6 5 5 6 5 5 5 6 5 5 5 5 6 5 5 5 5 6 5 6 5 5 5 5 5 5 5 6 6 5 5 5 5 5 5 5 5 5 6 5 5 5 5 5 6 6 5 5 5 5 6 5 6 5 5 6 5 5 5 5 6 5 5 5 5 6 6 6 5 6 5 5 6 5 5 5 5 5 5 5 5 5 6 5 5 5 5 5 5 5 5 5 5 5 5 6 5 5 5 5 5 5 5 5 5 6 6 5 6 5 6 5 6 5 5 
</DataArray>
<DataArray type="Float64" Name="stress" NumberOfComponents="9" format="ascii">
-264.83409845952235 -1315.3410894405315 0 -1315.3410894405315 3492.9642886687143 0 0 0 0 1.278776103488009 -196.887276578811 0 -196.887276578811 1776.0862060276122 0 0 0 0 -240.75536088407816 -272.31300313802785 0 -272.31300313802785 2628.9943934624898 0 0 0 0 242.26639768597497 -970.61110812862171 0 -970.61110812862171 2217.1648338750383 0 0 0 0 729.67263099503498 -957.72418009045941 0 -957.72418009045941 1241.0083658423682 0 0 0 0 232.7576584669616 -650.75011841714149 0 -650.75011841714149 705.51081428225734 0 0 0 0 37.614808723164231 -188.1805788520287 0 -188.1805788520287 1477.1470381745312 0 0 0 0 231.79045643615697 1.0461555881564948 0 1.0461555881564948 25.809544981573708 0 0 0 0 139.78353128408799 -329.90797776047839 0 -329.90797776047839 1516.2317212841008 0 0 0 0 1.2542112783634662 -0.13076101276666918 0 -0.13076101276666918 5.4087406951534405 0 0 0 0 95.797422208923706 -364.56122954341845 0 -364.56122954341845 808.62368199958291 0 0 0 0 -0.038104980703664984 -23.778531318028399 0 -23.778531318028399 76.762054482940584 0 0 0 0 -2.6267605830974459 2.0085255693186639 0 2.0085255693186639 9.3050992049637102 0 0 0 0 19.433622121842603 -39.547561400977429 0 -39.547561400977429 81.649495276797097 0 0 0 0 -8.4747705920590022 -118.98428483636235 0 -118.98428483636235 670.04746685315513 0 0 0 0 -14.859922306598094 143.07101101453009 0 143.07101101453009 200.84950781416046 0 0 0 0 264.10942798852358 -257.8550990063668 0 -257.8550990063668 120.84026303057908 0 0 0 0 112.40951049172912 -453.61117010832822 0 -453.61117010832822 691.6989375880803 0 0 0 0 62.526508331362265 195.08180708498548 0 195.08180708498548 11.887939503092639 0 0 0 0 -4.7433282529402216 12.418689580683349 0 12.418689580683349 18.652469948837279 0 0 0 0 -65.478564720205469 -66.407085963882309 0 -66.407085963882309 116.22359907653299 0 0 0 0 -2.7003434096850079 12.860924057258899 0 12.860924057258899 24.998718808693496 0 0 0 0 -77.926259759795443 17.531624306923732 0 17.531624306923732 35.821971607161686 0 0 0 0 -23.025118070580788 -23.73500022837834 0 -23.73500022837834 39.824920431137798 0 0 0 0 -4.7993298777916031 -5.6417292400997212 0 -5.6417292400997212 18.821295621963543 0 0 0 0 -24.074649709568348 3.6992997726174508 0 3.6992997726174508 33.961817574701854 0 0 0 0 -6.3382613647368089 -47.130573988513788 0 -47.130573988513788 34.64714439533418 0 0 0 0 40.853246026229272 -67.341682245998527 0 -67.341682245998527 43.122806329338346 0 0 0 0 1.8080784705828181 -6.2361953261351033 0 -6.2361953261351033 14.577649872712072 0 0 0 0 -48.162647113178025 -55.32232795823802 0 -55.32232795823802 -33.292647666487028 0 0 0 0 -16.390869292498337 -12.769770843184233 0 -12.769770843184233 15.384570662172337 0 0 0 0 10.390826421057323 -1.9613798488389875 0 -1.9613798488389875 10.468368400121108 0 0 0 0 -2.0586338562835538 2.5355630954984179 0 2.5355630954984179 2.7547153811005956 0 0 0 0 6.5515005064293135 21.521925695968093 0 21.521925695968093 4.9444677138817497 0 0 0 0 1.2237066917858606 -3.0786953240454125 0 -3.0786953240454125 5.5474746413685239 0 0 0 0 -4.1526753174670894 -3.2850037511337291 0 -3.2850037511337291 23.139119414979717 0 0 0 0 -23.258729445051586 -23.838041131974023 0 -23.838041131974023 63.284664103735395 0 0 0 0 -4.6876646404407438 18.969737656192592 0 18.969737656192592 65.310125570671516 0 0 0 0 29.161540033938195 29.994779599303001 0 29.994779599303001 30.642925535343238 0 0 0 0 -0.12826645021269778 0.082856028987492891 0 0.082856028987492891 2.6716306335976583 0 0 0 0 57.635598358177049 -29.837967091007158 0 -29.837967091007158 14.467910449777264 0 0 0 0 11.627082022115246 -0.55067834535293514 0 -0.55067834535293514 -0.80619984607619699 0 0 0 0 -59.750993051779005 41.503613195498474 0 41.503613195498474 147.09547989956627 0 0 0 0 26.6293614124952 -94.237511374682072 0 -94.237511374682072 -62.182297932449728 0 0 0 0 -2.3619481560020645 5.2211744656033332 0 5.2211744656033332 50.59186069299318 0 0 0 0 -10.731949397175216 12.597624528223506 0 12.597624528223506 9.2507186672259252 0 0 0 0 -34.167822387617264 18.775529234340638 0 18.775529234340638 94.795593159229611 0 0 0 0 -4.0425352452572456 7.1977891845981965 0 7.1977891845981965 50.560113899029545 0 0 0 0 683.22653492777476 453.03389148182396 0 453.03389148182396 447.11009430052218 0 0 0 0 439.89525617782419 565.61246306281828 0 565.61246306281828 923.00744479861169 0 0 0 0 225.81924772890102 -247.23278043873142 0 -247.23278043873142 636.80590726813534 0 0 0 0 100.7559607728208 -129.63275131969567 0 -129.63275131969567 249.9588489804737 0 0 0 0 -15.01536732990985 146.3015039164311 0 146.3015039164311 62.650656723009888 0 0 0 0 0.93204107057554997 0.10631577378131851 0 0.10631577378131851 -2.3030960750494387 0 0 0 0 20.656720185249469 57.658203509985469 0 57.658203509985469 59.380319956922904 0 0 0 0 -8.4537364976613496 18.726358082623904 0 18.726358082623904 17.601479339650297 0 0 0 0 -168.70344949492301 -0.23704661490046419 0 -0.23704661490046419 832.98170723544899 0 0 0 0 513.25505355234259 -453.03818084002705 0 -453.03818084002705 749.02915259660222 0 0 0 0 -146.8054777927224 -313.09166221437408 0 -313.09166221437408 1212.956163908937 0 0 0 0 1810.560492537493 -1858.9329448476128 0 -1858.9329448476128 1257.2093214794877 0 0 0 0 4.0927261766799488 1.1657707450357968 0 1.1657707450357968 20.031559125184401 0 0 0 0 722.42129301939735 2300.1225399123505 0 2300.1225399123505 3494.8556377040877 0 0 0 0 3309.4071932785378 1863.5637403840665 0 1863.5637403840665 415.85743354626538 0 0 0 0 22.075762284769041 1209.3201147386426 0 1209.3201147386426 1860.2209153716103 0 0 0 0 -248.92805679246428 1401.9404455514168 0 1401.9404455514168 3500.2502379680518 0 0 0 0 227.4252485673789 1074.4128559919045 0 1074.4128559919045 1910.6316855782225 0 0 0 0 -484.72978127764827 708.38586433845558 0 708.38586433845558 2515.9697645654742 0 0 0 0 -480.07137083948913 737.07081688741891 0 737.07081688741891 2350.5095618524065 0 0 0 0 -695.70445849376802 532.71084240421442 0 532.71084240421442 3499.1376738239851 0 0 0 0 -313.26952634366307 238.57620809790751 0 238.57620809790751 1798.8627635194716 0 0 0 0 -450.13127469716335 326.84257409543352 0 326.84257409543352 2341.7396187078994 0 0 0 0 -131.65263079381248 552.79593185137492 0 552.79593185137492 1368.0537035423622 0 0 0 0 -280.78137309262866 636.41708091471082 0 636.41708091471082 1867.6986415453866 0 0 0 0 -231.25580699479264 455.81461315598062 0 455.81461315598062 1610.4389168713096 0 0 0 0 -2.1055706650214114 2.0686697348457841 0 2.0686697348457841 0.35002451412083246 0 0 0 0 -143.89903440011949 110.93389126905095 0 110.93389126905095 119.60011690756801 0 0 0 0 128.51058324419137 -239.95478919806192 0 -239.95478919806192 360.2372113668971 0 0 0 0 -134.95166854268587 -134.78911589044765 0 -134.78911589044765 1044.6035180848485 0 0 0 0 -5.3072433941752495 6.259683761560936 0 6.259683761560936 -2.6168679714482153 0 0 0 0 199.52598190948385 734.12780802503767 0 734.12780802503767 1281.7516116811748 0 0 0 0 135.6563617416823 902.67369429959217 0 902.67369429959217 2097.4789042811499 0 0 0 0 2.9447761355049096 15.797870024830445 0 15.797870024830445 101.41305102891056 0 0 0 0 -9.247679243440416 110.42803283479589 0 110.42803283479589 97.585366292780236 0 0 0 0 -16.98585086504454 41.930893668148201 0 41.930893668148201 150.54529316964545 0 0 0 0 -20.312724300062541 -16.964496816868632 0 -16.964496816868632 77.833845771136112 0 0 0 0 -53.271295506522392 18.91801701431541 0 18.91801701431541 101.75338839000324 0 0 0 0 -33.251614930561573 -24.181804432133504 0 -24.181804432133504 80.293026097948314 0 0 0 0 -43.321546499929354 42.368946283786499 0 42.368946283786499 146.30638729564089 0 0 0 0 -121.26210744192895 -22.218522536852106 0 -22.218522536852106 128.7508863191033 0 0 0 0 -166.29396916622204 -28.368186226281978 0 -28.368186226281978 87.776796783720783 0 0 0 0 -62.174734070071281 -10.048615003899613 0 -10.048615003899613 73.050297044297622 0 0 0 0 -16.612963026021134 -28.249467503366759 0 -28.249467503366759 49.228990601281112 0 0 0 0 -59.065368748070782 -38.856112556495646 0 -38.856112556495646 74.64972890757781 0 0 0 0 -1.6997613798760831 -0.46326431748883579 0 -0.46326431748883579 2.0175672022636491 0 0 0 0 6.0078046770319133 -27.409172791063611 0 -27.409172791063611 396.06878181456705 0 0 0 0 168.25387856954126 -279.68230111150115 0 -279.68230111150115 154.27101839639363 0 0 0 0 -202.2540887536677 101.64676817864165 0 101.64676817864165 309.61489299526147 0 0 0 0 -22.833651706959699 -112.28871881695522 0 -112.28871881695522 214.06884603997605 0 0 0 0 -70.734506959187456 0.67219666505479836 0 0.67219666505479836 30.183264768522349 0 0 0 0 -0.69794708323934529 -0.20718865874874837 0 -0.20718865874874837 0.51775925646484211 0 0 0 0 -156.43358648657909 71.770469068833336 0 71.770469068833336 33.913074649944519 0 0 0 0 48.303708333319037 25.295433941646479 0 25.295433941646479 71.018434106721543 0 0 0 0 -14.865060471783121 -3.102272797539456 0 -3.102272797539456 21.623725550459824 0 0 0 0 58.175551843464973 -195.87300549711836 0 -195.87300549711836 206.03091351513285 0 0 0 0 130.11485344479365 -89.715125058566628 0 -89.715125058566628 9.1206515191006474 0 0 0 0 -24.63708022680612 -21.266424783574621 0 -21.266424783574621 30.940620440602288 0 0 0 0 -13.535240300993109 -82.111187896978663 0 -82.111187896978663 5.2099512715540186 0 0 0 0 -19.369020933122457 -16.659491918570154 0 -16.659491918570154 21.323153282948169 0 0 0 0 -344.66120979187554 -65.188067921980291 0 -65.188067921980291 50.389744148815225 0 0 0 0 -64.009456493062544 -58.440136390156113 0 -58.440136390156113 58.066059718265024 0 0 0 0 -7.0140285267414733 -25.981047351383609 0 -25.981047351383609 51.25760210528972 0 0 0 0 -1.4275538598931234 -381.32742080766184 0 -381.32742080766184 -426.22359975197469 0 0 0 0 -130.22964731219099 -137.55367299666977 0 -137.55367299666977 -207.857662657334 0 0 0 0 -72.633753223122994 -48.365689916237898 0 -48.365689916237898 55.448371175138163 0 0 0 0 -50.460372834006421 -51.68581022233775 0 -51.68581022233775 25.552650927049399 0 0 0 0 -70.414488804529242 -56.52113402552277 0 -56.52113402552277 65.519286093767732 0 0 0 0 -59.952294697051457 -64.989482268356369 0 -64.989482268356369 62.087786591073382 0 0 0 0 -17.361658262191121 -20.141332590972667 0 -20.141332590972667 54.028300028771042 0 0 0 0 -11.423356531066929 237.31454599482822 0 237.31454599482822 -43.241321427893126 0 0 0 0 207.4999481451141 -207.20761227751791 0 -207.20761227751791 -501.23893840995879 0 0 0 0 218.91436557784823 103.40150545508004 0 103.40150545508004 -163.12415007906384 0 0 0 0 -60.099441693924746 -72.222748401691206 0 -72.222748401691206 277.51652182713588 0 0 0 0 19.108986062530676 223.33176859312516 0 223.33176859312516 -60.528019424382364 0 0 0 0 66.107499017164628 -75.082800869044149 0 -75.082800869044149 512.54320141551943 0 0 0 0 213.99226857012331 -82.583442087347066 0 -82.583442087347066 -314.47011761344038 0 0 0 0 -1.1222333755912759 1.699651295537933 0 1.699651295537933 -0.94195071657793505 0 0 0 0 112.15527716789393 109.15018373106432 0 109.15018373106432 -126.29764813628572 0 0 0 0 27.633104606782126 -13.921515759673639 0 -13.921515759673639 -75.267407824168913 0 0 0 0 -0.73904082752477984 -5.7416718453710569 0 -5.7416718453710569 0.97785563711136092 0 0 0 0 36.673295936054956 -8.4430276967541431 0 -8.4430276967541431 -23.544163570739329 0 0 0 0 -159.71445318818724 -240.18668819718005 0 -240.18668819718005 -57.443288553389721 0 0 0 0 -73.865126672317274 -6.7804216163076489 0 -6.7804216163076489 -11.676084109465592 0 0 0 0 -46.238384376792851 -28.162010175088653 0 -28.162010175088653 4.7608157243957976 0 0 0 0 32.213660082835304 0.1536783817136893 0 0.1536783817136893 -36.198788299516309 0 0 0 0 1.2189461897478395 27.615636845017434 0 27.615636845017434 -56.918314135662513 0 0 0 0 168.77115429982121 47.312185506396418 0 47.312185506396418 -107.61909541499335 0 0 0 0 193.97732876430075 34.03871335383883 0 34.03871335383883 -104.99168413071311 0 0 0 0 -44.027517918826106 51.74656027124729 0 51.74656027124729 -69.396926710076514 0 0 0 0 -6.1953770234654257 13.371955634611368 0 13.371955634611368 28.532814772319398 0 0 0 0 5.3621758396802761 645.60989180075558 0 645.60989180075558 1098.3921462039143 0 0 0 0 -163.48285782549112 109.61062217194558 0 109.61062217194558 1466.1447182547709 0 0 0 0 2.0097424306452472 -151.23584044568997 0 -151.23584044568997 441.21222607679374 0 0 0 0 -0.52605053635001597 -114.03433585610037 0 -114.03433585610037 -22.366861233283998 0 0 0 0 -57.220529018804797 14.551005032168177 0 14.551005032168177 378.94435406646153 0 0 0 0 -10.437728836661279 -8.1762007825018372 0 -8.1762007825018372 -91.563439328645472 0 0 0 0 1.4031096136425947 -5.4090897088197707 0 -5.4090897088197707 15.167865236943555 0 0 0 0 -321.91928395322009 -222.71970622833032 0 -222.71970622833032 163.99758159853445 0 0 0 0 -134.85876351984416 -219.10173699382722 0 -219.10173699382722 -74.983549021923409 0 0 0 0 -42.632941291758243 -30.315449574991362 0 -30.315449574991362 27.532127588870935 0 0 0 0 2.4822854524511886 -6.598757768583468 0 -6.598757768583468 15.403623603872859 0 0 0 0 -69.027598710803559 -64.690539385235752 0 -64.690539385235752 -53.573765309236478 0 0 0 0 0.1106900710023402 -59.37888368231684 0 -59.37888368231684 -71.997793943068245 0 0 0 0 9.9321812768343989 -16.287771249073558 0 -16.287771249073558 1.6549432351457654 0 0 0 0 -0.75523018012577126 -2.8049077974852565 0 -2.8049077974852565 5.927349168581145 0 0 0 0 -18.274213289680347 -6.6759521593412501 0 -6.6759521593412501 3.6731568825271097 0 0 0 0 -4.4793116077741715 -5.1351566104493997 0 -5.1351566104493997 18.775616769208369 0 0 0 0 -0.75503307690814836 20.271981720186886 0 20.271981720186886 47.493322719921707 0 0 0 0 -13.821831500183293 -6.9643083995979396 0 -6.9643083995979396 -2.2255051524043665 0 0 0 0 -0.82816724044877454 -6.1139676781243919 0 -6.1139676781243919 45.122143497928903 0 0 0 0 -22.964771417955376 -29.037452583303093 0 -29.037452583303093 72.961684856774809 0 0 0 0 -4.2443649165556803 -24.848847718026249 0 -24.848847718026249 57.381062127583505 0 0 0 0 -29.556005386719278 -30.064469029257452 0 -30.064469029257452 76.380070848841569 0 0 0 0 -19.065405851229812 -12.296951864810126 0 -12.296951864810126 75.596059362200322 0 0 0 0 -0.30694223779162311 -6.274722970616935 0 -6.274722970616935 -10.126146427850301 0 0 0 0 14.075021379797818 -139.33543762342015 0 -139.33543762342015 -107.72168555819098 0 0 0 0 -21.186862887719144 6.0712685761973262 0 6.0712685761973262 -4.4421664242254337 0 0 0 0 12.004328575587806 -31.904756516676571 0 -31.904756516676571 37.160933782812208 0 0 0 0 -24.249599974059493 -18.314197965941275 0 -18.314197965941275 58.08774804470886 0 0 0 0 -16.289767380993908 -27.56449153428548 0 -27.56449153428548 2.8549509759686771 0 0 0 0 -18.770365336194118 -4.3850194658152759 0 -4.3850194658152759 27.493296028012992 0 0 0 0 621.60485006683371 -575.63678795689702 0 -575.63678795689702 765.63731331717281 0 0 0 0 530.03106152041642 -748.45980235933621 0 -748.45980235933621 1133.8929063725664 0 0 0 0 -10.391224033759329 1.8285051272100645 0 1.8285051272100645 10.701844292622354 0 0 0 0 593.1755322552051 -606.26316749197122 0 -606.26316749197122 754.36762549452396 0 0 0 0 610.65783816186479 -794.599458821187 0 -794.599458821187 1165.1150154158404 0 0 0 0 -8.6403195662465109 -1.0523907309610365 0 -1.0523907309610365 8.9609932299624973 0 0 0 0 507.46394117001898 -1279.5917108776994 0 -1279.5917108776994 3008.3072246017691 0 0 0 0 823.52967301823969 -1105.8421054908322 0 -1105.8421054908322 1282.0513577326965 0 0 0 0 699.95929556060537 -1538.8741389319912 0 -1538.8741389319912 3039.5951286600703 0 0 0 0 367.38249946871633 -1532.6147104862175 0 -1532.6147104862175 3499.1666481794527 0 0 0 0 312.46146220541277 -1376.1420000956059 0 -1376.1420000956059 3318.9204996108165 0 0 0 0 72.545641252190109 -949.02274881783524 0 -949.02274881783524 2644.0681171199103 0 0 0 0 -108.67224940488796 -784.10891612034538 0 -784.10891612034538 2548.9077907737083 0 0 0 0 -446.09408802613359 -886.01753533338888 0 -886.01753533338888 3499.7416236866338 0 0 0 0 -826.72227826983044 -340.10465307586492 0 -340.10465307586492 2743.6071347854304 0 0 0 0 -106.83097135842034 -789.11884628755843 0 -789.11884628755843 2428.2056902995173 0 0 0 0 -9.1272657326270625 3.9592135051445183 0 3.9592135051445183 10.40995640507623 0 0 0 0 -649.38651518816289 52.482834638889472 0 52.482834638889472 1630.5241441654034 0 0 0 0 384.38465836057321 -454.290169983331 0 -454.290169983331 806.31116906489842 0 0 0 0 317.22273807373176 -566.04882918559451 0 -566.04882918559451 1137.6446467491223 0 0 0 0 -3.8061337129962602 2.2533180941491366 0 2.2533180941491366 4.4508030579387849 0 0 0 0 -1487.0156176707537 1339.797712839787 0 1339.797712839787 249.75628733527265 0 0 0 0 -558.4623966009774 -437.93077360956886 0 -437.93077360956886 1865.9100226990813 0 0 0 0 -1008.2985220372701 -408.94530143334669 0 -408.94530143334669 3499.3872553917463 0 0 0 0 -923.95204913706982 -169.61646552287493 0 -169.61646552287493 2777.2766838572425 0 0 0 0 -766.95660184751341 68.417852347538428 0 68.417852347538428 2675.0168108123689 0 0 0 0 -761.00732288490065 -15.52693118768525 0 -15.52693118768525 2781.4427148069808 0 0 0 0 -622.97228959320182 185.05519366762019 0 185.05519366762019 2979.129725352348 0 0 0 0 -905.47194460358514 -53.455863216780926 0 -53.455863216780926 3499.7823993063503 0 0 0 0 -689.25735348899514 357.62226099569307 0 357.62226099569307 2578.2047804074427 0 0 0 0 -279.90945220794191 -113.76269600866181 0 -113.76269600866181 1899.8903535709251 0 0 0 0 -327.70560254574491 185.90609556324489 0 185.90609556324489 2621.5873827155028 0 0 0 0 -130.34612104484904 -588.45308524207212 0 -588.45308524207212 3209.6176643922445 0 0 0 0 485.44945909931857 -1076.8491384512672 0 -1076.8491384512672 2240.8155023110012 0 0 0 0 -3.5785995361691865 1.3757749837658935 0 1.3757749837658935 11.719325085495967 0 0 0 0 -1481.9069455844926 1298.0482991137324 0 1298.0482991137324 -475.05175432409305 0 0 0 0 129.77894481326234 -316.34784550708719 0 -316.34784550708719 1931.1883458310358 0 0 0 0 583.22609698302267 -563.71375958178396 0 -563.71375958178396 34.274474055797327 0 0 0 0 -1.2360754264331026 -0.64041036254695882 0 -0.64041036254695882 2.6910622908822859 0 0 0 0 -10.312668064641407 1.1330402772754837 0 1.1330402772754837 25.054610694566634 0 0 0 0 30.662336293804628 79.887358590345684 0 79.887358590345684 260.66919699166465 0 0 0 0 -1119.9894601745943 85.035025360493819 0 85.035025360493819 -28.355199004901806 0 0 0 0 -1527.3394289092473 683.91028978285431 0 683.91028978285431 133.27563462469698 0 0 0 0 -899.0868508044623 428.51936522096366 0 428.51936522096366 -147.66661921050036 0 0 0 0 -880.52248715592168 269.82826589865363 0 269.82826589865363 138.99605589597195 0 0 0 0 -514.95339526363659 -79.50459887337729 0 -79.50459887337729 147.07320923615771 0 0 0 0 -368.31853586294528 -25.203978913894389 0 -25.203978913894389 82.553340055595982 0 0 0 0 -501.8690288846301 -252.22246507143427 0 -252.22246507143427 706.76049409491679 0 0 0 0 -2.0491266003161108 0.075222942691510752 0 0.075222942691510752 0.89396949658649305 0 0 0 0 -327.18903119666584 92.578889534273912 0 92.578889534273912 332.13535357520232 0 0 0 0 -587.3662044946293 -101.93559387749337 0 -101.93559387749337 186.73046446131775 0 0 0 0 64.903097769980377 -371.08068575926882 0 -371.08068575926882 289.10671512570116 0 0 0 0 150.64189603310751 -232.79178559052525 0 -232.79178559052525 363.14191079070588 0 0 0 0 45.618327361194702 -379.33218605647016 0 -379.33218605647016 390.51616107016162 0 0 0 0 -1.2219328530416842 -1.3031001597270659 0 -1.3031001597270659 0.46094843103904282 0 0 0 0 182.66056141638978 -359.23470057094164 0 -359.23470057094164 288.2181178377723 0 0 0 0 7.7538847910773256 -398.0299397877825 0 -398.0299397877825 386.86016188032227 0 0 0 0 246.45652982322281 -316.89995449018897 0 -316.89995449018897 344.70112310646437 0 0 0 0 -509.75986040757766 -265.08133769592496 0 -265.08133769592496 424.62113439654058 0 0 0 0 -122.08966308970685 -178.95537896934547 0 -178.95537896934547 205.33183510092204 0 0 0 0 -468.01354743750039 -297.20241876940236 0 -297.20241876940236 1190.3828921589738 0 0 0 0 -828.10223838070942 345.5688425589251 0 345.5688425589251 174.23228304451186 0 0 0 0 90.949068930722206 -820.86738542253443 0 -820.86738542253443 1399.5310130401849 0 0 0 0 177.24624074754115 -341.70818869234972 0 -341.70818869234972 809.18060496638645 0 0 0 0 401.55300108985966 -367.09462448801423 0 -367.09462448801423 792.56937616939831 0 0 0 0 517.71259350795799 -490.84871349615059 0 -490.84871349615059 726.05787894153036 0 0 0 0 367.76187800184903 -236.476323293733 0 -236.476323293733 487.58152234998124 0 0 0 0 539.24474526749077 -352.02987117868724 0 -352.02987117868724 297.33710780012916 0 0 0 0 415.59902896244307 -349.82189228350398 0 -349.82189228350398 379.8644292546669 0 0 0 0 127.22149913656176 -232.93203742415426 0 -232.93203742415426 362.67785550000372 0 0 0 0 508.39926625014402 -452.31448214586635 0 -452.31448214586635 589.62698683421877 0 0 0 0 -0.054005423797446994 0.0077092614100138235 0 0.0077092614100138235 0.73295472807298978 0 0 0 0 415.64615171105186 -118.50410623527569 0 -118.50410623527569 -123.33417128791916 0 0 0 0 467.46862990707024 -305.17834860788571 0 -305.17834860788571 442.98963303034179 0 0 0 0 569.68153888958705 -124.85045595678548 0 -124.85045595678548 249.20779973323806 0 0 0 0 549.86066650332941 -216.09750029680799 0 -216.09750029680799 309.79848875522657 0 0 0 0 676.63151650708869 -376.76977286507099 0 -376.76977286507099 374.23894553442369 0 0 0 0 579.24346455529928 -251.91282312193289 0 -251.91282312193289 260.475253515644 0 0 0 0 554.34083062550962 -380.5382729820758 0 -380.5382729820758 407.96953323573689 0 0 0 0 642.65833902357986 -259.57812476623076 0 -259.57812476623076 190.92811916569917 0 0 0 0 -39.434354848865013 62.083249068296936 0 62.083249068296936 122.86486332475033 0 0 0 0 -14.072893870613701 27.086304583208836 0 27.086304583208836 72.977211032602298 0 0 0 0 -40.169502039807412 56.61425519083059 0 56.61425519083059 91.232757870113346 0 0 0 0 -54.213975734158112 30.011103964761787 0 30.011103964761787 127.83555362782499 0 0 0 0 -58.224440926095326 20.28832791550667 0 20.28832791550667 110.5295533025419 0 0 0 0 -47.070859910627973 11.564003032108303 0 11.564003032108303 112.67133480096891 0 0 0 0 -44.370287590022429 16.64125806109223 0 16.64125806109223 103.50200517632766 0 0 0 0 -32.926225889584146 5.3782517474537599 0 5.3782517474537599 108.82528317332617 0 0 0 0 124.32327759196528 -241.28145387975019 0 -241.28145387975019 141.25153260948719 0 0 0 0 -56.72401479463133 107.1200252290073 0 107.1200252290073 -2.8106545836926671 0 0 0 0 -104.07634844953111 118.7928239100147 0 118.7928239100147 16.30087243145681 0 0 0 0 -6.2437475164697558 25.087669158447682 0 25.087669158447682 88.907605563113066 0 0 0 0 7.1473256443040594 2.116976055121242 0 2.116976055121242 12.546523478161433 0 0 0 0 430.077418883409 -161.43791738826258 0 -161.43791738826258 92.204961890463892 0 0 0 0 132.75781370397212 78.874400933480501 0 78.874400933480501 115.72384041668556 0 0 0 0 155.64621347694148 -288.25790228511869 0 -288.25790228511869 707.51074074860662 0 0 0 0 306.72390260052106 -202.33001508765119 0 -202.33001508765119 703.0498627970519 0 0 0 0 310.4471904981005 -322.73550221698105 0 -322.73550221698105 463.21327848991496 0 0 0 0 543.30960775555172 -391.57005020562065 0 -391.57005020562065 459.60795405632962 0 0 0 0 229.17851319584543 -310.49061658349092 0 -310.49061658349092 699.93463700113352 0 0 0 0 254.18481087676651 -308.32871974823865 0 -308.32871974823865 508.18393953155464 0 0 0 0 558.95204825264898 -273.31574993105664 0 -273.31574993105664 469.36195787663019 0 0 0 0 194.72478486742079 -189.7332860074057 0 -189.7332860074057 381.12617555909674 0 0 0 0 226.41501159539877 -380.40762513285017 0 -380.40762513285017 441.60694550896733 0 0 0 0 144.62932888052478 -489.28674757825502 0 -489.28674757825502 515.64430669224384 0 0 0 0 235.34409807578572 -457.58788844550509 0 -457.58788844550509 411.16706629144028 0 0 0 0 247.19339716446677 -526.95592345308978 0 -526.95592345308978 622.21635678047278 0 0 0 0 448.89089656993838 -480.57742899414279 0 -480.57742899414279 302.91710720815172 0 0 0 0 191.14782409498733 -204.24082554248162 0 -204.24082554248162 114.87938479902368 0 0 0 0 271.02929042005519 -352.03546154985088 0 -352.03546154985088 209.46660249478009 0 0 0 0 191.29624179464372 -352.2352141073352 0 -352.2352141073352 393.12288221827293 0 0 0 0 184.85410416971808 -327.32142485716759 0 -327.32142485716759 322.82990089416853 0 0 0 0 18.739650915963466 -172.00906145331828 0 -172.00906145331828 437.28584135129495 0 0 0 0 160.74804585082165 -312.58617411450541 0 -312.58617411450541 570.43682148664084 0 0 0 0 70.976459891638115 26.405183643153578 0 26.405183643153578 1188.6397326289371 0 0 0 0 122.0171714719927 -504.96119732772786 0 -504.96119732772786 295.79655891691073 0 0 0 0 -143.63347008183791 -706.58403053440634 0 -706.58403053440634 966.82415472644789 0 0 0 0 94.538862000197696 -463.41349832549895 0 -463.41349832549895 578.84109757114607 0 0 0 0 157.46976268566783 -332.34017082668515 0 -332.34017082668515 216.74540013185469 0 0 0 0 155.31576726880348 -351.13011098281277 0 -351.13011098281277 501.85388192816026 0 0 0 0 38.074561331755831 -206.33281492440801 0 -206.33281492440801 -118.60949587705545 0 0 0 0 39.642163025348054 -179.15554498929123 0 -179.15554498929123 352.11801986914361 0 0 0 0 -21.496220948114569 -302.95329269853755 0 -302.95329269853755 304.54379479620547 0 0 0 0 -423.58021122104037 -172.76903208735166 0 -172.76903208735166 80.249961056077154 0 0 0 0 -154.2460107887955 -452.90054703293208 0 -452.90054703293208 135.33455097639671 0 0 0 0 -423.05622370397032 -155.70832562423311 0 -155.70832562423311 146.23451235237007 0 0 0 0 -463.56014475164557 -225.76485601173772 0 -225.76485601173772 138.88726107122784 0 0 0 0 -471.60462844470061 -340.4848368982282 0 -340.4848368982282 -60.842481791682076 0 0 0 0 464.62842936295692 1128.468653008822 0 1128.468653008822 2263.2937466730582 0 0 0 0 2.7581958111350033 -4.5320759020715968 0 -4.5320759020715968 7.9704528327400226 0 0 0 0 -69.566563941343702 -726.39752585813403 0 -726.39752585813403 -302.27078668970353 0 0 0 0 523.60210891980682 251.67124668811084 0 251.67124668811084 500.14714699279284 0 0 0 0 463.6417369099172 -413.90638433157437 0 -413.90638433157437 1267.7926428914798 0 0 0 0 237.64851422433208 192.06651851675906 0 192.06651851675906 406.49833755654981 0 0 0 0 129.25723025368416 341.0876887238428 0 341.0876887238428 -49.159221847978188 0 0 0 0 43.454697033152115 -290.92772607037114 0 -290.92772607037114 103.8262150801711 0 0 0 0 256.16305384438374 -168.19978734229517 0 -168.19978734229517 -766.18703713340074 0 0 0 0 14.574505668344372 -7.0322601502146256 0 -7.0322601502146256 -0.00092737182392355066 0 0 0 0 124.72518904240042 -247.70838320078292 0 -247.70838320078292 357.6474629716904 0 0 0 0 114.29614363558312 -181.54269719609874 0 -181.54269719609874 449.52759591901849 0 0 0 0 146.86754811707942 -234.27941417406691 0 -234.27941417406691 341.1057695629861 0 0 0 0 416.32918601480424 -646.30472734644718 0 -646.30472734644718 1010.9311350983844 0 0 0 0 592.67289828071534 117.87697127350839 0 117.87697127350839 -821.48565693355704 0 0 0 0 6.9088330882688709 -1.7951149053675977 0 -1.7951149053675977 0.25808399100058566 0 0 0 0 288.3862520403261 -153.17120310361497 0 -153.17120310361497 201.76727054252115 0 0 0 0 115.72065449342426 -29.210355816416268 0 -29.210355816416268 250.29887209176377 0 0 0 0 544.5122902002114 104.25127649259548 0 104.25127649259548 459.361223184751 0 0 0 0 391.76260355830709 -412.8414094789332 0 -412.8414094789332 477.3668781931483 0 0 0 0 715.1994677235582 -214.02916932806329 0 -214.02916932806329 6.1488723665534053 0 0 0 0 298.92924353418493 -9.7767868899682071 0 -9.7767868899682071 344.44070036696212 0 0 0 0 338.85042380797131 104.55425456376543 0 104.55425456376543 35.311022637205951 0 0 0 0 312.74019161137073 -80.926999929727572 0 -80.926999929727572 454.09882652868691 0 0 0 0 280.19632498069006 -203.98948336360263 0 -203.98948336360263 211.84321700347937 0 0 0 0 171.85521651940235 -150.57534199566726 0 -150.57534199566726 202.64740013703775 0 0 0 0 226.60030358448785 -215.21992338191922 0 -215.21992338191922 340.45530499613778 0 0 0 0 228.38431138557132 -246.6309823302181 0 -246.6309823302181 202.32146014773753 0 0 0 0 41.001058113246813 -35.082399086606529 0 -35.082399086606529 -5.8555176576919621 0 0 0 0 173.67389575624702 -171.47402646933915 0 -171.47402646933915 139.49855441516047 0 0 0 0 88.456791800783094 -194.07957874370186 0 -194.07957874370186 198.79004540716414 0 0 0 0 163.9479286770711 -174.21178991337365 0 -174.21178991337365 134.08796041544701 0 0 0 0 -78.957784148866239 -54.306912430656666 0 -54.306912430656666 258.43444337918481 0 0 0 0 238.02445978824426 -156.45009870410286 0 -156.45009870410286 192.94250483782889 0 0 0 0 233.63070103312157 -211.56544944543566 0 -211.56544944543566 224.82649606338964 0 0 0 0 79.065157000721712 74.907458898536788 0 74.907458898536788 247.03802732475015 0 0 0 0 67.048651808405594 -188.90050104125839 0 -188.90050104125839 357.46919391146366 0 0 0 0 -137.78199943589982 34.055107382620918 0 34.055107382620918 263.79972230610292 0 0 0 0 -100.0953947401317 9.891020674693209 0 9.891020674693209 -34.113212075302727 0 0 0 0 -180.42582386062713 -10.946051204093237 0 -10.946051204093237 193.60245411116557 0 0 0 0 -6.3901786532918337 -13.149982046145141 0 -13.149982046145141 27.927034025230597 0 0 0 0 -150.82298222504744 102.15989161867765 0 102.15989161867765 101.82422740662514 0 0 0 0 -227.73387153220324 40.142310394083324 0 40.142310394083324 139.06512645764815 0 0 0 0 -4.820258463788246 -15.701006999786301 0 -15.701006999786301 36.116474631761122 0 0 0 0 -0.86710776506372833 -15.127514965306002 0 -15.127514965306002 131.86384981184432 0 0 0 0 -76.537784951976931 -65.418630906888211 0 -65.418630906888211 213.33895494165336 0 0 0 0 -75.831799719186847 16.620922078462172 0 16.620922078462172 138.15798880092916 0 0 0 0 -6.8923966869090236 -54.537509473237151 0 -54.537509473237151 122.1081162741666 0 0 0 0 -68.508386740784545 12.760907820556895 0 12.760907820556895 135.97012115687176 0 0 0 0 -175.00677811417313 -104.23420493733283 0 -104.23420493733283 201.66179968808865 0 0 0 0 -76.27665241965714 -7.7299077930401836 0 -7.7299077930401836 110.84564105556638 0 0 0 0 -180.28459948380862 -80.153066410095562 0 -80.153066410095562 121.86626693108701 0 0 0 0 -0.21674765797093312 -10.667004769918011 0 -10.667004769918011 116.60444205690953 0 0 0 0 -11.644637356287811 -13.355856627215772 0 -13.355856627215772 27.923977978398113 0 0 0 0 -87.281571202726056 6.8520274018337659 0 6.8520274018337659 137.45446726678347 0 0 0 0 -69.397534932441545 3.8773676859709667 0 3.8773676859709667 119.88228764971063 0 0 0 0 -58.9384861559206 22.416160283559293 0 22.416160283559293 125.6896008119511 0 0 0 0 -67.702420426151136 19.738790438269007 0 19.738790438269007 137.64944159511651 0 0 0 0 204.959129396771 231.70373938039847 0 231.70373938039847 -10.213057329721778 0 0 0 0 123.74910144614933 -156.33412926729943 0 -156.33412926729943 -166.64340475048084 0 0 0 0 211.93352899214483 90.000646291911835 0 90.000646291911835 65.372860358533217 0 0 0 0 174.04655015783965 10.945489924168214 0 10.945489924168214 172.24412118869077 0 0 0 0 159.99395044252378 416.81001757073682 0 416.81001757073682 635.36845366478519 0 0 0 0 207.71167315332605 67.96597687722533 0 67.96597687722533 -21.400427190441405 0 0 0 0 120.98440717300912 66.617652180810182 0 66.617652180810182 97.823578930794611 0 0 0 0 65.082003900515701 -58.543449531272927 0 -58.543449531272927 7.013187781063607 0 0 0 0 85.281050851314831 -4.2086255655449349 0 -4.2086255655449349 54.118567507583066 0 0 0 0 157.3180657152725 -17.706104338707519 0 -17.706104338707519 -28.729605889879167 0 0 0 0 47.133212344745516 -50.5912065540615 0 -50.5912065540615 12.824699202625197 0 0 0 0 49.842101439059661 -54.09721342472767 0 -54.09721342472767 -47.086819021729752 0 0 0 0 -0.04584788662900996 -0.70949716900895687 0 -0.70949716900895687 14.433534343848009 0 0 0 0 -221.14850746785896 -166.19908131395641 0 -166.19908131395641 40.106298151542433 0 0 0 0 -10.442451371648701 -0.65000314560711558 0 -0.65000314560711558 8.7377826970769092 0 0 0 0 -284.88047619895656 -59.016622311562969 0 -59.016622311562969 61.104431426967494 0 0 0 0 -91.84633875288273 -69.048424372100271 0 -69.048424372100271 1.9497110940137645 0 0 0 0 -74.190678219585607 -43.585885118904116 0 -43.585885118904116 -12.907117871334776 0 0 0 0 -32.624827340275715 -95.300965613598237 0 -95.300965613598237 4.5629540364316199 0 0 0 0 73.151652198979718 -57.807310219584906 0 -57.807310219584906 -32.877467255166266 0 0 0 0 -107.31944839485004 -212.88094822443963 0 -212.88094822443963 -49.617023939310457 0 0 0 0 0.3332263903155202 0.20746349084754456 0 0.20746349084754456 4.6884940821896066 0 0 0 0 -35.867870087906169 30.260628297684889 0 30.260628297684889 75.245250123509322 0 0 0 0 1.0805119554946403 -3.496344377301682 0 -3.496344377301682 12.203583356401793 0 0 0 0 -9.1208477008397573 -16.886129249809073 0 -16.886129249809073 5.5210858558275504 0 0 0 0 -2.6923001454424593 21.015406467711728 0 21.015406467711728 -90.001355563381367 0 0 0 0 -0.012420771261790076 -9.6975981183350086 0 -9.6975981183350086 -8.3064489411117393 0 0 0 0 -7.8198673407700419 -3.285986429087643 0 -3.285986429087643 2.7875457571281004 0 0 0 0 0.24064029565489986 -0.40583805643083792 0 -0.40583805643083792 0.32934444362990689 0 0 0 0 0.090704434420660784 -3.3130188384237442 0 -3.3130188384237442 11.99767171593146 0 0 0 0 -44.838904118274328 56.737439760159759 0 56.737439760159759 111.65911246146425 0 0 0 0 12.327357676988015 -51.370030861595296 0 -51.370030861595296 -23.21990187420306 0 0 0 0 101.7858749878942 30.340349387493916 0 30.340349387493916 -94.616986571905727 0 0 0 0 -40.248809928174069 -237.25544531603373 0 -237.25544531603373 293.61075991565303 0 0 0 0 164.55119738965845 -229.06639118253588 0 -229.06639118253588 476.42477820778731 0 0 0 0 -10.216663206227807 71.146870779844903 0 71.146870779844903 178.78272010281216 0 0 0 0 -58.121939985292784 75.158492702616059 0 75.158492702616059 1603.202046133898 0 0 0 0 -0.22791074185991797 -0.45833912658360987 0 -0.45833912658360987 6.7761439541714594 0 0 0 0 0.057193844412253898 -72.722495285022887 0 -72.722495285022887 -35.888466921300278 0 0 0 0 185.15392349637068 820.95417560613714 0 820.95417560613714 1392.8589053314572 0 0 0 0 -332.88913905397635 529.52724940378539 0 529.52724940378539 1707.7367092326022 0 0 0 0 -36.758320060097049 563.56897255729564 0 563.56897255729564 1618.5628577634925 0 0 0 0 -296.19304511099182 352.49113843454052 0 352.49113843454052 1455.2515901924344 0 0 0 0 50.742782781947426 -248.08903743384872 0 -248.08903743384872 364.73523310950259 0 0 0 0 -97.699754096887773 415.52325158364692 0 415.52325158364692 1442.2938977319427 0 0 0 0 0.1596099267620561 -1.6416945517114883 0 -1.6416945517114883 7.7180424336957003 0 0 0 0 428.97609030006424 -73.046257131238235 0 -73.046257131238235 1574.7115054887836 0 0 0 0 500.22778420953853 344.7919604960116 0 344.7919604960116 1537.1759754423401 0 0 0 0 443.2615130522081 2.0530411081999773 0 2.0530411081999773 1653.8436972794734 0 0 0 0 0.14938076403202782 1.4072427244268564 0 1.4072427244268564 6.5666649669379353 0 0 0 0 17.994353999784181 422.26286741851936 0 422.26286741851936 938.55384983972181 0 0 0 0 -121.40021974693173 376.82797843055596 0 376.82797843055596 1553.2187205409864 0 0 0 0 108.97222214543945 16.301313653370016 0 16.301313653370016 1555.7005486351882 0 0 0 0 -105.53171005215427 121.83010703112541 0 121.83010703112541 1097.2806100158778 0 0 0 0 -107.98019783509562 146.02270178604522 0 146.02270178604522 1100.9662618310977 0 0 0 0 -33.61843647987348 489.86656860376752 0 489.86656860376752 1405.6232616907801 0 0 0 0 -332.51835697083789 262.70368653117475 0 262.70368653117475 1391.1324444669008 0 0 0 0 -322.35199364019354 202.96111911567277 0 202.96111911567277 1617.1702606926847 0 0 0 0 -88.202696575010577 500.8602595808552 0 500.8602595808552 1961.9474880821072 0 0 0 0 -61.342982473065604 7.3159467591904104 0 7.3159467591904104 524.87713767647074 0 0 0 0 -105.66210691271476 -250.12008474278991 0 -250.12008474278991 1596.1493199086399 0 0 0 0 -160.0006527195942 36.941102342614613 0 36.941102342614613 1310.8952864221937 0 0 0 0 39.94403239766234 191.11005446049967 0 191.11005446049967 341.91322400803256 0 0 0 0 62.8755621735977 472.17892753786873 0 472.17892753786873 1118.4558629902895 0 0 0 0 -337.18028689436187 332.3476302173658 0 332.3476302173658 1765.960886670684 0 0 0 0 -234.73971370638719 383.9340110331832 0 383.9340110331832 1140.3411417276548 0 0 0 0 -25.847110036473168 898.05951989356981 0 898.05951989356981 2395.0077255899669 0 0 0 0 999.35320235208019 840.03234422010428 0 840.03234422010428 720.04482473218377 0 0 0 0 356.80668969469684 15.136579438723857 0 15.136579438723857 88.557441036216915 0 0 0 0 467.85471489236215 -366.53165394206917 0 -366.53165394206917 -77.559242080838885 0 0 0 0 -363.97238694071848 -748.37508700766375 0 -748.37508700766375 56.967250462053926 0 0 0 0 -235.28198153270159 995.06472463423779 0 995.06472463423779 1235.6344347151899 0 0 0 0 -180.86769597665807 621.69528204064409 0 621.69528204064409 2128.0038134955539 0 0 0 0 -0.70052513449340337 0.46114012809401395 0 0.46114012809401395 17.629085269385882 0 0 0 0 -173.02416470675462 -467.12948560488803 0 -467.12948560488803 860.52999935649859 0 0 0 0 -35.356073864826612 27.871230828168336 0 27.871230828168336 736.38526866177563 0 0 0 0 -278.35972800723539 -165.3811388660688 0 -165.3811388660688 1109.9219263417908 0 0 0 0 -308.62167628907991 -70.606979323056294 0 -70.606979323056294 1642.2791433422826 0 0 0 0 -322.37343109360609 -226.95071455205471 0 -226.95071455205471 2196.543351557164 0 0 0 0 -298.22739306174935 -183.77886392523578 0 -183.77886392523578 0.18701649691502098 0 0 0 0 -234.98355982271096 -42.789646155790251 0 -42.789646155790251 54.808334081590147 0 0 0 0 8.3482991100628112 -23.363283049310382 0 -23.363283049310382 34.417138235758387 0 0 0 0 1.4505129881882119 0.37853622212148252 0 0.37853622212148252 17.981690572051434 0 0 0 0 63.396317953291373 -203.2085083258944 0 -203.2085083258944 472.77485893563426 0 0 0 0 71.871105075711057 -309.53465787052119 0 -309.53465787052119 1694.2801437111193 0 0 0 0 -3.4662920298778772 577.32722332538833 0 577.32722332538833 1247.4596161607915 0 0 0 0 7.5612543900825706 -14.213134346915382 0 -14.213134346915382 21.346215311949265 0 0 0 0 181.09587944098598 374.6884428391968 0 374.6884428391968 1125.6700838216784 0 0 0 0 31.379281279991119 694.87287114364153 0 694.87287114364153 1243.0544831222505 0 0 0 0 14.514378893421963 427.12916137191496 0 427.12916137191496 887.47784026692898 0 0 0 0 -225.44117544352957 821.23842180633073 0 821.23842180633073 2011.8364261106799 0 0 0 0 -145.55478192463033 764.70928286277194 0 764.70928286277194 1011.3582047875243 0 0 0 0 244.73737331521397 437.68624821215781 0 437.68624821215781 371.61795884631283 0 0 0 0 -226.34969720046138 -184.6291209606934 0 -184.6291209606934 249.68733153703215 0 0 0 0 91.646289749407515 527.39058107954406 0 527.39058107954406 878.61080493530608 0 0 0 0 -11.011769506667406 -83.22989128439076 0 -83.22989128439076 972.28686417941026 0 0 0 0 200.1951800297345 -253.06195180522991 0 -253.06195180522991 -190.28005033283262 0 0 0 0 227.31069947394826 243.21730863538687 0 243.21730863538687 -249.55593983752624 0 0 0 0 153.69673998316466 -123.77440414128068 0 -123.77440414128068 660.48050004555262 0 0 0 0 799.31100272269668 1329.5066009621078 0 1329.5066009621078 114.31858048755385 0 0 0 0 -103.07362230913986 -207.61618683267261 0 -207.61618683267261 -359.85222778178286 0 0 0 0 -370.81575413078781 177.39227669703541 0 177.39227669703541 238.9285696311199 0 0 0 0 -1.0286132770386143 -2.5259789204168381 0 -2.5259789204168381 33.365303313021968 0 0 0 0 -812.49346104851566 -237.66134813666213 0 -237.66134813666213 268.86479748005513 0 0 0 0 287.39075722128564 107.12695632158284 0 107.12695632158284 58.052336674809339 0 0 0 0 71.364293382368487 -31.798406791851448 0 -31.798406791851448 11.885501013457542 0 0 0 0 32.579657464480988 219.68600628426429 0 219.68600628426429 98.916020638105692 0 0 0 0 1.3220632269059469 2.421251952404198 0 2.421251952404198 1.3728714618101208 0 0 0 0 16.562308751416822 72.253729264954018 0 72.253729264954018 -18.736677572378539 0 0 0 0 -347.11072373366551 30.685647150821751 0 30.685647150821751 8.4589710956788622 0 0 0 0 -224.63986448042033 -263.78848227519484 0 -263.78848227519484 -79.526233519602101 0 0 0 0 0.92194185259464767 -3.9759137622277549 0 -3.9759137622277549 27.204334794025669 0 0 0 0 -254.15150625945262 -176.23938516791168 0 -176.23938516791168 -171.747775815762 0 0 0 0 -146.42282248938 43.833718331867203 0 43.833718331867203 -16.636153388011735 0 0 0 0 -132.15558865109006 4.0568460645299638 0 4.0568460645299638 94.075407486059703 0 0 0 0 -298.3253199109613 -240.54229829674296 0 -240.54229829674296 -52.723301982696285 0 0 0 0 0.94083918723947413 1.0330374047423589 0 1.0330374047423589 -0.52242437830597055 0 0 0 0 48.988017470112936 -105.35315833098866 0 -105.35315833098866 42.7897970394406 0 0 0 0 36.470480098418193 554.87951122528466 0 554.87951122528466 14.7594655189896 0 0 0 0 333.82380141918111 -269.22811530482613 0 -269.22811530482613 180.97207122003601 0 0 0 0 -169.9381590580997 -263.45321050273196 0 -263.45321050273196 202.63462197547142 0 0 0 0 59.543947705998107 1.8034784213123203 0 1.8034784213123203 170.00545016452088 0 0 0 0 -174.48378559438061 -211.04540964485932 0 -211.04540964485932 -48.981691697408678 0 0 0 0 -15.331051484227373 -238.31785372637387 0 -238.31785372637387 -282.97304290310421 0 0 0 0 -171.3225137315867 -292.49562495218561 0 -292.49562495218561 -20.048816825670656 0 0 0 0 36.863382670544524 -330.1492254334953 0 -330.1492254334953 -128.82770637152862 0 0 0 0 11.23341178435021 -91.133602234123828 0 -91.133602234123828 82.841788412806636 0 0 0 0 104.93567428311098 -71.804875264919247 0 -71.804875264919247 40.309178657385928 0 0 0 0 -68.799444922949988 -194.11760089838936 0 -194.11760089838936 -315.53386261956621 0 0 0 0 13.112821054202753 -9.1994730940014335 0 -9.1994730940014335 2.8753450902875652 0 0 0 0 164.51390381463671 -47.377263220507302 0 -47.377263220507302 44.692063098023937 0 0 0 0 111.27628451800683 13.91916279803263 0 13.91916279803263 123.73230526377301 0 0 0 0 61.931983256438343 -170.17480170555245 0 -170.17480170555245 289.40195510962076 0 0 0 0 -517.23779274752337 142.07247918324174 0 142.07247918324174 137.57243180868682 0 0 0 0 -2.3065303285842234 -2.4195387623184814 0 -2.4195387623184814 1.1939566602923719 0 0 0 0 377.44632799952979 169.28414242111467 0 169.28414242111467 -63.405229409079766 0 0 0 0 -2.6256763308247173 -78.641470938120619 0 -78.641470938120619 -97.272937502413697 0 0 0 0 -75.503263759374022 -323.68395202873944 0 -323.68395202873944 -381.22640220710309 0 0 0 0 304.08769898538503 213.86954391248582 0 213.86954391248582 287.25822652235911 0 0 0 0 1.7285961451324781 -1.833650930092233 0 -1.833650930092233 4.6331433438363998 0 0 0 0 386.29808425432475 170.16753626508944 0 170.16753626508944 -19.384964911077986 0 0 0 0 10.386916366023343 -52.612145052582491 0 -52.612145052582491 92.034077455711667 0 0 0 0 2.7461879970729921 -1.4152271543352253 0 -1.4152271543352253 1.2850280439626545 0 0 0 0 310.42068648875102 204.61476747124107 0 204.61476747124107 45.232295455556596 0 0 0 0 -70.581322959908903 65.7333524669084 0 65.7333524669084 196.53682900861895 0 0 0 0 -483.57115805667672 -0.88214260659879074 0 -0.88214260659879074 51.389107297945884 0 0 0 0 -272.55029105791368 160.73682804454074 0 160.73682804454074 24.347004148061387 0 0 0 0 -71.932169264574242 46.624554472626642 0 46.624554472626642 -36.436522029311163 0 0 0 0 -4.0379703993287892 -3.6358614561328011 0 -3.6358614561328011 29.241388875680059 0 0 0 0 -12.854205474331138 1.2868191303787171 0 1.2868191303787171 27.199385717940459 0 0 0 0 -3.1404252667688768 1.654424000469767 0 1.654424000469767 1.0530020858121247 0 0 0 0 -4.1870668012708752 -0.31633849166570371 0 -0.31633849166570371 21.628154690066879 0 0 0 0 -15.58603899619721 -4.968362620951666 0 -4.968362620951666 37.8974142356019 0 0 0 0 -31.279977666549414 17.895989482869481 0 17.895989482869481 51.698430282558547 0 0 0 0 2.3403437999063463 -9.1506887100287742 0 -9.1506887100287742 33.446047675224236 0 0 0 0 25.421846302345486 9.9583806489827111 0 9.9583806489827111 33.669348199633532 0 0 0 0 -45.163555168641693 6.8278053653702955 0 6.8278053653702955 147.47951068732073 0 0 0 0 -56.290690995001142 -35.892391979825334 0 -35.892391979825334 54.141380368607315 0 0 0 0 2.1266277762149457 -32.581938496907242 0 -32.581938496907242 20.081679519993486 0 0 0 0 -64.357450394141097 8.2776566999164061 0 8.2776566999164061 61.262045311683323 0 0 0 0 16.012637465186472 -60.786318471930372 0 -60.786318471930372 -41.863742232410004 0 0 0 0 13.33649189581638 -17.72083485780604 0 -17.72083485780604 16.444207097869366 0 0 0 0 1.9006384356047157 0.35091739790774312 0 0.35091739790774312 8.7194247906768396 0 0 0 0 7.7579874672310325 -16.178700126736658 0 -16.178700126736658 21.156472241302254 0 0 0 0 -17.667702559840109 -85.556235619849758 0 -85.556235619849758 71.988686356955441 0 0 0 0 12.508703137851398 10.122551369175198 0 10.122551369175198 140.66704999978538 0 0 0 0 2.7157920699858198 -8.6048140986172683 0 -8.6048140986172683 28.436366025529423 0 0 0 0 1.415368111162526 -3.3418517905022131 0 -3.3418517905022131 1.1847969873451234 0 0 0 0 -93.332189556391654 -10.683647125850257 0 -10.683647125850257 177.66466630852665 0 0 0 0 56.152934851060081 -58.42830469297769 0 -58.42830469297769 -16.388304841566423 0 0 0 0 114.86326131202804 56.517651163914707 0 56.517651163914707 -23.944171220253338 0 0 0 0 -20.141239895148601 -98.454083222324698 0 -98.454083222324698 13.725654972222401 0 0 0 0 -1.5404055553153988 1.7805977684309937 0 1.7805977684309937 6.5293646270185945 0 0 0 0 -36.665072300745123 -74.271099172678078 0 -74.271099172678078 -21.355769348156173 0 0 0 0 -32.75732533187238 -79.394713766640052 0 -79.394713766640052 -18.804893698368687 0 0 0 0 -35.166326733841743 -59.100208872521762 0 -59.100208872521762 -50.213720669271424 0 0 0 0 -6.6865725212865073 -63.468147242223495 0 -63.468147242223495 -12.78157468912832 0 0 0 0 12.623384530517797 24.62888401967939 0 24.62888401967939 11.922901699901558 0 0 0 0 -54.251639182755753 -38.819185940374155 0 -38.819185940374155 -64.971645332232583 0 0 0 0 -117.0900155220852 22.675558067916427 0 22.675558067916427 -51.885387893242296 0 0 0 0 -2.273555275416395 -3.3220627250641144 0 -3.3220627250641144 15.366414290077955 0 0 0 0 -36.300517001003612 -19.202537262543046 0 -19.202537262543046 1.8764860914088786 0 0 0 0 -6.5802884967163902 7.0618749957339162 0 7.0618749957339162 22.82853223045592 0 0 0 0 6.000353781898335 -21.816278089642825 0 -21.816278089642825 15.84415662467427 0 0 0 0 -73.285996752842038 -9.3119124627555721 0 -9.3119124627555721 -79.036209634068655 0 0 0 0 -70.362575768427405 -31.274174204027076 0 -31.274174204027076 -42.162479123449884 0 0 0 0 -8.8732031132529414 -56.365786458854927 0 -56.365786458854927 -45.949234925268684 0 0 0 0 -50.198296925850627 -38.609998469532002 0 -38.609998469532002 -47.273713939765003 0 0 0 0 -53.065653034977004 -42.259312137437519 0 -42.259312137437519 -24.229134747125499 0 0 0 0 -131.72723862635985 -12.483804113900987 0 -12.483804113900987 -15.490453631209675 0 0 0 0 -9.6781360168121182 -63.041716648574948 0 -63.041716648574948 -2.1173755715135485 0 0 0 0 36.476313551262137 -63.617107498750556 0 -63.617107498750556 -33.405632447946118 0 0 0 0 36.643374788285655 -59.726888789286022 0 -59.726888789286022 -3.6147486018162454 0 0 0 0 90.368542346930553 -49.16135422429943 0 -49.16135422429943 -28.606058923265664 0 0 0 0 67.241832093610356 -27.532216238032561 0 -27.532216238032561 20.450841940137252 0 0 0 0 41.914290582733884 -64.549089915904915 0 -64.549089915904915 -11.373684234800749 0 0 0 0 30.211038174184068 -51.219601533084642 0 -51.219601533084642 21.396543629001826 0 0 0 0 -0.17249508247164158 -79.562577333352237 0 -79.562577333352237 -5.0028934287256561 0 0 0 0 -7.6493647499070745 -8.0989337263108609 0 -8.0989337263108609 40.612288977674325 0 0 0 0 0.002433811109289372 -14.358575341349933 0 -14.358575341349933 12.790477222813934 0 0 0 0 -6.0792192266280267 -10.080208084720653 0 -10.080208084720653 6.3499020044400822 0 0 0 0 -19.842672473168115 -16.665794723819999 0 -16.665794723819999 5.0103485344152432 0 0 0 0 -5.1416938574725322 -12.454324878097395 0 -12.454324878097395 6.1822680672121351 0 0 0 0 -2.6250222502210647 -9.7752284279704327 0 -9.7752284279704327 4.7029764971957775 0 0 0 0 -18.437569003932669 1.0929176835797989 0 1.0929176835797989 39.129820439615287 0 0 0 0 -10.567205503953268 -22.94229520814406 0 -22.94229520814406 82.483293987999787 0 0 0 0 -5.1897778100834842 -4.7144460919298581 0 -4.7144460919298581 41.806603698798426 0 0 0 0 -0.00069508331858333938 -21.393186717141361 0 -21.393186717141361 69.677423966408242 0 0 0 0 18.262435558050612 -27.335610120535421 0 -27.335610120535421 73.44404854678578 0 0 0 0 9.8372592308143965 -0.0091578277351800352 0 -0.0091578277351800352 21.319895430409815 0 0 0 0 -1.2694494440116806 2.1599429618445356 0 2.1599429618445356 39.767279593128478 0 0 0 0 0.034509139610315653 -0.12645000246280347 0 -0.12645000246280347 -0.10463789642096799 0 0 0 0 -2.0611432284585591 3.2768877399721532 0 3.2768877399721532 99.654263568474562 0 0 0 0 -0.064875137146113079 -48.861977894914162 0 -48.861977894914162 -42.28178124819533 0 0 0 0 0.090178595646364768 -44.697580206608109 0 -44.697580206608109 51.78461696820159 0 0 0 0 7.1216967239239359 -5.8071391367338947 0 -5.8071391367338947 -22.760466438150615 0 0 0 0 -26.897347274974592 -38.289220325035785 0 -38.289220325035785 2.3163093154435046 0 0 0 0 -1.3721556065262479 0.3189621688356965 0 0.3189621688356965 3.4574237936082568 0 0 0 0 -40.165248555976461 -16.6338202525003 0 -16.6338202525003 60.031786241728696 0 0 0 0 -31.396528672475512 -4.0110132111221901 0 -4.0110132111221901 82.993261152267223 0 0 0 0 -6.849876297335868 6.5713289841660298 0 6.5713289841660298 47.099670925537794 0 0 0 0 -17.124633083457979 -36.991869555655285 0 -36.991869555655285 73.177103338060988 0 0 0 0 -25.611765658115246 17.140462197887246 0 17.140462197887246 28.481947800974012 0 0 0 0 -27.313652992485899 20.826188600043679 0 20.826188600043679 172.36255325574894 0 0 0 0 0.66978514176075254 0.20088895356138892 0 0.20088895356138892 -0.21078155154805245 0 0 0 0 -22.230141001377433 27.236494975011738 0 27.236494975011738 0.0023723294434603304 0 0 0 0 -7.3868255097566555 0.70027234630073565 0 0.70027234630073565 23.903635656544878 0 0 0 0 -9.6243750679168443 -3.6374001314106863 0 -3.6374001314106863 24.142108664513216 0 0 0 0 -251.78852679690044 34.652708144873031 0 34.652708144873031 60.864617135381195 0 0 0 0 -2.7910767812463178 -2.8719942889539283 0 -2.8719942889539283 20.828594958814563 0 0 0 0 -9.7209114961965497 -4.3274072598505882 0 -4.3274072598505882 25.680699050833937 0 0 0 0 -8.1812983520000699 11.079242667212384 0 11.079242667212384 24.670556853188828 0 0 0 0 -5.2354864229789539 -12.672151367870015 0 -12.672151367870015 35.053312127005086 0 0 0 0 15.882907910060567 -48.432041346051847 0 -48.432041346051847 26.310340350697516 0 0 0 0 -8.1148704472157078 -7.8695818918204168 0 -7.8695818918204168 112.59277629293501 0 0 0 0 -14.396561356902815 -8.0153877070422652 0 -8.0153877070422652 34.590499854003326 0 0 0 0 0.6067486307205594 -2.6559882329055284 0 -2.6559882329055284 2.3333291881411924 0 0 0 0 39.267705778231743 -38.839472010156896 0 -38.839472010156896 8.7469332199543715 0 0 0 0 -348.00095949869865 -52.664712926140055 0 -52.664712926140055 75.92805338314065 0 0 0 0 -63.24131865411664 86.332670229910946 0 86.332670229910946 92.802843736004434 0 0 0 0 -6.2523650951426823 1.9474335980766853 0 1.9474335980766853 6.4928897099651692 0 0 0 0 -216.52613621021578 64.165772145233859 0 64.165772145233859 89.752424993945169 0 0 0 0 18.928189865792028 -16.398499612191216 0 -16.398499612191216 13.210639186960265 0 0 0 0 -122.94537024145529 -75.58651268336871 0 -75.58651268336871 21.072395433380734 0 0 0 0 72.410004142362141 -175.02116366874543 0 -175.02116366874543 456.29393279551005 0 0 0 0 -71.982994345353518 -147.43128646151308 0 -147.43128646151308 596.51662123228016 0 0 0 0 -72.871043665309799 -220.22059746656487 0 -220.22059746656487 1828.7337161670584 0 0 0 0 -0.0055525806309041567 -7.5485996520437766 0 -7.5485996520437766 2.6791886297942256 0 0 0 0 -2.6471275496942925 -3.0974974760631722 0 -3.0974974760631722 13.096200547879562 0 0 0 0 -2.6471275496949125 -10.697788231171952 0 -10.697788231171952 21.408782315134886 0 0 0 0 -3.0831223292208527 -2.4261751187866025 0 -2.4261751187866025 6.977166649856656 0 0 0 0 72.689961416171514 -181.42912260081357 0 -181.42912260081357 492.8549578380771 0 0 0 0 5.5431382527679478 -15.253190662850102 0 -15.253190662850102 16.733969120425172 0 0 0 0 -0.41266163988185905 -3.6180137520341873 0 -3.6180137520341873 6.9169665978723174 0 0 0 0 5.5431382527693103 -9.1200518939003814 0 -9.1200518939003814 12.806266391870849 0 0 0 0 0.00088071863425707216 -5.2760124889100553 0 -5.2760124889100553 11.736275350427604 0 0 0 0 0.010470462443059204 -5.2805969240434933 0 -5.2805969240434933 11.734021201127689 0 0 0 0 -0.97534755742975587 -0.75975088638423927 0 -0.75975088638423927 2.8328309267380405 0 0 0 0 315.16779578837338 -740.79824776565874 0 -740.79824776565874 1611.8378219334409 0 0 0 0 23.332964122152823 -612.59428293266058 0 -612.59428293266058 1570.2478211263951 0 0 0 0 1.4802485859897423 -3.3023277890127645 0 -3.3023277890127645 1.5650134524709642 0 0 0 0 46.431514651023008 -211.0115225816553 0 -211.0115225816553 488.50163836478168 0 0 0 0 171.78822643402623 -336.15588837560063 0 -336.15588837560063 603.13167774480826 0 0 0 0 19.417499729787153 -284.85060385384259 0 -284.85060385384259 756.26023670523136 0 0 0 0 217.56248228570621 -226.16017545678551 0 -226.16017545678551 -51.299242197055719 0 0 0 0 3.2779397088625943 -6.7628008189351192 0 -6.7628008189351192 1.8605307879734383 0 0 0 0 -0.88261630219949438 -384.76878487164504 0 -384.76878487164504 741.49059292374295 0 0 0 0 -62.351468665650827 -334.13091786192672 0 -334.13091786192672 745.93684058900908 0 0 0 0 17.62123940486299 -85.529569708967756 0 -85.529569708967756 -278.57690332641323 0 0 0 0 -34.796472168207629 -53.08148367431204 0 -53.08148367431204 21.606461561023025 0 0 0 0 1.5675328701088347 -70.764199122433638 0 -70.764199122433638 -92.017743568081642 0 0 0 0 1.4528907158954585 -7.4016895582216478 0 -7.4016895582216478 0.75412132101308771 0 0 0 0 -47.300270920723733 -154.86485045166773 0 -154.86485045166773 108.08868883414834 0 0 0 0 -49.070737567348942 -83.791218732003472 0 -83.791218732003472 23.045454547951522 0 0 0 0 -40.208782606619025 -228.03665508776976 0 -228.03665508776976 282.37225924056838 0 0 0 0 -98.126769941144914 -156.62486330643878 0 -156.62486330643878 73.58311026411684 0 0 0 0 17.934635380343821 -59.698768917252892 0 -59.698768917252892 110.28067806560284 0 0 0 0 71.541674625160852 -123.9537401656562 0 -123.9537401656562 -487.6262390926986 0 0 0 0 -0.014419610348374023 -194.92667395110766 0 -194.92667395110766 -204.73644707229687 0 0 0 0 -31.007352615015748 -166.68033995402948 0 -166.68033995402948 -32.741112991876435 0 0 0 0 -31.08282215300968 -34.512371251231713 0 -34.512371251231713 -201.57284826843534 0 0 0 0 83.174714517016582 -104.60029458462668 0 -104.60029458462668 143.52290375366283 0 0 0 0 -7.1756512512708177 -1.2189340444295169 0 -1.2189340444295169 8.7767841938754572 0 0 0 0 -129.47389167873825 -185.07650127421948 0 -185.07650127421948 -131.08161810312049 0 0 0 0 399.68345032312868 -294.59610074226657 0 -294.59610074226657 -764.78533954836894 0 0 0 0 -1.2936601117902287 0.49675285689295379 0 0.49675285689295379 -0.78220242467857304 0 0 0 0 91.845066820702414 -303.07640827503928 0 -303.07640827503928 609.155620773583 0 0 0 0 37.155103865626188 -156.68079003422099 0 -156.68079003422099 366.13200779924227 0 0 0 0 37.238988752868863 -147.26589145715479 0 -147.26589145715479 104.11316616304975 0 0 0 0 -2.6252463415885678 -3.8890476176714532 0 -3.8890476176714532 28.66018455914849 0 0 0 0 66.42087763721247 35.909630773232493 0 35.909630773232493 -14.629782565829373 0 0 0 0 -74.600781788968561 -58.385267010540701 0 -58.385267010540701 39.77034275222104 0 0 0 0 -55.285500526386386 -18.120587951627385 0 -18.120587951627385 100.15412989501874 0 0 0 0 -29.056300324883068 -24.044563668139745 0 -24.044563668139745 100.75948579961914 0 0 0 0 -4.9679774145375166 -6.0353008593102402 0 -6.0353008593102402 9.0717919926886736 0 0 0 0 -7.634991676674872 -52.41139274035595 0 -52.41139274035595 -14.55161705732462 0 0 0 0 196.04977079691025 83.023582604524563 0 83.023582604524563 -249.04084488438275 0 0 0 0 -2.1252241671076568 -2.9936573129446113 0 -2.9936573129446113 29.617169895097334 0 0 0 0 -310.10111734617226 236.60306431073695 0 236.60306431073695 102.86483745105215 0 0 0 0 8.560348825459414 -134.48234349755876 0 -134.48234349755876 225.89507865524502 0 0 0 0 800.62304650733495 -770.79038371123897 0 -770.79038371123897 483.11262391523269 0 0 0 0 753.85880251026992 220.31260158940131 0 220.31260158940131 -239.80010080124339 0 0 0 0 51.726129586312709 1.8037347095814766 0 1.8037347095814766 -105.0536285996568 0 0 0 0 -230.95962541379697 -83.637171718408695 0 -83.637171718408695 139.7859773432283 0 0 0 0 256.12650742670053 42.388472636273946 0 42.388472636273946 117.16491452790797 0 0 0 0 -172.46738126763813 -29.954316557424136 0 -29.954316557424136 306.12216917575279 0 0 0 0 72.803120243428253 179.94201586871941 0 179.94201586871941 309.38396356905287 0 0 0 0 76.529321057600896 18.908971304903389 0 18.908971304903389 235.87654561681848 0 0 0 0 -39.006289559425568 308.19492123060627 0 308.19492123060627 266.37076426067506 0 0 0 0 -93.660346763059124 53.018994354284587 0 53.018994354284587 899.61128602939425 0 0 0 0 -111.51089139001397 208.33565524830192 0 208.33565524830192 694.23267127751024 0 0 0 0 24.04606473741751 140.62768618944392 0 140.62768618944392 323.67246213661565 0 0 0 0 -100.37621751681309 36.013547164118791 0 36.013547164118791 800.37170087730919 0 0 0 0 339.68630588544102 -653.5624575359252 0 -653.5624575359252 957.60015116343857 0 0 0 0 0.52894780702985855 -0.96272100445611386 0 -0.96272100445611386 0.95471466232153546 0 0 0 0 -94.107370893894768 90.628942801093217 0 90.628942801093217 731.41279730631504 0 0 0 0 691.17326280649058 -652.36758127178473 0 -652.36758127178473 415.07751969405217 0 0 0 0 46.47525768103992 9.955517041409621 0 9.955517041409621 625.71835489643126 0 0 0 0 397.42290115899414 -622.27384951272688 0 -622.27384951272688 -143.69688777100237 0 0 0 0 9.1566157047368204 -4.9463817783729667 0 -4.9463817783729667 3.164494878729613 0 0 0 0 543.54534034584958 -1016.230492482835 0 -1016.230492482835 916.86550584688666 0 0 0 0 253.11952488013731 -986.99293394314736 0 -986.99293394314736 1311.467627755781 0 0 0 0 -152.64237961854906 198.37385982186242 0 198.37385982186242 543.82546579907648 0 0 0 0 0.32181120855719703 -2.0178392970849846 0 -2.0178392970849846 14.161741484026322 0 0 0 0 173.95539130409861 -740.47223427944846 0 -740.47223427944846 865.02989024505951 0 0 0 0 258.5583828624691 -801.47737367683476 0 -801.47737367683476 677.24003194784746 0 0 0 0 324.59128943380301 -163.99262158210331 0 -163.99262158210331 2398.2608034447476 0 0 0 0 337.41256291874015 -596.70954565989086 0 -596.70954565989086 1809.4936883186456 0 0 0 0 1188.7963736674665 -552.09233817354107 0 -552.09233817354107 -65.420398987422232 0 0 0 0 592.70811141823697 -1202.0422420106042 0 -1202.0422420106042 2123.9421491290923 0 0 0 0 34.481726784581952 219.79945829359349 0 219.79945829359349 50.881635003768679 0 0 0 0 1.0861575660345899 0.14248440249065197 0 0.14248440249065197 -1.6088425634707448 0 0 0 0 299.772395432351 -635.9748098844284 0 -635.9748098844284 -225.28405840904452 0 0 0 0 149.79599572220013 -102.09893594790628 0 -102.09893594790628 928.76942176587534 0 0 0 0 -144.35493817591055 189.58870820251468 0 189.58870820251468 -68.558872104375041 0 0 0 0 186.21593033630415 60.250632581824902 0 60.250632581824902 42.035907978541218 0 0 0 0 454.91204528469393 -204.14613636281138 0 -204.14613636281138 132.60673007785226 0 0 0 0 230.9463630523901 -106.73153068486863 0 -106.73153068486863 101.60448627827282 0 0 0 0 652.46072573466881 65.523185599275166 0 65.523185599275166 2.9254787959798705 0 0 0 0 684.80293227124457 -387.22801096917192 0 -387.22801096917192 338.54122098573134 0 0 0 0 606.71004963705946 -213.56371980982658 0 -213.56371980982658 54.427001223579282 0 0 0 0 314.80919225557182 10.600269275895698 0 10.600269275895698 50.804083770228317 0 0 0 0 209.8303522733213 -93.481995612732135 0 -93.481995612732135 33.276055207803438 0 0 0 0 -195.99921248048759 -33.816965001453354 0 -33.816965001453354 71.910095091589028 0 0 0 0 59.602009182085112 86.171168534263415 0 86.171168534263415 -30.679947992801317 0 0 0 0 154.78546087655275 -280.97189099302932 0 -280.97189099302932 673.04747362129274 0 0 0 0 479.59718123059974 -386.18358161787182 0 -386.18358161787182 302.86413847982476 0 0 0 0 455.44798461505434 -424.40986312057066 0 -424.40986312057066 536.08880127431985 0 0 0 0 213.4209482852757 -240.11549798256601 0 -240.11549798256601 281.92812672995206 0 0 0 0 393.88102866531381 -131.22379866288975 0 -131.22379866288975 197.59624453133438 0 0 0 0 244.62984651100396 -256.55834979754945 0 -256.55834979754945 263.85685617591662 0 0 0 0 129.62691451627529 -306.18699777620895 0 -306.18699777620895 373.24443321987201 0 0 0 0 1.1401479468790665 -1.4030405151292484 0 -1.4030405151292484 0.19434580644717414 0 0 0 0 150.99362203221511 -242.15057299082082 0 -242.15057299082082 328.16987011515448 0 0 0 0 90.793467533372905 -263.29405073281305 0 -263.29405073281305 347.4043436023203 0 0 0 0 178.63419663729547 -136.56396441516699 0 -136.56396441516699 -0.88311692007118836 0 0 0 0 357.34608847597656 -404.15363526632427 0 -404.15363526632427 336.31073965482574 0 0 0 0 383.15651012261583 -38.351157288510876 0 -38.351157288510876 116.27788331099146 0 0 0 0 94.24863942798072 -38.410995049192934 0 -38.410995049192934 197.56528217162122 0 0 0 0 151.62886078979591 -4.2352421905234223 0 -4.2352421905234223 164.05782123730023 0 0 0 0 0.56930136196538861 -0.52746931369728145 0 -0.52746931369728145 0.27684824154390242 0 0 0 0 275.56109034705059 -179.37218291359022 0 -179.37218291359022 173.37630568331224 0 0 0 0 78.620359302165525 -247.7567617542154 0 -247.7567617542154 564.52399186959883 0 0 0 0 -12.186400910340581 -132.815870047918 0 -132.815870047918 240.7631244191216 0 0 0 0 0.02382426973871965 1.3134451801934119 0 1.3134451801934119 1.9080968179683282 0 0 0 0 80.17120511341102 27.315415615315942 0 27.315415615315942 123.93357262689096 0 0 0 0 67.348754274113389 -47.997545368642022 0 -47.997545368642022 169.44049800848006 0 0 0 0 -21.079195627863555 17.457870464102598 0 17.457870464102598 352.25247816240881 0 0 0 0 200.03016893107588 -97.926837250088283 0 -97.926837250088283 404.36755878011172 0 0 0 0 -13.193075889398415 49.118407032845425 0 49.118407032845425 350.22876288817497 0 0 0 0 -2.1700440416935747 -0.47472305701180062 0 -0.47472305701180062 0.42761536025965796 0 0 0 0 0.55957487620174806 0.43297180814360559 0 0.43297180814360559 1.0014633291503117 0 0 0 0 108.36212150251845 -30.736079528269329 0 -30.736079528269329 64.684613510216877 0 0 0 0 -235.27202875955709 -473.07551986838371 0 -473.07551986838371 178.20694934527273 0 0 0 0 43.320400209867103 -125.26348313130802 0 -125.26348313130802 240.26006670878269 0 0 0 0 63.880533773588922 -159.59777953766024 0 -159.59777953766024 242.70689062304155 0 0 0 0 347.63687432406437 106.43650663138396 0 106.43650663138396 263.87001955684536 0 0 0 0 316.90303959033395 -102.75026176508982 0 -102.75026176508982 107.28567349330842 0 0 0 0 142.86754643782979 -91.017107263935031 0 -91.017107263935031 410.37562406927464 0 0 0 0 107.80938298992805 -130.46213016428374 0 -130.46213016428374 228.49622526831808 0 0 0 0 114.53404120770097 -163.77798518904092 0 -163.77798518904092 227.3599740578502 0 0 0 0 1.5056298203018672 -14.229379689066562 0 -14.229379689066562 147.09308584516162 0 0 0 0 -176.51997714010798 -45.493772660542163 0 -45.493772660542163 187.46202960846131 0 0 0 0 -161.44934262057677 -10.327318816903698 0 -10.327318816903698 170.53032296774472 0 0 0 0 -0.47269367070277152 -13.270378278886025 0 -13.270378278886025 142.9727477066026 0 0 0 0 -79.474761293171824 -121.34913037507886 0 -121.34913037507886 193.07171079286491 0 0 0 0 57.599347489813113 -89.639117262231593 0 -89.639117262231593 121.4523989845984 0 0 0 0 -66.128272274199048 39.320691895423806 0 39.320691895423806 203.58750021993546 0 0 0 0 -20.213352578160311 -62.759588171706127 0 -62.759588171706127 298.09637073400518 0 0 0 0 44.54316114105859 -39.364291866942949 0 -39.364291866942949 298.28990490792785 0 0 0 0 -1.2339195239474237 0.12866532035013734 0 0.12866532035013734 -2.763191871189008 0 0 0 0 -159.97251256493996 339.77970663628366 0 339.77970663628366 -74.754764792945934 0 0 0 0 76.442756653905676 -187.30258694378608 0 -187.30258694378608 333.49635211170244 0 0 0 0 -244.01902288147323 88.454868969995005 0 88.454868969995005 167.00679177624261 0 0 0 0 140.11080727080173 -55.775732323869306 0 -55.775732323869306 57.523268953082152 0 0 0 0 102.80934905831224 -2.9592399780103733 0 -2.9592399780103733 146.4495442352636 0 0 0 0 2.2868263306193057 30.995401814041543 0 30.995401814041543 175.63130473613637 0 0 0 0 -143.24982129347268 -20.400671567975223 0 -20.400671567975223 477.21324267789169 0 0 0 0 -0.041103575084096011 0.8850309328305741 0 0.8850309328305741 1.2552785559476263 0 0 0 0 66.67891431052999 -25.644572985213017 0 -25.644572985213017 15.432593614095822 0 0 0 0 -67.363896914906263 -83.596125169628067 0 -83.596125169628067 199.43358296259248 0 0 0 0 -41.694900262130204 41.194325836178905 0 41.194325836178905 377.63623563715373 0 0 0 0 3.5834449996236799 -48.738639982620953 0 -48.738639982620953 336.33284177094174 0 0 0 0 -6.7607869642606735 -0.92751341730738091 0 -0.92751341730738091 14.598009454178676 0 0 0 0 19.461553620270397 155.24832358706362 0 155.24832358706362 390.6537141170993 0 0 0 0 -2.390362292002207 12.663454568621786 0 12.663454568621786 0.8014288197155679 0 0 0 0 60.743071677568878 64.348579698518733 0 64.348579698518733 279.54366977813334 0 0 0 0 -28.185806796904672 -35.453112958930433 0 -35.453112958930433 315.89068549202057 0 0 0 0 -32.363181970400774 49.461862242562347 0 49.461862242562347 270.38421900029789 0 0 0 0 -19.463252334069416 36.68201006654202 0 36.68201006654202 0.14199246325998871 0 0 0 0 -26.254753638297984 46.614535728622286 0 46.614535728622286 271.69516820873105 0 0 0 0 -15.690806975803866 -3.1182851301564369 0 -3.1182851301564369 180.10894655941229 0 0 0 0 8.4831024852544488 102.79910141720029 0 102.79910141720029 6.3182444594422122 0 0 0 0 -0.65015067348161892 14.537295066871593 0 14.537295066871593 143.33061845984776 0 0 0 0 -23.223240340332751 53.887696187999609 0 53.887696187999609 157.67818946570333 0 0 0 0 -31.134415608530162 25.688844748859992 0 25.688844748859992 174.77639820667537 0 0 0 0 -28.573430776565814 10.529064762626149 0 10.529064762626149 188.15735953190597 0 0 0 0 -25.112135600758279 25.58740508579649 0 25.58740508579649 189.22695089620538 0 0 0 0 2.7110855811257579 36.78976418410457 0 36.78976418410457 187.09246655154311 0 0 0 0 -4.0642896475686712 16.156442279549083 0 16.156442279549083 176.88834713269898 0 0 0 0 -71.089208133856118 15.122827442319249 0 15.122827442319249 207.43060956700356 0 0 0 0 -4.1498551204505354 -14.90210815494518 0 -14.90210815494518 149.3332617304828 0 0 0 0 -101.87582831565709 26.761997568493825 0 26.761997568493825 211.8573590585147 0 0 0 0 -53.970608510241505 44.788535037376278 0 44.788535037376278 147.62268619202951 0 0 0 0 -43.454869155692904 14.610570673612528 0 14.610570673612528 163.66606929498084 0 0 0 0 -25.57637981489097 -2.6159823899943149 0 -2.6159823899943149 126.70314534011413 0 0 0 0 -34.392325002879488 -12.428130999031964 0 -12.428130999031964 132.8027639783686 0 0 0 0 -19.674953978583289 2.5206274458469125 0 2.5206274458469125 169.39611449445511 0 0 0 0 -23.717033947701566 11.52187879178382 0 11.52187879178382 179.41221414777829 0 0 0 0 -22.440102876713809 -19.17253143238122 0 -19.17253143238122 215.77364606582705 0 0 0 0 25.132438780410666 -3.1315255835652351 0 -3.1315255835652351 191.76505076626199 0 0 0 0 -15.723040798893841 35.3754340752144 0 35.3754340752144 11.626969193535807 0 0 0 0 -16.448123796868458 2.159326483742916 0 2.159326483742916 191.22347085981164 0 0 0 0 25.132438780419761 -3.1315255836161668 0 -3.1315255836161668 191.7650507663493 0 0 0 0 25.132438780430675 -3.1315255836670985 0 -3.1315255836670985 191.76505076605827 0 0 0 0 -34.879226909682075 -17.821550664830283 0 -17.821550664830283 204.54480308140046 0 0 0 0 -29.959764823717705 -11.215515647159918 0 -11.215515647159918 209.79214477622008 0 0 0 0 2.8860719093868283 -41.100525476223993 0 -41.100525476223993 205.43705166051222 0 0 0 0 -82.322688069269134 60.056213628708065 0 60.056213628708065 126.41962549581513 0 0 0 0 -64.176797909094603 -23.083738323202851 0 -23.083738323202851 225.56410463860084 0 0 0 0 -48.384670145381278 17.071615527835093 0 17.071615527835093 170.31142275348247 0 0 0 0 -0.24816120180547685 -0.44032471012805985 0 -0.44032471012805985 1.4828898145513847 0 0 0 0 121.49923627354292 -130.59450417587504 0 -130.59450417587504 68.638977685164718 0 0 0 0 -75.911332642489469 65.517805880652304 0 65.517805880652304 184.70249800812599 0 0 0 0 -22.315567458375881 8.7563195594484569 0 8.7563195594484569 77.43034989660373 0 0 0 0 63.324266101584726 55.167105345110031 0 55.167105345110031 100.36813810927561 0 0 0 0 -78.793061716746706 -33.948288210351166 0 -33.948288210351166 62.789424021248124 0 0 0 0 -121.6054265083003 28.453613789064548 0 28.453613789064548 168.74520702932205 0 0 0 0 -4.1134757617852582 -3.8301860348213443 0 -3.8301860348213443 71.794222391767732 0 0 0 0 -79.012733023884721 -53.376837983814767 0 -53.376837983814767 16.669100368158979 0 0 0 0 -78.462197157151422 -47.69145097261935 0 -47.69145097261935 21.888274640048621 0 0 0 0 -148.68147435340438 3.5468709876586217 0 3.5468709876586217 88.99078464484046 0 0 0 0 -73.127100391291549 -41.150098347518906 0 -41.150098347518906 78.541026749910088 0 0 0 0 -84.276620574437857 31.280587493074563 0 31.280587493074563 100.92377906286856 0 0 0 0 -84.691864296342828 23.317703333952522 0 23.317703333952522 74.068834540201351 0 0 0 0 -1.0094723353916291 -8.3894449090904075 0 -8.3894449090904075 60.803043775100264 0 0 0 0 -11.75123567610899 -13.211917418302619 0 -13.211917418302619 29.072625623452041 0 0 0 0 -60.614223097965805 26.145870048960205 0 26.145870048960205 24.469897324263002 0 0 0 0 -10.672914466207793 -0.81881990002017346 0 -0.81881990002017346 14.083656167925888 0 0 0 0 -0.89532441862758461 -7.7116393540914743 0 -7.7116393540914743 24.540153624174071 0 0 0 0 27.809667414928299 -21.774208384471422 0 -21.774208384471422 35.030249405686845 0 0 0 0 -11.7140245859473 1.0192119821076631 0 1.0192119821076631 27.852538789095888 0 0 0 0 -32.567520911410611 -32.166313557478134 0 -32.166313557478134 -12.633662064974487 0 0 0 0 -1.1785783537388177 0.75859303847954607 0 0.75859303847954607 4.9231992176755526 0 0 0 0 -4.5021524074636545 -7.4857622679410269 0 -7.4857622679410269 24.122283952430735 0 0 0 0 -45.72589219247493 -24.613840782578336 0 -24.613840782578336 4.5330697764147772 0 0 0 0 45.591556759385639 -68.42469457234256 0 -68.42469457234256 37.813379820072441 0 0 0 0 -44.876028680651871 -70.327227890458744 0 -70.327227890458744 65.18368238293624 0 0 0 0 -1.0184819904906304 -3.0674078179000119 0 -3.0674078179000119 5.1508433155273678 0 0 0 0 -33.584497205105436 -12.734170190633449 0 -12.734170190633449 17.983457214293594 0 0 0 0 -33.006387462931343 15.675328888217336 0 15.675328888217336 118.22348331950343 0 0 0 0 -27.43895715726444 -23.521296523822457 0 -23.521296523822457 29.782178152003326 0 0 0 0 -31.762504099427133 -39.978049911362177 0 -39.978049911362177 3.6531326206240919 0 0 0 0 -45.009033147576702 -30.530325149706186 0 -30.530325149706186 24.792000168919913 0 0 0 0 -4.8182233906827605 -57.981427438586252 0 -57.981427438586252 165.65936072271506 0 0 0 0 -32.599486517528021 -102.44420645292121 0 -102.44420645292121 -98.997336594735316 0 0 0 0 -0.1884180331827281 0.8377236899560927 0 0.8377236899560927 -0.10538278201826401 0 0 0 0 -53.756489502089153 -63.137066986693753 0 -63.137066986693753 93.202004483842757 0 0 0 0 -27.14963353415169 -31.742062966899539 0 -31.742062966899539 70.281852648346103 0 0 0 0 -46.463738403379466 -44.110887427821581 0 -44.110887427821581 44.555655970238149 0 0 0 0 -37.689058252928817 3.9324908085027346 0 3.9324908085027346 123.16460518662643 0 0 0 0 220.56310071261441 -18.92836719659681 0 -18.92836719659681 397.16437628004314 0 0 0 0 216.78254267361172 -238.53847505281738 0 -238.53847505281738 426.30374399328502 0 0 0 0 -19.057358978309821 -149.33276059223135 0 -149.33276059223135 484.27711556814029 0 0 0 0 356.78342440704614 -270.18773591747959 0 -270.18773591747959 846.49613592922105 0 0 0 0 431.06858904581713 299.30101083774935 0 299.30101083774935 740.18318628899397 0 0 0 0 498.6623470108118 488.32557174027897 0 488.32557174027897 598.4146789941824 0 0 0 0 976.57145382151032 -162.79591565633746 0 -162.79591565633746 200.93946560617769 0 0 0 0 306.98374483506768 36.878556886236765 0 36.878556886236765 119.8937226763519 0 0 0 0 620.31874627520983 14.009733527185745 0 14.009733527185745 121.47301327923196 0 0 0 0 0.64327887001829787 -0.073227760102554385 0 -0.073227760102554385 0.13515850281132202 0 0 0 0 30.01999793055802 -55.872031450278882 0 -55.872031450278882 256.0755718886212 0 0 0 0 201.1532946207443 -175.26741779673284 0 -175.26741779673284 195.31385951771517 0 0 0 0 -83.056650028634976 -67.253328529346618 0 -67.253328529346618 274.43793936109068 0 0 0 0 -288.83802294556608 -378.79613464034992 0 -378.79613464034992 102.81198556396703 0 0 0 0 -157.25297799348255 -62.941214060025231 0 -62.941214060025231 168.83277358499981 0 0 0 0 -197.99433757302495 -133.96337406106613 0 -133.96337406106613 103.3767628364003 0 0 0 0 -63.846545251443786 -217.22584778362943 0 -217.22584778362943 -358.09381857482731 0 0 0 0 -81.48491971333678 -70.077306911871347 0 -70.077306911871347 17.062199035499361 0 0 0 0 -30.23342085515651 -67.918092922809592 0 -67.918092922809592 15.034512797399657 0 0 0 0 -177.8969804913113 -8.5622165667809895 0 -8.5622165667809895 215.19900408950343 0 0 0 0 -190.89418143768989 -9.6308646366051107 0 -9.6308646366051107 241.86072861455614 0 0 0 0 -103.66055519091037 -172.76321597578863 0 -172.76321597578863 360.73689263660344 0 0 0 0 -167.86958551736507 32.722527231839194 0 32.722527231839194 315.48169535294619 0 0 0 0 -348.81545376903887 212.72457581220806 0 212.72457581220806 207.12938429622955 0 0 0 0 -249.87836280926507 -48.927346460493936 0 -48.927346460493936 239.58312548836693 0 0 0 0 -80.105873104201066 173.13789723509854 0 173.13789723509854 -159.11041748609568 0 0 0 0 -52.749247719137657 46.348608057429374 0 46.348608057429374 63.706901061799726 0 0 0 0 -3.7322575047773459 -0.44971269537535363 0 -0.44971269537535363 0.35640046549244175 0 0 0 0 -153.88768302107746 -71.987651623210695 0 -71.987651623210695 1.3137662372719205 0 0 0 0 -17.002022062411015 0.60300641739013372 0 0.60300641739013372 30.559175567454076 0 0 0 0 -326.16371888867928 237.69101644122202 0 237.69101644122202 59.096980719696148 0 0 0 0 45.3562298347656 187.15853251505177 0 187.15853251505177 65.02069538750402 0 0 0 0 368.63988054490238 109.09422212256322 0 109.09422212256322 -54.028016433825542 0 0 0 0 194.48518384715999 288.20651405703393 0 288.20651405703393 -148.14672299195081 0 0 0 0 306.68590820793173 87.90490780336404 0 87.90490780336404 9.9124128640105482 0 0 0 0 247.11665914489322 38.557244785086368 0 38.557244785086368 -149.74656641042907 0 0 0 0 337.03003691482559 243.72940463411942 0 243.72940463411942 249.56137586268596 0 0 0 0 563.86168750862646 -30.475696050169063 0 -30.475696050169063 10.039315265225014 0 0 0 0 253.58594711579963 -2.8149584323182353 0 -2.8149584323182353 248.56187720375601 0 0 0 0 176.49629274628933 132.77507998379588 0 132.77507998379588 314.92420122268231 0 0 0 0 0.92230943328889448 -0.12276790844329144 0 -0.12276790844329144 10.054336326960367 0 0 0 0 672.29959294441392 -192.93087164757162 0 -192.93087164757162 -359.06660315406043 0 0 0 0 843.24096336556079 212.32597032241756 0 212.32597032241756 129.07101874332875 0 0 0 0 433.07420065521274 -705.79972368668678 0 -705.79972368668678 474.05083073392962 0 0 0 0 111.15839891670907 -214.507059376494 0 -214.507059376494 205.34959334818996 0 0 0 0 513.52461561586961 -139.71992054932343 0 -139.71992054932343 153.08600724447751 0 0 0 0 -48.522853282376161 -120.99328592120582 0 -120.99328592120582 294.89625013121258 0 0 0 0 0.68226715937372162 0.44825896271354376 0 0.44825896271354376 30.534644868463033 0 0 0 0 -41.802054274063316 37.806385035195923 0 37.806385035195923 49.917181275901385 0 0 0 0 -117.05646268542841 -41.13393338273454 0 -41.13393338273454 70.547065532766283 0 0 0 0 -3.7396774581792229 2.9811810460095955 0 2.9811810460095955 15.658413288045907 0 0 0 0 -3.4578718237455033 1.9279220237896642 0 1.9279220237896642 50.802760839887014 0 0 0 0 91.320941810747598 76.589044857186337 0 76.589044857186337 129.13881423999555 0 0 0 0 -13.308289482073961 4.7095011178867026 0 4.7095011178867026 11.674435537628469 0 0 0 0 37.947757498788178 104.84515307994661 0 104.84515307994661 174.35861779730476 0 0 0 0 67.003973130576924 127.18553660123143 0 127.18553660123143 71.687122281015036 0 0 0 0 143.84127682997678 112.77532283831533 0 112.77532283831533 71.113808478199644 0 0 0 0 55.628912816710226 118.23130711214253 0 118.23130711214253 125.82677289197454 0 0 0 0 -133.64876323087992 150.31448868603184 0 150.31448868603184 120.58895883242076 0 0 0 0 -57.666502316032393 -11.734453759094322 0 -11.734453759094322 38.728604964751867 0 0 0 0 35.058610449657863 57.153499201594968 0 57.153499201594968 87.363042746175779 0 0 0 0 -13.917782309027643 41.365359528987028 0 41.365359528987028 135.18083084585669 0 0 0 0 -29.912641762619387 62.019210508980905 0 62.019210508980905 353.41829982878699 0 0 0 0 20.015815210805158 111.42068738029047 0 111.42068738029047 180.68988369507133 0 0 0 0 5.6281402169524881 120.37793080987103 0 120.37793080987103 303.8334620580863 0 0 0 0 0.88187451298654196 134.95174726013647 0 134.95174726013647 161.07332726198365 0 0 0 0 60.831584568858943 90.691359220822051 0 90.691359220822051 172.793195144528 0 0 0 0 10.723937647218008 31.093027772796631 0 31.093027772796631 294.69453916629573 0 0 0 0 -113.94148561524526 42.66337014986857 0 42.66337014986857 259.7635099656909 0 0 0 0 -100.5419332558015 60.452278414770262 0 60.452278414770262 167.64261124485347 0 0 0 0 40.912945672702335 257.58790107723325 0 257.58790107723325 419.56012092749006 0 0 0 0 303.57949661570638 269.71650556472014 0 269.71650556472014 -300.43035700442852 0 0 0 0 -4.6521937199533774 0.36700313471612844 0 0.36700313471612844 -1.7737799380407751 0 0 0 0 13.962709897403329 -0.28026606565254042 0 -0.28026606565254042 42.358086681771965 0 0 0 0 -112.11730244040427 78.756980453938013 0 78.756980453938013 565.58619887009991 0 0 0 0 59.734127277843072 -149.33712387990818 0 -149.33712387990818 446.49120692917495 0 0 0 0 96.603644632552459 264.00579549909889 0 264.00579549909889 218.14828451833455 0 0 0 0 -94.248304716884377 42.914429805292457 0 42.914429805292457 259.63206263068969 0 0 0 0 -145.48067174186235 40.128972099857492 0 40.128972099857492 357.8514097276784 0 0 0 0 -146.25768123419493 37.35742943699006 0 37.35742943699006 348.62374163946151 0 0 0 0 -146.08470344494003 57.761988891137662 0 57.761988891137662 307.32607577354065 0 0 0 0 -127.48106415922302 -51.871228135874844 0 -51.871228135874844 304.62631219445757 0 0 0 0 -46.780286255829196 -2.8512851471750764 0 -2.8512851471750764 160.93106421265111 0 0 0 0 -144.14991279183414 78.995779588767618 0 78.995779588767618 500.80258194838461 0 0 0 0 -39.686380288415421 135.96978553305144 0 135.96978553305144 417.75156680318469 0 0 0 0 -443.89225591719207 239.97837424064056 0 239.97837424064056 405.83114751279936 0 0 0 0 76.104096005941756 -179.74438094536163 0 -179.74438094536163 382.7869420232455 0 0 0 0 1.2700616718324504 9.506177435343476 0 9.506177435343476 1.0373498872854725 0 0 0 0 -6.9706837999167472 2.6575425394018346 0 2.6575425394018346 69.690897104029432 0 0 0 0 -4.0153106076025402 33.722756539918521 0 33.722756539918521 8.1421654091208104 0 0 0 0 -126.3035165013589 45.799296848934318 0 45.799296848934318 142.83578252363077 0 0 0 0 63.536888273750442 16.189929999740421 0 16.189929999740421 67.798284582298947 0 0 0 0 -66.69269975125826 31.941031273789122 0 31.941031273789122 109.68526013819792 0 0 0 0 3.7390674990631876 10.427014849477835 0 10.427014849477835 72.675034970889101 0 0 0 0 -0.35404972624512965 0.3284788959237801 0 0.3284788959237801 11.89274289313064 0 0 0 0 -17.705129214009048 -105.55264471298506 0 -105.55264471298506 122.09520388016972 0 0 0 0 20.04091786634865 -112.39770646928901 0 -112.39770646928901 112.27935000915022 0 0 0 0 -47.596941757396962 -103.83278632439033 0 -103.83278632439033 117.34603974317724 0 0 0 0 33.949043216472091 -80.707686456880765 0 -80.707686456880765 71.350524154338927 0 0 0 0 4.1693872217183525 -38.650911672764778 0 -38.650911672764778 84.58664170994598 0 0 0 0 27.811661894544613 -155.98280243718364 0 -155.98280243718364 172.59887969586998 0 0 0 0 57.134060352300367 -96.520832368853007 0 -96.520832368853007 79.658652280391834 0 0 0 0 85.692538015839091 -109.4247819430384 0 -109.4247819430384 67.450536088937952 0 0 0 0 192.00566039994737 -22.963560221447551 0 -22.963560221447551 -9.1614447327738162 0 0 0 0 40.119011165233132 -24.673937751194899 0 -24.673937751194899 46.177242261008359 0 0 0 0 95.93848896546433 -38.676888831318138 0 -38.676888831318138 10.281493840710027 0 0 0 0 -1.1995339276842447 1.1021325660699972 0 1.1021325660699972 20.374879657454528 0 0 0 0 7.8895546336125335 -8.3603039340632677 0 -8.3603039340632677 41.760471779860382 0 0 0 0 -8.4345943194311985 -4.0317427455920551 0 -4.0317427455920551 19.929779231460998 0 0 0 0 -34.841657657047108 -18.781298630394303 0 -18.781298630394303 37.5222082324035 0 0 0 0 12.717247237031643 -21.38090521039976 0 -21.38090521039976 16.280126233890769 0 0 0 0 -1.4183689831726722 0.077184730863297801 0 0.077184730863297801 27.669946852919225 0 0 0 0 -0.65566718148534253 -0.63069262325117847 0 -0.63069262325117847 16.493196622345863 0 0 0 0 -20.29501077142686 10.019009283245396 0 10.019009283245396 16.947611894928741 0 0 0 0 -0.56556608934715769 51.00488646678059 0 51.00488646678059 153.26830829691608 0 0 0 0 0.061024127976445075 3.6502197657574342 0 3.6502197657574342 14.149869125889268 0 0 0 0 73.226353659420056 102.2273275947955 0 102.2273275947955 87.392885123372253 0 0 0 0 421.61100684983131 -307.31625112858342 0 -307.31625112858342 306.7258554577711 0 0 0 0 694.61013204883238 152.32961899925795 0 152.32961899925795 54.757693673775066 0 0 0 0 0.27667460818012102 1.0879677319856196 0 1.0879677319856196 9.5484602166305308 0 0 0 0 337.67802378832857 185.42500580608612 0 185.42500580608612 7.5835279880557209 0 0 0 0 255.0529724670705 -40.35804816999007 0 -40.35804816999007 -557.69864998070989 0 0 0 0 -0.51728768088140598 -2.158045028416069 0 -2.158045028416069 1.80899381995863 0 0 0 0 340.89516457200807 245.11686774074042 0 245.11686774074042 261.93103133159457 0 0 0 0 158.76065988460323 615.38124453779892 0 615.38124453779892 108.37953529640799 0 0 0 0 -169.71229131029759 435.61339973533177 0 435.61339973533177 483.82151787070325 0 0 0 0 358.33761009168302 430.71514741535066 0 430.71514741535066 107.83923245720302 0 0 0 0 368.40380664923487 -369.03269649643335 0 -369.03269649643335 894.3906365163275 0 0 0 0 97.463300140108345 284.29084935134779 0 284.29084935134779 696.17222341580782 0 0 0 0 138.46687443112933 443.71597215125803 0 443.71597215125803 1005.8659106716077 0 0 0 0 524.06606328539783 501.03966330854018 0 501.03966330854018 577.49336422793567 0 0 0 0 141.12806849191293 -250.19146707189793 0 -250.19146707189793 896.07921565850847 0 0 0 0 175.92109184179026 266.49551967915613 0 266.49551967915613 805.61239061967717 0 0 0 0 116.26297024781934 -103.59580719353471 0 -103.59580719353471 411.66241591129801 0 0 0 0 166.94294132640789 -260.2862787656195 0 -260.2862787656195 385.148934483228 0 0 0 0 370.20808376392961 -172.08918321905367 0 -172.08918321905367 41.408878670670674 0 0 0 0 127.47797574215747 -160.85631617264517 0 -160.85631617264517 158.47500420331198 0 0 0 0 131.56527630247388 -173.85046025055453 0 -173.85046025055453 154.29204342774756 0 0 0 0 25.380910918851441 -108.35125308867828 0 -108.35125308867828 165.70195355077158 0 0 0 0 38.303778374461217 -157.08730522817859 0 -157.08730522817859 342.72839745163219 0 0 0 0 95.477381510967462 -151.71865971034094 0 -151.71865971034094 330.4260666128248 0 0 0 0 -20.59685919981348 -6.7219435774095473 0 -6.7219435774095473 516.04473021027661 0 0 0 0 -17.302726607265868 -9.1337904651445569 0 -9.1337904651445569 201.35096210126358 0 0 0 0 -53.922864305271787 -61.984769771347374 0 -61.984769771347374 108.02866785459628 0 0 0 0 -55.671585660805249 -82.963025300774461 0 -82.963025300774461 280.28355037718575 0 0 0 0 -34.46561802259248 114.63107547910477 0 114.63107547910477 90.067598590303533 0 0 0 0 9.1973281649516139 92.303625790435945 0 92.303625790435945 160.44378607132239 0 0 0 0 -131.46702561085294 54.807847651136399 0 54.807847651136399 296.27232383868613 0 0 0 0 10.099430625826471 113.24231939001857 0 113.24231939001857 361.57305982641992 0 0 0 0 30.166415884969069 184.03754286916637 0 184.03754286916637 141.09169955705875 0 0 0 0 37.585598129833727 105.63029336371142 0 105.63029336371142 144.34964794888219 0 0 0 0 131.96007486266626 171.95853081911628 0 171.95853081911628 25.196996331054834 0 0 0 0 108.00328863643517 3.4468267226038733 0 3.4468267226038733 88.586291319850716 0 0 0 0 220.9791713255363 220.15039093904488 0 220.15039093904488 197.15556443778769 0 0 0 0 141.7693008078877 140.36652594854968 0 140.36652594854968 359.31220555436448 0 0 0 0 184.20702631197207 40.227618505999089 0 40.227618505999089 268.27265871704731 0 0 0 0 672.51734560838486 140.87590311731401 0 140.87590311731401 279.990684997887 0 0 0 0 172.87020736779414 -39.957864861957205 0 -39.957864861957205 345.98207089316566 0 0 0 0 120.23882122728901 -96.439489547992707 0 -96.439489547992707 -35.455513837339822 0 0 0 0 297.97216128037508 -146.3385827747752 0 -146.3385827747752 138.85639264289057 0 0 0 0 260.73058013503214 105.69710577372462 0 105.69710577372462 123.54698450745491 0 0 0 0 68.929989946075693 -58.482846654864261 0 -58.482846654864261 106.7095497098635 0 0 0 0 111.98483762155522 75.744504864547935 0 75.744504864547935 -36.73990822196356 0 0 0 0 23.36176969099688 12.199408773798496 0 12.199408773798496 -154.94270495630917 0 0 0 0 79.820879710762711 -32.675370042918075 0 -32.675370042918075 -339.20100687484955 0 0 0 0 -52.292675494589275 -28.599510556232417 0 -28.599510556232417 -111.92213643266587 0 0 0 0 4.8651610771558111 -11.937124209925713 0 -11.937124209925713 5.4849230620079794 0 0 0 0 11.230533623474912 -15.71699207254278 0 -15.71699207254278 -339.1045791105571 0 0 0 0 247.5173959055719 -112.36612942747888 0 -112.36612942747888 9.0076112773749628 0 0 0 0 -15.233817094911501 78.774137462605722 0 78.774137462605722 94.140045765037939 0 0 0 0 -0.011440649512749701 -5.2186685262161916 0 -5.2186685262161916 14.805284738644104 0 0 0 0 46.512287822730741 61.061030883629428 0 61.061030883629428 -93.45447651091672 0 0 0 0 -60.095950777558983 4.0820135244539415 0 4.0820135244539415 48.905204073147615 0 0 0 0 -13.341214621537802 -63.970564032999391 0 -63.970564032999391 -354.61115102765325 0 0 0 0 3.7787244933324615 0.14825253816438533 0 0.14825253816438533 -5.6609032830838828 0 0 0 0 35.186712400226497 106.62447837779473 0 106.62447837779473 4.7715374750841875 0 0 0 0 -22.362812748040596 80.090453519689618 0 80.090453519689618 -139.12101905030431 0 0 0 0 112.65016562738674 72.940851878709509 0 72.940851878709509 -143.67920087633684 0 0 0 0 42.068809059219348 -29.431729861433269 0 -29.431729861433269 -118.15571496359917 0 0 0 0 43.003553210721691 141.07716881966826 0 141.07716881966826 51.250026488414733 0 0 0 0 50.407227979007985 68.989100332910311 0 68.989100332910311 -95.731494954059599 0 0 0 0 64.972678017923499 16.899234200929641 0 16.899234200929641 -139.77445415058901 0 0 0 0 5.070670490906263 -0.28639691975209303 0 -0.28639691975209303 3.4848462198561947 0 0 0 0 4.081112931554344 3.2898807258025045 0 3.2898807258025045 12.945029790000262 0 0 0 0 5.1708560328215754 2.1565747889253544 0 2.1565747889253544 9.0668893076654058 0 0 0 0 -2.3827561055372826 30.659776551041432 0 30.659776551041432 16.394354243806447 0 0 0 0 20.338193930281705 35.825482854466827 0 35.825482854466827 -23.7780111870361 0 0 0 0 9.4862869006386372 6.0204627579487919 0 6.0204627579487919 -0.86806382093543277 0 0 0 0 -16.958311508460611 34.267917820287039 0 34.267917820287039 14.976348216143379 0 0 0 0 5.8346386789041045 3.6548135068930492 0 3.6548135068930492 3.6550297577649928 0 0 0 0 -106.28694009966148 -110.28217234171461 0 -110.28217234171461 22.17325379531394 0 0 0 0 -69.878826525830846 -99.437434700870654 0 -99.437434700870654 -4.1087267944894847 0 0 0 0 1.4322644492130099 -11.153229165549966 0 -11.153229165549966 15.904338941866257 0 0 0 0 -31.75024883428614 146.99649751839752 0 146.99649751839752 227.12105816439725 0 0 0 0 1.1394228087652323 -1.7150988460802807 0 -1.7150988460802807 7.5995295759336159 0 0 0 0 -17.282543934865316 70.379833156162931 0 70.379833156162931 50.259750208788319 0 0 0 0 -92.588235481616721 25.324959611825761 0 25.324959611825761 298.64305791142397 0 0 0 0 -92.484990875869698 -45.892998508919845 0 -45.892998508919845 317.29838295763693 0 0 0 0 -90.639364517602644 1.9224930042219057 0 1.9224930042219057 173.71736583419261 0 0 0 0 -86.631948771606858 -30.060121047346911 0 -30.060121047346911 350.07121476274915 0 0 0 0 71.77050330333077 -134.97670239452418 0 -134.97670239452418 195.19713134709309 0 0 0 0 59.483572368320893 -99.349025839466776 0 -99.349025839466776 377.56789629350533 0 0 0 0 -14.494142928917427 -117.2624162611537 0 -117.2624162611537 191.99577312761176 0 0 0 0 119.1376025337363 -81.818485708728986 0 -81.818485708728986 -53.821354190760758 0 0 0 0 0.31363558819884929 -78.449512971696095 0 -78.449512971696095 3.083809654795914 0 0 0 0 -46.997256508275541 -26.765998188895537 0 -26.765998188895537 182.66708841094805 0 0 0 0 -37.826332733672643 -123.86978379639186 0 -123.86978379639186 54.598186403964064 0 0 0 0 -27.518393541159639 -105.78595401460552 0 -105.78595401460552 -91.978645627466904 0 0 0 0 -48.327927314076078 -93.384650983098254 0 -93.384650983098254 1.8444269685714971 0 0 0 0 59.070862511222913 -102.9672450348553 0 -102.9672450348553 -252.63246840072679 0 0 0 0 3.5385220658799881 -117.69147099422844 0 -117.69147099422844 -55.037297570492683 0 0 0 0 3.2101733732946478 -12.546067282198024 0 -12.546067282198024 2.7964452803139395 0 0 0 0 -29.158232461452826 27.919093675285694 0 27.919093675285694 -6.9791187020273355 0 0 0 0 -165.85102488646316 -22.70334757019009 0 -22.70334757019009 202.11854500444315 0 0 0 0 -3.5769746582009248 -7.2402351954006008 0 -7.2402351954006008 35.551221269590314 0 0 0 0 -3.9815877686996828 -4.8481216915461118 0 -4.8481216915461118 21.518582167918794 0 0 0 0 -8.2251199480429023 -9.2042317324958276 0 -9.2042317324958276 22.302953720361984 0 0 0 0 -3.0072903719439035 -7.3217752898306045 0 -7.3217752898306045 37.238910924957736 0 0 0 0 1.4927015068717537 -0.60356758261696086 0 -0.60356758261696086 74.506809815677116 0 0 0 0 -68.591700601904904 -62.078454273836542 0 -62.078454273836542 -15.695996739093971 0 0 0 0 -1.3505767808203792 -12.683183368919686 0 -12.683183368919686 12.604684361936307 0 0 0 0 -16.93126941790274 -15.540287808138601 0 -15.540287808138601 -2.3280434318439802 0 0 0 0 -10.787923184513506 -21.744407537823264 0 -21.744407537823264 14.240612718660429 0 0 0 0 1.5062993861174618 2.3314966354446369 0 2.3314966354446369 86.310374492635674 0 0 0 0 -10.113976663215226 10.291637604479547 0 10.291637604479547 108.5781471022492 0 0 0 0 -2.7374007182943387 38.457701521590934 0 38.457701521590934 82.543488418203196 0 0 0 0 -6.944420962813183 21.293305674771545 0 21.293305674771545 146.02472460659192 0 0 0 0 32.431562499143638 -53.019196383571398 0 -53.019196383571398 -8.1355373035767116 0 0 0 0 0.0044231135571557445 -24.039078240398567 0 -24.039078240398567 6.7788902975797498 0 0 0 0 -36.899257066020709 -45.087594052252825 0 -45.087594052252825 76.627757306327112 0 0 0 0 -12.298497696080631 -5.2484431218690588 0 -5.2484431218690588 17.775791198087973 0 0 0 0 -6.7170391951094643 -22.395991516852519 0 -22.395991516852519 46.541234181826439 0 0 0 0 6.7879085656725238 -73.51097749404471 0 -73.51097749404471 75.213140635532909 0 0 0 0 -34.823462843306061 -71.2392981441335 0 -71.2392981441335 227.5436015540763 0 0 0 0 -27.974987568740289 -31.082954315374081 0 -31.082954315374081 114.54531252997549 0 0 0 0 221.50241675157076 -115.62470919452971 0 -115.62470919452971 48.831868674689758 0 0 0 0 86.750616664502559 -27.915228565550933 0 -27.915228565550933 -5.4566489229837316 0 0 0 0 -33.562256293171231 -99.261867724031617 0 -99.261867724031617 113.01967466737187 0 0 0 0 6.1684093062751799 -79.706893396552914 0 -79.706893396552914 116.94599956664024 0 0 0 0 -4.5468797676685426 -31.142415884984075 0 -31.142415884984075 75.084840796022036 0 0 0 0 1.940432874534963 -18.282090188804432 0 -18.282090188804432 90.436220887859236 0 0 0 0 -24.469917640313724 -28.041488177907013 0 -28.041488177907013 110.30637117018341 0 0 0 0 0.53670175253864727 -44.170250451017637 0 -44.170250451017637 48.181830217683455 0 0 0 0 3.812463189537084 -24.291354301931278 0 -24.291354301931278 72.212614135562035 0 0 0 0 46.755677476990968 -87.769311335159728 0 -87.769311335159728 8.3679645561787765 0 0 0 0 9.1779139402977155 -24.991575684130765 0 -24.991575684130765 7.2813974303974334 0 0 0 0 -23.307471356551105 -15.869582436331257 0 -15.869582436331257 159.09087530322722 0 0 0 0 -101.37980082014769 -8.3233788604738947 0 -8.3233788604738947 296.43788838695036 0 0 0 0 201.76096268255969 85.149885990729672 0 85.149885990729672 110.95495042578841 0 0 0 0 82.445168329796161 137.91866670812306 0 137.91866670812306 198.63553026720547 0 0 0 0 -42.15175363550361 -109.25375740505842 0 -109.25375740505842 144.42556083643285 0 0 0 0 1.3053290522392897 4.0400852702735648 0 4.0400852702735648 3.833206682320963 0 0 0 0 -202.08439850901595 45.914988590069697 0 45.914988590069697 -6.0479931894224137 0 0 0 0 -91.725837488580055 -152.09421698018195 0 -152.09421698018195 234.29311120012426 0 0 0 0 -122.71367130149883 -125.42618253546243 0 -125.42618253546243 270.77617090692365 0 0 0 0 -76.569716320756925 -113.84009692410473 0 -113.84009692410473 141.24430692630995 0 0 0 0 -161.79905013439475 -111.40365460443718 0 -111.40365460443718 218.44594609489286 0 0 0 0 -131.75566119249197 -204.06451883041882 0 -204.06451883041882 252.93867551514995 0 0 0 0 405.15453416039327 -171.78596540558647 0 -171.78596540558647 68.756816818960942 0 0 0 0 122.08217039725787 -249.29883207951207 0 -249.29883207951207 193.54078925354406 0 0 0 0 -42.761481001573429 -123.43731481031136 0 -123.43731481031136 119.11025171511574 0 0 0 0 149.10217018315689 -41.795523728214903 0 -41.795523728214903 2.7668993843690259 0 0 0 0 -23.250372410175146 483.04582645636401 0 483.04582645636401 452.92061103650485 0 0 0 0 0.18147469691278309 1.6264614473014181 0 1.6264614473014181 6.347672841254564 0 0 0 0 0.1357295166965713 -1.4129358210203691 0 -1.4129358210203691 8.1903193720222589 0 0 0 0 -10.7094869817156 432.87033610001163 0 432.87033610001163 440.07936932425946 0 0 0 0 -31.05205372263481 422.7109192505377 0 422.7109192505377 592.39251238576253 0 0 0 0 374.30452139090403 -426.80677167247632 0 -426.80677167247632 -26.465202887862688 0 0 0 0 -10.404581768618073 -14.361343912543816 0 -14.361343912543816 13.339568036739365 0 0 0 0 -162.20172169545481 -358.82039501269901 0 -358.82039501269901 91.786411049004528 0 0 0 0 2.6313715229138595 -7.4356750962382989 0 -7.4356750962382989 16.44736778507189 0 0 0 0 603.71206671275922 -148.99733992489928 0 -148.99733992489928 -46.112779751711059 0 0 0 0 -203.17088655188104 -33.12714632677671 0 -33.12714632677671 47.282413698078017 0 0 0 0 52.707741488312422 7.8869284178363159 0 7.8869284178363159 -12.580136963406403 0 0 0 0 -4.5008381642064705 -0.32613110448073712 0 -0.32613110448073712 43.849878621142125 0 0 0 0 0.20286485425645812 -49.243813048386073 0 -49.243813048386073 293.31527294533589 0 0 0 0 -62.442373810097749 83.416543649589585 0 83.416543649589585 426.02387265137077 0 0 0 0 -33.869686196873459 -2.1906591391089023 0 -2.1906591391089023 355.46275009957026 0 0 0 0 176.86161758292366 -242.82121011702839 0 -242.82121011702839 321.54647133864637 0 0 0 0 -18.257214500110933 18.062132580191246 0 18.062132580191246 270.17585486930329 0 0 0 0 -207.24513655023168 52.506229784179595 0 52.506229784179595 353.54744739741727 0 0 0 0 449.12800859815491 461.24682562124508 0 461.24682562124508 165.89518842489633 0 0 0 0 -172.18966624257416 -152.33665076034958 0 -152.33665076034958 750.70876196639438 0 0 0 0 2.6841766801684046 -4.5615072756434074 0 -4.5615072756434074 1.2644305104061573 0 0 0 0 -23.792638745506835 -14.579430449652136 0 -14.579430449652136 58.146098981043906 0 0 0 0 -72.272131902755518 217.06620367079449 0 217.06620367079449 68.47963541019999 0 0 0 0 11.131919460779468 18.582706865280443 0 18.582706865280443 43.192823413701262 0 0 0 0 -5.8022849366708442 -36.079172837518854 0 -36.079172837518854 3.2273648602713365 0 0 0 0 8.040397453041205 72.747250172733857 0 72.747250172733857 164.99755912844557 0 0 0 0 -12.258107952241865 27.517638876823185 0 27.517638876823185 143.88711974534817 0 0 0 0 -16.374086878066073 27.170624893093191 0 27.170624893093191 144.01064521481749 0 0 0 0 0.060111407705087973 -36.380154476267158 0 -36.380154476267158 -1.3716891169460723 0 0 0 0 -0.052688737605150388 0.23161285555053723 0 0.23161285555053723 0.088290002323745398 0 0 0 0 -8.4753461749433008 12.665973150644277 0 12.665973150644277 35.263763366421699 0 0 0 0 -20.71751496266786 -5.1635134759926586 0 -5.1635134759926586 35.23484304532758 0 0 0 0 -1.0641882558627782 -1.0453655957072385 0 -1.0453655957072385 7.819489285942538 0 0 0 0 7.2043369069536993 -28.114931684729527 0 -28.114931684729527 -23.45302443014225 0 0 0 0 12.462295929521531 -35.950318094386603 0 -35.950318094386603 -15.555771790037397 0 0 0 0 -0.15210517207187557 -4.0325867160533093 0 -4.0325867160533093 17.289542500462801 0 0 0 0 -5.3275383652321988 9.6559676052129362 0 9.6559676052129362 16.276671973057091 0 0 0 0 -10.158225738648525 -0.73196537020703545 0 -0.73196537020703545 23.008328334894031 0 0 0 0 0.075034854155966724 11.194992037464544 0 11.194992037464544 13.038986328145256 0 0 0 0 11.213732600817821 -27.917501519445068 0 -27.917501519445068 74.763055274575891 0 0 0 0 4.2116347521641728 -22.911475174238149 0 -22.911475174238149 74.643325691635255 0 0 0 0 15.389598877249332 -27.140120322207082 0 -27.140120322207082 12.010580565258479 0 0 0 0 17.341340401717389 -29.446891501895152 0 -29.446891501895152 72.046031867292186 0 0 0 0 24.808416359264811 -15.58632460192166 0 -15.58632460192166 -25.434869368327782 0 0 0 0 -13.134276940420023 -10.565737768600229 0 -10.565737768600229 10.112391668604687 0 0 0 0 -8.1905033029843253 -17.880869711036212 0 -17.880869711036212 23.632301201403607 0 0 0 0 -4.1023894378516834 -12.969196890839008 0 -12.969196890839008 18.217501723602709 0 0 0 0 -19.488478538055688 -22.911337279831059 0 -22.911337279831059 2.0270261562036467 0 0 0 0 10.875536251792976 -25.001382909905743 0 -25.001382909905743 20.799895535440953 0 0 0 0 -9.6836609181821736 -7.3816292953269169 0 -7.3816292953269169 40.499408886497804 0 0 0 0 -14.711594727959209 -8.8931897431903053 0 -8.8931897431903053 16.128502981846395 0 0 0 0 -14.749122439889664 22.784874342690493 0 22.784874342690493 28.64099924841139 0 0 0 0 23.248089447562734 0.55643800427787937 0 0.55643800427787937 12.544670655712252 0 0 0 0 15.591931272798774 40.505827949491504 0 40.505827949491504 38.84688750487112 0 0 0 0 -11.505866891568925 2.2622331079215598 0 2.2622331079215598 47.443839231604727 0 0 0 0 2.9077424431307008 -15.641902770556044 0 -15.641902770556044 67.010673708369723 0 0 0 0 14.810991813848887 -23.046020440699067 0 -23.046020440699067 71.540760687181319 0 0 0 0 -29.88602473465744 0.19205319580578362 0 0.19205319580578362 54.783782322439947 0 0 0 0 -10.66529217049332 14.683003858196145 0 14.683003858196145 48.260230993854464 0 0 0 0 -5.0308426699438087 88.084916689280362 0 88.084916689280362 234.43896331575525 0 0 0 0 -38.962239437573089 10.924603887055127 0 10.924603887055127 88.55337080694153 0 0 0 0 -42.749126714623799 63.218774649583793 0 63.218774649583793 241.23321466478774 0 0 0 0 -0.34353252242532761 -1.5451160316441701 0 -1.5451160316441701 9.231967643305417 0 0 0 0 -120.45102510338461 -34.456755583145423 0 -34.456755583145423 370.76669720951759 0 0 0 0 -74.898776096761139 -39.250927879133087 0 -39.250927879133087 311.00031552035944 0 0 0 0 -35.269523541923988 14.772763283152017 0 14.772763283152017 58.277477775409352 0 0 0 0 -48.590629670173556 -22.952832218441472 0 -22.952832218441472 16.623891434504287 0 0 0 0 72.118629087242624 29.452910175117722 0 29.452910175117722 52.754387586275698 0 0 0 0 0.38490469122443555 -2.700431913535688 0 -2.700431913535688 11.672979877074056 0 0 0 0 18.925514709851697 30.331898761749471 0 30.331898761749471 67.463497209035268 0 0 0 0 -44.056273760822251 103.78676587691734 0 103.78676587691734 605.65567551663844 0 0 0 0 214.97298248552741 227.27020213707874 0 227.27020213707874 165.20866523399309 0 0 0 0 -0.10074845729208159 -0.38080197633658486 0 -0.38080197633658486 4.9288856980182345 0 0 0 0 -0.077413978445452183 37.320426574701905 0 37.320426574701905 737.16887412435608 0 0 0 0 278.49966020804766 402.99495087580726 0 402.99495087580726 615.36871958441043 0 0 0 0 1.6711166515873472 -45.615194948062708 0 -45.615194948062708 -8.2802485049614916 0 0 0 0 294.23667322820853 98.756244346383028 0 98.756244346383028 700.32042761617413 0 0 0 0 -44.235524714511712 118.88720741367433 0 118.88720741367433 1062.0424451876606 0 0 0 0 113.97562658746793 -276.6766234504903 0 -276.6766234504903 743.63465372891369 0 0 0 0 -46.443915282863543 26.419959196703303 0 26.419959196703303 539.68012944524526 0 0 0 0 -114.24408985906757 -10.089561367749411 0 -10.089561367749411 643.01157744566444 0 0 0 0 -75.360578041909775 -94.210801295295823 0 -94.210801295295823 328.13676090881927 0 0 0 0 -40.126986065907545 -197.70294500736782 0 -197.70294500736782 490.1958672595938 0 0 0 0 -21.071543265551913 -74.964490659227522 0 -74.964490659227522 540.2899169139564 0 0 0 0 0.17556943338334022 -147.7174613980782 0 -147.7174613980782 508.74260903857066 0 0 0 0 122.81056463257107 -224.07868707543093 0 -224.07868707543093 270.5601671195036 0 0 0 0 -135.2427903296491 -90.486939211852587 0 -90.486939211852587 430.42941457702545 0 0 0 0 -142.61585646847243 -70.649065843164863 0 -70.649065843164863 430.47304854521644 0 0 0 0 -124.07590301774371 -13.479990664207435 0 -13.479990664207435 456.69670587533619 0 0 0 0 -123.36606864152492 -58.000214399186007 0 -58.000214399186007 419.15148295825929 0 0 0 0 -135.51378456789746 -109.12732191208852 0 -109.12732191208852 347.81415349018062 0 0 0 0 -145.94538700150906 -107.8898195605143 0 -107.8898195605143 469.24279106722679 0 0 0 0 -105.95837443728396 -55.855133793942514 0 -55.855133793942514 276.57926922728802 0 0 0 0 -107.05523032204422 -59.471720267633827 0 -59.471720267633827 338.86534032163036 0 0 0 0 -145.3822553485852 -40.070868522816454 0 -40.070868522816454 348.57702462928864 0 0 0 0 -38.036955407224923 60.815179157736566 0 60.815179157736566 386.4753901767981 0 0 0 0 -130.20029604931915 -7.3180242507150979 0 -7.3180242507150979 375.70031694558566 0 0 0 0 -147.31694411200249 -33.505237281078735 0 -33.505237281078735 479.27247095294297 0 0 0 0 -139.71784785671207 -162.93173189385561 0 -162.93173189385561 485.33020003413912 0 0 0 0 -138.86137499836832 -135.60608355389559 0 -135.60608355389559 333.91656140089617 0 0 0 0 -59.487550630351507 -124.93621098173753 0 -124.93621098173753 222.35846512194257 0 0 0 0 -150.84119854339406 36.541690443234984 0 36.541690443234984 953.03098967799451 0 0 0 0 174.25968007398296 -499.33505968447571 0 -499.33505968447571 717.1532988720428 0 0 0 0 37.884159375426663 237.62778977509993 0 237.62778977509993 407.70046018081484 0 0 0 0 0.682659019543292 -1.0008638523988589 0 -1.0008638523988589 10.334263354816585 0 0 0 0 -83.903575929203726 -434.2797644765451 0 -434.2797644765451 635.53872522724851 0 0 0 0 618.13963059326693 -380.40096095991794 0 -380.40096095991794 185.67869555081415 0 0 0 0 -188.68626694196701 30.452160358807305 0 30.452160358807305 126.54017791504521 0 0 0 0 186.57949289775934 469.89449052013515 0 469.89449052013515 341.20531841968113 0 0 0 0 884.80228337989138 -59.532778099575808 0 -59.532778099575808 64.970587112984504 0 0 0 0 275.88638067482498 224.04925949683093 0 224.04925949683093 -253.93035892290936 0 0 0 0 -3.2453216679210968 36.221035714637367 0 36.221035714637367 -1.6285799342125529 0 0 0 0 758.9058872988262 -18.426452953412081 0 -18.426452953412081 -29.098763459483905 0 0 0 0 -259.83388981922099 7.051831743287039 0 7.051831743287039 160.01568606626824 0 0 0 0 -221.87987788027658 206.58937019723089 0 206.58937019723089 172.5648605049355 0 0 0 0 116.27965822419947 -269.58332093745776 0 -269.58332093745776 246.83394898765255 0 0 0 0 -300.19227346587559 -215.53699695168325 0 -215.53699695168325 586.77096564367821 0 0 0 0 -54.808015001162858 70.856081095145782 0 70.856081095145782 142.36190355874714 0 0 0 0 -216.48142957059838 53.495190824500241 0 53.495190824500241 226.66134223462723 0 0 0 0 -14.944353004747427 4.9269724220648641 0 4.9269724220648641 125.72374308518192 0 0 0 0 -6.7960032800610861 6.8767343571162201 0 6.8767343571162201 122.81504204263547 0 0 0 0 -14.112200346922691 -2.3412856258073589 0 -2.3412856258073589 129.50326188476174 0 0 0 0 -6.3553440907608092 5.1096824414853472 0 5.1096824414853472 81.76512682451721 0 0 0 0 -7.0469809371434167 7.8544654611177975 0 7.8544654611177975 115.92076371184521 0 0 0 0 -15.002829960196209 -13.833983407398591 0 -13.833983407398591 89.97243782505393 0 0 0 0 -12.391530668826817 -21.451152162335347 0 -21.451152162335347 -180.64783053229621 0 0 0 0 3.9748623033572166 5.6462026097957789 0 5.6462026097957789 -9.4196974320317963 0 0 0 0 54.710478034159678 -103.51038481791329 0 -103.51038481791329 260.49738432638696 0 0 0 0 -8.8086412447589009 32.647111431382257 0 32.647111431382257 7.8604509178619679 0 0 0 0 192.31783044016083 -341.74727779453679 0 -341.74727779453679 1.5231927235799958 0 0 0 0 -105.10927670286674 172.76204722060356 0 172.76204722060356 26.265320965736464 0 0 0 0 -23.658110769437371 64.194906094409816 0 64.194906094409816 43.325068795486004 0 0 0 0 29.476315023960524 -4.9902965589935775 0 -4.9902965589935775 49.018210468711914 0 0 0 0 -60.82877508787621 -2.6756253236171688 0 -2.6756253236171688 101.43012202133832 0 0 0 0 -5.2403983720470428 -0.48964644114071021 0 -0.48964644114071021 77.643542572493587 0 0 0 0 137.98586846688795 2.6978406192647526 0 2.6978406192647526 4.6189481911533221 0 0 0 0 116.80762566148314 -40.47205321076035 0 -40.47205321076035 33.968995690869633 0 0 0 0 -6.3651733635338879 -2.6939023408662592 0 -2.6939023408662592 76.60622389267192 0 0 0 0 24.577155650780696 -31.232963478350939 0 -31.232963478350939 182.97529015733016 0 0 0 0 -81.706138935445779 -109.31351671151788 0 -109.31351671151788 247.56869108041428 0 0 0 0 88.690807593511238 44.256714786608427 0 44.256714786608427 9.9404266866185935 0 0 0 0 -192.66291683209712 6.7582706209468597 0 6.7582706209468597 75.603656568413498 0 0 0 0 -58.421953479506186 18.281722250936582 0 18.281722250936582 53.777305132847687 0 0 0 0 -181.0494773069222 -115.21200489678449 0 -115.21200489678449 14.368601431448042 0 0 0 0 -107.42868170035661 -3.2399034763020609 0 -3.2399034763020609 211.71593454627146 0 0 0 0 -19.46356471081009 186.33671364668771 0 186.33671364668771 200.20124105997638 0 0 0 0 60.828311006109743 -116.98832069227865 0 -116.98832069227865 37.056103831559085 0 0 0 0 -0.37180865510785588 -1.2894158504198465 0 -1.2894158504198465 39.125143844755428 0 0 0 0 -2.9451427792843319 11.658572818389047 0 11.658572818389047 -12.621778929779737 0 0 0 0 -8.4785533257653043 81.141931598427618 0 81.141931598427618 13.912443877852638 0 0 0 0 0.75399498983919944 9.6915923293599917 0 9.6915923293599917 -12.429184346342936 0 0 0 0 -8.4213474687327619 77.423629004786562 0 77.423629004786562 47.648670948154177 0 0 0 0 6.7513054744299996 21.652450402150862 0 21.652450402150862 -21.387723674215522 0 0 0 0 7.2811170596856343 15.412703410432187 0 15.412703410432187 43.777486133534694 0 0 0 0 -1.0543298608674478 3.766331241377177 0 3.766331241377177 33.236929632150719 0 0 0 0 -89.130041749964889 -44.925548995471217 0 -44.925548995471217 23.658008486818289 0 0 0 0 -279.71508683721208 1.0065972504212368 0 1.0065972504212368 88.875231455356698 0 0 0 0 -161.73605028342749 28.078899236938014 0 28.078899236938014 100.56361850466783 0 0 0 0 -0.2018944457988138 1.894081028385326 0 1.894081028385326 28.100254155636719 0 0 0 0 -82.01608245744228 45.846038949064678 0 45.846038949064678 12.586551766483353 0 0 0 0 14.934153667785623 -14.39207504967635 0 -14.39207504967635 116.03109548517386 0 0 0 0 132.54385269579703 101.16916025756291 0 101.16916025756291 43.707626961797359 0 0 0 0 -21.395577921854844 49.31299322853738 0 49.31299322853738 14.776106048651855 0 0 0 0 -65.727982592177852 -70.615681313851383 0 -70.615681313851383 57.20311949697134 0 0 0 0 -12.536332730269947 -25.145213045667333 0 -25.145213045667333 94.975317204589373 0 0 0 0 -140.00832062911599 141.68270779938757 0 141.68270779938757 64.799878910738698 0 0 0 0 -0.067730580670265814 1.9524659050697473 0 1.9524659050697473 19.188718765345811 0 0 0 0 -44.56933416018137 -29.96007824978733 0 -29.96007824978733 -34.065932524048549 0 0 0 0 124.65582080256945 82.629409335735545 0 82.629409335735545 13.339378768701863 0 0 0 0 -14.075085342867169 -51.243201518578644 0 -51.243201518578644 86.399969212980068 0 0 0 0 -8.3684213990807166 89.43608044659959 0 89.43608044659959 101.07557832951716 0 0 0 0 -22.821332850248609 20.072871308992035 0 20.072871308992035 112.83447415734918 0 0 0 0 -6.4159545596134961 -1.0569882040979621 0 -1.0569882040979621 77.821398170858728 0 0 0 0 7.6569973326538729 26.794935148707737 0 26.794935148707737 88.281704208224255 0 0 0 0 -2.9490058359639932 -3.6257544712465801 0 -3.6257544712465801 20.648249330537244 0 0 0 0 -1.9365679832742444 23.287683550996007 0 23.287683550996007 120.62954545520552 0 0 0 0 9.4032676059741789 30.984301563530607 0 30.984301563530607 150.28265719639239 0 0 0 0 -13.480188858331985 18.724353613419225 0 18.724353613419225 171.56147923624667 0 0 0 0 -13.070822193683348 -4.447303387873446 0 -4.447303387873446 95.983811451739015 0 0 0 0 23.105198428468157 4.8464817799740558 0 4.8464817799740558 96.607025592773425 0 0 0 0 10.607031123509955 22.768429340820148 0 22.768429340820148 81.848253897940594 0 0 0 0 6.2994793114080494 6.0101886649899825 0 6.0101886649899825 79.530598163019022 0 0 0 0 -0.5176436067530652 0.3797030390665217 0 0.3797030390665217 4.6409005210023757 0 0 0 0 68.675158678100615 89.841842145051487 0 89.841842145051487 116.11288390493883 0 0 0 0 0.98568615103618828 0.6233180024354632 0 0.6233180024354632 -1.2604668651035418 0 0 0 0 7.7998847334333732 7.3769595641319938 0 7.3769595641319938 -1.7981615991548097 0 0 0 0 58.56880261738479 -103.25591615843769 0 -103.25591615843769 133.17269060498711 0 0 0 0 -6.483316318818197 11.292403684014062 0 11.292403684014062 91.971352772987302 0 0 0 0 -8.0067038858338595 -7.4068716827553445 0 -7.4068716827553445 32.821860264023307 0 0 0 0 7.7542647604886952 -41.30602441278279 0 -41.30602441278279 62.360157398823958 0 0 0 0 -74.041233224601001 -13.549187638758212 0 -13.549187638758212 157.35417923095611 0 0 0 0 -33.922561495148329 18.588092655526452 0 18.588092655526452 100.02058947046316 0 0 0 0 -19.14002290766058 9.1443116008658762 0 9.1443116008658762 65.236966587078314 0 0 0 0 -34.574429723018113 -22.105333050685658 0 -22.105333050685658 61.93865628722051 0 0 0 0 -2.578541743294501 -8.7086185718709306 0 -8.7086185718709306 68.956355467366066 0 0 0 0 -11.974319399181592 3.315794169660002 0 3.315794169660002 48.896114414441612 0 0 0 0 -10.543224971911059 -4.9056563909756505 0 -4.9056563909756505 98.628205830455499 0 0 0 0 -1.2201746845769466 0.79548848680169471 0 0.79548848680169471 21.212524113750224 0 0 0 0 3.5365768981973815 10.279300990834599 0 10.279300990834599 88.327599269163329 0 0 0 0 -9.2588798773126939 14.305272583996784 0 14.305272583996784 41.990201363456357 0 0 0 0 -13.884945136058125 6.4920400173001989 0 6.4920400173001989 63.625725528554455 0 0 0 0 -21.118337246580268 12.171554239043871 0 12.171554239043871 22.090410245802559 0 0 0 0 -11.242025148626308 7.7458454459555117 0 7.7458454459555117 60.093209019163083 0 0 0 0 -14.907233954987305 10.714818861895765 0 10.714818861895765 76.426212940066762 0 0 0 0 -8.9111046026143867 12.214804417892992 0 12.214804417892992 43.008898331874661 0 0 0 0 -7.5752207632146469 8.6276536726465949 0 8.6276536726465949 35.196252135216469 0 0 0 0 -5.0726488385618618 15.584007989852783 0 15.584007989852783 30.958723200543858 0 0 0 0 -5.682888806938081 5.1380639324942194 0 5.1380639324942194 45.620031829275831 0 0 0 0 -8.4294540209798594 15.128913708687273 0 15.128913708687273 26.709768577350825 0 0 0 0 -10.02396170417391 1.2171836703334975 0 1.2171836703334975 56.027052000888261 0 0 0 0 -13.877815784194354 -11.221022413015817 0 -11.221022413015817 135.75900637591167 0 0 0 0 -16.128753834013423 -20.905274097480969 0 -20.905274097480969 97.963733217853587 0 0 0 0 -7.6777659402754193 8.658097369883226 0 8.658097369883226 70.423213698666657 0 0 0 0 22.367523075107215 15.219692620855312 0 15.219692620855312 112.38221895565948 0 0 0 0 85.063981469532337 -6.264939644097467 0 -6.264939644097467 118.51516896336761 0 0 0 0 -4.8784572732073324 -5.3764541052088575 0 -5.3764541052088575 40.393000793895126 0 0 0 0 -1.272593150572237 -5.8662100579226326 0 -5.8662100579226326 81.944503683757588 0 0 0 0 53.083949329126426 21.226706063684105 0 21.226706063684105 167.60770043334196 0 0 0 0 -3.1956069352927443 8.8052147023518046 0 8.8052147023518046 52.67787495031007 0 0 0 0 -4.315453307136786 6.4632770291350887 0 6.4632770291350887 61.362351441288467 0 0 0 0 -4.7096977156963931 4.8006020883276506 0 4.8006020883276506 63.726386859281774 0 0 0 0 -6.8189565244510959 9.0407661254121194 0 9.0407661254121194 102.58610275158753 0 0 0 0 20.252858945532353 -5.0905075463779212 0 -5.0905075463779212 92.630620600641123 0 0 0 0 -16.288670583680982 10.689902330410405 0 10.689902330410405 146.21269989434222 0 0 0 0 -15.340723341499256 -0.23657899922181969 0 -0.23657899922181969 69.572867400020186 0 0 0 0 48.164332514092166 30.774106764394674 0 30.774106764394674 83.126179693910672 0 0 0 0 14.238731457133326 7.9378334315115353 0 7.9378334315115353 101.10225374880974 0 0 0 0 -4.6957150687984495 27.749482573111891 0 27.749482573111891 171.17718320027052 0 0 0 0 59.815492786316327 48.687604122556877 0 48.687604122556877 131.89081637773052 0 0 0 0 18.870710876862347 -66.484536935227425 0 -66.484536935227425 116.92207791251712 0 0 0 0 -13.516314428967803 -17.816899556943099 0 -17.816899556943099 62.49962582885928 0 0 0 0 -47.261997400213346 -42.684430314940982 0 -42.684430314940982 91.134182186772705 0 0 0 0 -13.905358126133137 -15.485311255466513 0 -15.485311255466513 57.248415296759049 0 0 0 0 -8.8036069347833745 -19.703458728916303 0 -19.703458728916303 51.506293358132098 0 0 0 0 -12.662259685112163 4.9008370984521079 0 4.9008370984521079 41.842082485508769 0 0 0 0 0.57386657315919365 -9.2604011668327075 0 -9.2604011668327075 63.390215191797324 0 0 0 0 -8.6796658803918945 -22.041674501160742 0 -22.041674501160742 57.381279552620981 0 0 0 0 -8.5503358145881716 2.7778842638542613 0 2.7778842638542613 42.372440793315064 0 0 0 0 -0.066781643975900806 -8.0365081105610443 0 -8.0365081105610443 61.666764312154555 0 0 0 0 3.3528208728612388 -22.019679985124771 0 -22.019679985124771 38.479389979523035 0 0 0 0 -6.9196643488244263 8.5403417766938219 0 8.5403417766938219 92.609351696140948 0 0 0 0 2.7998912097145876 -13.385540104425672 0 -13.385540104425672 59.556315713127333 0 0 0 0 -23.661260737893826 34.882996851178177 0 34.882996851178177 71.521209943195572 0 0 0 0 -0.041746069506189087 -6.0847868998698686 0 -6.0847868998698686 61.482715163096145 0 0 0 0 -58.220371940014957 -22.780243827819504 0 -22.780243827819504 131.59519737439405 0 0 0 0 -0.85898693917859781 -10.431868673819199 0 -10.431868673819199 60.69527901022218 0 0 0 0 8.0402276766290015 -27.062276112206746 0 -27.062276112206746 165.83627891002106 0 0 0 0 -18.35138811953766 -7.9444701109605376 0 -7.9444701109605376 31.940565943608817 0 0 0 0 -7.6967614482157263 -8.1026682484820753 0 -8.1026682484820753 12.975193597068341 0 0 0 0 -28.689914137234155 -5.3060551031485375 0 -5.3060551031485375 117.44804812158691 0 0 0 0 18.495858199588838 10.968922688924067 0 10.968922688924067 72.999166318663356 0 0 0 0 1.9820348457869841 16.354029801760134 0 16.354029801760134 75.034884755781604 0 0 0 0 3.0419762188903405 -16.091244324186846 0 -16.091244324186846 67.169054048761609 0 0 0 0 5.1559439712195854 -12.621078622516734 0 -12.621078622516734 36.728106169231978 0 0 0 0 -4.8747432326032314 17.243922840752322 0 17.243922840752322 59.656480742674425 0 0 0 0 -3.7805951067657588 -10.067349362943787 0 -10.067349362943787 74.435887442394232 0 0 0 0 -8.9752635282334268 -10.806706251386004 0 -10.806706251386004 76.788235529100348 0 0 0 0 -3.8251615931656904 -3.3666603594712079 0 -3.3666603594712079 50.65022550030929 0 0 0 0 43.049032757608074 -1.9895130017193878 0 -1.9895130017193878 50.684656732855728 0 0 0 0 -15.98715654259945 -30.94080915760378 0 -30.94080915760378 129.17245691452808 0 0 0 0 -5.955152485801591 -18.018539737540777 0 -18.018539737540777 66.093085706306738 0 0 0 0 1.3529815170478274 -6.0424904319457768 0 -6.0424904319457768 56.217867556503734 0 0 0 0 1.0856382733787466 -6.1901074461486685 0 -6.1901074461486685 11.189682822147276 0 0 0 0 -3.3660100218731097 -4.9748282489939468 0 -4.9748282489939468 25.618287143463427 0 0 0 0 1.7643807029612617 -8.3334298139752718 0 -8.3334298139752718 53.600824973796989 0 0 0 0 -5.705607768911757 0.77052118595908325 0 0.77052118595908325 22.053278683392094 0 0 0 0 -32.868287501222085 -9.2849562627145588 0 -9.2849562627145588 19.594016056411419 0 0 0 0 -8.6685466324149854 -5.7861073676294765 0 -5.7861073676294765 41.493573154314298 0 0 0 0 -32.771912580782327 -7.1553538278635216 0 -7.1553538278635216 22.203300736364326 0 0 0 0 -10.161122007408736 -25.598773063000227 0 -25.598773063000227 78.680923242710293 0 0 0 0 -2.0432903166483811 -11.230886787408963 0 -11.230886787408963 42.991337578518142 0 0 0 0 -9.8369286443703459 91.613982024449797 0 91.613982024449797 0.25758395420780289 0 0 0 0 -2.976927174308833 5.2846386339645015 0 5.2846386339645015 3.3672026170365221 0 0 0 0 -3.450378835068971 13.023054681533093 0 13.023054681533093 49.794979986928027 0 0 0 0 -14.534851945408263 -0.17424900202513527 0 -0.17424900202513527 35.849239456314535 0 0 0 0 -4.7125670551496661 -17.969586498947727 0 -17.969586498947727 56.749608682547276 0 0 0 0 -2.737512454088213 -1.6346228810964956 0 -1.6346228810964956 27.213076311236396 0 0 0 0 -52.642729837029108 -27.525171351140624 0 -27.525171351140624 16.834234061989264 0 0 0 0 -19.291787049081904 -15.681905491390353 0 -15.681905491390353 12.424678432105793 0 0 0 0 -0.78392026750756383 -12.677020703519323 0 -12.677020703519323 11.800611985870873 0 0 0 0 -52.649084342061542 -25.972674119991325 0 -25.972674119991325 12.214932474340003 0 0 0 0 -8.3359369448244287 16.336680960015681 0 16.336680960015681 70.797131522826973 0 0 0 0 -12.048194027246069 -2.2910704390809684 0 -2.2910704390809684 35.375307910595524 0 0 0 0 -6.682475529212752 -32.597699318549985 0 -32.597699318549985 35.589528759544919 0 0 0 0 -1.2420736384483462 -3.3485618003614945 0 -3.3485618003614945 71.966703074273028 0 0 0 0 -0.21818012687072041 -13.930777803652745 0 -13.930777803652745 70.68446847712039 0 0 0 0 2.7720850882778389 -15.668196052640742 0 -15.668196052640742 40.265106394519449 0 0 0 0 5.1499824659367732 -22.838659178803937 0 -22.838659178803937 65.891641149469251 0 0 0 0 7.0718132417450761 -19.357845814365191 0 -19.357845814365191 56.627332278636459 0 0 0 0 -22.068389699943509 -8.5114924492154387 0 -8.5114924492154387 56.713260270540559 0 0 0 0 -0.82265534072342739 -8.8792551157750665 0 -8.8792551157750665 28.152889144609183 0 0 0 0 0.31754151449050827 -5.9401405035388155 0 -5.9401405035388155 19.290179992954922 0 0 0 0 -33.198026629196647 -23.089881635166421 0 -23.089881635166421 46.63513477999004 0 0 0 0 -173.92475911662223 -55.472914989293713 0 -55.472914989293713 10.713922293418364 0 0 0 0 16.506136006770021 24.003561033411188 0 24.003561033411188 53.365171424357868 0 0 0 0 -4.7199704426377274 16.669140724271649 0 16.669140724271649 34.804176438921765 0 0 0 0 3.0360760482662954 -36.097086716441481 0 -36.097086716441481 21.880407752280007 0 0 0 0 -23.056610607289258 -37.339217213559095 0 -37.339217213559095 106.62358739721094 0 0 0 0 -2.5118234586562549 -4.2706270860758426 0 -4.2706270860758426 59.67604469951803 0 0 0 0 13.296076777699454 -8.9538293961559248 0 -8.9538293961559248 13.22477189147321 0 0 0 0 -40.584940381645083 -30.819411010083058 0 -30.819411010083058 57.721237426911102 0 0 0 0 14.239775775364251 -24.690439885733213 0 -24.690439885733213 87.037763826571791 0 0 0 0 -3.9277044525897509 -7.5931491990877475 0 -7.5931491990877475 61.003655855067336 0 0 0 0 -7.8615120489016288 0.32336268424053216 0 0.32336268424053216 51.870664953475845 0 0 0 0 4.1430327353145913 -17.725223746943811 0 -17.725223746943811 56.907809970842209 0 0 0 0 -8.1314021264611434 -8.8781068148150979 0 -8.8781068148150979 43.385482408139126 0 0 0 0 -5.6485092036861637 7.5549111523700461 0 7.5549111523700461 37.83034714841137 0 0 0 0 -0.064077303028170718 0.23045200028354884 0 0.23045200028354884 61.333118565748919 0 0 0 0 28.989325374323926 -72.41246559571664 0 -72.41246559571664 72.364426172389358 0 0 0 0 36.306987513251158 74.769250450064646 0 74.769250450064646 90.57794155672309 0 0 0 0 -0.66009096238436005 -0.19716462982477623 0 -0.19716462982477623 2.3698957670389973 0 0 0 0 99.401290463642908 46.747550708492781 0 46.747550708492781 -69.25356236183336 0 0 0 0 22.012580491192466 -103.75341991446658 0 -103.75341991446658 -67.691152343031717 0 0 0 0 8.9433124190836679 5.2992811740878096 0 5.2992811740878096 37.704037366576813 0 0 0 0 8.6566719533899423 35.916970474341497 0 35.916970474341497 153.13325129273289 0 0 0 0 -142.11556808205896 -90.672438766530831 0 -90.672438766530831 275.2913180708274 0 0 0 0 -190.3115203777952 -97.635859686750337 0 -97.635859686750337 95.814672673022869 0 0 0 0 89.255350586772238 -79.623906007909682 0 -79.623906007909682 -50.769121090168483 0 0 0 0 -88.604479652344139 -31.538103756942292 0 -31.538103756942292 -148.13997352024307 0 0 0 0 -0.9832059308008958 -0.48373244457547315 0 -0.48373244457547315 2.6763043810170757 0 0 0 0 -84.770069092900599 -297.40158590212013 0 -297.40158590212013 -0.78439432531013153 0 0 0 0 19.3398869156822 -1.1598227471113205 0 -1.1598227471113205 59.867782460569288 0 0 0 0 0.67715226601156076 3.6357213225132767 0 3.6357213225132767 17.875278702046316 0 0 0 0 -32.179310369124778 -4.0636296939919703 0 -4.0636296939919703 95.465633299980254 0 0 0 0 -1.3931382462427346 0.13265081451520899 0 0.13265081451520899 3.4281425972511101 0 0 0 0 -71.520666349952762 -70.804863312703674 0 -70.804863312703674 0.53973593928094488 0 0 0 0 -96.486037180427616 -23.695643517035023 0 -23.695643517035023 -51.849956012236362 0 0 0 0 -12.007073950472659 233.9912007015555 0 233.9912007015555 352.91796578487265 0 0 0 0 36.972692636769352 95.349966076471901 0 95.349966076471901 225.19300916960492 0 0 0 0 -1.298887662556129 0.8479168742548211 0 0.8479168742548211 10.581218199695655 0 0 0 0 287.3841184560423 273.60515717533781 0 273.60515717533781 14.032864450899069 0 0 0 0 -55.805457134716335 -62.981096585834166 0 -62.981096585834166 3.2122628498909762 0 0 0 0 -1.0085736899603073 -0.69350072759682746 0 -0.69350072759682746 4.6250057953456576 0 0 0 0 -35.004468670877529 -37.414343424803519 0 -37.414343424803519 31.796649969313876 0 0 0 0 -66.91023700847586 42.188299681678473 0 42.188299681678473 7.5620994057098869 0 0 0 0 -0.9454092584335112 -1.7006994031694376 0 -1.7006994031694376 9.8153458861545744 0 0 0 0 -51.719490724550269 -52.954808603899437 0 -52.954808603899437 49.593708700565912 0 0 0 0 -81.636953485433651 -44.968843879556516 0 -44.968843879556516 46.909971507120645 0 0 0 0 -86.315263126260845 -63.494767327760201 0 -63.494767327760201 20.939583286293782 0 0 0 0 0.90967661146070222 -2.0435879579825809 0 -2.0435879579825809 21.104171891621831 0 0 0 0 -15.071066492962018 3.8418308645559591 0 3.8418308645559591 61.477896080206847 0 0 0 0 0.04580188150309783 -5.3917161718498505 0 -5.3917161718498505 39.838459076098729 0 0 0 0 4.7194191804774164 6.744536777419853 0 6.744536777419853 41.060924377175979 0 0 0 0 -17.548683120133319 -0.44513457467837725 0 -0.44513457467837725 67.662443185010488 0 0 0 0 -1.5864032432171027 6.3091134136829723 0 6.3091134136829723 6.5768227030853268 0 0 0 0 0.95657593882845049 26.014837799972156 0 26.014837799972156 41.810245905253396 0 0 0 0 25.066754020122403 26.138236694641819 0 26.138236694641819 74.470803065531072 0 0 0 0 -11.533966959006506 9.4558820950804972 0 9.4558820950804972 71.392562697092643 0 0 0 0 -107.02863693704728 11.548770316840091 0 11.548770316840091 32.41956538544764 0 0 0 0 -130.75285182831169 28.382236271776492 0 28.382236271776492 71.782615386182442 0 0 0 0 -122.04453043592434 47.616297272594238 0 47.616297272594238 11.210162696654152 0 0 0 0 -116.03751973409794 -6.5955582031674567 0 -6.5955582031674567 66.320798863622258 0 0 0 0 -80.197402744744295 20.974208271367388 0 20.974208271367388 133.71216264311806 0 0 0 0 -50.073801601459195 -37.375040264916606 0 -37.375040264916606 164.80256543285395 0 0 0 0 -3.5507665578698493 41.864849031448102 0 41.864849031448102 113.52113661111798 0 0 0 0 4.3478541065360332 30.333644605078007 0 30.333644605078007 42.350498747527126 0 0 0 0 1.8628197700641067 -7.6838463155218051 0 -7.6838463155218051 39.317459760626662 0 0 0 0 -23.475310554260432 1.9289822457794799 0 1.9289822457794799 80.721588664251612 0 0 0 0 -4.9419695021662058 26.725769720039821 0 26.725769720039821 33.927615734359421 0 0 0 0 -21.634696079057903 4.6904059406952001 0 4.6904059406952001 84.346647770056734 0 0 0 0 15.431421248145739 38.163448324958154 0 38.163448324958154 7.5110013419398456 0 0 0 0 -17.692233151589903 61.536355938111228 0 61.536355938111228 44.953267687676998 0 0 0 0 -16.521792124533249 18.931574207072117 0 18.931574207072117 109.07410352850275 0 0 0 0 35.942789017710993 70.140236127597746 0 70.140236127597746 16.85816701001022 0 0 0 0 83.453995484848747 4.8441902319318615 0 4.8441902319318615 30.700208172198472 0 0 0 0 0.95466818446099122 32.909253574664973 0 32.909253574664973 28.529900734259769 0 0 0 0 26.241214935131211 8.7942918624321464 0 8.7942918624321464 103.32015303081789 0 0 0 0 -32.894020701110094 43.906626878546376 0 43.906626878546376 92.900532702362398 0 0 0 0 9.4699981325761655 46.377441965087201 0 46.377441965087201 89.318458722736978 0 0 0 0 3.2054180569413564 9.4814156834038954 0 9.4814156834038954 5.932957095892732 0 0 0 0 32.239384787857944 52.774575587754953 0 52.774575587754953 -46.073604160854302 0 0 0 0 5.8271091700711031 33.748495077501062 0 33.748495077501062 38.016404727409906 0 0 0 0 53.972512038131981 -7.9433613372675609 0 -7.9433613372675609 -12.744578854391875 0 0 0 0 -1.0893592600772934 -1.7368485691036781 0 -1.7368485691036781 5.0534972986426396 0 0 0 0 184.82148539229792 136.02772037829345 0 136.02772037829345 119.45547558643739 0 0 0 0 6.3552595885596475 -55.949095604184549 0 -55.949095604184549 500.58314529087511 0 0 0 0 93.292844359594113 -294.36479606716239 0 -294.36479606716239 296.7183035039634 0 0 0 0 41.813558032956848 75.496616417556652 0 75.496616417556652 534.5526554963144 0 0 0 0 -3.1765231377364671 4.8937711098624277 0 4.8937711098624277 127.1908574373374 0 0 0 0 -30.769227870250916 81.727030571881187 0 81.727030571881187 207.0379940422863 0 0 0 0 -25.149401138005487 -35.778261079351068 0 -35.778261079351068 171.04816592621501 0 0 0 0 40.178093774319223 -126.59991907704898 0 -126.59991907704898 98.974189835906145 0 0 0 0 106.43884434092251 -80.368145935761277 0 -80.368145935761277 -6.0687947831174824 0 0 0 0 -50.585353773710665 238.70813536753121 0 238.70813536753121 21.07562786572089 0 0 0 0 1.2957697431686412 3.8415253792026505 0 3.8415253792026505 7.9102249462813461 0 0 0 0 242.36069311035834 285.04396813217318 0 285.04396813217318 -39.452152295270935 0 0 0 0 556.61811386323609 77.554832198249642 0 77.554832198249642 74.66253328739549 0 0 0 0 69.88935541371734 11.086840283402125 0 11.086840283402125 77.591159880539635 0 0 0 0 34.178396900131247 55.391105746293761 0 55.391105746293761 45.366783602687065 0 0 0 0 -29.933646724244852 -35.163149572908878 0 -35.163149572908878 -15.880233333315118 0 0 0 0 38.447280068141936 53.637539307426778 0 53.637539307426778 43.36688243817116 0 0 0 0 -2.6749867278002011 -1.0787312997483838 0 -1.0787312997483838 1.2678750486554407 0 0 0 0 -132.79270985227038 -11.976599654284655 0 -11.976599654284655 37.853750055117416 0 0 0 0 -18.238676620592059 -80.591925766064378 0 -80.591925766064378 -74.309240605158266 0 0 0 0 -91.67885610725159 -17.361561822427575 0 -17.361561822427575 188.27162276004674 0 0 0 0 19.866695803238599 -30.203782570672047 0 -30.203782570672047 -3.4630805544002214 0 0 0 0 16.87189348337472 -57.036967007148633 0 -57.036967007148633 15.569345541764051 0 0 0 0 15.119298413839715 -55.45159144722129 0 -55.45159144722129 33.467291192027915 0 0 0 0 51.000132698548668 -75.579566677683033 0 -75.579566677683033 -41.212582666717935 0 0 0 0 20.696971406420744 -30.97123736141657 0 -30.97123736141657 -11.394480179851598 0 0 0 0 34.62007483664388 -19.505092912550026 0 -19.505092912550026 -114.30597319442313 0 0 0 0 15.755058872057816 -19.481694409216288 0 -19.481694409216288 -38.63802724772313 0 0 0 0 29.608877746154349 -36.238185250607785 0 -36.238185250607785 -33.124554143549176 0 0 0 0 22.126099289756439 -32.560416501044529 0 -32.560416501044529 -9.5617259859573096 0 0 0 0 26.068250758825798 -18.495723536456353 0 -18.495723536456353 -20.978032046929002 0 0 0 0 4.7196792844929405 -26.668759293119365 0 -26.668759293119365 27.580714135299786 0 0 0 0 3.1047891403427457 -19.828258672183438 0 -19.828258672183438 8.7833071683326125 0 0 0 0 7.2656624451201424 -14.115371509295073 0 -14.115371509295073 7.5166373661650141 0 0 0 0 21.465307547753582 -10.462239390260947 0 -10.462239390260947 -21.308641941810492 0 0 0 0 79.175155917952907 75.822172859290731 0 75.822172859290731 -101.96990576671669 0 0 0 0 -24.310445274016274 -20.148499790171627 0 -20.148499790171627 9.2240766923423507 0 0 0 0 1.9521881341053855 -4.1946881515680303 0 -4.1946881515680303 8.398616218973018 0 0 0 0 -3.5169348490189805 -11.755593087727902 0 -11.755593087727902 2.2769263999289251 0 0 0 0 -8.7072233760909512 -14.384444340314076 0 -14.384444340314076 43.921503729594406 0 0 0 0 -13.554024730598599 0.39902852792420163 0 0.39902852792420163 46.818905859894585 0 0 0 0 -13.249376579859927 8.0848398766756873 0 8.0848398766756873 33.418038779331255 0 0 0 0 -15.496923929209515 -6.5494158076835447 0 -6.5494158076835447 65.288692997710314 0 0 0 0 -19.321191867238213 4.4740689740065136 0 4.4740689740065136 77.470302562462166 0 0 0 0 -24.938893199441736 -20.585618836954382 0 -20.585618836954382 79.18697456078371 0 0 0 0 -22.808086026975161 -16.92606482719566 0 -16.92606482719566 85.423452439852554 0 0 0 0 -0.89133099718947051 -50.2991829425373 0 -50.2991829425373 65.674883844214492 0 0 0 0 -8.019474387819173 40.69528091596294 0 40.69528091596294 113.96550647707045 0 0 0 0 -30.67907026646094 35.521966895461446 0 35.521966895461446 121.24513556645979 0 0 0 0 -6.8880961773543277 -69.090134356600174 0 -69.090134356600174 -42.189838710211916 0 0 0 0 51.500784628834481 120.21392385505169 0 120.21392385505169 130.27525776965922 0 0 0 0 -33.305751072004341 105.02060943591096 0 105.02060943591096 151.14248551303172 0 0 0 0 44.854598214988528 159.81156955824918 0 159.81156955824918 93.038925604123506 0 0 0 0 40.959876268962944 79.416619021561928 0 79.416619021561928 -27.171785615180852 0 0 0 0 -0.65703599112111988 173.06957446107845 0 173.06957446107845 263.9579386827827 0 0 0 0 260.79631538813828 257.41158069569065 0 257.41158069569065 94.399703676353965 0 0 0 0 -113.72234654417616 -112.59168080462405 0 -112.59168080462405 319.05998346313208 0 0 0 0 -104.20600257425281 89.440928752665059 0 89.440928752665059 165.19608528156095 0 0 0 0 -86.14810519750813 -74.908897679277288 0 -74.908897679277288 363.32228912632854 0 0 0 0 -79.897071780335182 -15.555118840973591 0 -15.555118840973591 41.027314850653056 0 0 0 0 -95.468158502620781 -173.13640694990318 0 -173.13640694990318 280.8264830097105 0 0 0 0 23.881382733212376 -167.24133671688469 0 -167.24133671688469 173.6837680903991 0 0 0 0 -93.24539154552167 -215.55722244399658 0 -215.55722244399658 274.46082180463418 0 0 0 0 53.448282999876028 166.46927497072465 0 166.46927497072465 29.203184734942624 0 0 0 0 -0.16064370782097104 1.4778198047342954 0 1.4778198047342954 4.7527998203223945 0 0 0 0 11.958986115252969 -119.32602274524106 0 -119.32602274524106 -70.361198054379201 0 0 0 0 -65.965896999977758 125.35507847920235 0 125.35507847920235 -15.704065581514442 0 0 0 0 -105.94880403109823 -125.14522124508221 0 -125.14522124508221 19.089981305034598 0 0 0 0 -1.3960569369166027 -0.19343232666258814 0 -0.19343232666258814 1.2305251367679375 0 0 0 0 119.37965208335117 -2.2405835183599265 0 -2.2405835183599265 -96.751068316036253 0 0 0 0 18.563803985393861 -92.296132089009916 0 -92.296132089009916 -49.464020319399424 0 0 0 0 -95.271241143803763 -63.382085986013408 0 -63.382085986013408 173.07170637909439 0 0 0 0 28.025721463193804 -18.242050994682359 0 -18.242050994682359 154.80541477715451 0 0 0 0 174.41438182265574 -106.34723150615173 0 -106.34723150615173 111.03789254609001 0 0 0 0 115.15336635288486 -116.45343076761128 0 -116.45343076761128 109.33705117582576 0 0 0 0 155.31858201661271 5.6990982582210563 0 5.6990982582210563 159.28493755037198 0 0 0 0 -11.65733547073296 2.7102852414827794 0 2.7102852414827794 34.138608456181828 0 0 0 0 34.006304681026904 -77.636493392685225 0 -77.636493392685225 107.44514171589981 0 0 0 0 -23.85294101139516 -60.086489147597604 0 -60.086489147597604 219.04056956445856 0 0 0 0 -18.259487737868767 14.399867788903066 0 14.399867788903066 69.792286291558412 0 0 0 0 5.0692251852888148 -25.603275268720608 0 -25.603275268720608 151.7541444018425 0 0 0 0 7.8499554917702881 -37.638441229311866 0 -37.638441229311866 108.20122854580404 0 0 0 0 -93.630643008296829 -2.1106834984675515 0 -2.1106834984675515 97.643924236268504 0 0 0 0 -6.0036875705854982 -19.669933064702491 0 -19.669933064702491 -19.318625627376605 0 0 0 0 27.131446243325627 47.301872003037715 0 47.301872003037715 98.484083976392867 0 0 0 0 -32.437245994959767 47.866164655113607 0 47.866164655113607 275.64872873870627 0 0 0 0 58.041780697828472 28.778270066730329 0 28.778270066730329 72.698343622119864 0 0 0 0 55.817257546366704 -134.14843842238952 0 -134.14843842238952 301.45057155053655 0 0 0 0 -165.05583174217441 123.45980693328966 0 123.45980693328966 188.82437723172188 0 0 0 0 -109.29034488161551 166.81781924547977 0 166.81781924547977 -141.62315791123183 0 0 0 0 -1.9575031309224116 0.77389896854110418 0 0.77389896854110418 1.3777887237841355 0 0 0 0 -34.357378433407575 118.24606361337646 0 118.24606361337646 164.40253642575044 0 0 0 0 -98.575320736440517 -64.739906190570764 0 -64.739906190570764 156.58227809618256 0 0 0 0 -99.709627253353347 25.808289292734116 0 25.808289292734116 93.86958742319257 0 0 0 0 -97.038887065981498 59.786166610165765 0 59.786166610165765 5.5078772509878036 0 0 0 0 -77.442716556826781 -13.372268498631456 0 -13.372268498631456 57.620110400403064 0 0 0 0 -64.79900833170268 -37.827010986598907 0 -37.827010986598907 92.81936368260358 0 0 0 0 -37.951124120063469 -11.38127498877293 0 -11.38127498877293 31.746077241950843 0 0 0 0 -78.934061534229386 17.573977208332508 0 17.573977208332508 53.66792498943687 0 0 0 0 6.2535711399177671 -94.729855516532552 0 -94.729855516532552 218.58606225258973 0 0 0 0 -67.521050664647646 69.185511067858897 0 69.185511067858897 -34.071716302394634 0 0 0 0 -4.0921967154038983 0.80663375198476217 0 0.80663375198476217 3.6153428384012756 0 0 0 0 -55.659375401205125 28.651676418670831 0 28.651676418670831 -27.415611658143462 0 0 0 0 19.349255412937964 -54.876989994489122 0 -54.876989994489122 319.02237732784124 0 0 0 0 -1.1788306358486951 -0.85462005921901074 0 -0.85462005921901074 0.79224384384966129 0 0 0 0 212.35495024386825 -204.83527682788554 0 -204.83527682788554 205.71279361759662 0 0 0 0 -14.368108149609412 -24.098702143967785 0 -24.098702143967785 183.17879223590717 0 0 0 0 -9.0932428373016592 -85.756775580550311 0 -85.756775580550311 340.9307727732521 0 0 0 0 76.196071815089454 -95.003736216189282 0 -95.003736216189282 118.45277175665251 0 0 0 0 -1.3169698200635276 -1.509636776446829 0 -1.509636776446829 8.67955052577571 0 0 0 0 -9.999580515040325 -11.654067045434886 0 -11.654067045434886 2.7795469891498215 0 0 0 0 -56.594082098602541 8.8537483917025384 0 8.8537483917025384 16.765064779821842 0 0 0 0 -20.990464836912651 -45.567126950955753 0 -45.567126950955753 45.575622230186127 0 0 0 0 -87.368862719878308 -31.217423248975138 0 -31.217423248975138 2.848312716698274 0 0 0 0 -0.27488466796318445 -1.6634623818215424 0 -1.6634623818215424 7.3459005217814024 0 0 0 0 -7.0468547109467181 -34.749351777903939 0 -34.749351777903939 53.389570779800124 0 0 0 0 -55.590466327985496 12.80838605354802 0 12.80838605354802 23.591209412516037 0 0 0 0 -18.842437243672521 -71.899114104548062 0 -71.899114104548062 64.503554796130629 0 0 0 0 13.654840020877373 -103.50748375570038 0 -103.50748375570038 91.348570487556572 0 0 0 0 -27.193159623618499 -106.03532862571774 0 -106.03532862571774 140.21012641886773 0 0 0 0 -22.113640955887604 -108.2289280832556 0 -108.2289280832556 115.81277800867792 0 0 0 0 -26.04970920140488 -120.43438694548968 0 -120.43438694548968 125.9982633497566 0 0 0 0 -45.263011137941248 -102.45919628439151 0 -102.45919628439151 114.68986290229077 0 0 0 0 1.8713650887261792 -36.699097061533394 0 -36.699097061533394 23.917307814146625 0 0 0 0 9.41021252051587 3.5843359996433719 0 3.5843359996433719 220.72820898638747 0 0 0 0 14.86127396586744 86.424209381038963 0 86.424209381038963 250.9855364257528 0 0 0 0 54.302501697416119 -13.457575986707525 0 -13.457575986707525 -21.72249834536342 0 0 0 0 50.00755660334471 -24.908743047810276 0 -24.908743047810276 -15.096127362223342 0 0 0 0 -31.772182422143487 119.62126017324408 0 119.62126017324408 485.46408734156284 0 0 0 0 172.9711650146437 156.52398635950522 0 156.52398635950522 442.96831808803836 0 0 0 0 0.34258423109836933 -0.86358329263232037 0 -0.86358329263232037 3.0735620324693116 0 0 0 0 133.41001467287333 246.62041323909216 0 246.62041323909216 -25.169350202431815 0 0 0 0 -70.158500541639114 -396.53059077152284 0 -396.53059077152284 173.27493706118548 0 0 0 0 -135.54189184751817 -6.7336867827962124 0 -6.7336867827962124 182.28387719602324 0 0 0 0 -13.458820497031638 6.6725198965796153 0 6.6725198965796153 -3.7196425955044106 0 0 0 0 39.515221580066509 -8.0264235496324545 0 -8.0264235496324545 -23.677780716592679 0 0 0 0 25.06328897769572 14.532976539798256 0 14.532976539798256 -17.11334970232565 0 0 0 0 32.355625731622467 -13.440347314484825 0 -13.440347314484825 -24.235164297482697 0 0 0 0 34.859331935958835 -13.906260398973245 0 -13.906260398973245 -25.26194456734811 0 0 0 0 35.785062090477368 -19.150142197773675 0 -19.150142197773675 -16.846444333379623 0 0 0 0 41.322522501856838 -9.207194813672686 0 -9.207194813672686 -22.880121729380335 0 0 0 0 24.33013637726026 -20.836267520069669 0 -20.836267520069669 -23.974347028502962 0 0 0 0 37.067510318165773 -17.370394112680515 0 -17.370394112680515 -30.211695794423576 0 0 0 0 1.4361835532007914 3.5004058024608469 0 3.5004058024608469 6.5498177536922242 0 0 0 0 7.497928843563443 3.848743867885787 0 3.848743867885787 9.7461788267828524 0 0 0 0 -21.362180780895187 31.838236745075847 0 31.838236745075847 -60.560060397601774 0 0 0 0 -24.809464131077675 -12.479179395901156 0 -12.479179395901156 -7.8754486568359425 0 0 0 0 19.081873531139081 -6.1337908135683392 0 -6.1337908135683392 -46.643817087700882 0 0 0 0 -4.1057925368405126 -2.305758316090845 0 -2.305758316090845 1.5222529399801488 0 0 0 0 10.307972078492639 -39.35170566495799 0 -39.35170566495799 1.7783373621496139 0 0 0 0 -10.56212765239809 -64.458291876922885 0 -64.458291876922885 118.17587273876859 0 0 0 0 -74.169979109221458 -2.969570295594167 0 -2.969570295594167 138.08463904069504 0 0 0 0 -49.80982270441541 -62.028033764188876 0 -62.028033764188876 218.67286068602698 0 0 0 0 -40.352738673839212 -53.463210823960253 0 -53.463210823960253 137.83627846321906 0 0 0 0 -34.984351252889951 -53.388512256467948 0 -53.388512256467948 95.642503135357401 0 0 0 0 -48.85095388306263 -50.381186447491928 0 -50.381186447491928 145.91489832452498 0 0 0 0 -2.9213939280407253 -1.2080704302332492 0 -1.2080704302332492 1.054415990157537 0 0 0 0 -34.888335279822229 -77.597758345385955 0 -77.597758345385955 122.18359043903183 0 0 0 0 -29.932941936693055 -71.33287242239021 0 -71.33287242239021 113.64224783125246 0 0 0 0 188.38127306137287 -212.13849806046346 0 -212.13849806046346 75.127945742264274 0 0 0 0 136.80170180942832 176.14924809237709 0 176.14924809237709 275.97635678456572 0 0 0 0 -1.0326658382358085 0.4431267350471586 0 0.4431267350471586 2.8125284168393421 0 0 0 0 13.509229454524245 62.600995537153722 0 62.600995537153722 24.256717928961734 0 0 0 0 17.120743939830646 -188.94742739021603 0 -188.94742739021603 231.44147877617797 0 0 0 0 16.878974917605149 9.9091907940237434 0 9.9091907940237434 -40.592351643135771 0 0 0 0 18.636654262299544 -1.6094294052600162 0 -1.6094294052600162 -35.883599838183727 0 0 0 0 -1.0919801409588366 0.2478603908041066 0 0.2478603908041066 0.49353157968381822 0 0 0 0 -2.3024628482273783 -14.430561302338901 0 -14.430561302338901 3.7110358787613222 0 0 0 0 3.912813004363116 -11.030909216391592 0 -11.030909216391592 -34.214823661241098 0 0 0 0 52.312722525090152 -11.390479868139664 0 -11.390479868139664 -35.413880403917574 0 0 0 0 119.84049361564183 -78.357220064386638 0 -78.357220064386638 -35.170402597006614 0 0 0 0 -6.5453707861705794 -80.546095727979264 0 -80.546095727979264 -23.665999982797075 0 0 0 0 122.35517670106002 42.985487037451094 0 42.985487037451094 -11.522074866832554 0 0 0 0 22.93188531203441 6.06089060017257 0 6.06089060017257 -22.186309646407608 0 0 0 0 52.685147682110028 72.648561883845105 0 72.648561883845105 152.43905782267939 0 0 0 0 50.476241946070921 87.728407508837336 0 87.728407508837336 108.30555383893079 0 0 0 0 3.8907741340991469 -4.6231314683301719 0 -4.6231314683301719 5.0031332785680434 0 0 0 0 127.98727222932393 -8.3045801463595126 0 -8.3045801463595126 -319.95956260175444 0 0 0 0 -223.26285549506565 92.081303935512551 0 92.081303935512551 -109.01277988516085 0 0 0 0 -170.70595429631067 -118.81013153483946 0 -118.81013153483946 303.61154852286563 0 0 0 0 1.9574312655147219 1.2038511275340014 0 1.2038511275340014 1.1649093949299072 0 0 0 0 12.299270916748469 -4.5805463795040851 0 -4.5805463795040851 69.612752698812983 0 0 0 0 3.9773472749555423 -4.3503012714240867 0 -4.3503012714240867 11.195191241075236 0 0 0 0 -177.82831773034923 -384.60861161636421 0 -384.60861161636421 190.01885052368743 0 0 0 0 63.149707434426659 83.903933675333974 0 83.903933675333974 79.783227612348128 0 0 0 0 50.737437794514051 51.850320749712409 0 51.850320749712409 83.840282329154434 0 0 0 0 100.85421829813157 62.019359444868314 0 62.019359444868314 82.951087975219707 0 0 0 0 53.952665786195496 75.21318600763334 0 75.21318600763334 136.38501122611342 0 0 0 0 27.479520348144376 38.340083653936745 0 38.340083653936745 161.89300805318635 0 0 0 0 16.055013425884908 8.740767675510142 0 8.740767675510142 103.04861199361403 0 0 0 0 -11.171193223358785 1.8028412613421096 0 1.8028412613421096 143.2858637044701 0 0 0 0 -13.157013581178447 -5.5296042990203205 0 -5.5296042990203205 138.7571130352153 0 0 0 0 -15.37655360156532 -49.253120890796708 0 -49.253120890796708 215.81076140873483 0 0 0 0 -9.8193469196313146 13.822211326765682 0 13.822211326765682 223.17729940603022 0 0 0 0 -52.966045041819541 -22.152450182213215 0 -22.152450182213215 180.70710026675079 0 0 0 0 -20.872283451705471 -49.150128001478151 0 -49.150128001478151 163.95335611904738 0 0 0 0 -52.936551141795661 -22.505535882250115 0 -22.505535882250115 147.26160730169795 0 0 0 0 3.5925274908955771 -76.417810779566935 0 -76.417810779566935 149.95759124886536 0 0 0 0 -21.311641991546566 -42.589819975131832 0 -42.589819975131832 208.38718878214422 0 0 0 0 -32.92380496470264 -76.738664762902772 0 -76.738664762902772 197.14874420929664 0 0 0 0 -28.917127782436097 -82.92738649814055 0 -82.92738649814055 205.9566890981223 0 0 0 0 -25.72292662184492 -47.499619839218212 0 -47.499619839218212 252.78269970127076 0 0 0 0 -27.661923240001016 -59.974560121816467 0 -59.974560121816467 233.54186476719769 0 0 0 0 -6.6872822425973482 -42.896438835239678 0 -42.896438835239678 205.50400354430894 0 0 0 0 -14.161232733097648 -49.21436217579685 0 -49.21436217579685 294.86993898513902 0 0 0 0 84.120297239658015 95.887748719302181 0 95.887748719302181 157.80242597723191 0 0 0 0 13.593739998182986 67.84866702126692 0 67.84866702126692 298.33205147892295 0 0 0 0 10.311462055234017 35.152122212479298 0 35.152122212479298 162.76765046404762 0 0 0 0 104.0749472352903 213.23132934357864 0 213.23132934357864 440.89975278900238 0 0 0 0 1.5899600326467163 -1.3290559388032221 0 -1.3290559388032221 1.8799182615041161 0 0 0 0 -154.89531086468082 136.58759703658143 0 136.58759703658143 441.0434969526832 0 0 0 0 131.54437939192164 75.932818022380161 0 75.932818022380161 409.88034068014531 0 0 0 0 53.882661368940717 -124.24170393670647 0 -124.24170393670647 284.73664834180818 0 0 0 0 16.800072878876804 -67.005198077549721 0 -67.005198077549721 464.88970183033234 0 0 0 0 45.564384834522762 -28.674635697116173 0 -28.674635697116173 233.64169758000207 0 0 0 0 44.521129875638536 22.236242910468718 0 22.236242910468718 115.97402180020435 0 0 0 0 -16.133927377273203 -128.11415426215717 0 -128.11415426215717 163.60435288434383 0 0 0 0 12.756672220712563 -40.030561391231771 0 -40.030561391231771 5.3272434756113647 0 0 0 0 127.39069942039805 -97.600427011388092 0 -97.600427011388092 -81.430894860852277 0 0 0 0 48.624737049745363 -68.322934085983434 0 -68.322934085983434 -213.62568212566293 0 0 0 0 99.07380049578569 -54.745074685335567 0 -54.745074685335567 -280.48002893935791 0 0 0 0 32.547503831499426 -97.935908254112292 0 -97.935908254112292 15.095912131758269 0 0 0 0 13.763802184605634 -39.635283257919454 0 -39.635283257919454 5.420956905135359 0 0 0 0 -19.194674388502378 -41.871011628180895 0 -41.871011628180895 131.52514141872234 0 0 0 0 -24.348478977339298 -53.203166408151446 0 -53.203166408151446 173.8040197383234 0 0 0 0 -43.65760215947931 -56.831818659598866 0 -56.831818659598866 181.00481200682407 0 0 0 0 -9.0297459733283176 -89.710046448934008 0 -89.710046448934008 168.44802067111596 0 0 0 0 -20.07367546459227 -4.523636737925699 0 -4.523636737925699 136.97897667950747 0 0 0 0 -29.735234634379594 -16.829388540456421 0 -16.829388540456421 154.03650752252724 0 0 0 0 -24.946450805976383 -122.23616268053411 0 -122.23616268053411 81.986088633857435 0 0 0 0 -24.893558980545549 -54.162140396907489 0 -54.162140396907489 78.225752344667853 0 0 0 0 -23.770197575778639 -65.708473760168999 0 -65.708473760168999 100.23796202726953 0 0 0 0 -24.344918403158943 -62.852933475212922 0 -62.852933475212922 188.37775867919845 0 0 0 0 -19.354599111003381 -85.409209302568343 0 -85.409209302568343 127.91217480353225 0 0 0 0 -19.557553155183996 5.2797184971495881 0 5.2797184971495881 172.45292072034681 0 0 0 0 -21.678424160207896 14.882572389422421 0 14.882572389422421 228.68842598560514 0 0 0 0 -20.50482907778769 -115.7813549045095 0 -115.7813549045095 296.21519656994496 0 0 0 0 100.83285142185969 -116.20870385403396 0 -116.20870385403396 72.127437718834699 0 0 0 0 -0.19775112716414217 -1.1736237729371481 0 -1.1736237729371481 3.3309385753799177 0 0 0 0 171.47570335489138 -240.81733781344883 0 -240.81733781344883 275.81857187969581 0 0 0 0 -21.511364330023298 7.9222265653697832 0 7.9222265653697832 517.54458712955602 0 0 0 0 -40.873103535165001 17.854840944099124 0 17.854840944099124 168.45039972440281 0 0 0 0 232.34631848945418 78.936203392904645 0 78.936203392904645 179.8781089480035 0 0 0 0 7.1329548957232776 -40.131444345767193 0 -40.131444345767193 3.3667954425283373 0 0 0 0 72.952235890374141 32.243810472546102 0 32.243810472546102 23.770562961595715 0 0 0 0 -11.23239751589017 38.942489374418074 0 38.942489374418074 204.03693861941429 0 0 0 0 -20.852593239451835 31.907686058104446 0 31.907686058104446 199.59306344951619 0 0 0 0 -20.187483841351622 4.4428003648333743 0 4.4428003648333743 175.48701799225819 0 0 0 0 -19.854842884180925 10.480818057509168 0 10.480818057509168 218.8973990426166 0 0 0 0 -13.91924406096507 31.076259961252617 0 31.076259961252617 196.57430551496509 0 0 0 0 -15.24577654526729 37.11103323433781 0 37.11103323433781 202.00282090764449 0 0 0 0 -0.65221353893029743 -38.037330256401049 0 -38.037330256401049 19.845563394914464 0 0 0 0 8.0722626182341628 35.008721468737349 0 35.008721468737349 194.14708512366633 0 0 0 0 -17.79945763176147 31.642124406222138 0 31.642124406222138 194.77571158460159 0 0 0 0 0.54204710645262821 19.201801355418866 0 19.201801355418866 175.36510412520147 0 0 0 0 -13.817315878430691 22.944313997719291 0 22.944313997719291 161.09803667085362 0 0 0 0 -20.861034427465256 20.58403177341097 0 20.58403177341097 177.78465364530712 0 0 0 0 -27.557879980512098 20.214234433704405 0 20.214234433704405 176.2856178538641 0 0 0 0 -30.679019115988467 12.52643317827642 0 12.52643317827642 167.79306859236385 0 0 0 0 -76.927219088948277 -76.275027701261934 0 -76.275027701261934 133.49267317401973 0 0 0 0 -53.59966828944107 -74.327030277094309 0 -74.327030277094309 116.26287697733096 0 0 0 0 -61.944429524520444 -72.352208684733796 0 -72.352208684733796 129.18203443331004 0 0 0 0 -12.026119666075601 -109.38279463792878 0 -109.38279463792878 116.94495997937338 0 0 0 0 -84.744038317705872 -118.55597179291544 0 -118.55597179291544 116.5960433415803 0 0 0 0 12.433649553486248 -119.84797822923611 0 -119.84797822923611 -26.237370206942387 0 0 0 0 -0.052372109803400235 -130.78129449101652 0 -130.78129449101652 44.095176551483746 0 0 0 0 39.822689390035521 -183.8277851705534 0 -183.8277851705534 76.648311713608564 0 0 0 0 -29.639041123182324 -139.04612204360456 0 -139.04612204360456 173.62536839594395 0 0 0 0 78.025016113147899 -203.20551064117353 0 -203.20551064117353 211.75108777514106 0 0 0 0 -46.677744134401564 -163.26578634445832 0 -163.26578634445832 331.66524720698362 0 0 0 0 -45.40040347883405 -160.49121618406934 0 -160.49121618406934 247.07433945405865 0 0 0 0 -32.687891208714632 -172.79228648435969 0 -172.79228648435969 170.70512789830536 0 0 0 0 -144.37170890670632 -110.78065568264719 0 -110.78065568264719 223.2504037564031 0 0 0 0 -152.61388861044998 -112.78825173415316 0 -112.78825173415316 251.32663330708601 0 0 0 0 -200.66017948522131 -32.296390238694585 0 -32.296390238694585 162.6018705937604 0 0 0 0 -162.68726470205104 -74.037969849931642 0 -74.037969849931642 183.92935812008727 0 0 0 0 44.001681968432877 -31.671170014939889 0 -31.671170014939889 123.67923833488021 0 0 0 0 135.3233796044542 -127.77459666947834 0 -127.77459666947834 19.226997476056567 0 0 0 0 143.95081844691867 -24.321162640389957 0 -24.321162640389957 -55.907133796872586 0 0 0 0 59.885670228848312 44.087135357425723 0 44.087135357425723 -151.69824823046656 0 0 0 0 8.618994545886153 -28.782450043912831 0 -28.782450043912831 -54.971316660950833 0 0 0 0 -2.8738617740277732 -26.097362438247728 0 -26.097362438247728 -40.969067602221912 0 0 0 0 43.74709290301098 -168.14412967188946 0 -168.14412967188946 -29.25137178533987 0 0 0 0 25.134719520915837 -82.502724562214098 0 -82.502724562214098 51.752693035225093 0 0 0 0 141.77101903920357 -152.81794864097174 0 -152.81794864097174 252.52038729223204 0 0 0 0 90.972056300558904 -52.684819627791285 0 -52.684819627791285 128.4515513058941 0 0 0 0 76.328989722699077 -79.011730240914602 0 -79.011730240914602 245.06956045429979 0 0 0 0 109.67970180127713 -183.41863177864798 0 -183.41863177864798 145.84553152609442 0 0 0 0 136.54421963976756 -165.88910877008675 0 -165.88910877008675 350.31879221577765 0 0 0 0 160.50327499081777 -20.655735814827494 0 -20.655735814827494 320.48595004462732 0 0 0 0 189.08029139360269 -149.3330013944942 0 -149.3330013944942 536.98169095284902 0 0 0 0 244.79441535160186 42.68136222206158 0 42.68136222206158 361.32459854346234 0 0 0 0 185.88054025200609 -10.878224061023957 0 -10.878224061023957 124.49939236317005 0 0 0 0 143.44383243170401 73.7969636612454 0 73.7969636612454 258.59681274964532 0 0 0 0 128.4924344328083 -78.454917316055798 0 -78.454917316055798 310.14930128978813 0 0 0 0 241.09770468594752 124.52177118562759 0 124.52177118562759 487.36487909689822 0 0 0 0 70.293884938302199 -15.740293023231061 0 -15.740293023231061 398.92897491545227 0 0 0 0 -19.971162936675 22.520884427336568 0 22.520884427336568 550.63703379737126 0 0 0 0 67.55547930276316 91.647278446660494 0 91.647278446660494 400.44084620795547 0 0 0 0 -9.610008171170648 -11.760666368198144 0 -11.760666368198144 542.2890525143157 0 0 0 0 29.955083255857289 -23.270792696070657 0 -23.270792696070657 284.78795984009776 0 0 0 0 66.302999974284376 82.120131373860204 0 82.120131373860204 172.86331560783947 0 0 0 0 77.406176556040009 -47.780941440101742 0 -47.780941440101742 136.87164610105538 0 0 0 0 99.709452927270718 64.307090041624178 0 64.307090041624178 209.11455006787219 0 0 0 0 116.4694827317779 -68.904442337591718 0 -68.904442337591718 319.18649200582149 0 0 0 0 224.86918060649697 -24.503745849135157 0 -24.503745849135157 156.71555462173637 0 0 0 0 36.782521916861697 -48.930506823009637 0 -48.930506823009637 351.238153208531 0 0 0 0 73.071460409843098 -131.4171923962258 0 -131.4171923962258 527.28717695917294 0 0 0 0 80.590122611055904 25.563176187286444 0 25.563176187286444 170.93071798868914 0 0 0 0 10.095847389981145 73.323131049668291 0 73.323131049668291 309.23978197623364 0 0 0 0 75.727003590641175 138.42730747666792 0 138.42730747666792 113.71342781801286 0 0 0 0 137.40761364552097 139.46176949264191 0 139.46176949264191 83.463370709381707 0 0 0 0 -32.174131798970961 179.88007076030408 0 179.88007076030408 73.9445730339703 0 0 0 0 167.05946828207937 79.725531357184991 0 79.725531357184991 61.563739161050762 0 0 0 0 -0.25060965231181109 0.68995378221142545 0 0.68995378221142545 1.1550489920656162 0 0 0 0 -30.593186696178691 110.55352083621619 0 110.55352083621619 138.97519610913332 0 0 0 0 -37.067433918703273 32.269691481204063 0 32.269691481204063 18.546475598424877 0 0 0 0 7.0009111710030538 89.914609604318684 0 89.914609604318684 -127.64627415274299 0 0 0 0 7.7332659844119007 16.294776262169762 0 16.294776262169762 -147.77597778889958 0 0 0 0 20.941083791925166 -19.173349014061387 0 -19.173349014061387 22.537273550857208 0 0 0 0 2.1886225202845599 -0.07877585207877047 0 -0.07877585207877047 3.1928044399530222 0 0 0 0 18.396649056353439 -24.058810990230995 0 -24.058810990230995 15.788381369668059 0 0 0 0 131.08880293678897 -30.919518679154862 0 -30.919518679154862 28.526506600101129 0 0 0 0 20.977495058690465 -30.628114650629868 0 -30.628114650629868 32.0524903928399 0 0 0 0 36.423687389744458 -31.497854284749337 0 -31.497854284749337 10.574212407853338 0 0 0 0 25.593145668325661 35.011633945506674 0 35.011633945506674 9.8726317870023195 0 0 0 0 61.417240465429813 40.153445051220842 0 40.153445051220842 83.980158835314796 0 0 0 0 71.250349894366991 -27.074635548655351 0 -27.074635548655351 -38.552883355820086 0 0 0 0 -16.800696306812824 -13.708432812683895 0 -13.708432812683895 100.30477434082059 0 0 0 0 45.243112982899902 51.067487264728697 0 51.067487264728697 8.7306140404034522 0 0 0 0 -85.152281124234378 57.855666385552468 0 57.855666385552468 14.742472246189209 0 0 0 0 31.63752120230356 58.913943536645093 0 58.913943536645093 5.9657236996354186 0 0 0 0 -23.340223939827411 -32.257396836786938 0 -32.257396836786938 -110.09938637261803 0 0 0 0 4.0669789052971295 -2.1848318832429108 0 -2.1848318832429108 -2.4533496232947414 0 0 0 0 -101.74838732589205 84.26476489826382 0 84.26476489826382 -90.509341827484604 0 0 0 0 -3.3218618327373406 97.016435208912299 0 97.016435208912299 -191.03895548469882 0 0 0 0 44.668323822132152 33.473173789861903 0 33.473173789861903 -133.59322706705279 0 0 0 0 31.197496025103646 45.29461508355962 0 45.29461508355962 -69.603865738632521 0 0 0 0 11.037256372540982 -38.267050732284204 0 -38.267050732284204 2.1226062537451647 0 0 0 0 2.5267120896105979 -40.947521180025433 0 -40.947521180025433 61.181336551533605 0 0 0 0 47.065767580670354 14.246113626772058 0 14.246113626772058 -190.83155639624238 0 0 0 0 -2.1195633842273764 -128.91877777243644 0 -128.91877777243644 227.67059925572539 0 0 0 0 0.96084338855476037 -5.004783596148755 0 -5.004783596148755 12.678353861079813 0 0 0 0 -16.684067518245428 6.7911833813577687 0 6.7911833813577687 100.20008696676814 0 0 0 0 -152.75187901894299 -9.5918463800990139 0 -9.5918463800990139 350.27179072416766 0 0 0 0 -43.49393229345258 -64.301637358174048 0 -64.301637358174048 321.26904282404575 0 0 0 0 496.82122766438522 309.8602075650997 0 309.8602075650997 722.01187324721832 0 0 0 0 -1.6410317899246252 38.182435831338807 0 38.182435831338807 66.981252599067375 0 0 0 0 -5.2724397949396931 -5.201465226483549 0 -5.201465226483549 13.441611899921355 0 0 0 0 -85.96371765867741 40.734726337301254 0 40.734726337301254 201.9665165405022 0 0 0 0 76.007636973856734 -80.071070999940275 0 -80.071070999940275 61.070246797949949 0 0 0 0 -11.833090324009845 -54.766367219592212 0 -54.766367219592212 53.609657426481135 0 0 0 0 58.617145928633818 -31.893992807306859 0 -31.893992807306859 39.807424087877735 0 0 0 0 6.7524050148649613 -17.813235807955962 0 -17.813235807955962 17.918560812440887 0 0 0 0 3.3951582522600265 -19.192877358407102 0 -19.192877358407102 5.6726099136059105 0 0 0 0 4.6137981535926542 -18.213623417664678 0 -18.213623417664678 18.136593322339507 0 0 0 0 2.6078435698921112 -16.591754094421049 0 -16.591754094421049 25.028575419797562 0 0 0 0 -27.07438666888288 -7.1163855401591718 0 -7.1163855401591718 -14.081037003517849 0 0 0 0 -33.337523591648278 28.086421270534629 0 28.086421270534629 -132.88767905271334 0 0 0 0 20.055708858027174 -18.036798588567763 0 -18.036798588567763 22.550011105890803 0 0 0 0 23.784462415303491 -15.542107810098969 0 -15.542107810098969 21.568549434217857 0 0 0 0 21.000220213296643 -14.18690949905249 0 -14.18690949905249 30.584699744984391 0 0 0 0 9.8240310947474434 -6.0695160215601049 0 -6.0695160215601049 22.974558184027259 0 0 0 0 4.8308105005583677 -2.7757041072774769 0 -2.7757041072774769 7.599309274777319 0 0 0 0 -0.35197625437967872 2.4780480819717923 0 2.4780480819717923 43.181455294667103 0 0 0 0 27.804242990278794 -14.19902960753825 0 -14.19902960753825 -2.5350053789225058 0 0 0 0 8.8360391315717042 4.6279710860976309 0 4.6279710860976309 11.219067822003524 0 0 0 0 14.244414893721114 13.607728260121803 0 13.607728260121803 77.233212847854247 0 0 0 0 -2.9653108448244438 4.2842531591522857 0 4.2842531591522857 78.474431920127245 0 0 0 0 28.036519340622363 21.816419903945643 0 21.816419903945643 84.912902463986029 0 0 0 0 -761.33164238944823 -78.742328011583595 0 -78.742328011583595 997.95321786461136 0 0 0 0 13.148201686559332 9.254992314874471 0 9.254992314874471 95.613394640458864 0 0 0 0 -7.2106988138091879 6.3169501874142142 0 6.3169501874142142 87.775973222437045 0 0 0 0 8.266979022012098 9.9712186659779576 0 9.9712186659779576 43.294530269294626 0 0 0 0 -1.5695026774087637 -8.028945467187441 0 -8.028945467187441 37.184393009385531 0 0 0 0 1.953101408115288 -13.36968701156637 0 -13.36968701156637 45.007666509456357 0 0 0 0 137.74288828297881 258.77237197455543 0 258.77237197455543 -36.965854398178635 0 0 0 0 11.894338420499025 17.589886730727812 0 17.589886730727812 94.840368524724909 0 0 0 0 12.590127601855784 19.499403386704216 0 19.499403386704216 94.548330169703149 0 0 0 0 11.659843990260924 23.294799604527725 0 23.294799604527725 76.362796523048019 0 0 0 0 -1.9706881250658626 20.547194029006278 0 20.547194029006278 115.93773523341588 0 0 0 0 -7.0036834998388793 -0.57588714833373444 0 -0.57588714833373444 20.222985510094908 0 0 0 0 -0.23243199517628454 40.94535506102693 0 40.94535506102693 125.26717835858472 0 0 0 0 1.950346618301424 4.4445797914598018 0 4.4445797914598018 24.899470037296133 0 0 0 0 -10.653093449805198 4.3290376172953486 0 4.3290376172953486 87.6568226342782 0 0 0 0 -178.81134367547429 157.68094366478181 0 157.68094366478181 39.765844102548726 0 0 0 0 -8.780907856008298 81.651563358558633 0 81.651563358558633 31.513829484203598 0 0 0 0 -63.658547368291067 24.892141619140602 0 24.892141619140602 234.39212305701221 0 0 0 0 -125.97822419217043 -35.516849191805704 0 -35.516849191805704 119.68601276705158 0 0 0 0 -268.57509114817617 -79.799701130701578 0 -79.799701130701578 215.71892048846348 0 0 0 0 126.94971586262832 130.01457794538874 0 130.01457794538874 -132.3779935305065 0 0 0 0 -40.525457990506574 -8.4923880664646276 0 -8.4923880664646276 73.326043675930123 0 0 0 0 273.91521268580414 -41.945650156398187 0 -41.945650156398187 67.62675070460682 0 0 0 0 -69.256050154695501 -68.649790182607831 0 -68.649790182607831 127.87363434863801 0 0 0 0 -100.94192123745012 -52.4436271799932 0 -52.4436271799932 170.59799652786751 0 0 0 0 -47.064040792798465 -40.742651932167064 0 -40.742651932167064 161.19663643173408 0 0 0 0 -58.883563143590735 -85.761846472538309 0 -85.761846472538309 156.00449279506574 0 0 0 0 -135.34787214390923 -100.51947918643418 0 -100.51947918643418 153.27411274794576 0 0 0 0 22.630294275517912 -189.76212484284042 0 -189.76212484284042 144.90618432103656 0 0 0 0 -307.37938662245313 -39.398340170620941 0 -39.398340170620941 191.69620773590214 0 0 0 0 -294.88599933669252 -272.03610118597499 0 -272.03610118597499 145.78812266897876 0 0 0 0 -103.25730930293537 -54.717273058504361 0 -54.717273058504361 190.18160386566888 0 0 0 0 111.8579449267811 -40.967007056475268 0 -40.967007056475268 116.86066306872817 0 0 0 0 -109.07858700259501 19.9442652566795 0 19.9442652566795 112.85167165604071 0 0 0 0 183.93259855138976 -416.15193394238304 0 -416.15193394238304 34.224970698560355 0 0 0 0 0.55689964032193739 1.5629739767514987 0 1.5629739767514987 6.7471657855521983 0 0 0 0 387.46988612134976 -282.08373879316787 0 -282.08373879316787 -26.87837486655917 0 0 0 0 428.04619434445539 -233.63358836405496 0 -233.63358836405496 -84.665985214174725 0 0 0 0 211.46748667409094 176.60950083091302 0 176.60950083091302 -106.94023090889095 0 0 0 0 7.1798931594701756 -254.48813127805261 0 -254.48813127805261 18.767176713503432 0 0 0 0 5.7501586312050676 16.056904994512479 0 16.056904994512479 67.93317209850693 0 0 0 0 -1.4411347211407701 5.5737450050619373 0 5.5737450050619373 77.60469668706628 0 0 0 0 7.8562318615281583 35.1232010701533 0 35.1232010701533 95.447236149933815 0 0 0 0 7.7180431588517422 19.068310126050619 0 19.068310126050619 87.506951839575777 0 0 0 0 -0.41213307350999351 20.400797960750349 0 20.400797960750349 8.5982380505170291 0 0 0 0 -18.674259236714306 43.007545018913788 0 43.007545018913788 241.89475348207316 0 0 0 0 147.00308980790317 -248.99067795355057 0 -248.99067795355057 -115.04364778090894 0 0 0 0 -7.3019973957863513 20.862808501565631 0 20.862808501565631 31.156343879625631 0 0 0 0 -78.325857271283894 343.28742965506626 0 343.28742965506626 655.30243375081773 0 0 0 0 -4.0442935290570858 13.751329706464276 0 13.751329706464276 59.351508374287732 0 0 0 0 -42.591223476315463 128.04115037751262 0 128.04115037751262 56.843164169549709 0 0 0 0 15.758636081841132 41.621774558410834 0 41.621774558410834 74.130298327900164 0 0 0 0 -14.741210221194137 24.874991887812939 0 24.874991887812939 91.559937680234725 0 0 0 0 -6.608588331285139 10.17095387719495 0 10.17095387719495 60.565942673713536 0 0 0 0 -3.4565072435385011 3.4763980403077852 0 3.4763980403077852 25.677019217530297 0 0 0 0 -4.0165449547318985 30.486652123217937 0 30.486652123217937 150.73521352691387 0 0 0 0 -5.7435354842768902 5.0705679609491199 0 5.0705679609491199 70.441549460356327 0 0 0 0 11.343553411194989 31.843058823398678 0 31.843058823398678 76.759644011774071 0 0 0 0 -22.491196863874393 2.2226279437581979 0 2.2226279437581979 74.463570346477354 0 0 0 0 6.1109200223951703 25.737459681385396 0 25.737459681385396 4.8965189043774853 0 0 0 0 -9.5350883841828793 7.5072264745014259 0 7.5072264745014259 65.268742460541176 0 0 0 0 -9.3983011830596297 23.779486001337318 0 23.779486001337318 105.13766796356504 0 0 0 0 -6.0138442847402782 1.3392413070787939 0 1.3392413070787939 13.711347865688502 0 0 0 0 -3.5193649110965453 9.5478320064030413 0 9.5478320064030413 58.537837558357296 0 0 0 0 -26.617164816448508 7.275994687443017 0 7.275994687443017 75.773768105573254 0 0 0 0 4.0861106710335662 12.594415332856443 0 12.594415332856443 23.799066281284468 0 0 0 0 0.58437452992745875 1.2590058485420741 0 1.2590058485420741 38.602659828145988 0 0 0 0 0.18848161671545149 8.3639103189834891 0 8.3639103189834891 9.769565166179234 0 0 0 0 26.738537098388406 35.113311640853681 0 35.113311640853681 10.510162456510443 0 0 0 0 2.6900713492700561 15.559668481260815 0 15.559668481260815 11.045479187909223 0 0 0 0 43.029689675803638 29.877250550674944 0 29.877250550674944 3.122573711683799 0 0 0 0 40.394615836815774 79.518905092356363 0 79.518905092356363 51.911447438506002 0 0 0 0 0.0090469475335339666 27.873424870476811 0 27.873424870476811 123.78953863251081 0 0 0 0 7.1347062434835049 23.816151931663235 0 23.816151931663235 -4.1238959913752762 0 0 0 0 -21.129774914871405 71.103170487240277 0 71.103170487240277 86.383734020001157 0 0 0 0 7.5724800414516551 58.819535592483589 0 58.819535592483589 59.28528479263332 0 0 0 0 -33.764123174168624 40.912095109173606 0 40.912095109173606 51.576990288980596 0 0 0 0 -283.78214948031768 3.6744389465884524 0 3.6744389465884524 126.92277416059005 0 0 0 0 -16.008577960178627 -2.4030401600464799 0 -2.4030401600464799 46.041868509293906 0 0 0 0 260.60675538769749 -7.9933084977492399 0 -7.9933084977492399 -35.562974294218293 0 0 0 0 -68.6119054920606 131.85149980992992 0 131.85149980992992 27.779179134267906 0 0 0 0 194.90419766660534 210.36139609733436 0 210.36139609733436 42.398081185991032 0 0 0 0 152.58239571727336 -516.20873807809403 0 -516.20873807809403 241.03871421178223 0 0 0 0 -100.35252476295818 259.83304507085995 0 259.83304507085995 214.21043827646645 0 0 0 0 26.028241804290246 2.2848925774042073 0 2.2848925774042073 54.794464238126238 0 0 0 0 -34.918189890506255 59.934202107328019 0 59.934202107328019 115.68206835513411 0 0 0 0 -33.95216923924022 72.843365626849845 0 72.843365626849845 266.37452630639382 0 0 0 0 53.17697019417983 12.340796626376687 0 12.340796626376687 22.893474949458323 0 0 0 0 60.379957716884519 30.050253013327165 0 30.050253013327165 -6.0425845626741648 0 0 0 0 47.501825177060709 44.361926409022999 0 44.361926409022999 -9.245578874979401 0 0 0 0 3.8030955037312997 7.9258003983778167 0 7.9258003983778167 7.8921239447004439 0 0 0 0 40.787000235746746 18.357347773668153 0 18.357347773668153 -2.4555162865290185 0 0 0 0 37.191918675282068 37.821284279460087 0 37.821284279460087 9.5526496587353904 0 0 0 0 9.5930709988792415 7.5871359761756239 0 7.5871359761756239 5.725271804105887 0 0 0 0 -109.79985531201373 -164.34701240384675 0 -164.34701240384675 917.49946428107796 0 0 0 0 3.6307880633189171 2.2751712281002909 0 2.2751712281002909 1.9491744763990368 0 0 0 0 147.58022991508733 424.6729270612268 0 424.6729270612268 353.89714699397155 0 0 0 0 -103.00957495276742 124.87258111483931 0 124.87258111483931 228.58794882572693 0 0 0 0 -27.820619820358615 180.84946787823355 0 180.84946787823355 197.7070665797437 0 0 0 0 -26.541586388446376 167.35240663866352 0 167.35240663866352 252.18491361656925 0 0 0 0 52.331373331599025 150.26934201626136 0 150.26934201626136 209.17847307385819 0 0 0 0 139.34813599909091 64.261201204262761 0 64.261201204262761 51.495338001316668 0 0 0 0 133.66122976291661 154.10531890709717 0 154.10531890709717 29.169639032763371 0 0 0 0 -1.2416603593251239 0.61425234146372532 0 0.61425234146372532 -210.63743253508983 0 0 0 0 -116.16545472775124 396.82056494986682 0 396.82056494986682 -48.919085334062402 0 0 0 0 -368.5726520509595 -113.91869455799679 0 -113.91869455799679 -11.216862874149228 0 0 0 0 -333.91247182260054 30.569921604186675 0 30.569921604186675 110.46223308988556 0 0 0 0 -55.61422200925449 140.93971577332923 0 140.93971577332923 42.221351952248369 0 0 0 0 63.460776367859125 146.73779773203569 0 146.73779773203569 25.871641452635231 0 0 0 0 155.01791914858018 -71.474323779912083 0 -71.474323779912083 42.481301624898606 0 0 0 0 51.386889633129613 30.319592713418388 0 30.319592713418388 39.82495269825813 0 0 0 0 20.693401303674136 26.457436957140544 0 26.457436957140544 50.49695717362556 0 0 0 0 -15.526984868226032 1.8745919156871835 0 1.8745919156871835 41.012631433904204 0 0 0 0 17.246388168721076 12.194081539653297 0 12.194081539653297 8.3624343758105546 0 0 0 0 -4.204500452439639 2.4937375796925636 0 2.4937375796925636 9.7292470934583939 0 0 0 0 272.95199461690572 -27.211097558531037 0 -27.211097558531037 -611.50467183838009 0 0 0 0 -295.94270185508822 -237.87091691956084 0 -237.87091691956084 69.571994596110017 0 0 0 0 3.8189048962466918 -3.4588275230278285 0 -3.4588275230278285 12.764792424169926 0 0 0 0 -335.1669121039381 14.770435878963326 0 14.770435878963326 29.787313690267183 0 0 0 0 10.380191328014234 -15.705107803899409 0 -15.705107803899409 86.876025140372803 0 0 0 0 45.453877449613174 29.314927218525554 0 29.314927218525554 -9.4641068156706751 0 0 0 0 -4.2273268351082152 10.918227000165643 0 10.918227000165643 101.64036749042862 0 0 0 0 41.524788792771233 30.697545648496089 0 30.697545648496089 101.64814297951671 0 0 0 0 23.304524103834865 76.281196771917166 0 76.281196771917166 313.03805806182936 0 0 0 0 82.991302756120376 43.731253042541539 0 43.731253042541539 60.831499922187504 0 0 0 0 64.141727521752273 183.79234450598051 0 183.79234450598051 412.23130322942779 0 0 0 0 -45.820052299067129 -187.64601720885003 0 -187.64601720885003 877.56346952218155 0 0 0 0 -63.621299536925108 -98.42453350755568 0 -98.42453350755568 487.78934141653735 0 0 0 0 -11.07512001008763 -90.473467277108284 0 -90.473467277108284 413.84231545602415 0 0 0 0 -18.69859839267383 -68.945661719078089 0 -68.945661719078089 353.06391075135616 0 0 0 0 7.9767180461212774 -193.60028630330817 0 -193.60028630330817 420.68388055968535 0 0 0 0 -49.421199202492971 -203.54886790575983 0 -203.54886790575983 539.61832789208711 0 0 0 0 -50.404846410530808 -210.3445499066911 0 -210.3445499066911 579.39062710448343 0 0 0 0 30.532390623573519 -227.63982492550713 0 -227.63982492550713 513.71561588894474 0 0 0 0 -44.374430946065331 -151.50461060421003 0 -151.50461060421003 448.68003006509389 0 0 0 0 27.847751392077953 -164.51281206754356 0 -164.51281206754356 405.67952336056987 0 0 0 0 -130.05778654954975 -123.15194431539385 0 -123.15194431539385 462.98933881189441 0 0 0 0 -49.098803572819634 -202.35826638209255 0 -202.35826638209255 539.7796428396141 0 0 0 0 103.78074709155578 -51.94748549585529 0 -51.94748549585529 267.07494482801121 0 0 0 0 127.21984252656182 -51.096697271668745 0 -51.096697271668745 210.15517737382834 0 0 0 0 84.084689795499798 19.596594643546268 0 19.596594643546268 159.08043922003344 0 0 0 0 82.196262549641233 -65.610529828234576 0 -65.610529828234576 264.86514578404604 0 0 0 0 29.50894318385599 -106.98011640671393 0 -106.98011640671393 307.10742552861484 0 0 0 0 125.49929168126755 -205.83877292576108 0 -205.83877292576108 402.84286917464851 0 0 0 0 170.90789187076689 -85.657681223317923 0 -85.657681223317923 241.80381938355822 0 0 0 0 59.448234297748513 -223.87911143528254 0 -223.87911143528254 480.4148725380328 0 0 0 0 117.76717237349749 -393.88544061187713 0 -393.88544061187713 976.00239525237703 0 0 0 0 27.229572571534945 -187.48257475136086 0 -187.48257475136086 452.66785089775658 0 0 0 0 381.5679752787687 -258.68404026486678 0 -258.68404026486678 281.79760328619545 0 0 0 0 221.59420669859514 -66.697830690134651 0 -66.697830690134651 304.20949684427615 0 0 0 0 -41.383179422461694 -546.73991397877035 0 -546.73991397877035 856.70553304961504 0 0 0 0 -87.95918789431488 -296.87095886864063 0 -296.87095886864063 1171.7515983534249 0 0 0 0 63.633861969761256 215.1148161772453 0 215.1148161772453 938.59216008625731 0 0 0 0 1.6051212810128979 -3.1164235308025354 0 -3.1164235308025354 3.9671445897314328 0 0 0 0 -135.25197770601642 -519.63358467573744 0 -519.63358467573744 135.64030449371057 0 0 0 0 73.41921949597571 -422.63426283795161 0 -422.63426283795161 983.69564292561336 0 0 0 0 438.04829475369581 -285.97643743211665 0 -285.97643743211665 252.97901876920423 0 0 0 0 -75.414865710342838 -109.64234982828202 0 -109.64234982828202 542.25202020844517 0 0 0 0 -69.012333666703512 -72.647361508898484 0 -72.647361508898484 663.93542262393748 0 0 0 0 -287.88823139694398 101.47542837840047 0 101.47542837840047 1176.0958649641234 0 0 0 0 -246.67676900448498 244.79213285763035 0 244.79213285763035 628.9585323471947 0 0 0 0 -39.491588236255282 -564.29677000654544 0 -564.29677000654544 -17.700071282753925 0 0 0 0 3.3932000503516955 -3.9203905160700785 0 -3.9203905160700785 4.139886449666264 0 0 0 0 10.017372483410696 73.070319248408168 0 73.070319248408168 723.04169238947361 0 0 0 0 10.406461943135454 76.171355039728041 0 76.171355039728041 635.9665656785146 0 0 0 0 -87.164211087145759 53.445245447510388 0 53.445245447510388 810.44203940047737 0 0 0 0 -85.345354862326076 50.469046191396046 0 50.469046191396046 699.63579327231128 0 0 0 0 101.63874533238732 7.2784121119930205 0 7.2784121119930205 674.44672997350426 0 0 0 0 255.70769360929125 -186.45785464635992 0 -186.45785464635992 708.49157339380736 0 0 0 0 23.146591328544673 83.309816964803758 0 83.309816964803758 660.19903546621208 0 0 0 0 74.869195517307617 -367.46551904372791 0 -367.46551904372791 621.27404859350645 0 0 0 0 5.6452833896546686 0.47238227267977351 0 0.47238227267977351 -0.64653949532095112 0 0 0 0 -429.35257872186844 -536.69193391539284 0 -536.69193391539284 385.97346942608783 0 0 0 0 94.76006305209836 85.746910620193376 0 85.746910620193376 248.12198593940775 0 0 0 0 265.15370466790137 227.75648084486784 0 227.75648084486784 134.88067102391506 0 0 0 0 503.05016886454314 22.627234616596979 0 22.627234616596979 -439.03595986930304 0 0 0 0 12.552854731830394 0.84495316844368062 0 0.84495316844368062 -202.29805895434401 0 0 0 0 118.7434148713952 -192.68134504694171 0 -192.68134504694171 150.35476169057756 0 0 0 0 -266.91862755591865 94.594578603262562 0 94.594578603262562 70.54327095026747 0 0 0 0 -293.94321168034321 -160.78160418118568 0 -160.78160418118568 46.805181177936902 0 0 0 0 5.7805035081820977 -7.8169184980358111 0 -7.8169184980358111 8.5033006930095638 0 0 0 0 -37.737249851253182 -43.084893499893951 0 -43.084893499893951 13.962399807994188 0 0 0 0 6.9156091148893779 84.068670152077175 0 84.068670152077175 117.31410996758746 0 0 0 0 -46.137340442155391 -13.429204641464821 0 -13.429204641464821 99.350293638188305 0 0 0 0 -42.448438098094982 27.597185427823206 0 27.597185427823206 196.83208276153891 0 0 0 0 -44.85042132141507 19.565033297814807 0 19.565033297814807 235.98662637314374 0 0 0 0 -154.09081476082974 73.119648789432176 0 73.119648789432176 210.72668820947729 0 0 0 0 -33.442756000739237 -5.7695538342169357 0 -5.7695538342169357 199.2799234258564 0 0 0 0 -25.084645812818678 5.7063491555927612 0 5.7063491555927612 170.13068809191464 0 0 0 0 -27.421532995446569 12.734396671143259 0 12.734396671143259 195.92911464337158 0 0 0 0 -98.301601477825898 65.849337796254986 0 65.849337796254986 571.12325896001857 0 0 0 0 4.4713648596923434 -3.8697737893259614 0 -3.8697737893259614 2.5812879944924703 0 0 0 0 159.80933232736879 -385.93045294670628 0 -385.93045294670628 -473.50708776622923 0 0 0 0 101.99711460422418 -190.33570266099196 0 -190.33570266099196 -72.581634735302941 0 0 0 0 -78.603361779823899 55.350171429221518 0 55.350171429221518 264.0903617189324 0 0 0 0 -2.2204374296289284 0.22101214056694829 0 0.22101214056694829 2.2380360075905799 0 0 0 0 -167.4410887199374 8.8452386097942508 0 8.8452386097942508 41.932955386451795 0 0 0 0 -24.032991629757873 -176.60294875857699 0 -176.60294875857699 436.42120794657603 0 0 0 0 76.059735111168266 108.95501049821178 0 108.95501049821178 -219.6908723476954 0 0 0 0 50.510393063599622 -318.70902275177286 0 -318.70902275177286 510.55330071906383 0 0 0 0 434.94148750005934 -222.99244002412888 0 -222.99244002412888 -196.42078828970989 0 0 0 0 -15.295271943559619 -0.057740764633535946 0 -0.057740764633535946 10.769344691959525 0 0 0 0 -4.2820424120398002 -66.632736446370473 0 -66.632736446370473 56.662999228741683 0 0 0 0 -49.094729874409495 -28.589356013351789 0 -28.589356013351789 22.490015745464007 0 0 0 0 -18.520771210166913 -2.180086535967348 0 -2.180086535967348 -17.624551338625679 0 0 0 0 31.381146598496571 -53.542208683634726 0 -53.542208683634726 28.697880897812865 0 0 0 0 -15.079589996150105 -0.73440557540854456 0 -0.73440557540854456 10.655341138598672 0 0 0 0 3.4116561409393853 -14.594319787203858 0 -14.594319787203858 27.583721902187733 0 0 0 0 -9.9926630320936738 7.6790152083831344 0 7.6790152083831344 2.0074073349983337 0 0 0 0 10.386570316719656 -13.573855616481524 0 -13.573855616481524 41.280149516456731 0 0 0 0 -5.1654162057752728 -48.639016082572198 0 -48.639016082572198 -8.6172816939943004 0 0 0 0 -6.8249142307818147 -20.654841530898921 0 -20.654841530898921 173.18456958575371 0 0 0 0 1.5387661065170448 -18.485787477483427 0 -18.485787477483427 35.122254598689324 0 0 0 0 -3.2180507435373493 0.42367639325293993 0 0.42367639325293993 2.8055809518981718 0 0 0 0 -18.930725715370727 -0.37278509691441286 0 -0.37278509691441286 8.3145957104316039 0 0 0 0 -3.006552530908607 -0.10166586827472202 0 -0.10166586827472202 1.032427478228783 0 0 0 0 -5.2920631433212861 -6.9038621361023615 0 -6.9038621361023615 8.4642337014556688 0 0 0 0 -2.9345230585308357 -0.40286228692360027 0 -0.40286228692360027 4.098967075223527 0 0 0 0 5.12108834771891 15.545478524571081 0 15.545478524571081 27.374966066388879 0 0 0 0 0.75972364750487031 0.24822827935713576 0 0.24822827935713576 7.9631676740209514 0 0 0 0 2.4411845476589251 -3.2123008702606946 0 -3.2123008702606946 2.4603224945351343 0 0 0 0 2.7301862710062323 -8.9241316519437532 0 -8.9241316519437532 7.6410349092038814 0 0 0 0 -4.3421502240159953 -15.868001319888208 0 -15.868001319888208 13.701988030097709 0 0 0 0 0.83744477684859753 -2.2014023975184571 0 -2.2014023975184571 1.9644195760535936 0 0 0 0 1.9071976005878417 -4.4047315600076189 0 -4.4047315600076189 1.5248387940135189 0 0 0 0 0.55800257101873285 -1.2241749502936727 0 -1.2241749502936727 -1.3338099082757253 0 0 0 0 -1.3588047005298449 1.4323964916948171 0 1.4323964916948171 -0.63595670217546285 0 0 0 0 0.1709827129026058 0.055730936693635158 0 0.055730936693635158 -0.179397232093784 0 0 0 0 -2.2279607860700432 -2.2654034038430879 0 -2.2654034038430879 7.0934911123957036 0 0 0 0 -7.6589081644872294 18.385238486092931 0 18.385238486092931 141.45407832469209 0 0 0 0 14.493634808161232 21.570529842559154 0 21.570529842559154 1.2286066814776859 0 0 0 0 -0.94842369213724798 -0.34174523071663998 0 -0.34174523071663998 2.1724796287756192 0 0 0 0 -1.6253800752506322 22.937001690077523 0 22.937001690077523 6.725074383080937 0 0 0 0 -8.10118175527532 -26.129999922450224 0 -26.129999922450224 68.533297205008239 0 0 0 0 -53.090099263481534 -28.207716707962391 0 -28.207716707962391 68.437531130919524 0 0 0 0 6.4469588325928271 -25.201596069833613 0 -25.201596069833613 118.52348024996354 0 0 0 0 1.8187883265212328 -0.63504890493484822 0 -0.63504890493484822 -1.7383001878814355 0 0 0 0 3.6210812949550473 -7.0097756005798146 0 -7.0097756005798146 4.7159695032963214 0 0 0 0 0.41215395432047597 -1.0407149484728819 0 -1.0407149484728819 -1.5145275590000153 0 0 0 0 1.4724875254789254 -3.3538657085475734 0 -3.3538657085475734 4.5956496623730345 0 0 0 0 33.133195334909033 -3.294357620554365 0 -3.294357620554365 -11.612059186717488 0 0 0 0 3.4377283942349095 9.6172199928114424 0 9.6172199928114424 -15.660608601999229 0 0 0 0 1.9958357649541369 -2.2885140294397459 0 -2.2885140294397459 -0.62718863996140328 0 0 0 0 6.2635258272665926 -2.6717009260594935 0 -2.6717009260594935 -2.6271938604791814 0 0 0 0 16.094761035926922 -17.779208204848601 0 -17.779208204848601 -18.213391406876326 0 0 0 0 16.414329426311724 -1.3593886018952617 0 -1.3593886018952617 -14.186129382997024 0 0 0 0 13.578826591863617 -14.91140108433865 0 -14.91140108433865 37.26255258359015 0 0 0 0 47.24487873245107 41.424717426983989 0 41.424717426983989 42.478421313416447 0 0 0 0 32.490725928344091 0.0068125519305795024 0 0.0068125519305795024 8.1158092437981395 0 0 0 0 -7.0591856990663473 -4.6601666916903923 0 -4.6601666916903923 52.583991885887372 0 0 0 0 21.034815910733414 18.068674897669553 0 18.068674897669553 62.574247442480555 0 0 0 0 3.5289277406027395 -28.194197046104819 0 -28.194197046104819 149.45228486331689 0 0 0 0 7.0010451755315444 -21.695804174916702 0 -21.695804174916702 179.55595216117422 0 0 0 0 3.8302043146959477 7.0253695603096276 0 7.0253695603096276 191.75191399252435 0 0 0 0 -50.047653179185545 15.072782614030984 0 15.072782614030984 336.3215027033948 0 0 0 0 3.8358011776685998 18.554945381671132 0 18.554945381671132 175.08495706238318 0 0 0 0 -33.230408216636533 -109.95896664523389 0 -109.95896664523389 433.97271071371142 0 0 0 0 -50.981680665633917 20.652382069315536 0 20.652382069315536 311.31128850037931 0 0 0 0 -39.864855083705606 -82.97230321047482 0 -82.97230321047482 348.13083455395099 0 0 0 0 22.804813821222524 -65.73725460262358 0 -65.73725460262358 266.56204930960666 0 0 0 0 -0.38986991043469743 -42.479678443990224 0 -42.479678443990224 278.40162692733429 0 0 0 0 13.275930507796375 -42.621012167806839 0 -42.621012167806839 254.87875300494488 0 0 0 0 70.453215345515673 -102.67731459216884 0 -102.67731459216884 305.30056365559358 0 0 0 0 47.624582858671147 -49.404703396863624 0 -49.404703396863624 241.96480534337752 0 0 0 0 16.605923425846413 1.9796204219055653 0 1.9796204219055653 224.92324219166949 0 0 0 0 74.48893399677587 -26.395490681265983 0 -26.395490681265983 214.5803804566749 0 0 0 0 -7.1313707509995083 56.647127962445666 0 56.647127962445666 187.45008383493041 0 0 0 0 49.720245051941674 6.0989692489565641 0 6.0989692489565641 178.45164699292945 0 0 0 0 10.024668585574318 20.139934061269742 0 20.139934061269742 141.5796423555621 0 0 0 0 11.082433840322665 34.489012718036975 0 34.489012718036975 173.06620263586592 0 0 0 0 9.332691514397311 22.303641336167857 0 22.303641336167857 158.53039319164236 0 0 0 0 -31.390610079847647 10.265939666791382 0 10.265939666791382 155.1993277718866 0 0 0 0 7.6163598626289968 32.858003110559366 0 32.858003110559366 142.55181645935409 0 0 0 0 -0.93975968262412835 8.6897958914987612 0 8.6897958914987612 141.59331561700674 0 0 0 0 -12.442695360920879 -18.962323843439663 0 -18.962323843439663 193.55121995606532 0 0 0 0 5.3520008545479527 -1.9479200209216287 0 -1.9479200209216287 204.41047139576403 0 0 0 0 26.538262154984295 15.771328324812202 0 15.771328324812202 155.33086812715919 0 0 0 0 -129.90932197682969 88.726106601126958 0 88.726106601126958 146.00731158504095 0 0 0 0 -91.441747928045515 28.812178669410059 0 28.812178669410059 152.036236024971 0 0 0 0 -60.718466362375409 30.029577332712506 0 30.029577332712506 135.35120300782728 0 0 0 0 -49.169397516644494 34.386568755900953 0 34.386568755900953 129.95861308621534 0 0 0 0 -31.336860761554817 82.844929403661808 0 82.844929403661808 145.34957839868184 0 0 0 0 -29.978755170404838 105.47732664248178 0 105.47732664248178 127.33479114406873 0 0 0 0 -103.02074997791487 189.68093185820544 0 189.68093185820544 60.898958556281286 0 0 0 0 -80.017321678019243 138.34005395161876 0 138.34005395161876 172.96117473609047 0 0 0 0 -197.26132405159734 152.98274869016677 0 152.98274869016677 175.66779290116392 0 0 0 0 -214.95210727130438 137.81504956333811 0 137.81504956333811 216.62596621503326 0 0 0 0 -174.60587146428668 241.05713561363518 0 241.05713561363518 265.20133167671156 0 0 0 0 -264.91890015143599 170.39342264032894 0 170.39342264032894 194.28306576257455 0 0 0 0 -275.30430835995958 -14.589997295657668 0 -14.589997295657668 215.52162784371103 0 0 0 0 -70.868556958092086 1.9409583569868119 0 1.9409583569868119 172.77731404634687 0 0 0 0 -11.94943749256413 -212.5947317551836 0 -212.5947317551836 360.62642733374378 0 0 0 0 2.0227289605826053 -1.609577557736273 0 -1.609577557736273 -2.8042250212298541 0 0 0 0 -494.95502161002059 321.15210168345084 0 321.15210168345084 -29.366515130219341 0 0 0 0 -237.69066991773752 60.455914679747366 0 60.455914679747366 98.415242976720037 0 0 0 0 -175.53899897753695 -25.980928679955468 0 -25.980928679955468 251.02991168930748 0 0 0 0 -217.54966688577588 -52.159254342477652 0 -52.159254342477652 214.26221261301907 0 0 0 0 -181.81151549947606 -139.66973155010237 0 -139.66973155010237 320.75389008457569 0 0 0 0 -196.03905774598479 -67.881173657830004 0 -67.881173657830004 167.36096547014313 0 0 0 0 -327.91030699925091 -27.388413846476396 0 -27.388413846476396 253.27588594308327 0 0 0 0 -433.65598115138243 22.973487929394196 0 22.973487929394196 284.70214958488214 0 0 0 0 -192.71561442164148 128.9618358648695 0 128.9618358648695 122.84824487664446 0 0 0 0 -239.80136888282595 165.75332732481547 0 165.75332732481547 554.32139120970533 0 0 0 0 8.5226530799936882 -55.334666685877892 0 -55.334666685877892 343.30323845736348 0 0 0 0 -119.70391858537982 -127.80367811681936 0 -127.80367811681936 423.92316828762705 0 0 0 0 52.035878872505236 -77.657700942607335 0 -77.657700942607335 300.99432553715087 0 0 0 0 126.71093484463609 -181.99507757396168 0 -181.99507757396168 446.4612367400332 0 0 0 0 13.573080587371976 5.9322029478877312 0 5.9322029478877312 573.01429188750626 0 0 0 0 684.3903310365522 -247.79062847950991 0 -247.79062847950991 638.50857893050124 0 0 0 0 -160.9395462086411 276.56412244853709 0 276.56412244853709 371.65913426069164 0 0 0 0 -343.03110602771358 102.70793455325111 0 102.70793455325111 1147.6550019636488 0 0 0 0 -202.93638605404794 429.63372282750061 0 429.63372282750061 432.26349223079706 0 0 0 0 -67.165384206104136 275.9887176712582 0 275.9887176712582 182.2183126563832 0 0 0 0 -10.365624791556602 2.8376566850924405 0 2.8376566850924405 0.061465307280855086 0 0 0 0 131.4278373634852 202.64839434454188 0 202.64839434454188 -621.65874879665171 0 0 0 0 -99.472792037298404 364.70555508065809 0 364.70555508065809 -59.255471633601701 0 0 0 0 16.706075643447093 159.288947263296 0 159.288947263296 -12.28442990487838 0 0 0 0 -128.32993604459057 103.23830927475501 0 103.23830927475501 392.59376634716318 0 0 0 0 -312.36726340329346 -250.92786642182364 0 -250.92786642182364 -302.22617992507003 0 0 0 0 -25.781484611768974 842.29469457804589 0 842.29469457804589 -199.25782862984488 0 0 0 0 158.33669955490768 -21.621070696332026 0 -21.621070696332026 -3.3251207690191222 0 0 0 0 429.99221202583703 327.75730542197562 0 327.75730542197562 124.01944273597837 0 0 0 0 368.53811271706127 509.6657532054669 0 509.6657532054669 -398.86929148257423 0 0 0 0 36.043068234622297 187.81799814202896 0 187.81799814202896 144.3059325365648 0 0 0 0 10.257898743243086 11.966758020115243 0 11.966758020115243 9.7586231891063306 0 0 0 0 -58.580458484287192 -111.90394951109556 0 -111.90394951109556 500.57591906418747 0 0 0 0 937.78909962986745 576.45506075751109 0 576.45506075751109 222.11372207321256 0 0 0 0 689.00108546402407 -269.81199459229538 0 -269.81199459229538 86.610503066822275 0 0 0 0 -92.115581948257727 88.53354161313564 0 88.53354161313564 1164.8590554023103 0 0 0 0 6.5853997155288795 3.5941748890414402 0 3.5941748890414402 1.9924103429049609 0 0 0 0 464.19135680273484 489.10828745668186 0 489.10828745668186 864.5630049562551 0 0 0 0 270.43920288008667 33.895976820705073 0 33.895976820705073 426.98609383898292 0 0 0 0 112.35357979387572 20.573621907357847 0 20.573621907357847 590.96077533855714 0 0 0 0 104.01567618815443 28.639171644059388 0 28.639171644059388 691.64874424006121 0 0 0 0 -30.551013565144785 241.54521969346388 0 241.54521969346388 825.0992285264947 0 0 0 0 116.9503841789965 210.27191857232901 0 210.27191857232901 708.07417480339063 0 0 0 0 -81.037645421252591 109.00753962371937 0 109.00753962371937 1029.9584560383555 0 0 0 0 213.31141173388824 -192.18991271037157 0 -192.18991271037157 950.91184128368695 0 0 0 0 180.29862479709209 -37.809068165515782 0 -37.809068165515782 563.64512554892281 0 0 0 0 558.87456900681718 45.123368645821756 0 45.123368645821756 581.2996545386859 0 0 0 0 147.58510096442069 155.22212316653531 0 155.22212316653531 1107.7396764452205 0 0 0 0 2.1588828281822829 -2.7367632582860022 0 -2.7367632582860022 8.4082791045402701 0 0 0 0 339.63643860473439 -169.99423967745679 0 -169.99423967745679 95.352273834607331 0 0 0 0 -11.839450187570037 -291.11235199617295 0 -291.11235199617295 986.15714365519943 0 0 0 0 203.17460072416634 325.63822015829646 0 325.63822015829646 489.68417580382084 0 0 0 0 -5.1524308795133038 -4.4644124650694721 0 -4.4644124650694721 21.273545646510684 0 0 0 0 -0.11410759446078611 -10.035933417017525 0 -10.035933417017525 21.802491531659257 0 0 0 0 121.43911016280276 -60.485903628946289 0 -60.485903628946289 -47.188121413164481 0 0 0 0 1.5578919036223393 -3.2403225982026527 0 -3.2403225982026527 11.818412825444113 0 0 0 0 -43.84300293742308 -78.02014567963306 0 -78.02014567963306 -8.7561494272849814 0 0 0 0 106.69141879953622 -24.849041311950714 0 -24.849041311950714 -251.35481010656076 0 0 0 0 100.78088906899029 -18.914745980491716 0 -18.914745980491716 -22.468591948692847 0 0 0 0 10.967557347294825 -2.6910511459961555 0 -2.6910511459961555 3.8733318928441065 0 0 0 0 26.056389105357994 -204.40024129390076 0 -204.40024129390076 124.38255284137267 0 0 0 0 -9.2369560347359307 -0.29325258514269592 0 -0.29325258514269592 20.135922201257628 0 0 0 0 -2.2824571753933149 -5.1316804388737776 0 -5.1316804388737776 41.081308139336102 0 0 0 0 -47.181617553181866 10.028857794241958 0 10.028857794241958 42.196066935081035 0 0 0 0 -25.233059833179595 -14.765233842483212 0 -14.765233842483212 58.856449605922535 0 0 0 0 -16.206819813422022 -5.1351307971547797 0 -5.1351307971547797 17.228182554148233 0 0 0 0 -189.78238299944132 220.84628824593892 0 220.84628824593892 321.61132064611775 0 0 0 0 -72.056985240190897 -42.702105746346206 0 -42.702105746346206 48.461188658735409 0 0 0 0 -12.347001954072596 -17.919641599304214 0 -17.919641599304214 58.739846863525599 0 0 0 0 -7.4928409155858162 -18.075708625155926 0 -18.075708625155926 16.138445960597892 0 0 0 0 -53.103245537276052 -73.975402185875282 0 -73.975402185875282 -34.568606412007284 0 0 0 0 1.4778895340585689 -8.6682449746866492 0 -8.6682449746866492 50.317834959718198 0 0 0 0 -198.84444489892689 65.439603119590174 0 65.439603119590174 92.033639572902757 0 0 0 0 -5.6177340980189001 -3.0039956928949323 0 -3.0039956928949323 -9.4861503290740075 0 0 0 0 -122.25842211540999 83.630630370751533 0 83.630630370751533 -44.686131979768106 0 0 0 0 -7.9229084749449612 15.724898906046292 0 15.724898906046292 20.0172414053377 0 0 0 0 -27.225118868172331 2.9698961478043202 0 2.9698961478043202 25.923499695149076 0 0 0 0 24.24559549797732 143.51597776291237 0 143.51597776291237 59.102078584313858 0 0 0 0 145.08002193018478 43.359689042987156 0 43.359689042987156 -21.353242431741819 0 0 0 0 77.969664104945196 -108.322670751224 0 -108.322670751224 98.95351946925075 0 0 0 0 9.7745091549340941 -11.315272192477096 0 -11.315272192477096 41.005665582510119 0 0 0 0 -3.0573801275138521 6.3969625200952578 0 6.3969625200952578 32.075297355724615 0 0 0 0 -18.986828088703533 6.2451641164370812 0 6.2451641164370812 40.7937122525218 0 0 0 0 -17.160676309257269 3.5863102616194737 0 3.5863102616194737 36.306397728672891 0 0 0 0 -19.780121893597158 -1.4969382544993692 0 -1.4969382544993692 8.4752319138707861 0 0 0 0 -253.07137938390815 550.63758210364904 0 550.63758210364904 1019.7689155084054 0 0 0 0 0.70198986000787045 -9.0555982257246797 0 -9.0555982257246797 48.276910684053291 0 0 0 0 -1.7535981375138867 -13.491405691528826 0 -13.491405691528826 12.384880888673237 0 0 0 0 -570.36674343396908 271.40589224739961 0 271.40589224739961 1000.0624531691283 0 0 0 0 332.17425906083008 512.71517868825322 0 512.71517868825322 527.18255506746937 0 0 0 0 51.32279340885043 193.621335343807 0 193.621335343807 901.51011969445972 0 0 0 0 122.90795798652289 469.18955032194208 0 469.18955032194208 646.65103476672084 0 0 0 0 250.86252202320975 30.16879577958025 0 30.16879577958025 1018.3016740927706 0 0 0 0 400.66097019283598 430.43901254012599 0 430.43901254012599 582.90644564728427 0 0 0 0 497.8096063213452 255.93890529048804 0 255.93890529048804 743.18552581931726 0 0 0 0 -5.5619759846544214 -0.90752477387688657 0 -0.90752477387688657 50.009423940520776 0 0 0 0 -468.05707921847966 566.413888729061 0 566.413888729061 -285.87709632475162 0 0 0 0 7.9749611410093166 -9.1216051613082527 0 -9.1216051613082527 46.319048788591317 0 0 0 0 -0.060883028403395656 -12.117727158818525 0 -12.117727158818525 58.756670319166005 0 0 0 0 -6.57499082135047 -0.38354587481988744 0 -0.38354587481988744 67.187901335187576 0 0 0 0 -32.122410412891441 -28.028972771717235 0 -28.028972771717235 55.277202884087728 0 0 0 0 -282.77945685495752 511.406447649857 0 511.406447649857 2226.3467824031832 0 0 0 0 -1436.7931731186247 282.84451317886487 0 282.84451317886487 648.67333494039485 0 0 0 0 -196.01804414159733 456.63634654306315 0 456.63634654306315 53.461144125438295 0 0 0 0 296.43751487519455 729.23362574682369 0 729.23362574682369 -373.95314307621447 0 0 0 0 -15.609377931995368 63.079964566932176 0 63.079964566932176 210.74564698927861 0 0 0 0 228.53102402775642 76.418379142008234 0 76.418379142008234 -197.89146645758592 0 0 0 0 8.7808185654091364 7.5650470507906533 0 7.5650470507906533 9.4689415846928 0 0 0 0 132.16747521107254 -174.20727255736347 0 -174.20727255736347 1145.4121746396722 0 0 0 0 1195.8781251870855 -317.85883540420218 0 -317.85883540420218 -157.486550835456 0 0 0 0 190.79146011776811 -362.14533280261458 0 -362.14533280261458 507.3951271854603 0 0 0 0 59.728987365501553 26.768299680037671 0 26.768299680037671 252.22238980674592 0 0 0 0 17.340619441704746 26.691513338713804 0 26.691513338713804 27.595382690225875 0 0 0 0 199.76103295782377 649.99794887974713 0 649.99794887974713 -75.184040444563607 0 0 0 0 324.57870468331475 -95.969846561078157 0 -95.969846561078157 -55.689003399049398 0 0 0 0 -41.80997648620739 27.250377163956529 0 27.250377163956529 7.9927965668272236 0 0 0 0 -9.0061889664022665 -1.2343138332127239 0 -1.2343138332127239 10.161941861570455 0 0 0 0 -31.340383768716492 332.46922131689644 0 332.46922131689644 -94.537017920614744 0 0 0 0 -69.85714550059447 227.40894217633468 0 227.40894217633468 -762.08205886828364 0 0 0 0 65.62420209893935 474.77442925634386 0 474.77442925634386 -462.7082238071489 0 0 0 0 18.261010708531103 148.19496469182195 0 148.19496469182195 1099.239818540409 0 0 0 0 -27.691254407676379 12.282739133986226 0 12.282739133986226 -5.9055285028912721 0 0 0 0 1.8467232592463461 80.569954735510692 0 80.569954735510692 126.89457285596291 0 0 0 0 -35.525764459903712 138.65401441105132 0 138.65401441105132 158.62652209589214 0 0 0 0 -187.23480814087998 297.40158875948691 0 297.40158875948691 992.13010927532014 0 0 0 0 52.320601518952571 169.46752629257753 0 169.46752629257753 991.06674703554017 0 0 0 0 -66.260031760033826 49.864796587749879 0 49.864796587749879 144.10930105626176 0 0 0 0 -14.417610733838956 50.593240092106498 0 50.593240092106498 132.91438152633782 0 0 0 0 -43.897140652042708 58.162697437612223 0 58.162697437612223 151.94733441466815 0 0 0 0 -55.208761853080205 29.722732926922617 0 29.722732926922617 130.3846022986836 0 0 0 0 761.55613251128 -515.80025459876924 0 -515.80025459876924 305.28663783619595 0 0 0 0 462.22888644272598 -167.46522375903442 0 -167.46522375903442 115.52985176555921 0 0 0 0 693.15323768772669 -411.83658609900885 0 -411.83658609900885 60.889467885704107 0 0 0 0 364.88795150373426 -302.03779343655697 0 -302.03779343655697 7.3239053013094235 0 0 0 0 631.99729589709705 -306.92902950493226 0 -306.92902950493226 93.28976405505091 0 0 0 0 599.83411010629948 -85.205315950537624 0 -85.205315950537624 95.547137986998109 0 0 0 0 503.58389280058373 -1.3287132140503672 0 -1.3287132140503672 500.26598837669007 0 0 0 0 502.15668420655237 19.930311666612397 0 19.930311666612397 192.17169717933575 0 0 0 0 1147.0135136267406 -223.75834272893371 0 -223.75834272893371 -123.43463152974437 0 0 0 0 816.10007736216539 529.23624729242147 0 529.23624729242147 867.88035423267866 0 0 0 0 577.36147857986089 -44.002239543478936 0 -44.002239543478936 230.81676238427463 0 0 0 0 630.85297781637837 -213.98494547706377 0 -213.98494547706377 -215.37768237179262 0 0 0 0 -672.02047735226552 -472.30840930869454 0 -472.30840930869454 37.27215282558609 0 0 0 0 107.83316019524625 -255.8418806383097 0 -255.8418806383097 -355.37421142806124 0 0 0 0 101.67961398737771 -231.92238035852642 0 -231.92238035852642 145.80243986113055 0 0 0 0 -1018.9539136995281 -366.03255745313072 0 -366.03255745313072 497.49458276065343 0 0 0 0 -1047.0120166026172 -254.77566268303053 0 -254.77566268303053 56.368896832587779 0 0 0 0 -11.687787899628198 0.051667108761485281 0 0.051667108761485281 71.133352182755516 0 0 0 0 -1.8460255550178974 -8.3015375523117143 0 -8.3015375523117143 13.800596516122511 0 0 0 0 -906.2746884210751 256.00096192371711 0 256.00096192371711 28.185819685313618 0 0 0 0 -273.32317576505375 40.897183086795849 0 40.897183086795849 100.92120850520587 0 0 0 0 -410.91807381014496 -79.460283628148318 0 -79.460283628148318 157.86140267230803 0 0 0 0 -270.50713996527156 1.854229087868589 0 1.854229087868589 55.868415040837135 0 0 0 0 -285.16763772617924 16.568778453176492 0 16.568778453176492 93.277069822623162 0 0 0 0 63.703660602083801 -227.15275812781329 0 -227.15275812781329 86.605042190618406 0 0 0 0 -34.662331589997848 -120.35818561520136 0 -120.35818561520136 123.4713161898253 0 0 0 0 48.071940815752896 -282.68000262014539 0 -282.68000262014539 -22.210872372852464 0 0 0 0 -9.3331908404279602 -90.977455730666406 0 -90.977455730666406 120.40365111955907 0 0 0 0 160.35176541415603 -262.27288753844914 0 -262.27288753844914 119.1510161854778 0 0 0 0 -356.30763188045876 -34.157573359871094 0 -34.157573359871094 137.89343982268474 0 0 0 0 -307.50310728837212 27.260569754576863 0 27.260569754576863 118.64591100007965 0 0 0 0 -23.323446263218329 -33.142844157040599 0 -33.142844157040599 69.010571461038126 0 0 0 0 0.18661162918332419 -20.200978704398793 0 -20.200978704398793 66.628007338944514 0 0 0 0 -13.890529200318298 -13.240075097596872 0 -13.240075097596872 18.971629842705411 0 0 0 0 -2.4746335894745446 -11.337499537069174 0 -11.337499537069174 65.012156925335745 0 0 0 0 -45.74776390386512 -79.119294029211233 0 -79.119294029211233 46.738786528258061 0 0 0 0 -259.27814843522719 25.860851463077779 0 25.860851463077779 63.271440810713102 0 0 0 0 -21.458991339128616 2.4541913651588132 0 2.4541913651588132 62.850698217829745 0 0 0 0 -4.5515654158150163 2.383970432787585 0 2.383970432787585 6.6355924199122853 0 0 0 0 45.291351733582587 65.876260051692952 0 65.876260051692952 15.53760689363844 0 0 0 0 -87.490712960960707 77.462664091756778 0 77.462664091756778 167.21877405884879 0 0 0 0 -221.08592533278238 -144.02363600770514 0 -144.02363600770514 236.08949508288788 0 0 0 0 103.85320899826957 -22.68297018350404 0 -22.68297018350404 -1.8848719536836143 0 0 0 0 -43.876951254092546 -113.06717135499093 0 -113.06717135499093 19.195447541605972 0 0 0 0 1.6875545664055429 -10.092923375910768 0 -10.092923375910768 59.137522822805835 0 0 0 0 -93.93248929899346 -83.65611250031543 0 -83.65611250031543 93.625672775409839 0 0 0 0 -107.20729727377358 -106.51395202433832 0 -106.51395202433832 61.048597953857097 0 0 0 0 3.1190297021771016 -0.8043349509662221 0 -0.8043349509662221 -68.457238240199331 0 0 0 0 -2.8684556487462771 0.44154853946945849 0 0.44154853946945849 1.1689177949164815 0 0 0 0 -72.704443654991792 -39.538008286055174 0 -39.538008286055174 34.872110525633616 0 0 0 0 31.359570945739108 -28.756459907112912 0 -28.756459907112912 31.947469686616387 0 0 0 0 85.128938296914043 -217.48104354850875 0 -217.48104354850875 167.08727076380819 0 0 0 0 -241.06363972716895 -38.136570689344353 0 -38.136570689344353 258.62407425422862 0 0 0 0 -146.65150701761604 -36.340245061055612 0 -36.340245061055612 31.817981037720983 0 0 0 0 -10.830503233465311 -12.452967007199 0 -12.452967007199 11.595247262212986 0 0 0 0 -204.01929324932757 113.89425581633895 0 113.89425581633895 -57.885848066984181 0 0 0 0 -224.96873065367845 93.119749175510151 0 93.119749175510151 343.50463250995608 0 0 0 0 113.97849701904363 -141.35473922550955 0 -141.35473922550955 -4.9697833875943616 0 0 0 0 -3.1923114509480937 -1.0939122435896529 0 -1.0939122435896529 -2.3812277780292277 0 0 0 0 -122.37025340129117 122.05681074015956 0 122.05681074015956 -222.3873916912562 0 0 0 0 -446.36844334388513 511.84633074331941 0 511.84633074331941 -160.89157860763225 0 0 0 0 -56.682964302519963 -61.825294902733731 0 -61.825294902733731 131.82086772350158 0 0 0 0 27.290954259558767 -32.831487292696011 0 -32.831487292696011 71.319174020663922 0 0 0 0 -10.716555851265809 53.067227290863229 0 53.067227290863229 114.54599293508727 0 0 0 0 -513.7519981788621 264.47622936729749 0 264.47622936729749 278.21591299155261 0 0 0 0 18.206959160869431 -174.95608503983112 0 -174.95608503983112 372.89564139262802 0 0 0 0 -16.834292484007005 92.152633361637527 0 92.152633361637527 -75.644266889064966 0 0 0 0 -79.907581492106374 953.67753617542803 0 953.67753617542803 3756.9003194950128 0 0 0 0 0.41401292546187451 4.8861662217295319 0 4.8861662217295319 0.29703675942040419 0 0 0 0 25.888564967144138 881.9873416974624 0 881.9873416974624 3499.842555883386 0 0 0 0 271.22113276834682 824.88264580609393 0 824.88264580609393 3468.2485510372953 0 0 0 0 252.17744042031919 869.72128152326377 0 869.72128152326377 3378.7255299920653 0 0 0 0 1.5360629486288722 12.605457189425834 0 12.605457189425834 5.57953791768686 0 0 0 0 -44.417225659543647 22.72427211912327 0 22.72427211912327 88.921714501290353 0 0 0 0 1.6828339760859929 -7.3004160131487579 0 -7.3004160131487579 66.209124371157671 0 0 0 0 210.28789878760153 1232.5771563911039 0 1232.5771563911039 4189.3340921394702 0 0 0 0 426.93212733899031 792.09972121683859 0 792.09972121683859 3500.6978969483825 0 0 0 0 2.7532415768291285 2.6650605855620899 0 2.6650605855620899 2.6034930506388037 0 0 0 0 30.681638330900519 -238.72913161119118 0 -238.72913161119118 3210.0257310958441 0 0 0 0 9.7271042838487389 -6.498419028280864 0 -6.498419028280864 14.34674632869746 0 0 0 0 202.72654891935849 955.41729046624459 0 955.41729046624459 3389.6628335351415 0 0 0 0 4.4445748389798609 -3.6336249518935801 0 -3.6336249518935801 72.384873042205072 0 0 0 0 4.7115266169744245 -1.8192958053577968 0 -1.8192958053577968 54.893765396765957 0 0 0 0 19.436713064799278 -2.1540037337217655 0 -2.1540037337217655 53.772080892249505 0 0 0 0 -2.8766111617609145 -9.9018736258505129 0 -9.9018736258505129 74.105593061036103 0 0 0 0 6.4835928886154761 -16.682756930764299 0 -16.682756930764299 57.386836937068438 0 0 0 0 -10.078699953740511 -11.484395141606001 0 -11.484395141606001 72.735705680810497 0 0 0 0 7.658371937677936 -20.751481349823806 0 -20.751481349823806 54.508000880975885 0 0 0 0 38.976632901406447 -51.264717600559379 0 -51.264717600559379 -13.645780422524695 0 0 0 0 -370.65656357157332 -204.98411451180436 0 -204.98411451180436 200.93083983355245 0 0 0 0 279.18850605941998 111.04765046952707 0 111.04765046952707 -113.44296497897449 0 0 0 0 -21.7772327388044 -33.494068967590465 0 -33.494068967590465 50.819163126310741 0 0 0 0 -6.4147705719324222 -13.173313758244149 0 -13.173313758244149 53.299348707827448 0 0 0 0 8.0310446602254491 -16.066927258746393 0 -16.066927258746393 36.589497520828587 0 0 0 0 330.89734752862472 1478.6572274367427 0 1478.6572274367427 3496.8042719013474 0 0 0 0 44.310524056723949 711.66586305462079 0 711.66586305462079 3034.2798591051396 0 0 0 0 5.6401881936807312 -2.0810707104608923 0 -2.0810707104608923 8.9071483479988913 0 0 0 0 3405.9733697303 -3203.5222257302376 0 -3203.5222257302376 3488.8645919718838 0 0 0 0 8.0894114528942751 -3.0654322791698512 0 -3.0654322791698512 8.203368824812344 0 0 0 0 4211.0904577552883 -3093.4295343762933 0 -3093.4295343762933 2289.7672887567751 0 0 0 0 4.437789088757544 -1.9713591631958138 0 -1.9713591631958138 6.9041307155926219 0 0 0 0 2069.0507642928696 654.52545765874675 0 654.52545765874675 -1112.6212406379564 0 0 0 0 2193.0082720537621 -1984.8463199347598 0 -1984.8463199347598 1490.7978914732375 0 0 0 0 108.20891043593633 -547.93060022875761 0 -547.93060022875761 628.65057879795495 0 0 0 0 1005.4707320571861 -591.48281507480715 0 -591.48281507480715 -13.608117779971508 0 0 0 0 775.06596260351944 -629.89401012381131 0 -629.89401012381131 596.42422546070338 0 0 0 0 1289.7405110004531 -1106.2058874371724 0 -1106.2058874371724 631.91768911849795 0 0 0 0 1537.7085333110927 -1211.8730414464153 0 -1211.8730414464153 653.64402360917666 0 0 0 0 -3.7387642931178435 -2.2397083480312432 0 -2.2397083480312432 8.5856989430113231 0 0 0 0 1055.9366787115578 -1718.3322048739028 0 -1718.3322048739028 2118.6086461688392 0 0 0 0 910.68896968744843 -1648.5113089962688 0 -1648.5113089962688 2122.6575241743121 0 0 0 0 1144.7802543413304 -1508.2883817207039 0 -1508.2883817207039 2288.8993589197271 0 0 0 0 861.95956943163321 -1828.2172323661616 0 -1828.2172323661616 3499.7313771418412 0 0 0 0 705.01645392654393 -875.33954049479871 0 -875.33954049479871 1462.6944142332795 0 0 0 0 952.98871133764794 -745.40705945152331 0 -745.40705945152331 452.36373798800196 0 0 0 0 833.59841858769653 -507.87978869899598 0 -507.87978869899598 141.10162649607082 0 0 0 0 704.20619329109172 -514.47255935159774 0 -514.47255935159774 501.34910777487949 0 0 0 0 392.24281203091789 -99.64726989565861 0 -99.64726989565861 59.33220135596639 0 0 0 0 659.44595268108787 -386.68417251451319 0 -386.68417251451319 313.3097933426543 0 0 0 0 -3.4615281538749514 -9.3182690734192875 0 -9.3182690734192875 25.371962627307539 0 0 0 0 -3.0970534282168956 -11.169209314621185 0 -11.169209314621185 33.492779393080127 0 0 0 0 -3.5751819244326271 -15.52931609114421 0 -15.52931609114421 24.312229558314357 0 0 0 0 4.5908680562151858 -2.7971970258586225 0 -2.7971970258586225 53.663849655635204 0 0 0 0 -0.70471518296082625 -0.23406354476724189 0 -0.23406354476724189 1.508378276775062 0 0 0 0 -5.3965958874429134 11.864836373170419 0 11.864836373170419 70.115860878788226 0 0 0 0 0.83366308489942442 -0.001668823504306971 0 -0.001668823504306971 -1.2171064021988869 0 0 0 0 -15.138887593555708 2.81127624990404 0 2.81127624990404 68.238422430062201 0 0 0 0 -19.051453907763289 -9.2357716149690532 0 -9.2357716149690532 63.1095681001716 0 0 0 0 -2.5671597913825508 -46.756422139395795 0 -46.756422139395795 34.151188140327577 0 0 0 0 -9.1565991424911601 1.593600620510756 0 1.593600620510756 53.850387898306508 0 0 0 0 1.4261348162285685 -10.765882935051195 0 -10.765882935051195 21.154983434008955 0 0 0 0 -7.2647848212032127 1.2612068627333279 0 1.2612068627333279 10.279723427438938 0 0 0 0 2.9193415921695305 -8.0432231502245486 0 -8.0432231502245486 25.535498538055663 0 0 0 0 3.5100207485275394 -7.5034469870631568 0 -7.5034469870631568 7.4775791992578124 0 0 0 0 1.0930704038071326 -5.2902408630361606 0 -5.2902408630361606 30.351531191347021 0 0 0 0 7.1597996706691447 -1.156321239061981 0 -1.156321239061981 29.663643337527901 0 0 0 0 0.28989001168959838 2.0061851026264996 0 2.0061851026264996 11.974217558443534 0 0 0 0 2.7137876030523671 -3.719538860827214 0 -3.719538860827214 39.8736063834167 0 0 0 0 2.4533446241039201 -8.6877482390407295 0 -8.6877482390407295 24.864553534494917 0 0 0 0 1.3298496629347483 -5.8861184539018723 0 -5.8861184539018723 20.494603457125777 0 0 0 0 -2.5940551367420994 -2.4149852556329279 0 -2.4149852556329279 21.203419835963359 0 0 0 0 20.085205922302094 -22.544856769178296 0 -22.544856769178296 15.218959099402127 0 0 0 0 -4.8697987275710712 -0.8122237232842906 0 -0.8122237232842906 4.6532869151616012 0 0 0 0 0.080084194042683521 -11.282104303374581 0 -11.282104303374581 31.004751000518809 0 0 0 0 25.728023950084662 -12.482870631175501 0 -12.482870631175501 16.266410502095823 0 0 0 0 2.6776953391645293 -17.853511770106707 0 -17.853511770106707 20.251740635787428 0 0 0 0 4.6978340303621735 -7.1357310250386945 0 -7.1357310250386945 -5.9173836603113159 0 0 0 0 1.2693942830542913 -5.5302968714860299 0 -5.5302968714860299 -1.3228099593830223 0 0 0 0 10.877255247571156 -0.35268565863407275 0 -0.35268565863407275 -8.4739054694969127 0 0 0 0 0.5692590863523721 2.0427660878145772 0 2.0427660878145772 -1.8360759335929 0 0 0 0 3.6939647896613224 -7.2570883899970795 0 -7.2570883899970795 2.6073307431142894 0 0 0 0 8.3811611959150731 -7.3032017339969428 0 -7.3032017339969428 1.957495974154277 0 0 0 0 10.617948179958955 -19.20656577792586 0 -19.20656577792586 15.693658671727462 0 0 0 0 -0.26045050757625177 -6.9158608572779485 0 -6.9158608572779485 5.6828253066632897 0 0 0 0 -1.1807701707850966 -3.0919759573944319 0 -3.0919759573944319 1.0300990771705827 0 0 0 0 4.9458008566784883 -6.4947463148237148 0 -6.4947463148237148 2.4074237191180146 0 0 0 0 -1.1384551392817599 -7.3666644928002825 0 -7.3666644928002825 13.438937331899069 0 0 0 0 -0.75739146527075718 -5.7297079930995096 0 -5.7297079930995096 6.0926050685029622 0 0 0 0 -0.86931954493320518 14.386018915825844 0 14.386018915825844 15.436581335014125 0 0 0 0 0.33731430007195229 -3.257191613833669 0 -3.257191613833669 2.5213894912850634 0 0 0 0 -0.77891091412417168 -5.517065770599288 0 -5.517065770599288 4.3378379302484973 0 0 0 0 -1.4478409927629285 -4.3895356773289151 0 -4.3895356773289151 -0.3821177853328237 0 0 0 0 -1.0732068201983171 -6.5689498327233196 0 -6.5689498327233196 5.0594021685174084 0 0 0 0 -0.13941023892061821 -5.533356009349518 0 -5.533356009349518 3.80937378886847 0 0 0 0 -8.3320371183641555 -2.920151740199799 0 -2.920151740199799 6.9807650000802823 0 0 0 0 -1.776490266807059 -6.1188453982031206 0 -6.1188453982031206 4.5861132077552611 0 0 0 0 0.62768242913799177 -4.195544834941149 0 -4.195544834941149 4.0771782662247062 0 0 0 0 -2.0346550674955006 -1.0645557478975718 0 -1.0645557478975718 3.7554204882418176 0 0 0 0 0.10112230306720438 -7.0849567980605244 0 -7.0849567980605244 8.5002537695178262 0 0 0 0 0.082189932688379486 -14.646937793639154 0 -14.646937793639154 14.766416677607594 0 0 0 0 -13.130732726454539 5.9216529812820227 0 5.9216529812820227 2.1003905386355655 0 0 0 0 -14.322367632283285 -1.932437132453046 0 -1.932437132453046 11.28147284153961 0 0 0 0 21.914275268987012 -21.460905269255818 0 -21.460905269255818 13.664137803025369 0 0 0 0 0.3136628155384642 -7.07634659642099 0 -7.07634659642099 9.2480897732821177 0 0 0 0 1.7015581874036649 -2.3526573560482902 0 -2.3526573560482902 5.1587261132517241 0 0 0 0 5.5916970157929189 -8.2370438272926449 0 -8.2370438272926449 6.8213455408936099 0 0 0 0 6.2564641010071114 -2.9616507209548217 0 -2.9616507209548217 -4.6862167466570099 0 0 0 0 0.096829837564087029 -6.4726641883153206 0 -6.4726641883153206 8.0899978698616906 0 0 0 0 6.4058194922514691 -42.707689391076642 0 -42.707689391076642 9.0594625109588378 0 0 0 0 1.7828313106639699 -6.4238758348272427 0 -6.4238758348272427 11.560490504836849 0 0 0 0 12.099257406119023 -20.981680916461301 0 -20.981680916461301 -0.074721841861901339 0 0 0 0 13.758623536733012 -0.37377324783847143 0 -0.37377324783847143 -5.1108531062295697 0 0 0 0 -4.0118537389284352 -1.9590085007420299 0 -1.9590085007420299 2.0479226204711409 0 0 0 0 8.215571741680554 -4.2696280035161536 0 -4.2696280035161536 1.15673973117255 0 0 0 0 24.281485954353229 -11.685103713330136 0 -11.685103713330136 -2.4373421865384444 0 0 0 0 17.969082594024485 -20.872072257745458 0 -20.872072257745458 10.474700100507107 0 0 0 0 -28.794460229603146 -43.748683011739558 0 -43.748683011739558 458.33099939746899 0 0 0 0 170.79386319660321 -10.17389959940283 0 -10.17389959940283 -18.248279766394262 0 0 0 0 3.691742738959737 -1.0882544286168638 0 -1.0882544286168638 0.14524435134524083 0 0 0 0 2.7074484825620857 -23.130182261907976 0 -23.130182261907976 26.803820640554477 0 0 0 0 71.040691360626624 -25.755935017927186 0 -25.755935017927186 23.639246223163354 0 0 0 0 -29.201005961648775 -24.614759006972236 0 -24.614759006972236 119.77450185491762 0 0 0 0 19.383016052837093 -41.055131936976977 0 -41.055131936976977 81.509857234050287 0 0 0 0 86.432488761697186 -55.809547231568558 0 -55.809547231568558 68.52544084926194 0 0 0 0 93.275112034245581 -188.43241429601949 0 -188.43241429601949 140.95401598548051 0 0 0 0 85.514252763632044 -153.39592954042664 0 -153.39592954042664 194.10716687993408 0 0 0 0 -64.846331985990446 -286.79776195399063 0 -286.79776195399063 327.19028516824073 0 0 0 0 80.764066877198388 -253.32693014794495 0 -253.32693014794495 169.23071222209182 0 0 0 0 -7.0878732837397465 13.764595184111442 0 13.764595184111442 46.113960862196109 0 0 0 0 -14.263592923876786 9.7370384867317625 0 9.7370384867317625 51.937188856769353 0 0 0 0 37.70009341888624 8.0134773551981198 0 8.0134773551981198 28.770164739369648 0 0 0 0 -6.6105534612577603 4.4288775136102601 0 4.4288775136102601 8.3793084701923206 0 0 0 0 29.616613947207952 17.257801554243997 0 17.257801554243997 -10.72717287827254 0 0 0 0 -33.724239523014717 18.136843593643789 0 18.136843593643789 -3.9762169344394351 0 0 0 0 -1.9563614775927034 1.3840490867409336 0 1.3840490867409336 2.4787878227756863 0 0 0 0 19.611783048305369 -35.207090426731156 0 -35.207090426731156 1.3399464837657433 0 0 0 0 47.760415974562875 -16.550199156296003 0 -16.550199156296003 13.686217854821734 0 0 0 0 -6.8733378194283432 22.04656842481927 0 22.04656842481927 -43.129485749901505 0 0 0 0 14.268614735254687 19.330211210617563 0 19.330211210617563 61.983492407714948 0 0 0 0 -40.69737934981913 -8.5817912606034952 0 -8.5817912606034952 48.575761976426293 0 0 0 0 -10.856715003018962 8.6362274015700677 0 8.6362274015700677 80.431534783285315 0 0 0 0 73.116726112185688 34.294509271188872 0 34.294509271188872 92.213385086994094 0 0 0 0 111.49096072843327 -91.835993934402723 0 -91.835993934402723 104.49502498794755 0 0 0 0 42.351981699811859 -0.31971615340808057 0 -0.31971615340808057 65.595366045381525 0 0 0 0 -34.925979762739189 13.739654928571326 0 13.739654928571326 77.247543500760003 0 0 0 0 -5.7201493693919474 33.098374218174285 0 33.098374218174285 81.549662428340525 0 0 0 0 4.386201095809156 29.947187592337286 0 29.947187592337286 61.329221507337934 0 0 0 0 -34.442750941631857 -12.259384105675053 0 -12.259384105675053 47.551794219685689 0 0 0 0 -74.727285151726392 -40.306783861138683 0 -40.306783861138683 51.420578131938782 0 0 0 0 -57.662931017397568 -48.042501685798925 0 -48.042501685798925 13.684826658303791 0 0 0 0 -170.81509277186979 -72.063055506074306 0 -72.063055506074306 34.450665410689908 0 0 0 0 -60.188104137926075 -35.108417500909127 0 -35.108417500909127 48.504851124907873 0 0 0 0 -53.334597846578617 79.393872132983233 0 79.393872132983233 -84.115384519795043 0 0 0 0 -178.6208390797301 31.500668252094329 0 31.500668252094329 14.531379072843265 0 0 0 0 23.079548150076789 -8.7481548669056792 0 -8.7481548669056792 69.2162677813958 0 0 0 0 -78.446281317251476 18.985712104370577 0 18.985712104370577 82.726690613912069 0 0 0 0 18.120882910185287 -9.4704231172036089 0 -9.4704231172036089 112.64879092708725 0 0 0 0 236.48457776539428 -192.54320770858047 0 -192.54320770858047 199.87824873944191 0 0 0 0 241.6041618873021 -10.001922796813233 0 -10.001922796813233 34.826310153637678 0 0 0 0 62.915341704491539 30.456461120626045 0 30.456461120626045 -63.901078666487592 0 0 0 0 85.920477580611987 -33.965954924602556 0 -33.965954924602556 108.28416141139678 0 0 0 0 -70.971515548711238 -70.535684661426785 0 -70.535684661426785 3493.844151450854 0 0 0 0 4.3036513938684369 -4.2486817012502662 0 -4.2486817012502662 4.5654348639965328 0 0 0 0 252.13268759966104 -147.38087100507801 0 -147.38087100507801 -226.52286573770471 0 0 0 0 101.06795070647868 260.63728965570954 0 260.63728965570954 3350.1568404009731 0 0 0 0 381.84253039846203 -295.08445434090027 0 -295.08445434090027 -60.051898287803851 0 0 0 0 183.31554670107897 564.37038754942887 0 564.37038754942887 37.929136480866873 0 0 0 0 145.88309255178456 255.04204351153476 0 255.04204351153476 2944.1859429575452 0 0 0 0 57.131957850764138 99.38133107917065 0 99.38133107917065 2677.8585286656726 0 0 0 0 -536.83241837596188 -58.141016997680708 0 -58.141016997680708 580.53831380704105 0 0 0 0 171.01255232192113 -276.24228209225657 0 -276.24228209225657 150.29087194457315 0 0 0 0 -63.029508751084464 -265.96862937917672 0 -265.96862937917672 185.83915561592221 0 0 0 0 166.55606670712029 -106.71389585485304 0 -106.71389585485304 373.00348483874768 0 0 0 0 263.94268781272223 -128.97044621450914 0 -128.97044621450914 183.1524115128741 0 0 0 0 170.81342381025596 -209.76618298230824 0 -209.76618298230824 139.68975065864288 0 0 0 0 207.1949677453145 -82.989801576230093 0 -82.989801576230093 94.630426534668004 0 0 0 0 476.48934318183416 -668.55963333457271 0 -668.55963333457271 590.28555098083962 0 0 0 0 77.368312400697221 327.65565415196215 0 327.65565415196215 2065.8227516035677 0 0 0 0 -291.4269719359404 847.38819734817798 0 847.38819734817798 1723.1460389766471 0 0 0 0 17.375529903639404 -66.563811737989454 0 -66.563811737989454 542.94612618239626 0 0 0 0 -163.3646629279261 1253.7547243418421 0 1253.7547243418421 3058.4664885053153 0 0 0 0 428.13269927977319 218.79499087387012 0 218.79499087387012 2096.1362495833455 0 0 0 0 -45.971553832844691 758.31938987277169 0 758.31938987277169 2722.0453167892301 0 0 0 0 -80.582422548248644 474.46430222959316 0 474.46430222959316 1902.0645826422588 0 0 0 0 -80.251003123220812 556.26032770589336 0 556.26032770589336 2887.1548229561495 0 0 0 0 -370.67210214759962 661.50896627262046 0 661.50896627262046 3499.7237832252249 0 0 0 0 -141.88265705642209 659.57023584126546 0 659.57023584126546 3212.3548513254982 0 0 0 0 -19.692493918747004 97.406342733806014 0 97.406342733806014 2976.5187973252396 0 0 0 0 62.867295895194552 36.793481492903993 0 36.793481492903993 2921.4062914725837 0 0 0 0 183.12537371029549 175.88407261064003 0 175.88407261064003 2919.5868426699526 0 0 0 0 280.06562125448659 2.3425362324123853 0 2.3425362324123853 3081.5347643175282 0 0 0 0 -67.989761852833396 324.38741192388807 0 324.38741192388807 3024.8268618742586 0 0 0 0 -194.24973756253226 160.51699338759499 0 160.51699338759499 3499.5039938315676 0 0 0 0 -274.70003053200526 -44.250425576881753 0 -44.250425576881753 3069.6340783565447 0 0 0 0 -262.40172696400901 -135.84351770441936 0 -135.84351770441936 2922.5447381044705 0 0 0 0 -543.65420051731951 -241.45796562954206 0 -241.45796562954206 3499.4121985635829 0 0 0 0 -231.86063154088231 -183.70772839644081 0 -183.70772839644081 2124.816657299174 0 0 0 0 -199.51754943560195 -30.071294847851277 0 -30.071294847851277 2918.0279125776124 0 0 0 0 -186.27707775847654 -35.34247194064119 0 -35.34247194064119 2874.0432096520581 0 0 0 0 -0.6229905529217441 -3.5042786033592748 0 -3.5042786033592748 4.2704971235801921 0 0 0 0 -58.409933277102027 256.51897526093398 0 256.51897526093398 2741.3866036508657 0 0 0 0 -233.46521688828705 -292.86994575406334 0 -292.86994575406334 2370.7206177548651 0 0 0 0 -92.757157011844356 -257.74185221524658 0 -257.74185221524658 2068.9321703669193 0 0 0 0 0.65965090519569003 170.0720896353796 0 170.0720896353796 1287.6509890408297 0 0 0 0 -120.14121488933642 417.38221779278683 0 417.38221779278683 2334.9202477687058 0 0 0 0 -0.44657167498983252 -6.9028320956912896 0 -6.9028320956912896 5.1624796184609529 0 0 0 0 17.11348096668619 -14.068657225213681 0 -14.068657225213681 9.5607428952718827 0 0 0 0 128.64404086823242 -137.19321299628882 0 -137.19321299628882 1118.2385031036752 0 0 0 0 -2.1024939370049651 9.4955745416755235 0 9.4955745416755235 34.127931025001089 0 0 0 0 161.80087192917449 9.0106394450440348 0 9.0106394450440348 -70.556080576938257 0 0 0 0 -2.7506291461306773 -22.712000400050783 0 -22.712000400050783 39.159218514807435 0 0 0 0 -77.660692131465566 -49.620000711031025 0 -49.620000711031025 183.34454437576369 0 0 0 0 -65.60511740155016 -107.06599821764212 0 -107.06599821764212 -62.358370901256421 0 0 0 0 11.422149402502608 -11.268075331689417 0 -11.268075331689417 7.4318954895950817 0 0 0 0 -1.6041542428411049 -39.343503773812699 0 -39.343503773812699 -35.42586585682875 0 0 0 0 -89.990151813284228 -127.79529001412448 0 -127.79529001412448 -123.22012071051176 0 0 0 0 -171.73798658114742 59.849875263906142 0 59.849875263906142 199.86723556493189 0 0 0 0 82.844887918792367 -311.0112290260613 0 -311.0112290260613 64.032482651612099 0 0 0 0 7.111859897760894 21.505887722182024 0 21.505887722182024 39.557655078782773 0 0 0 0 10.640157213636257 0.694273567084565 0 0.694273567084565 22.591339395232353 0 0 0 0 9.0916447583515883 -5.5801406423462652 0 -5.5801406423462652 3.8908858023471513 0 0 0 0 9.3299730139406165 -0.89416012169385795 0 -0.89416012169385795 29.559649308273038 0 0 0 0 10.255802731797356 -2.2905272276925057 0 -2.2905272276925057 15.177284193372376 0 0 0 0 -73.944560668104259 48.433624536238312 0 48.433624536238312 198.65191340445472 0 0 0 0 -1.0261342022802586 -1.8306332450190901 0 -1.8306332450190901 5.1892493869351277 0 0 0 0 -254.11463389659571 -423.70101248737137 0 -423.70101248737137 1304.001062341089 0 0 0 0 -36.298626357780222 -168.2269108339251 0 -168.2269108339251 1333.6376433147034 0 0 0 0 -61.11235098290831 -301.57875895792404 0 -301.57875895792404 1331.4675937052114 0 0 0 0 -223.7984849222172 -512.13594731024159 0 -512.13594731024159 1273.8156368131349 0 0 0 0 -278.05129635951005 -443.29333686263726 0 -443.29333686263726 2154.6257249546015 0 0 0 0 -254.3887431508189 -676.96550363049096 0 -676.96550363049096 2160.1476541322154 0 0 0 0 125.47389398459285 -569.1236205936566 0 -569.1236205936566 1098.0813929770893 0 0 0 0 54.74679627918983 -497.5168637505285 0 -497.5168637505285 1112.3417522615746 0 0 0 0 284.25640970834638 -142.58191462299828 0 -142.58191462299828 -1.368282490697311 0 0 0 0 89.770509559967849 -582.26326116686516 0 -582.26326116686516 1724.6405911133133 0 0 0 0 62.222680189492166 -855.32439521660069 0 -855.32439521660069 1861.1685111847655 0 0 0 0 -320.8732557575629 -1000.3906211419749 0 -1000.3906211419749 3336.4372864380416 0 0 0 0 -320.90381488442256 -466.61697282684054 0 -466.61697282684054 2256.8807524817066 0 0 0 0 -423.98827178536465 -490.86207382813632 0 -490.86207382813632 2934.8472869962948 0 0 0 0 -288.06348636193684 -564.10767439620713 0 -564.10767439620713 2126.6212789932715 0 0 0 0 -530.33897684625038 -326.04970836024449 0 -326.04970836024449 3044.997397185432 0 0 0 0 -513.67000430719963 -477.2051166236526 0 -477.2051166236526 3500.5773149650981 0 0 0 0 108.84219434603247 -391.03307985339734 0 -391.03307985339734 3230.8416931698052 0 0 0 0 1567.1736821618997 -339.23518150824589 0 -339.23518150824589 3499.373821304891 0 0 0 0 241.71767025597251 246.93320625735151 0 246.93320625735151 4142.4906622345015 0 0 0 0 117.60638259442021 -663.07025786265376 0 -663.07025786265376 4344.3793910784234 0 0 0 0 -202.71942835099406 805.49764666748979 0 805.49764666748979 3908.9410025013649 0 0 0 0 4.7520347586830223 -7.8938647493606213 0 -7.8938647493606213 21.825109132366414 0 0 0 0 754.8184861004645 1313.8777730762267 0 1313.8777730762267 2573.3983099026718 0 0 0 0 876.47326554436631 -1305.1270120155025 0 -1305.1270120155025 1600.0616628664493 0 0 0 0 -9.7052238474975638 -1111.7452335701366 0 -1111.7452335701366 3980.612779402918 0 0 0 0 -127.81333913867037 67.088307775961766 0 67.088307775961766 3289.8106669516483 0 0 0 0 -378.31922421576934 48.530845818133457 0 48.530845818133457 3501.1311479619712 0 0 0 0 -156.72603918810773 99.593896296604726 0 99.593896296604726 3282.6057332168593 0 0 0 0 5.4452977896819448 123.33390654532377 0 123.33390654532377 2301.0883529092935 0 0 0 0 -198.42376939470205 506.14055227301651 0 506.14055227301651 2348.7662802343675 0 0 0 0 -239.44199199006925 -201.30214420968787 0 -201.30214420968787 1780.8187251016134 0 0 0 0 -431.74371223541982 -180.43255896456776 0 -180.43255896456776 3057.5900788778908 0 0 0 0 -539.43372636165543 176.27299034855332 0 176.27299034855332 3269.3638216702857 0 0 0 0 1.8657939764118998 -610.51780619567398 0 -610.51780619567398 1959.2690810079603 0 0 0 0 -112.03032156235122 95.945553913657932 0 95.945553913657932 32.188810582387305 0 0 0 0 11.876425931612433 14.196261406933406 0 14.196261406933406 21.773286068242147 0 0 0 0 23.765672070054283 270.43780848232655 0 270.43780848232655 1080.907952912743 0 0 0 0 41.11966751509987 -35.74747729572573 0 -35.74747729572573 953.60278349789769 0 0 0 0 105.19312923837538 -8.6170086723745953 0 -8.6170086723745953 1186.2359190258358 0 0 0 0 88.333378343634877 -74.956787191274088 0 -74.956787191274088 -284.12984219608916 0 0 0 0 234.52779582042467 51.00603848805622 0 51.00603848805622 -72.772657235664155 0 0 0 0 -309.93674640673601 159.0312121490083 0 159.0312121490083 25.70795123321659 0 0 0 0 3.2098753957714647 5.8693122495167511 0 5.8693122495167511 1.8610901367821242 0 0 0 0 -398.27380076272084 185.95562516047721 0 185.95562516047721 1115.5472340844099 0 0 0 0 140.65408062785127 336.99704798806124 0 336.99704798806124 1138.4830058552125 0 0 0 0 -30.17011827735962 -258.04063306469607 0 -258.04063306469607 121.40616728909299 0 0 0 0 266.02003399503167 110.85644512081399 0 110.85644512081399 253.20699043779314 0 0 0 0 231.63918877555773 804.30322742049066 0 804.30322742049066 1692.3381032732332 0 0 0 0 155.47022298025931 164.72686850759237 0 164.72686850759237 227.05232297362454 0 0 0 0 -7.8488057844251671 -27.127098480464838 0 -27.127098480464838 29.653862667953035 0 0 0 0 -39.62068701775695 93.059314219386579 0 93.059314219386579 -76.366129047082723 0 0 0 0 3.8338455527282349 -14.584860246443895 0 -14.584860246443895 34.798788365278597 0 0 0 0 7.7150068446160622 -7.3221562409366676 0 -7.3221562409366676 8.1136086862747021 0 0 0 0 -11.353752978424836 -55.098777349638794 0 -55.098777349638794 18.298563765362815 0 0 0 0 -75.139184133103072 -62.207784241246827 0 -62.207784241246827 132.75082577083958 0 0 0 0 3.6905662880199559 -8.8122446752179933 0 -8.8122446752179933 49.154278516052322 0 0 0 0 528.03592118698123 -36.659259795217622 0 -36.659259795217622 -278.04674657073065 0 0 0 0 515.25246576364566 -636.63598409825272 0 -636.63598409825272 817.4275680260489 0 0 0 0 864.30856024041543 -313.01034178928916 0 -313.01034178928916 -66.418895161343244 0 0 0 0 693.2886977102653 712.76106383739852 0 712.76106383739852 -104.98961349131787 0 0 0 0 431.69222637270354 -329.28460850064403 0 -329.28460850064403 -289.24781041674032 0 0 0 0 -270.19962949925139 237.53528130460745 0 237.53528130460745 376.7510254435656 0 0 0 0 50.869092115886815 217.2341937113506 0 217.2341937113506 190.95673118914419 0 0 0 0 5.8551099842660745 -21.95663377433096 0 -21.95663377433096 53.634473197251296 0 0 0 0 -312.70301987930361 -31.235502831038502 0 -31.235502831038502 228.57098656408562 0 0 0 0 -124.45480698473888 -308.09316289283447 0 -308.09316289283447 -31.302034382684724 0 0 0 0 -147.14973339107746 -36.922150065331152 0 -36.922150065331152 42.198209089261582 0 0 0 0 -22.71450044161611 46.069616006720025 0 46.069616006720025 -21.398720584304101 0 0 0 0 6.8981306894893351 13.216310114614316 0 13.216310114614316 -30.472978657147905 0 0 0 0 -7.2608450860751841 2.8553892173737947 0 2.8553892173737947 32.227377496432986 0 0 0 0 24.263989943856586 -18.04422067806081 0 -18.04422067806081 9.1965906588557118 0 0 0 0 -95.113671441285533 79.096582427181033 0 79.096582427181033 190.34490378128976 0 0 0 0 1.2061611894311215 -1.9464231242195797 0 -1.9464231242195797 -2.2617907146565059 0 0 0 0 200.16068311075219 100.99076824537224 0 100.99076824537224 8.4117060660282732 0 0 0 0 -109.38536422074321 17.005999463356602 0 17.005999463356602 -3.3760716243559727 0 0 0 0 4.0917545455988797 2.2386589023712489 0 2.2386589023712489 8.4835363651808482 0 0 0 0 6.7189754705814266 2.0810120396909042 0 2.0810120396909042 21.259801153467379 0 0 0 0 5.363761188655495 -3.2475358060472725 0 -3.2475358060472725 3.4367473432141313 0 0 0 0 118.55192557741793 -6.1582207133760676 0 -6.1582207133760676 -232.97486330573429 0 0 0 0 3.7633530790717487 6.9602014939264336 0 6.9602014939264336 31.588347746617274 0 0 0 0 3.8823575890433881 -6.8772778304247559 0 -6.8772778304247559 11.092241601274576 0 0 0 0 2.0589948078477391 5.8155092004562903 0 5.8155092004562903 26.664285907882004 0 0 0 0 -0.18989598546850694 -0.10298564032034108 0 -0.10298564032034108 7.7136834448221592 0 0 0 0 0.52665930076909717 0.87426790611243632 0 0.87426790611243632 1.4653193368512802 0 0 0 0 0.69386222353659832 3.4991426143988065 0 3.4991426143988065 25.3332205503757 0 0 0 0 0.45152259937754735 1.149108884042283 0 1.149108884042283 9.4473967253954143 0 0 0 0 1.3970130011519011 3.5228795013810164 0 3.5228795013810164 18.092877990629347 0 0 0 0 6.0522157259274536 1.9200949474761728 0 1.9200949474761728 30.141940491012065 0 0 0 0 9.2369876270977329 5.6814764113769343 0 5.6814764113769343 18.51136070501525 0 0 0 0 3.2542733703893525 -2.5190157527393602 0 -2.5190157527393602 40.115418418972027 0 0 0 0 1.0815247692855934 -8.0565401132139733 0 -8.0565401132139733 34.857524199690403 0 0 0 0 -10.289338244449027 -2.8638360812474275 0 -2.8638360812474275 18.801702694465348 0 0 0 0 -6.6540043053815729 -8.2693607058896479 0 -8.2693607058896479 36.926526243587958 0 0 0 0 7.953148568017923 -14.264411411357969 0 -14.264411411357969 64.56341207604828 0 0 0 0 -4.4805281533488186 -3.3418240287610317 0 -3.3418240287610317 11.978863692687071 0 0 0 0 6.3402025084360503 9.1050986630016268 0 9.1050986630016268 24.729851824990874 0 0 0 0 -17.705094540200662 16.207984898997438 0 16.207984898997438 16.983505434451217 0 0 0 0 11.329171011377184 -12.598924603107662 0 -12.598924603107662 33.785866973091288 0 0 0 0 11.90395258987337 -28.874853545081351 0 -28.874853545081351 32.995649618807875 0 0 0 0 0.45300879581465514 -8.6977953492206019 0 -8.6977953492206019 22.396206670674616 0 0 0 0 -103.78996101455868 -13.798882934860444 0 -13.798882934860444 55.916344515698086 0 0 0 0 0.23547085971922121 -3.0360686899780758 0 -3.0360686899780758 30.638255175028508 0 0 0 0 -105.04538778712299 4.7476747580533356 0 4.7476747580533356 99.721183547849819 0 0 0 0 -26.244699640336421 27.84817457421002 0 27.84817457421002 160.30129555314466 0 0 0 0 -38.890757718320856 -7.0422412700784207 0 -7.0422412700784207 96.635998566012233 0 0 0 0 -57.465262482980052 26.791832327308384 0 26.791832327308384 46.026690203421822 0 0 0 0 -38.660940918038705 5.7056763801471106 0 5.7056763801471106 44.290774145861405 0 0 0 0 -6.0492519318586346 54.108120508939237 0 54.108120508939237 85.206783498228333 0 0 0 0 -6.3015808603220194 52.096315633163741 0 52.096315633163741 117.33163108165986 0 0 0 0 -40.042431481291715 23.542417637033964 0 23.542417637033964 67.930709659064178 0 0 0 0 18.18587657635112 14.682012340233143 0 14.682012340233143 12.725209887973506 0 0 0 0 -16.243716782715182 43.209638640267485 0 43.209638640267485 64.017402507975135 0 0 0 0 -18.296087783063285 28.652492259997189 0 28.652492259997189 55.72478140636656 0 0 0 0 -34.783941290514349 14.241829586715085 0 14.241829586715085 53.925069235149294 0 0 0 0 1.2938146611463708 -4.5622818352420609 0 -4.5622818352420609 16.136361422561095 0 0 0 0 -4.390914148193346 5.2183750643771329 0 5.2183750643771329 26.38663813518469 0 0 0 0 -6.7460211788256856 12.102287611131032 0 12.102287611131032 28.261404918494009 0 0 0 0 -2.1877728659194418 -0.026618193692200975 0 -0.026618193692200975 21.345007824727873 0 0 0 0 -2.4041620212168873 8.655580552351239 0 8.655580552351239 11.689385672480938 0 0 0 0 -0.034494674643067214 3.4786106676151958 0 3.4786106676151958 10.770800978997777 0 0 0 0 0.46557818294968456 -3.6791672575101018 0 -3.6791672575101018 19.296299188877924 0 0 0 0 44.346273262648538 -0.40233551682922553 0 -0.40233551682922553 15.417126500303766 0 0 0 0 78.643148732834106 25.424195746251428 0 25.424195746251428 10.972364381630968 0 0 0 0 1.3350405010020978 -3.4741267270061256 0 -3.4741267270061256 17.044357819457396 0 0 0 0 30.807911359577702 -22.703549157843554 0 -22.703549157843554 -4.5336060559093312 0 0 0 0 30.807911359577702 -22.703549157842644 0 -22.703549157842644 -4.5336060558984173 0 0 0 0 30.807911359577702 -22.703549157835369 0 -22.703549157835369 -4.5336060558984173 0 0 0 0 78.650442357600696 57.161836210309993 0 57.161836210309993 39.602362324430764 0 0 0 0 82.597042721151411 -5.8179974028932122 0 -5.8179974028932122 -28.662615806849459 0 0 0 0 2.281294034046081 -14.968147122974518 0 -14.968147122974518 70.72943257652328 0 0 0 0 -74.207926021169669 -233.43706762644439 0 -233.43706762644439 184.1969727910348 0 0 0 0 3.2016286526021269 -1.9564823682176722 0 -1.9564823682176722 2.8841648365563346 0 0 0 0 81.88766478044505 97.068622652246404 0 97.068622652246404 123.97372107157184 0 0 0 0 14.995512425388995 47.299515109042787 0 47.299515109042787 258.43570799800682 0 0 0 0 18.321634204229667 26.348521771154083 0 26.348521771154083 104.75575108458162 0 0 0 0 15.845334361524394 -82.469408293904777 0 -82.469408293904777 93.737364463872836 0 0 0 0 -23.605712404144469 -14.535205936943385 0 -14.535205936943385 41.673268442905169 0 0 0 0 312.37356546813044 -95.843007432217746 0 -95.843007432217746 60.261108565697214 0 0 0 0 16.177618325464778 -90.870111633183882 0 -90.870111633183882 275.05291467046914 0 0 0 0 -165.11585597593876 33.610010742111399 0 33.610010742111399 108.05142440755435 0 0 0 0 40.491564939248747 172.60280949132834 0 172.60280949132834 123.32357253895782 0 0 0 0 36.137228670897002 6.5836303498967936 0 6.5836303498967936 10.602441470269696 0 0 0 0 -1.304669852112589 -41.187672315531437 0 -41.187672315531437 41.190668890891686 0 0 0 0 5.6900275120160586 -136.68208068498643 0 -136.68208068498643 35.924092821733211 0 0 0 0 12.186226381335274 -43.898535123717622 0 -43.898535123717622 12.477096663108133 0 0 0 0 30.804344038924683 -17.741034299246166 0 -17.741034299246166 -44.553400182794576 0 0 0 0 78.693326580959251 -90.071164426772157 0 -90.071164426772157 -3.8774177111276913 0 0 0 0 2.5689922080592185 -4.0658290400326642 0 -4.0658290400326642 -14.123670095061271 0 0 0 0 13.476930444768186 10.343668292040093 0 10.343668292040093 -2.1556471508652066 0 0 0 0 5.2189728464381915 -8.4069100981414522 0 -8.4069100981414522 -3.0373850207174655 0 0 0 0 73.767211553183074 -67.8314541646007 0 -67.8314541646007 -75.973080343886977 0 0 0 0 3.2703128362648144 -3.9372044179963623 0 -3.9372044179963623 -2.7550763284470614 0 0 0 0 9.9604272874934701 -18.275829207266334 0 -18.275829207266334 9.1058858635067104 0 0 0 0 1.1729746009844315 -11.952472925272573 0 -11.952472925272573 11.463758539720232 0 0 0 0 2.0714004153260248 -21.837169157905009 0 -21.837169157905009 10.654958146630406 0 0 0 0 -13.5373197573997 -37.348749839977927 0 -37.348749839977927 33.565353267913451 0 0 0 0 5.518783462517149 -36.890675149055824 0 -36.890675149055824 -18.117054285015911 0 0 0 0 -1.9578911964281929 -0.65183055554735958 0 -0.65183055554735958 3.0487081867438448 0 0 0 0 11.306472287561974 -1.1567128238029909 0 -1.1567128238029909 21.759953838620277 0 0 0 0 -2.1258617264202258 -3.7361225548229413 0 -3.7361225548229413 6.420023376127574 0 0 0 0 -31.903014173934935 -53.932313558805618 0 -53.932313558805618 0.4882067086364259 0 0 0 0 -45.786096677041769 -54.334339685958867 0 -54.334339685958867 85.463294984798836 0 0 0 0 5.2770374941978559 -23.231367596578306 0 -23.231367596578306 36.771326929364179 0 0 0 0 -72.59185437122926 -91.005665690206854 0 -91.005665690206854 61.231015178329926 0 0 0 0 119.1668508146376 76.96214538278582 0 76.96214538278582 338.75147061656025 0 0 0 0 168.27137347456386 59.219244728224112 0 59.219244728224112 78.780281394596386 0 0 0 0 1.9096835683219642 3.4186134117683196 0 3.4186134117683196 8.6840562737919527 0 0 0 0 146.79688609756181 -111.54250529029378 0 -111.54250529029378 46.316146882862085 0 0 0 0 -104.68186780007107 -582.43551006342386 0 -582.43551006342386 -100.50228964493726 0 0 0 0 125.18242320482375 94.960181826119424 0 94.960181826119424 64.504994206956326 0 0 0 0 33.79732823823133 -34.782941845824098 0 -34.782941845824098 151.47303916950113 0 0 0 0 -434.72296327712684 -207.4438360535778 0 -207.4438360535778 180.97579548852809 0 0 0 0 -2.676948513318032 4.9682968650760984 0 4.9682968650760984 -1.5618941620863467 0 0 0 0 -613.20850384790663 -112.51596834165275 0 -112.51596834165275 820.81699679122539 0 0 0 0 -585.95088263371986 232.10799474949818 0 232.10799474949818 1425.6704420204042 0 0 0 0 232.59268849613795 570.10393144498812 0 570.10393144498812 833.53710890327056 0 0 0 0 256.62235152291112 229.1415315837512 0 229.1415315837512 -13.17411536259533 0 0 0 0 -173.94219082948575 23.362782001437154 0 23.362782001437154 129.83682018864783 0 0 0 0 70.595277178107523 133.02551701440098 0 133.02551701440098 206.82367476808577 0 0 0 0 308.35589500506546 37.738293827358575 0 37.738293827358575 91.402446721564047 0 0 0 0 224.08636658131684 -213.68372730752162 0 -213.68372730752162 523.92663831482787 0 0 0 0 903.683549288417 155.12233326138085 0 155.12233326138085 190.93991543530592 0 0 0 0 103.14773425176577 -58.439163625744186 0 -58.439163625744186 339.38968193324399 0 0 0 0 92.866585023423028 -215.78518985926348 0 -215.78518985926348 297.71831762465808 0 0 0 0 105.95485445108943 -84.769694455946592 0 -84.769694455946592 45.6911975098119 0 0 0 0 79.702758672417076 -131.9715357241912 0 -131.9715357241912 267.04694562287841 0 0 0 0 206.24488258897986 -92.107452273790841 0 -92.107452273790841 190.1045017641809 0 0 0 0 154.80017250205196 -145.67515303412074 0 -145.67515303412074 251.24816012544215 0 0 0 0 88.924165616760774 -98.716357004494967 0 -98.716357004494967 231.62402498705342 0 0 0 0 -0.29371802548278581 -4.2820900981928887 0 -4.2820900981928887 44.72369482681485 0 0 0 0 121.74006785196843 28.714581933396403 0 28.714581933396403 124.37544811526823 0 0 0 0 21.062952241917742 -41.273199696222946 0 -41.273199696222946 140.93938692436495 0 0 0 0 5.9963486841734328 -25.612506561017675 0 -25.612506561017675 85.055502582441378 0 0 0 0 118.83645134162362 2.9831588632896455 0 2.9831588632896455 34.408130379821159 0 0 0 0 118.24527928037287 9.1900457889259997 0 9.1900457889259997 102.09521756869799 0 0 0 0 138.97246816614575 -14.291883748830514 0 -14.291883748830514 286.23972770707587 0 0 0 0 140.54146784535783 17.270101476593481 0 17.270101476593481 100.01621067320411 0 0 0 0 180.81454014401993 23.314136524839341 0 23.314136524839341 26.892974039947148 0 0 0 0 180.43072651399041 28.191599034440969 0 28.191599034440969 1.698129837790475 0 0 0 0 98.639361727185587 19.327009340313452 0 19.327009340313452 54.569326303018897 0 0 0 0 25.712358310957825 -69.126857455905792 0 -69.126857455905792 42.719865698101785 0 0 0 0 52.891109118614168 1.5892352078935801 0 1.5892352078935801 40.025553285707019 0 0 0 0 269.46877480866374 -19.512364393263852 0 -19.512364393263852 -12.154887783750382 0 0 0 0 128.46992834016277 -19.63451173613521 0 -19.63451173613521 -0.012282209580007475 0 0 0 0 216.21589240518165 67.506942067790078 0 67.506942067790078 44.593794260928917 0 0 0 0 144.64718546037449 38.383263687935596 0 38.383263687935596 11.778039516084391 0 0 0 0 150.5922783894685 18.953145925906938 0 18.953145925906938 12.812070432813925 0 0 0 0 15.634526459913786 34.476820022944594 0 34.476820022944594 57.300674296142461 0 0 0 0 148.42855622167843 39.04881273220235 0 39.04881273220235 73.139782582548378 0 0 0 0 157.72521081296935 -9.3962936239679493 0 -9.3962936239679493 -31.360780071958288 0 0 0 0 15.527093397268573 -22.185660883311357 0 -22.185660883311357 15.119305502938005 0 0 0 0 6.4564922937312303 -4.0392376562278969 0 -4.0392376562278969 19.889734346146724 0 0 0 0 -21.178688564598019 33.158444856325787 0 33.158444856325787 39.841946523476508 0 0 0 0 2.8649506500551141 12.404068253397815 0 12.404068253397815 23.35678538027787 0 0 0 0 -2.9794850077734427 9.0112121158466927 0 9.0112121158466927 5.2901708758441757 0 0 0 0 150.5395787981264 12.89657351967071 0 12.89657351967071 2.4089763100255368 0 0 0 0 -1.5573422795293101 0.92569377746874792 0 0.92569377746874792 -0.84824817762495996 0 0 0 0 26.741222773645063 -299.52442348953537 0 -299.52442348953537 865.25217015529506 0 0 0 0 113.57644620934332 223.56915232347092 0 223.56915232347092 822.51054873176599 0 0 0 0 9.8898385379821434 -348.51804632140374 0 -348.51804632140374 397.18598049749926 0 0 0 0 144.36942175808997 194.38324944187923 0 194.38324944187923 129.35386942150944 0 0 0 0 112.73553451143528 -106.74296891689983 0 -106.74296891689983 86.409710666815954 0 0 0 0 383.07498356313039 -76.689711238932432 0 -76.689711238932432 60.300627141373297 0 0 0 0 149.72576290934404 -29.222563015486116 0 -29.222563015486116 138.21322416851399 0 0 0 0 376.06215898797194 249.21325593606707 0 249.21325593606707 394.95274649434759 0 0 0 0 -10.432419980568739 -160.49138278504415 0 -160.49138278504415 262.37547499272659 0 0 0 0 413.96562010743924 443.66721912509456 0 443.66721912509456 -32.565559657208269 0 0 0 0 26.838055640298606 -864.92224891661226 0 -864.92224891661226 4042.8064045905085 0 0 0 0 4.4506902390103047 5.7856027029290331 0 5.7856027029290331 9.1263801620693883 0 0 0 0 107.72340341609346 819.06671803704739 0 819.06671803704739 2425.7469592079378 0 0 0 0 -30.030394589652389 -629.15382081581356 0 -629.15382081581356 2745.8447186321064 0 0 0 0 431.94585448683159 15.076884543813321 0 15.076884543813321 3498.9058429904599 0 0 0 0 -143.58378065894578 269.57175978552482 0 269.57175978552482 3682.4160854155962 0 0 0 0 -249.22931338957824 -226.2367222357916 0 -226.2367222357916 1992.1993190758458 0 0 0 0 -196.10095245584517 -689.39259375369238 0 -689.39259375369238 2029.5253463447152 0 0 0 0 -492.95748531093074 -373.43254684752264 0 -373.43254684752264 3500.586603617272 0 0 0 0 678.31052357805504 -1966.7758808909621 0 -1966.7758808909621 3494.7757883146423 0 0 0 0 -225.28318436510619 -681.38293398506539 0 -681.38293398506539 2333.4545370863052 0 0 0 0 928.31541762201948 -972.53013108493178 0 -972.53013108493178 1201.3007793393967 0 0 0 0 24.157128429775639 -734.96698799718433 0 -734.96698799718433 1218.1890601772177 0 0 0 0 3.0982972615574664 5.712910786433202 0 5.712910786433202 12.729112683395812 0 0 0 0 -68.565043571340311 139.14247298891678 0 139.14247298891678 1140.8874813389612 0 0 0 0 1086.8360363121806 157.6206053036185 0 157.6206053036185 879.0764525195882 0 0 0 0 1199.1727062342545 784.68321542613194 0 784.68321542613194 340.62335874039854 0 0 0 0 586.92437103601696 382.3052830185261 0 382.3052830185261 301.26118048932403 0 0 0 0 2617.5665088831702 -983.9004574647588 0 -983.9004574647588 -23.391511813761099 0 0 0 0 10.68622157421437 -3.2198900521165044 0 -3.2198900521165044 12.056860720813873 0 0 0 0 18.535720186318859 12.858864104461247 0 12.858864104461247 26.305834284809922 0 0 0 0 568.61767817713053 -558.66711614076848 0 -558.66711614076848 721.61671166099768 0 0 0 0 -387.02018977059686 515.53180988821077 0 515.53180988821077 3488.1207020725196 0 0 0 0 285.22102584385266 -951.46677304005789 0 -951.46677304005789 -1559.8241792347108 0 0 0 0 -2.4186562977454624 -1.3801874671863672 0 -1.3801874671863672 6.7044559498598364 0 0 0 0 126.84922244617782 -26.627815403886416 0 -26.627815403886416 149.15221266506705 0 0 0 0 -168.99201131165285 443.45622093601196 0 443.45622093601196 3468.8856969305898 0 0 0 0 14.404632695121517 13.1881532673493 0 13.1881532673493 10.519014768799067 0 0 0 0 -1.0194034632600051 1.6556247439966683 0 1.6556247439966683 49.718997079136898 0 0 0 0 -18.704317314277887 87.140065505871462 0 87.140065505871462 171.77352868720482 0 0 0 0 -10.024766223463455 6.2321004654843843 0 6.2321004654843843 94.494047279531344 0 0 0 0 40.097229530185217 46.000939179266283 0 46.000939179266283 -11.196077683858007 0 0 0 0 -3.8391823764950406 -3.7364700207032939 0 -3.7364700207032939 52.921906218599176 0 0 0 0 186.56221254332485 303.83507433775821 0 303.83507433775821 302.90275960319559 0 0 0 0 458.90995309386926 751.27358793158419 0 751.27358793158419 372.72613931946398 0 0 0 0 11.703914956762674 11.133905759706977 0 11.133905759706977 50.910737460340897 0 0 0 0 -188.27545913296672 -154.98952325386927 0 -154.98952325386927 281.37336514981871 0 0 0 0 -331.99773026267167 213.65505198679239 0 213.65505198679239 2065.5434113716547 0 0 0 0 -2.6867870227995549 -10.064016814221169 0 -10.064016814221169 33.036045519678268 0 0 0 0 225.1314537557264 546.24865306228457 0 546.24865306228457 506.09666018249118 0 0 0 0 330.53558433948069 569.24007932580025 0 569.24007932580025 270.22608472554566 0 0 0 0 297.88246594504199 411.00796884575539 0 411.00796884575539 284.9248107201654 0 0 0 0 371.57242852030868 508.63383912832069 0 508.63383912832069 376.49853647203417 0 0 0 0 905.62880381331001 579.56239537953115 0 579.56239537953115 302.12366625270079 0 0 0 0 -2.4449669745582563 -16.171626606268525 0 -16.171626606268525 -0.21699211445962874 0 0 0 0 568.83946455108526 279.94803680738914 0 279.94803680738914 303.29764961035244 0 0 0 0 395.33270013442052 515.47001256616932 0 515.47001256616932 780.4168814806726 0 0 0 0 649.68530032800436 -28.781042388920469 0 -28.781042388920469 497.04341035736979 0 0 0 0 180.05193999268158 255.65426412001761 0 255.65426412001761 375.07568913379509 0 0 0 0 328.1376737973369 209.43528372206492 0 209.43528372206492 294.18180464301076 0 0 0 0 -225.40160522125166 68.889692227841806 0 68.889692227841806 99.515355780436948 0 0 0 0 -78.745061033269394 -68.296494749516569 0 -68.296494749516569 143.92777588304307 0 0 0 0 5.0310898647974716 15.715496699062012 0 15.715496699062012 28.238393730301723 0 0 0 0 -9.8265604122568675 41.050477358572607 0 41.050477358572607 15.334887296894522 0 0 0 0 244.33715994495736 -437.82561215086844 0 -437.82561215086844 321.19662338070157 0 0 0 0 418.59070166032166 296.38383992813851 0 296.38383992813851 -68.547178225802782 0 0 0 0 582.89906996397963 489.55374965531519 0 489.55374965531519 93.666811752431386 0 0 0 0 -113.74153842810301 -0.90292315230180975 0 -0.90292315230180975 270.90197005135997 0 0 0 0 -1.1544146726925266 -2.0392829918475428 0 -2.0392829918475428 0.88439046684320743 0 0 0 0 117.20416886926478 25.801873000498745 0 25.801873000498745 -244.81469071548418 0 0 0 0 86.87519504516672 109.80231835106679 0 109.80231835106679 72.323981230154459 0 0 0 0 3.8323560398780492 34.670589602284437 0 34.670589602284437 9.7181728138179544 0 0 0 0 -314.20163950222349 -344.38148596895553 0 -344.38148596895553 3500.2026063643789 0 0 0 0 -20.100054754430701 -257.57376093901621 0 -257.57376093901621 2689.291638206465 0 0 0 0 -263.0962076376984 -121.82354684297388 0 -121.82354684297388 3151.7139201967511 0 0 0 0 -427.60745714679456 269.98994894104362 0 269.98994894104362 3500.1228818392192 0 0 0 0 -277.76826265781 -19.788060849102294 0 -19.788060849102294 2831.8251717383682 0 0 0 0 26.413235993437411 60.159850223295507 0 60.159850223295507 -35.916412886799662 0 0 0 0 -1.2507700612989368 2.8652291989283327 0 2.8652291989283327 19.965549228871716 0 0 0 0 15.953833714256486 41.011448707070926 0 41.011448707070926 4.68168186076133 0 0 0 0 59.76104202334318 71.905636253610282 0 71.905636253610282 166.29585753922584 0 0 0 0 33.90007381461001 340.66858043794855 0 340.66858043794855 2147.7869808880205 0 0 0 0 -31.487390647019993 -12.493624960203306 0 -12.493624960203306 63.423649708827725 0 0 0 0 6.8640997584398065 119.65497863220662 0 119.65497863220662 61.001503921186668 0 0 0 0 2.2638363370024308 20.802582029777113 0 20.802582029777113 67.574977445801778 0 0 0 0 11.518581958631259 23.211758857735063 0 23.211758857735063 15.310614291643507 0 0 0 0 0.23495532917604578 49.605930227706267 0 49.605930227706267 59.35881031374447 0 0 0 0 3.2406591573545978 4.345554440371771 0 4.345554440371771 20.876317374580339 0 0 0 0 -13.963259009891772 33.053991198125004 0 33.053991198125004 51.19738205937756 0 0 0 0 10.154238036467417 22.351830004455252 0 22.351830004455252 -1.4900413466266826 0 0 0 0 -79.49529110029097 563.81105873967863 0 563.81105873967863 2940.0828163509141 0 0 0 0 50.526160007091946 526.48999532062044 0 526.48999532062044 1756.7028993795975 0 0 0 0 434.54732487204319 1361.2057647802794 0 1361.2057647802794 3495.1711488819151 0 0 0 0 4.7481326942359869 5.5101072630485604 0 5.5101072630485604 20.560223987786642 0 0 0 0 142.86786659190966 206.59261478093686 0 206.59261478093686 234.8408560510652 0 0 0 0 13.113485445031984 81.021077067831357 0 81.021077067831357 155.73675302379706 0 0 0 0 72.222648508357452 136.84984068426274 0 136.84984068426274 174.23779724960332 0 0 0 0 16.376594243673797 40.29229132260285 0 40.29229132260285 28.528737138461167 0 0 0 0 40.948209088797739 60.199058458951185 0 60.199058458951185 130.25031419469451 0 0 0 0 -30.454829093563603 71.798517392031499 0 71.798517392031499 290.33214556229359 0 0 0 0 -16.601172212853186 -34.494575707465415 0 -34.494575707465415 116.33558768991696 0 0 0 0 -185.13380661192605 -134.62131625007169 0 -134.62131625007169 257.95410467806505 0 0 0 0 -250.1069930355111 67.120870809962071 0 67.120870809962071 512.73607772155083 0 0 0 0 -7.2641724099054272 -207.11420490444698 0 -207.11420490444698 357.97399202842644 0 0 0 0 554.35332734950316 539.62358257722371 0 539.62358257722371 255.13477692663309 0 0 0 0 91.589168818654798 118.54043293395807 0 118.54043293395807 -15.287348532059696 0 0 0 0 32.054803117968731 -126.89180877216131 0 -126.89180877216131 669.47347648585855 0 0 0 0 -0.82051471134828802 -0.093318224487759949 0 -0.093318224487759949 6.0829361781060243 0 0 0 0 247.26643686654756 542.71185875941956 0 542.71185875941956 586.71947384432133 0 0 0 0 179.50207302133822 134.2320153818946 0 134.2320153818946 285.23013191648351 0 0 0 0 -25.735226104017784 -35.24599416206911 0 -35.24599416206911 43.805653359615462 0 0 0 0 -109.39756774768421 48.702621695985727 0 48.702621695985727 580.49237908904615 0 0 0 0 -27.365410938317837 -48.242302135586215 0 -48.242302135586215 238.802309843486 0 0 0 0 37.56519168306113 155.79769934746582 0 155.79769934746582 142.84535945547395 0 0 0 0 140.84915269332566 192.65269560299384 0 192.65269560299384 411.3292676602141 0 0 0 0 -164.40421066520321 173.56780217328924 0 173.56780217328924 635.64609774324344 0 0 0 0 -54.712274168417935 -72.28852721095609 0 -72.28852721095609 318.34576659505547 0 0 0 0 -167.09780033854577 202.04405564077024 0 202.04405564077024 851.5534000216212 0 0 0 0 193.06746106526953 487.37238486998467 0 487.37238486998467 661.83235849166522 0 0 0 0 -225.35470463799584 -104.22480630487553 0 -104.22480630487553 577.04236400511581 0 0 0 0 -230.1574676279449 -16.566972183644793 0 -16.566972183644793 1617.8556342741067 0 0 0 0 101.91793054914615 307.31199378507154 0 307.31199378507154 313.01857569807908 0 0 0 0 -11.968318044247553 82.082200282631675 0 82.082200282631675 214.24348970397841 0 0 0 0 77.45259855745428 197.48730779598009 0 197.48730779598009 29.892073578404961 0 0 0 0 31.483160083138955 -168.76996663839964 0 -168.76996663839964 56.547792540266528 0 0 0 0 6.0675470268144984 -27.456713664441306 0 -27.456713664441306 -5.5188341993948598 0 0 0 0 154.78008938386824 -113.21608608918905 0 -113.21608608918905 -129.52707274680142 0 0 0 0 -230.45586572140411 37.796477797011903 0 37.796477797011903 74.224082301749149 0 0 0 0 378.54305196520932 -306.33255436476065 0 -306.33255436476065 180.76199470723805 0 0 0 0 1.1536376772979733 4.7007825343789236 0 4.7007825343789236 -4.5065780623053797 0 0 0 0 -47.570350580690956 -29.232149435767496 0 -29.232149435767496 306.21910266889608 0 0 0 0 169.34230772644469 -49.498152590305835 0 -49.498152590305835 -128.84588373405495 0 0 0 0 -211.31797139070738 10.011680677745062 0 10.011680677745062 284.50384519301588 0 0 0 0 184.40266789369343 65.028039153437931 0 65.028039153437931 204.44089781344519 0 0 0 0 155.66740874879224 107.84228563358738 0 107.84228563358738 220.45839517794957 0 0 0 0 -7.5166330479671615 -264.88687365975784 0 -264.88687365975784 -27.868808331269975 0 0 0 0 2.4548867150691027 -56.693327548491368 0 -56.693327548491368 128.25308008078363 0 0 0 0 377.01253700753659 59.851993358053733 0 59.851993358053733 263.09583761757494 0 0 0 0 192.17758100483661 216.76407657039636 0 216.76407657039636 412.72134402999291 0 0 0 0 -8.1977191630726534 -52.709363500295098 0 -52.709363500295098 121.10487189005516 0 0 0 0 180.05156119946514 66.767378782857122 0 66.767378782857122 277.30710883119173 0 0 0 0 -145.72673988282122 -387.99817665921 0 -387.99817665921 95.002618098571475 0 0 0 0 140.40966709892507 360.45619902602766 0 360.45619902602766 254.33698925517092 0 0 0 0 470.99412231994688 342.0087244626402 0 342.0087244626402 244.3908320874325 0 0 0 0 2.7846789729242207 1.5905739703799071 0 1.5905739703799071 1.3634481379420649 0 0 0 0 523.60043296256163 175.20436385614721 0 175.20436385614721 -3.4726122559077339 0 0 0 0 338.22374528114506 -69.280645720646135 0 -69.280645720646135 -54.173694991171942 0 0 0 0 305.61582445618842 34.991574715473689 0 34.991574715473689 -41.315712449961211 0 0 0 0 141.4733534126384 80.527098290700451 0 80.527098290700451 18.144906734654796 0 0 0 0 129.79300042504758 -11.099331544729239 0 -11.099331544729239 15.154633527374244 0 0 0 0 89.701516086037373 115.83326658322403 0 115.83326658322403 22.636698616795911 0 0 0 0 302.73700300038763 77.624102470006619 0 77.624102470006619 -8.4580011945508886 0 0 0 0 295.58689414789615 86.218890363426908 0 86.218890363426908 18.372999487728521 0 0 0 0 358.98074218227066 116.3733416551695 0 116.3733416551695 14.851448221324972 0 0 0 0 439.26271304369561 309.87333723523625 0 309.87333723523625 174.77563159559941 0 0 0 0 320.58830067591452 144.59571035652561 0 144.59571035652561 90.097712789713114 0 0 0 0 330.40757308929642 168.28194640369475 0 168.28194640369475 80.826217182620894 0 0 0 0 400.40753783108676 168.84755953458989 0 168.84755953458989 20.899601558710856 0 0 0 0 252.50958555927639 71.420482797831028 0 71.420482797831028 197.62179411832039 0 0 0 0 238.19759670233634 128.36202614930153 0 128.36202614930153 224.3081837966638 0 0 0 0 375.19750905283399 83.161300266889157 0 83.161300266889157 78.039504301023499 0 0 0 0 322.12315335667017 22.267075833309718 0 22.267075833309718 35.008728397224331 0 0 0 0 278.20770686255764 43.057212409103158 0 43.057212409103158 129.87838049076527 0 0 0 0 -3.7116541462260102 -101.16924662062956 0 -101.16924662062956 62.807505083808792 0 0 0 0 5.0181395048555766 3.369861972019784 0 3.369861972019784 75.839064104796265 0 0 0 0 111.42525851235905 -51.250029414494747 0 -51.250029414494747 7.854012383337249 0 0 0 0 208.39070556535603 -391.92764741156861 0 -391.92764741156861 -158.58223321264086 0 0 0 0 -102.73262847182258 310.95510522684708 0 310.95510522684708 183.27096278429963 0 0 0 0 10.15763085377872 -10.583188299808583 0 -10.583188299808583 -10.677697885980365 0 0 0 0 18.230749477239183 -30.432347809306449 0 -30.432347809306449 74.212247555575701 0 0 0 0 89.49574607672912 31.6047863663116 0 31.6047863663116 211.58363700930204 0 0 0 0 79.879767138738387 -84.459374324610508 0 -84.459374324610508 199.88392305769958 0 0 0 0 -57.130016867913113 90.622630972062524 0 90.622630972062524 266.09204140417569 0 0 0 0 -1.6857116900530826 -0.094141199404916165 0 -0.094141199404916165 -0.41860505110763313 0 0 0 0 -51.356556766443475 366.57768763964077 0 366.57768763964077 107.45700471458258 0 0 0 0 20.102217628807693 -92.871708724866949 0 -92.871708724866949 28.694854855333688 0 0 0 0 52.922905933862239 -43.979101994085795 0 -43.979101994085795 68.326562955287955 0 0 0 0 1.0144474754880521 -2.5013340633847978 0 -2.5013340633847978 4.3632242906634104 0 0 0 0 290.44414121992713 212.70584895322099 0 212.70584895322099 78.268241398633108 0 0 0 0 202.31848199825799 -465.15361305892293 0 -465.15361305892293 225.4365635284671 0 0 0 0 -3.7470965561719396 7.0682096663167826 0 7.0682096663167826 5.7144144910683181 0 0 0 0 -299.38580632063895 166.74808804348868 0 166.74808804348868 489.30824184125959 0 0 0 0 -180.71974167925919 -136.62607175412631 0 -136.62607175412631 49.096664428951044 0 0 0 0 -39.186259677192083 -24.529855777458579 0 -24.529855777458579 -156.55633195383416 0 0 0 0 180.90602724796372 -84.312845673226548 0 -84.312845673226548 162.92229519110515 0 0 0 0 211.3640866464998 59.729480519181379 0 59.729480519181379 16.292759518721141 0 0 0 0 -83.995155354836243 -50.976210236771294 0 -50.976210236771294 198.11925687280745 0 0 0 0 124.57710124940695 62.401285630381608 0 62.401285630381608 181.02942825878108 0 0 0 0 381.36812379933826 252.85672024099131 0 252.85672024099131 222.91522067530241 0 0 0 0 138.88695290124178 -31.80044615110819 0 -31.80044615110819 -3.1811545133277832 0 0 0 0 456.49301125235479 347.96266087889489 0 347.96266087889489 254.60402508515836 0 0 0 0 22.916657839021354 45.662633682728483 0 45.662633682728483 366.23847272998955 0 0 0 0 -67.587209050688216 -364.24488501133601 0 -364.24488501133601 -176.03322786869921 0 0 0 0 -232.7326770541531 -122.65472975870944 0 -122.65472975870944 118.36822516396933 0 0 0 0 -43.790804351534575 -54.421001854302176 0 -54.421001854302176 152.04477293993841 0 0 0 0 -4.6001443381885281 -73.755238419310786 0 -73.755238419310786 64.402736648735299 0 0 0 0 -32.690273980715403 -108.90598734199489 0 -108.90598734199489 47.576394806466851 0 0 0 0 -1.2423053067656156 -21.241462614337024 0 -21.241462614337024 90.034054196279612 0 0 0 0 25.741243344613395 0.15397126247989945 0 0.15397126247989945 41.957475445175078 0 0 0 0 -1.387390012090691 10.964135624752089 0 10.964135624752089 128.98420571743191 0 0 0 0 24.803820303885004 5.3109870419357321 0 5.3109870419357321 79.763189378485549 0 0 0 0 23.673481064783118 21.237894581907312 0 21.237894581907312 87.906859420763794 0 0 0 0 -25.78107083332452 61.72412793757394 0 61.72412793757394 -33.465462698528427 0 0 0 0 6.5160717611452554 5.7122474493043711 0 5.7122474493043711 0.016467830623476232 0 0 0 0 -31.328524496938371 -3.1425302196403209 0 -3.1425302196403209 88.932277651336335 0 0 0 0 -13.836661961825484 -34.705477664610953 0 -34.705477664610953 3.3875863543426021 0 0 0 0 0.43586889707876253 30.918011186266085 0 30.918011186266085 43.911826792260399 0 0 0 0 -2.046844681910919 7.4201795654276026 0 7.4201795654276026 -7.0797085381033753 0 0 0 0 -5.7500145798021549 35.78598601307749 0 35.78598601307749 40.516459897491586 0 0 0 0 -32.623457496930314 -18.895896187994367 0 -18.895896187994367 67.990437916068913 0 0 0 0 5.2751329903899205 22.329765293552555 0 22.329765293552555 41.816607361717615 0 0 0 0 5.3251517236849395 23.108938523953839 0 23.108938523953839 46.162403518159408 0 0 0 0 5.7751403826346177 23.191202633926878 0 23.191202633926878 46.129434560876689 0 0 0 0 6.3957067147666748 24.261815224410384 0 24.261815224410384 45.133218056595069 0 0 0 0 5.3870081742643379 24.057271615514765 0 24.057271615514765 46.313213368674042 0 0 0 0 4.6642538633313961 24.193751324579353 0 24.193751324579353 46.294418851888622 0 0 0 0 4.5809646384805092 23.461078174528666 0 23.461078174528666 48.433606032427633 0 0 0 0 3.1236940705712186 25.204694858228322 0 25.204694858228322 46.558317121623986 0 0 0 0 1.6812053111407295 23.748516452105832 0 23.748516452105832 48.607431485288544 0 0 0 0 1.924985046405709 25.469465183428838 0 25.469465183428838 49.253758480452234 0 0 0 0 1.7984147489642055 24.460549268187606 0 24.460549268187606 50.736232867377112 0 0 0 0 -8.9002578238432761 33.959094459147309 0 33.959094459147309 51.578389532745859 0 0 0 0 2.868104978428164 14.012055750397849 0 14.012055750397849 53.833875317697675 0 0 0 0 2.5181368142684732 22.315120343420858 0 22.315120343420858 51.058393053797772 0 0 0 0 4.5952387715115037 19.480441306659486 0 19.480441306659486 49.111508172834874 0 0 0 0 4.0983994509897457 22.378741385051399 0 22.378741385051399 46.049388697560062 0 0 0 0 12.343632343832724 31.556949342178996 0 31.556949342178996 63.616922463770607 0 0 0 0 24.978747179084166 27.581031724777858 0 27.581031724777858 47.793292568710058 0 0 0 0 -0.38613907221906629 24.611632366877529 0 24.611632366877529 80.859398160500859 0 0 0 0 1.1763352960263767 9.8063950372484285 0 9.8063950372484285 15.598563142092566 0 0 0 0 4.1964817885357206 16.723155966548802 0 16.723155966548802 37.818267424721853 0 0 0 0 2.7848127606193884 12.02641345927259 0 12.02641345927259 37.236188329638026 0 0 0 0 4.8996747583569231 20.57999486022527 0 20.57999486022527 40.025381800442119 0 0 0 0 0.55225039102671136 -0.52015622160103536 0 -0.52015622160103536 15.400080833238562 0 0 0 0 25.153323567197731 18.424720370807336 0 18.424720370807336 70.163569029318751 0 0 0 0 -52.731543875885109 15.832515549453092 0 15.832515549453092 272.63507659079869 0 0 0 0 29.697322696347328 10.337188734505617 0 10.337188734505617 58.956132007180713 0 0 0 0 17.011955525457779 85.958285027823877 0 85.958285027823877 101.21217519169295 0 0 0 0 7.4451732946072298 12.107837851264776 0 12.107837851264776 95.176814976675814 0 0 0 0 2.4126525694446173 43.724891951205791 0 43.724891951205791 21.395621921773909 0 0 0 0 -51.701378858248518 42.978435025963336 0 42.978435025963336 95.617847966277623 0 0 0 0 -68.764287258129798 -3.5944677235729614 0 -3.5944677235729614 43.958174893748946 0 0 0 0 10.617225968795537 46.778350581678751 0 46.778350581678751 85.615535203756735 0 0 0 0 20.552280404105659 45.595015787879674 0 45.595015787879674 0.52481432080821833 0 0 0 0 17.290644844939379 31.532808063380799 0 31.532808063380799 12.929387068485084 0 0 0 0 -7.6046326261266586 53.302980795619078 0 53.302980795619078 -259.64755588023399 0 0 0 0 -5.4253010678576175 4.4082607491218369 0 4.4082607491218369 12.565998739242787 0 0 0 0 -5.3132957504773426 1.8545134894326267 0 1.8545134894326267 7.8176208151512263 0 0 0 0 -2.6264101598846685 9.2043824638013305 0 9.2043824638013305 3.3862121942855055 0 0 0 0 -6.5057612175558734 9.0336999528459998 0 9.0336999528459998 19.964707976860524 0 0 0 0 -6.045599666367707 7.9989679582286044 0 7.9989679582286044 17.865171299723443 0 0 0 0 -3.8857386136244854 5.9298662660900945 0 5.9298662660900945 16.329741266576306 0 0 0 0 -6.0977461542708635 4.3263409160843267 0 4.3263409160843267 16.564228004079766 0 0 0 0 -17.2968720202025 -7.2540053670963971 0 -7.2540053670963971 23.664297971481574 0 0 0 0 -5.6617450711682977 -16.158632083568591 0 -16.158632083568591 21.865218726627063 0 0 0 0 -7.8458454978303962 -4.7978846625119331 0 -4.7978846625119331 -15.00040635518053 0 0 0 0 -7.1507737892561636 -3.970166785413312 0 -3.970166785413312 30.683037852657435 0 0 0 0 -11.657645786327407 -14.345074586795818 0 -14.345074586795818 30.865014941638947 0 0 0 0 -23.307455341159994 -2.0755912547974731 0 -2.0755912547974731 59.864622822642559 0 0 0 0 -0.72327766158266016 4.0181981567368368 0 4.0181981567368368 9.6020217845277216 0 0 0 0 -0.84536697101793834 4.1652445638719655 0 4.1652445638719655 7.3594730324839475 0 0 0 0 -2.9369731535105479 5.082589139929615 0 5.082589139929615 13.090370203261244 0 0 0 0 -2.2698102391007495 5.1509830555038221 0 5.1509830555038221 11.730464801274081 0 0 0 0 -23.03103553460619 10.551650454945047 0 10.551650454945047 25.823998158186441 0 0 0 0 -25.285091489969886 6.9843339505960103 0 6.9843339505960103 20.493734615280118 0 0 0 0 -6.9560023274852938 7.0287657963017409 0 7.0287657963017409 23.233925629305304 0 0 0 0 -5.4278980057679291 -4.1721220315921528 0 -4.1721220315921528 21.154154684947571 0 0 0 0 -5.9311621996835129 5.5372170857917808 0 5.5372170857917808 17.504416927171405 0 0 0 0 -4.0994469944471348 6.0797508376999758 0 6.0797508376999758 14.242491310185869 0 0 0 0 -5.6189061021186841 2.6137970798504995 0 2.6137970798504995 11.915687972291821 0 0 0 0 -16.219254635973925 -10.574735476658134 0 -10.574735476658134 21.278031368216034 0 0 0 0 -2.5485806300753211 3.3929675958388543 0 3.3929675958388543 12.792837786422751 0 0 0 0 -5.3307601889910128 0.73667488633092937 0 0.73667488633092937 13.425984151418689 0 0 0 0 -7.4461862011685298 8.3604148502636235 0 8.3604148502636235 21.089684775724891 0 0 0 0 -2.9414722567442064 5.8268641191793362 0 5.8268641191793362 22.274433520076457 0 0 0 0 -2.7283216573721347 -10.825617573337695 0 -10.825617573337695 47.306250151807035 0 0 0 0 -0.64830184110907041 1.2610499762035161 0 1.2610499762035161 4.1145118403691736 0 0 0 0 0.86196563565772522 11.681170910662331 0 11.681170910662331 9.4006859772161988 0 0 0 0 -4.7047945129543223 18.482264680173103 0 18.482264680173103 18.945262581328279 0 0 0 0 -8.5126327778252744 11.92113416306529 0 11.92113416306529 67.917238446407282 0 0 0 0 -4.5311283713090234 25.643374591651082 0 25.643374591651082 62.402467961706861 0 0 0 0 -5.5691592848270375 9.5309388562964159 0 9.5309388562964159 17.569384117414302 0 0 0 0 -25.540881064287532 -15.640761869941343 0 -15.640761869941343 133.15486460011016 0 0 0 0 34.23522486470938 50.207097825395977 0 50.207097825395977 1.2928570714357193 0 0 0 0 13.505738714802646 38.071698457846651 0 38.071698457846651 34.541447640582192 0 0 0 0 -9.1130723023889004 42.870932691992493 0 42.870932691992493 37.74402598443703 0 0 0 0 -0.64061065363308245 0.20072613688699903 0 0.20072613688699903 0.59382977346122345 0 0 0 0 -19.325735957784104 55.272782854145078 0 55.272782854145078 24.305734037727234 0 0 0 0 -17.933175414685337 139.79773987565366 0 139.79773987565366 -79.998912962153554 0 0 0 0 -67.103166227567272 -4.1511116084875539 0 -4.1511116084875539 57.426737882142334 0 0 0 0 -6.3397126117663447 -4.8912028869444839 0 -4.8912028869444839 37.527697680678102 0 0 0 0 -5.9706247128377754 9.0363652241262571 0 9.0363652241262571 36.165557256354077 0 0 0 0 -85.689259571377988 67.608030414889072 0 67.608030414889072 4.7666486956150038 0 0 0 0 -2.5672121754769499 0.26043738354245249 0 0.26043738354245249 2.7723734074969002 0 0 0 0 0.78520992412293644 0.94715332559346166 0 0.94715332559346166 0.50720537193305404 0 0 0 0 6.0191792274508771 19.88363190552991 0 19.88363190552991 264.31113998487854 0 0 0 0 -119.97634319436838 -42.403557310979522 0 -42.403557310979522 35.084209113445468 0 0 0 0 -102.11947171677821 -62.813040142988029 0 -62.813040142988029 345.45717409673125 0 0 0 0 -76.933615860168175 51.094146322928282 0 51.094146322928282 306.84057181028402 0 0 0 0 3.623818876227574 -27.968939414300621 0 -27.968939414300621 190.82385066017741 0 0 0 0 18.601131398152575 47.42487305666873 0 47.42487305666873 87.890707739654317 0 0 0 0 -96.824237461389203 41.346819568072533 0 41.346819568072533 301.29155806856579 0 0 0 0 48.924434203921919 -98.439935472483739 0 -98.439935472483739 384.84294463349943 0 0 0 0 -29.050263568837636 -5.0301375181352341 0 -5.0301375181352341 382.89142746054131 0 0 0 0 -36.282342194647754 27.842348850155759 0 27.842348850155759 523.12949103691062 0 0 0 0 -36.392669397893769 -87.106090834371571 0 -87.106090834371571 520.11226706438072 0 0 0 0 -59.152678968434884 5.6757359152088611 0 5.6757359152088611 443.04488363982091 0 0 0 0 -58.476687091083477 -29.649070799754554 0 -29.649070799754554 423.7110724857921 0 0 0 0 -37.425521270791251 -29.475308910354215 0 -29.475308910354215 504.72596340721248 0 0 0 0 -105.53111083179692 -34.665708127937251 0 -34.665708127937251 512.06523169799766 0 0 0 0 -38.070787009604828 9.5741293596001924 0 9.5741293596001924 518.21958503598216 0 0 0 0 -63.080913112270537 -14.917069048704434 0 -14.917069048704434 524.81274650665 0 0 0 0 -28.260522763283234 9.516167261341252 0 9.516167261341252 386.77748642421648 0 0 0 0 13.781914497457365 -42.677699207117257 0 -42.677699207117257 430.13338335603476 0 0 0 0 10.739494802186528 -5.2844752807395707 0 -5.2844752807395707 391.38095062145294 0 0 0 0 41.242980514414171 -67.156376381894006 0 -67.156376381894006 497.83565243098565 0 0 0 0 31.005032897552795 -53.034354923579031 0 -53.034354923579031 1186.6399560339851 0 0 0 0 3.8398016175467302 3.284291994591662 0 3.284291994591662 3.5965905118582668 0 0 0 0 -18.494120365854542 45.174986404794254 0 45.174986404794254 40.886086218776654 0 0 0 0 -1.7598514581247002 11.020120850249441 0 11.020120850249441 67.03700394020052 0 0 0 0 60.68120558692317 -107.99876853518799 0 -107.99876853518799 295.5264252388879 0 0 0 0 -15.581721180837576 41.561845179860939 0 41.561845179860939 0.65700504605774768 0 0 0 0 9.3495269113387529 10.26000126252255 0 10.26000126252255 9.5200764160049829 0 0 0 0 -0.8060649478366031 -8.0121111548287445 0 -8.0121111548287445 393.29073871768196 0 0 0 0 1.2929139386969211 4.0528525013050443 0 4.0528525013050443 1.5784296844786354 0 0 0 0 16.655792741661571 0.083042557722365018 0 0.083042557722365018 20.220027966104681 0 0 0 0 6.1609004731435562 26.078976894837979 0 26.078976894837979 163.0174979443691 0 0 0 0 -32.761707646091509 -47.132429623514327 0 -47.132429623514327 353.34219825022592 0 0 0 0 140.78843837626846 25.068425515164563 0 25.068425515164563 21.86466089564783 0 0 0 0 261.71869415585934 109.273117247747 0 109.273117247747 -6.6969841572281439 0 0 0 0 2.8472166248250472 18.085179421162344 0 18.085179421162344 77.585435720348727 0 0 0 0 161.25797109072892 -71.592373801149733 0 -71.592373801149733 100.4302842567995 0 0 0 0 139.25858794477244 26.722356482883697 0 26.722356482883697 20.469813221527147 0 0 0 0 479.78892012443339 35.045760194356262 0 35.045760194356262 28.364406191980379 0 0 0 0 128.62989494738395 -190.30260102411012 0 -190.30260102411012 12.161665587998868 0 0 0 0 1212.748668720521 819.10198224854321 0 819.10198224854321 112.65205244998378 0 0 0 0 1999.2696899063021 -806.10307884571921 0 -806.10307884571921 -3759.6399607674102 0 0 0 0 105.07904407812521 -114.85663382795519 0 -114.85663382795519 99.195506078904145 0 0 0 0 1.1563241442392354 1.5153586323129176 0 1.5153586323129176 -1.6226904206606036 0 0 0 0 -37.964748314326243 140.45070923472304 0 140.45070923472304 254.09861178456049 0 0 0 0 373.43897382709747 142.08050752765485 0 142.08050752765485 190.72919697040243 0 0 0 0 303.37695808116678 44.729596440160094 0 44.729596440160094 55.523594363919983 0 0 0 0 0.89986715703841291 3.4490944183641048 0 3.4490944183641048 -6.2655387042075859 0 0 0 0 288.67503932718773 79.990275778589421 0 79.990275778589421 5.4707962280172069 0 0 0 0 44.166486425033327 30.965331067080115 0 30.965331067080115 -16.693911373309675 0 0 0 0 90.766151078467374 55.686116447446693 0 55.686116447446693 -20.304342330763575 0 0 0 0 44.295138041568862 113.6192828301173 0 113.6192828301173 77.743413625910762 0 0 0 0 48.82991924678754 65.945761719969596 0 65.945761719969596 321.70348901460238 0 0 0 0 33.732449767150115 -103.43735331023333 0 -103.43735331023333 365.5742909724795 0 0 0 0 105.26346850998561 -13.034776316962962 0 -13.034776316962962 500.4215858828029 0 0 0 0 141.49212829763746 -127.2808754441503 0 -127.2808754441503 533.27290567975524 0 0 0 0 249.24770170854481 -241.4647883537973 0 -241.4647883537973 507.91351068580843 0 0 0 0 669.08632271973329 -120.10305381782746 0 -120.10305381782746 226.34574867604169 0 0 0 0 172.88335574392113 -347.31706996647335 0 -347.31706996647335 377.82398862804257 0 0 0 0 344.89354695932434 -563.14845844967931 0 -563.14845844967931 -101.80229200611939 0 0 0 0 198.06575085777195 -453.66463366715288 0 -453.66463366715288 654.23685755152837 0 0 0 0 -122.74952993021543 -379.1600907956672 0 -379.1600907956672 1389.5681571421737 0 0 0 0 -64.474040254010106 -350.06731612514704 0 -350.06731612514704 615.49070013036908 0 0 0 0 23.114975162846349 -52.998359087523568 0 -52.998359087523568 436.37228556467198 0 0 0 0 -21.097094612956425 -76.164402923561283 0 -76.164402923561283 986.41160038168164 0 0 0 0 388.20644983295551 -814.54345656087389 0 -814.54345656087389 1959.8667289974182 0 0 0 0 309.31671933328016 168.58889053337771 0 168.58889053337771 54.700677587708924 0 0 0 0 2408.3629279334136 915.25303002494184 0 915.25303002494184 3441.2393320733972 0 0 0 0 395.35969622415359 2470.4461846056292 0 2470.4461846056292 6829.7827366780184 0 0 0 0 5409.0101550150903 5352.5941664765269 0 5352.5941664765269 -503.86203650122479 0 0 0 0 123.7417155673611 871.86525543363678 0 871.86525543363678 981.87166243225511 0 0 0 0 -76.351167851524224 -602.18847380848456 0 -602.18847380848456 2224.8111785706351 0 0 0 0 11.783198987961287 18.771850116315775 0 18.771850116315775 30.5146086425287 0 0 0 0 400.96946611442218 -870.74568804633964 0 -870.74568804633964 528.67076011871177 0 0 0 0 217.14204841590254 -128.34117670307387 0 -128.34117670307387 557.67415284964954 0 0 0 0 388.97182680672267 -870.3862019917251 0 -870.3862019917251 996.23297323672887 0 0 0 0 2526.6794225218564 1558.1771732989728 0 1558.1771732989728 -1643.4052776226308 0 0 0 0 4.3579068279481561 13.43607170657539 0 13.43607170657539 39.215409943714207 0 0 0 0 249.15700585729428 -202.54787574712827 0 -202.54787574712827 324.29403067813837 0 0 0 0 64.364386342735997 257.42803268525677 0 257.42803268525677 1561.9076573305065 0 0 0 0 170.71924859766114 188.9874633222571 0 188.9874633222571 566.78358643690808 0 0 0 0 81.830545846165478 41.473163209244376 0 41.473163209244376 389.26007631461835 0 0 0 0 47.907143832635484 -47.363382068811916 0 -47.363382068811916 726.05425382331305 0 0 0 0 284.30155094005931 -153.36526064888312 0 -153.36526064888312 -8.2407651393441483 0 0 0 0 278.46226084228692 -143.79022281428843 0 -143.79022281428843 52.149424332921626 0 0 0 0 188.37249014807821 -26.239295189290715 0 -26.239295189290715 -96.442153227813833 0 0 0 0 210.66382341785425 -186.68773539482572 0 -186.68773539482572 13.818435699969996 0 0 0 0 303.17131065891954 261.49644622196138 0 261.49644622196138 133.77414026376209 0 0 0 0 283.84009180911198 230.10854268078037 0 230.10854268078037 84.03038791671861 0 0 0 0 434.48559964592096 83.945058558321762 0 83.945058558321762 -8.5505317227798514 0 0 0 0 505.68956034397706 400.08696765845525 0 400.08696765845525 61.351169620276778 0 0 0 0 343.36192299609456 551.16756826415531 0 551.16756826415531 490.98304868406558 0 0 0 0 222.33896286756499 475.24336613297783 0 475.24336613297783 444.41793940775096 0 0 0 0 45.708696480671279 228.34704522200991 0 228.34704522200991 897.73444464000931 0 0 0 0 905.33393296006761 1155.1353827513813 0 1155.1353827513813 1180.8315770397603 0 0 0 0 351.74770613886949 522.40318650687732 0 522.40318650687732 457.98229860907304 0 0 0 0 763.78146954600379 641.50765158923605 0 641.50765158923605 287.15291981228802 0 0 0 0 -1727.6245041794009 827.32288895661532 0 827.32288895661532 838.15977257210761 0 0 0 0 726.18228800898248 -0.36571605342169278 0 -0.36571605342169278 -149.92462271607656 0 0 0 0 2035.396929927434 547.19210317450415 0 547.19210317450415 -58.586244062404148 0 0 0 0 -796.71679537924501 -1918.2794840387796 0 -1918.2794840387796 3257.7958601503851 0 0 0 0 277.54501426396018 -231.53563648463751 0 -231.53563648463751 -464.58010083102272 0 0 0 0 379.75650620683155 150.00395025486068 0 150.00395025486068 -97.261931848915992 0 0 0 0 163.77848088381143 -142.24779686932015 0 -142.24779686932015 -126.02441495838411 0 0 0 0 99.862406046326214 -49.917194771544018 0 -49.917194771544018 -22.648525642260211 0 0 0 0 -288.80652017672855 362.7997081004869 0 362.7997081004869 -123.41846661710224 0 0 0 0 -692.83280957537136 172.9568776349206 0 172.9568776349206 108.81076551307342 0 0 0 0 15.388541057463025 38.922878035716195 0 38.922878035716195 89.540429624207434 0 0 0 0 -427.16805321145512 -363.07351709065551 0 -363.07351709065551 -116.39081345453451 0 0 0 0 446.33402012371789 212.74638874197262 0 212.74638874197262 -449.00511471272694 0 0 0 0 -324.73810744733828 -246.18889065383428 0 -246.18889065383428 1264.4688623937691 0 0 0 0 -542.11931388955145 431.32913759453186 0 431.32913759453186 308.4795339361508 0 0 0 0 15.234987204305234 36.863126176765633 0 36.863126176765633 77.565975565538253 0 0 0 0 107.71010427864076 -304.30746465025732 0 -304.30746465025732 969.761895102376 0 0 0 0 5.7955096769210641 4.2506261944693975 0 4.2506261944693975 4.3382411545117066 0 0 0 0 289.64432288919943 123.47274288213339 0 123.47274288213339 896.08584411906486 0 0 0 0 214.47744067054646 -206.78737816463399 0 -206.78737816463399 -4.9681368541787378 0 0 0 0 -5.5683730376968015 -16.144201269893529 0 -16.144201269893529 -102.72671919452478 0 0 0 0 -60.947008217823168 71.139376917199115 0 71.139376917199115 16.385133093732293 0 0 0 0 -86.323314546125403 161.10902119337425 0 161.10902119337425 38.314629570224497 0 0 0 0 -36.970048816693634 76.064745098308777 0 76.064745098308777 -25.506907397546456 0 0 0 0 -16.15887106126138 97.06524548239031 0 97.06524548239031 -7.3409644637504243 0 0 0 0 -75.144171836994246 50.295198370306025 0 50.295198370306025 -4.9036389437751495 0 0 0 0 18.479725175989266 41.187902753629494 0 41.187902753629494 83.022848248007904 0 0 0 0 -32.744326510572137 55.818638117787486 0 55.818638117787486 16.742964332250267 0 0 0 0 -99.570744531349192 118.35979948652675 0 118.35979948652675 50.697950578487507 0 0 0 0 -2.61334688525654 -1.603438107027074 0 -1.603438107027074 12.821352158523723 0 0 0 0 -12.078456760743393 17.753418071463784 0 17.753418071463784 76.090493179683108 0 0 0 0 -71.701329636714945 19.0683226878391 0 19.0683226878391 99.751304039673414 0 0 0 0 -116.57516505249828 33.469755205266665 0 33.469755205266665 143.99659263173817 0 0 0 0 -2.970812019026198 9.3273178338713478 0 9.3273178338713478 92.445900075748796 0 0 0 0 -195.27047401446907 -115.84501437257131 0 -115.84501437257131 302.01572510128608 0 0 0 0 68.208581272596348 263.68634745601594 0 263.68634745601594 -36.513818234554492 0 0 0 0 -206.13285080767218 -181.54516617230183 0 -181.54516617230183 93.25101009804348 0 0 0 0 96.230815538167008 -31.665660114533239 0 -31.665660114533239 17.38329722006165 0 0 0 0 65.72675797840202 28.673496832467208 0 28.673496832467208 119.93888309276372 0 0 0 0 18.088854325787906 -7.829331808432471 0 -7.829331808432471 91.996121753109037 0 0 0 0 4.8802237034542486 -38.186428213040926 0 -38.186428213040926 185.98700688482495 0 0 0 0 13.86467620923213 28.620474395815108 0 28.620474395815108 103.52083780107205 0 0 0 0 -7.4223587794876948 -2.260977016252582 0 -2.260977016252582 108.68257458357402 0 0 0 0 38.134006894837512 3.0802943965172744 0 3.0802943965172744 123.62399878383439 0 0 0 0 78.341619987571903 35.517982222616411 0 35.517982222616411 105.75911817250017 0 0 0 0 121.49495101668799 109.86464195207009 0 109.86464195207009 158.33817469948553 0 0 0 0 66.752058808506263 48.315094081412099 0 48.315094081412099 117.54060103747179 0 0 0 0 212.06234533898714 124.68685313743481 0 124.68685313743481 123.07999247824318 0 0 0 0 138.66874587792154 -1.5349692932140897 0 -1.5349692932140897 38.719712845238973 0 0 0 0 160.90100514520782 158.12516625330318 0 158.12516625330318 138.25012904335745 0 0 0 0 129.4800386651068 -11.549641271718428 0 -11.549641271718428 213.24506995321826 0 0 0 0 106.72093557957714 4.3107327589386841 0 4.3107327589386841 331.77668368878221 0 0 0 0 107.69641783064253 -31.060897135350388 0 -31.060897135350388 210.45291970082235 0 0 0 0 143.74500964925483 -36.48143475330653 0 -36.48143475330653 224.01272248067653 0 0 0 0 145.06583508678204 -39.198823535352858 0 -39.198823535352858 143.42257975314715 0 0 0 0 158.11895917422817 14.937548649064411 0 14.937548649064411 207.21304414448605 0 0 0 0 130.59293767700547 -6.9425523940299172 0 -6.9425523940299172 229.72641489166017 0 0 0 0 195.2554279000716 -1.4888255416180982 0 -1.4888255416180982 90.277312924161379 0 0 0 0 245.33723973363581 172.44697558729672 0 172.44697558729672 350.56431774895464 0 0 0 0 -15.911732840528202 60.411189960253978 0 60.411189960253978 629.5446017110753 0 0 0 0 -10.890675092391291 11.602100332278269 0 11.602100332278269 478.08691243935027 0 0 0 0 -18.099363637424176 -2.4649552361370297 0 -2.4649552361370297 454.12130783868633 0 0 0 0 -49.702374162070555 -9.9181269359978614 0 -9.9181269359978614 488.24949330676463 0 0 0 0 -42.563807876658188 -45.975215496814599 0 -45.975215496814599 536.20497052324936 0 0 0 0 34.902586191477894 -120.45454852153125 0 -120.45454852153125 479.96135546579717 0 0 0 0 15.558946268408363 1.7027617467883829 0 1.7027617467883829 665.67835477301196 0 0 0 0 140.09236330251861 -261.75131617557054 0 -261.75131617557054 553.13951170860673 0 0 0 0 605.11401551148447 327.32995559644041 0 327.32995559644041 -75.163747886079364 0 0 0 0 65.147690267695907 -127.37371307176727 0 -127.37371307176727 365.85235406191623 0 0 0 0 16.070315359044717 13.271644215313273 0 13.271644215313273 11.392412709417371 0 0 0 0 41.761344852100592 -112.64183506483459 0 -112.64183506483459 369.08378587315747 0 0 0 0 -6.4489802489621297 17.984812742431529 0 17.984812742431529 91.220016464489163 0 0 0 0 24.780616651144555 -53.147046683516237 0 -53.147046683516237 434.56645702225433 0 0 0 0 22.814148514552244 -64.925751522866449 0 -64.925751522866449 367.0112936106234 0 0 0 0 37.298571690249446 -98.261671654552629 0 -98.261671654552629 361.41869201582449 0 0 0 0 65.63165783934619 -133.63129314540129 0 -133.63129314540129 270.19995645711606 0 0 0 0 94.960632759108194 -132.72359080279057 0 -132.72359080279057 168.56249188429501 0 0 0 0 81.057834807354084 -75.637446413558791 0 -75.637446413558791 219.9608176426409 0 0 0 0 79.261038351431125 -64.482424996785994 0 -64.482424996785994 267.01890253448801 0 0 0 0 38.737750688547749 17.664287875748414 0 17.664287875748414 140.42903944990394 0 0 0 0 126.05345778929222 -62.352195578172541 0 -62.352195578172541 95.585882822899293 0 0 0 0 -155.12018484590135 75.653225497680069 0 75.653225497680069 25.266342993774742 0 0 0 0 2.3315818042210594 -101.17392334038595 0 -101.17392334038595 3.6489598355110502 0 0 0 0 20.700297586329444 20.363700401410448 0 20.363700401410448 19.963555219399836 0 0 0 0 -393.64052449948576 -331.45275969056274 0 -331.45275969056274 54.212122751996503 0 0 0 0 236.21450696244938 75.842752280922468 0 75.842752280922468 -21.140634724491974 0 0 0 0 -20.08585547284747 95.222380019778939 0 95.222380019778939 101.64766408651485 0 0 0 0 43.816799857453589 163.01515566207308 0 163.01515566207308 146.55136532435426 0 0 0 0 161.12287638076305 189.85285918645968 0 189.85285918645968 57.036649400382885 0 0 0 0 109.89252168736857 122.23927491479844 0 122.23927491479844 11.386815967016446 0 0 0 0 27.691352938112686 97.293637682178087 0 97.293637682178087 23.495608162997996 0 0 0 0 70.920035880568321 145.34942905988282 0 145.34942905988282 32.431010440595855 0 0 0 0 -14.910186629141208 73.073798535233436 0 73.073798535233436 32.715097582826274 0 0 0 0 133.1053111998317 17.328442462248859 0 17.328442462248859 8.3828197679686127 0 0 0 0 1.5954271264770039 2.5503077029234191 0 2.5503077029234191 4.889120030046044 0 0 0 0 -41.462563180140933 38.415959374287922 0 38.415959374287922 37.89128415138839 0 0 0 0 -13.047662439830674 53.064238045568345 0 53.064238045568345 24.863547200286121 0 0 0 0 -18.185032702331227 29.867630234752141 0 29.867630234752141 30.463778548662958 0 0 0 0 12.693435111314566 20.641583056653847 0 20.641583056653847 32.753773929864863 0 0 0 0 -1.9180730634170846 2.1064606625540776 0 2.1064606625540776 7.0626725341569312 0 0 0 0 25.882664763134471 17.731290152868496 0 17.731290152868496 23.105657061270904 0 0 0 0 24.153279488388762 10.566456241776905 0 10.566456241776905 65.727661468597944 0 0 0 0 12.347168027568841 45.724332524277997 0 45.724332524277997 18.260710679482145 0 0 0 0 7.5829825272302225 3.1590242667343453 0 3.1590242667343453 -3.912338664795584 0 0 0 0 119.4016283578253 -93.251052772438925 0 -93.251052772438925 187.23775360082072 0 0 0 0 166.99452674893519 -105.78756699621954 0 -105.78756699621954 132.23385173638962 0 0 0 0 132.38417195528473 -58.189250744642777 0 -58.189250744642777 191.03638823354413 0 0 0 0 152.61348334217234 -76.647746579466002 0 -76.647746579466002 81.160374786573811 0 0 0 0 174.18652520447131 -36.958034820963803 0 -36.958034820963803 131.25714430776497 0 0 0 0 201.37264602829146 -90.405909316184989 0 -90.405909316184989 85.616712239643675 0 0 0 0 170.34889692200318 -82.88003188805169 0 -82.88003188805169 94.756349116039928 0 0 0 0 -66.88170794621783 -39.445933124072326 0 -39.445933124072326 60.927661335503217 0 0 0 0 232.75769294847669 -161.1524676475492 0 -161.1524676475492 122.80078047341749 0 0 0 0 189.88328773388523 2.3105999262215846 0 2.3105999262215846 35.289897325303173 0 0 0 0 268.28087341774301 -41.499285153485289 0 -41.499285153485289 20.095766036269197 0 0 0 0 289.77689265760227 -113.1300078183267 0 -113.1300078183267 48.447010571780993 0 0 0 0 75.665107501748025 -151.92470977984703 0 -151.92470977984703 293.54419569546008 0 0 0 0 49.722312809832601 -124.53061751722635 0 -124.53061751722635 -54.019249248503911 0 0 0 0 -197.44051351627499 20.151506805410691 0 20.151506805410691 159.63082329557437 0 0 0 0 -338.64013270316468 -93.875438964384557 0 -93.875438964384557 166.20228489016336 0 0 0 0 -3.6880640277625418 -17.312080847048165 0 -17.312080847048165 150.9143495737182 0 0 0 0 16.564024097182141 -153.28109953754756 0 -153.28109953754756 12.149432130296191 0 0 0 0 16.210353486497297 -36.943528850340954 0 -36.943528850340954 111.06408215941701 0 0 0 0 37.743906688310517 -41.355255534092066 0 -41.355255534092066 200.48340372884559 0 0 0 0 13.92727049810145 18.012680383806583 0 18.012680383806583 52.805578831829735 0 0 0 0 -2.6066225649894199 -23.043252038528848 0 -23.043252038528848 170.81761492566326 0 0 0 0 -406.13058329534306 -329.81032040069385 0 -329.81032040069385 224.26822580361477 0 0 0 0 -125.3443637337906 55.955159655099123 0 55.955159655099123 80.741882178738706 0 0 0 0 546.82890965609863 296.54837221002163 0 296.54837221002163 387.18181519559948 0 0 0 0 210.29343809465206 -34.636909057295043 0 -34.636909057295043 157.23456857048586 0 0 0 0 -610.69384829673993 -200.18654822261124 0 -200.18654822261124 294.59558774022071 0 0 0 0 -297.04927856616973 180.56299470454906 0 180.56299470454906 386.30945003238776 0 0 0 0 -555.74278734304085 -58.113144089847538 0 -58.113144089847538 278.4161587382805 0 0 0 0 32.950974334731654 193.43577007693966 0 193.43577007693966 166.50798145591762 0 0 0 0 -156.96866633358428 120.70298224667295 0 120.70298224667295 176.96245327280667 0 0 0 0 -139.65839458056951 48.074531406246933 0 48.074531406246933 141.5391423449787 0 0 0 0 -62.734954609635906 95.378705889464982 0 95.378705889464982 134.81429236611484 0 0 0 0 -18.041289122460967 95.192916812609838 0 95.192916812609838 133.59772430818157 0 0 0 0 5.5470988471233795 104.13850720319897 0 104.13850720319897 123.89866844012477 0 0 0 0 -17.632140751075667 94.02127848900659 0 94.02127848900659 127.43188592412116 0 0 0 0 108.71057957931134 64.152659908892019 0 64.152659908892019 67.882503704807277 0 0 0 0 18.674927312162254 30.490104967087973 0 30.490104967087973 90.845007127103599 0 0 0 0 0.59201297172637268 3.0843115378161734 0 3.0843115378161734 45.109588654897976 0 0 0 0 213.68751844448798 111.56228986368842 0 111.56228986368842 75.666950450417062 0 0 0 0 58.159888793071332 135.6553411123632 0 135.6553411123632 123.89194353891435 0 0 0 0 -2.3987073756497921 34.525178002921166 0 34.525178002921166 215.8287848265802 0 0 0 0 32.277169127090929 31.466793040886841 0 31.466793040886841 122.53161732034641 0 0 0 0 10.923006311564677 67.901051978649775 0 67.901051978649775 78.91682497372949 0 0 0 0 46.904306561236808 -72.286682941594336 0 -72.286682941594336 104.88129056489879 0 0 0 0 -21.209979529862721 -79.125599085340582 0 -79.125599085340582 222.77337422746859 0 0 0 0 38.519335877083904 -127.09281906909018 0 -127.09281906909018 316.50110724325714 0 0 0 0 23.273594228897309 -71.994144442600373 0 -71.994144442600373 207.12097560421216 0 0 0 0 -1.5968672976523521 -158.44588725620451 0 -158.44588725620451 292.6248493853418 0 0 0 0 120.26370370834047 -347.83612349326177 0 -347.83612349326177 480.75471707146789 0 0 0 0 123.26459080538947 -183.34422174806582 0 -183.34422174806582 186.4086031050465 0 0 0 0 482.77116171634225 -684.6292049963613 0 -684.6292049963613 810.06667419739097 0 0 0 0 -121.53232449918818 -219.752489884949 0 -219.752489884949 763.3944610958024 0 0 0 0 55.550960692027729 104.73081749631274 0 104.73081749631274 132.36065246446469 0 0 0 0 89.60930773996165 140.40809856543365 0 140.40809856543365 156.21118454381394 0 0 0 0 0.88937273448850629 1.4464186401919417 0 1.4464186401919417 16.064197209007901 0 0 0 0 604.35329887853368 441.65605288355073 0 441.65605288355073 311.59567499864806 0 0 0 0 -148.11149213858107 -131.77599782567268 0 -131.77599782567268 1232.4583046135594 0 0 0 0 656.29576545353621 -597.5594660711713 0 -597.5594660711713 354.0719192401848 0 0 0 0 195.81631353384819 -25.05672934616814 0 -25.05672934616814 94.385256501526726 0 0 0 0 1023.0419244479672 19.430081845676341 0 19.430081845676341 93.98871846811744 0 0 0 0 84.238643578562005 -343.46941623335078 0 -343.46941623335078 247.01388394868263 0 0 0 0 -153.30815571675475 -153.93737622987646 0 -153.93737622987646 823.14826752949011 0 0 0 0 -230.85509657082548 17.910232105825344 0 17.910232105825344 535.57825040719945 0 0 0 0 -80.341635892620616 46.066899435190862 0 46.066899435190862 1357.2690823798566 0 0 0 0 348.53162243451879 446.77452933993118 0 446.77452933993118 879.41849494973212 0 0 0 0 290.88535305943856 250.28785792692543 0 250.28785792692543 217.34428133354595 0 0 0 0 47.387112293672544 127.36576171035631 0 127.36576171035631 161.29686645753281 0 0 0 0 -0.1420285837648545 -0.43280172651081728 0 -0.43280172651081728 -1.4865552688665957 0 0 0 0 -231.22874654594216 136.17384538006809 0 136.17384538006809 214.37820895769073 0 0 0 0 -30.527621986615486 -9.6260841133444046 0 -9.6260841133444046 20.884177302439639 0 0 0 0 0.4542346657525238 -0.42085352452069635 0 -0.42085352452069635 -5.5195789990926301 0 0 0 0 121.29681691795304 124.60371121413482 0 124.60371121413482 -115.03056378569636 0 0 0 0 66.311642273878533 -11.695532062210987 0 -11.695532062210987 -4.7760824630386196 0 0 0 0 129.72101305870819 208.83477990088795 0 208.83477990088795 -41.365915564001625 0 0 0 0 145.90517654475934 159.37065703592998 0 159.37065703592998 -258.5040753236899 0 0 0 0 275.1092765285166 -29.631866249497762 0 -29.631866249497762 -61.044293425606156 0 0 0 0 -143.3942570304207 33.930373634762873 0 33.930373634762873 -70.513420394738205 0 0 0 0 -81.836938654136702 -123.99358115480118 0 -123.99358115480118 -14.085380394193635 0 0 0 0 38.313570379419616 -0.43690137319754285 0 -0.43690137319754285 -88.382588246022351 0 0 0 0 4.7392534139544349 -7.0442421873849419 0 -7.0442421873849419 -6.5037430331274209 0 0 0 0 37.368843674395976 -168.58573905718367 0 -168.58573905718367 -86.356847580629619 0 0 0 0 1.0163077821366038 0.16837276825530267 0 0.16837276825530267 -1.4818904438738585 0 0 0 0 214.59914113778723 56.424226385370275 0 56.424226385370275 15.847661372525181 0 0 0 0 36.831226996896135 -220.49425512525113 0 -220.49425512525113 10.673082349097967 0 0 0 0 43.069099607819226 -314.14703463327987 0 -314.14703463327987 -20.318858082533552 0 0 0 0 455.49657842098441 -207.1217701589012 0 -207.1217701589012 -107.82899105579781 0 0 0 0 150.77791375737343 -163.27487539628055 0 -163.27487539628055 -107.26641447673268 0 0 0 0 247.01926739827013 -87.150837820845481 0 -87.150837820845481 -259.87172095778078 0 0 0 0 83.265791210315001 -41.407159348542336 0 -41.407159348542336 -94.468395631731255 0 0 0 0 63.676103027572481 10.719777513398185 0 10.719777513398185 -185.1881299354136 0 0 0 0 49.269815596088165 -116.64552241655838 0 -116.64552241655838 -99.258687997546076 0 0 0 0 143.08028738338999 -155.16632435716201 0 -155.16632435716201 -115.38005683495066 0 0 0 0 125.83735660004413 -84.081760250308434 0 -84.081760250308434 191.43472869034531 0 0 0 0 47.179987442688116 -54.11415315029808 0 -54.11415315029808 283.04432599643769 0 0 0 0 -221.26090404283127 -260.26535886888541 0 -260.26535886888541 14.079337299383042 0 0 0 0 -1.7851314417117088 -33.657668745372284 0 -33.657668745372284 180.42005061732891 0 0 0 0 -153.14448478638633 18.255672592038536 0 18.255672592038536 225.54624717202023 0 0 0 0 124.49910517799799 55.761390555802791 0 55.761390555802791 75.799935000577534 0 0 0 0 257.87467767166982 209.34562922181431 0 209.34562922181431 131.94791469747179 0 0 0 0 3.5793863167798463 123.54016476327342 0 123.54016476327342 260.53269234990148 0 0 0 0 1.3765397434915609 -0.27885608765163283 0 -0.27885608765163283 -0.26550473296833665 0 0 0 0 295.7534178222428 -77.612568614658812 0 -77.612568614658812 -428.85012522723628 0 0 0 0 43.182311662925542 207.77367530288939 0 207.77367530288939 385.73495467146495 0 0 0 0 117.80149599998504 267.29108103869294 0 267.29108103869294 304.24365103465243 0 0 0 0 246.71471165254292 110.62129278193788 0 110.62129278193788 -113.36235332251817 0 0 0 0 18.453470702994082 -268.67889087388903 0 -268.67889087388903 -80.75546842042786 0 0 0 0 -200.4715793029701 -11.545672957676288 0 -11.545672957676288 86.632608960865582 0 0 0 0 -39.919947560382724 86.801515088143788 0 86.801515088143788 -292.3006773598172 0 0 0 0 -0.14123673213053167 1.7470783732696304 0 1.7470783732696304 1.2467306107386573 0 0 0 0 -8.8630158226559388 7.0649786991925794 0 7.0649786991925794 14.33822047366084 0 0 0 0 -5.5707574829841064 272.75935700404807 0 272.75935700404807 28.035379919678235 0 0 0 0 2.3292605397982755 1.5204412713262414 0 1.5204412713262414 -0.33324489584658323 0 0 0 0 18.686704705467903 20.592385542680859 0 20.592385542680859 -21.197388913285977 0 0 0 0 166.60629998666738 216.03950325491314 0 216.03950325491314 219.75862350170996 0 0 0 0 -27.553933112609855 27.484348302237777 0 27.484348302237777 232.55438038095235 0 0 0 0 75.422032586981572 -20.996814912512491 0 -20.996814912512491 -5.2395014449793962 0 0 0 0 1.6814727504405056 -27.575627581807566 0 -27.575627581807566 87.45414348153281 0 0 0 0 78.323180603971906 38.941876000215416 0 38.941876000215416 61.418497120213942 0 0 0 0 104.72707512580155 172.95820402561003 0 172.95820402561003 308.76561412103547 0 0 0 0 36.990757056704297 200.21568135344751 0 200.21568135344751 302.05312699516071 0 0 0 0 66.899189583524844 9.502956615324365 0 9.502956615324365 -13.88837354809948 0 0 0 0 1.5814763542124242 0.21086082106411652 0 0.21086082106411652 -0.36475722417500833 0 0 0 0 45.457151496818142 91.741211862812634 0 91.741211862812634 231.31809233053718 0 0 0 0 123.96461648672141 251.66730548599344 0 251.66730548599344 190.80669900121575 0 0 0 0 -27.930074982834753 189.95723173458828 0 189.95723173458828 183.7883007884127 0 0 0 0 8.9976376133988083 117.12770636718869 0 117.12770636718869 97.370975626770814 0 0 0 0 374.14221686217456 103.55198459650092 0 103.55198459650092 -54.607367417553178 0 0 0 0 241.3884734065592 512.81710363367938 0 512.81710363367938 564.43869519713917 0 0 0 0 73.101742682220163 -289.34374892765391 0 -289.34374892765391 653.51557432920163 0 0 0 0 -550.43494075992317 -132.42205519163144 0 -132.42205519163144 521.86911665523803 0 0 0 0 -1.5900562013944413 -27.058032482002289 0 -27.058032482002289 183.77910312683244 0 0 0 0 -190.51148392794136 73.05045782780212 0 73.05045782780212 295.75757059210446 0 0 0 0 -526.2449482776176 -502.1617119848861 0 -502.1617119848861 260.53024984522199 0 0 0 0 -58.997393416398836 175.30950565741841 0 175.30950565741841 176.87562112910746 0 0 0 0 -0.29728134235572412 -28.009834117936435 0 -28.009834117936435 187.82449377660842 0 0 0 0 403.1669078523546 378.51095784724748 0 378.51095784724748 837.39065256211325 0 0 0 0 185.74753474471709 449.51224347113748 0 449.51224347113748 1066.5142146243888 0 0 0 0 149.84672371424142 290.69776009546331 0 290.69776009546331 896.87340342607058 0 0 0 0 424.75966000585015 373.87749605462773 0 373.87749605462773 876.43265873790369 0 0 0 0 423.25650858131166 593.4670110409279 0 593.4670110409279 1101.3871852202574 0 0 0 0 75.088914655273342 464.04812172015954 0 464.04812172015954 1475.4533940602851 0 0 0 0 3.4954401040214567 348.78631295519153 0 348.78631295519153 1290.2931761817745 0 0 0 0 237.6863642982137 319.89336475031928 0 319.89336475031928 1103.7515613914293 0 0 0 0 238.83546785535833 343.62688283526222 0 343.62688283526222 988.89687732249877 0 0 0 0 -0.59227457887981894 125.92671443698055 0 125.92671443698055 319.33941412184504 0 0 0 0 123.31432343173103 461.3511692066968 0 461.3511692066968 1093.8862109050287 0 0 0 0 262.82971510562237 206.0124597750073 0 206.0124597750073 111.79948002251331 0 0 0 0 219.13388789506649 129.78953068772535 0 129.78953068772535 56.50607373227831 0 0 0 0 111.97980900895075 86.196175768913236 0 86.196175768913236 255.63280379094067 0 0 0 0 158.77899966270013 53.446822052777861 0 53.446822052777861 -34.033402665707399 0 0 0 0 78.365202503141461 -39.300892060491606 0 -39.300892060491606 30.16082252063643 0 0 0 0 120.88907938464479 231.42185522483487 0 231.42185522483487 845.18818090834202 0 0 0 0 134.68424868373711 -16.619842089596204 0 -16.619842089596204 -52.286333829491923 0 0 0 0 2.2452624642310646 1.3643383087909342 0 1.3643383087909342 2.3011643634920915 0 0 0 0 -168.81059983276066 -229.97411010409996 0 -229.97411010409996 399.11194338707719 0 0 0 0 36.8969228400085 -255.47359137552849 0 -255.47359137552849 132.71352483281225 0 0 0 0 3.7355627852787165 -120.50540974830801 0 -120.50540974830801 291.17632301992853 0 0 0 0 -11.076936998132169 14.120550951993209 0 14.120550951993209 668.70022343160235 0 0 0 0 -145.62263555403001 -1.0584899907116778 0 -1.0584899907116778 692.6800501953694 0 0 0 0 151.28596715928248 17.208904386629001 0 17.208904386629001 -11.933604327699868 0 0 0 0 1.4197752443444642 -2.8559241749317152 0 -2.8559241749317152 7.0040586618852103 0 0 0 0 7.6386376288553999 -9.6731784612755973 0 -9.6731784612755973 10.144844297549838 0 0 0 0 11.141488860881509 -32.462483602226712 0 -32.462483602226712 6.8949621570645832 0 0 0 0 41.357354189604393 -13.385770187844173 0 -13.385770187844173 -11.587873364725965 0 0 0 0 2.7687447238787324 -2.2011629706622955 0 -2.2011629706622955 3.1265302276898979 0 0 0 0 -7.9920710912801951 -33.969336937341723 0 -33.969336937341723 21.279208506806754 0 0 0 0 22.476150666871717 269.40573116741143 0 269.40573116741143 104.7022661955707 0 0 0 0 -128.54923923106054 152.31369552173419 0 152.31369552173419 468.84356430798653 0 0 0 0 -100.4117026553717 131.90251114885905 0 131.90251114885905 578.56453188275918 0 0 0 0 -105.82366765728739 229.39815662025649 0 229.39815662025649 439.73850576140103 0 0 0 0 -100.11341237777542 304.89611236061683 0 304.89611236061683 276.14575481845532 0 0 0 0 11.978690140856855 194.74037228152156 0 194.74037228152156 446.79991514120775 0 0 0 0 23.046295151895578 161.2071087865952 0 161.2071087865952 466.73583551874617 0 0 0 0 51.201668585629022 102.99795223778347 0 102.99795223778347 222.85631179320626 0 0 0 0 -33.113371194566298 148.20550073823688 0 148.20550073823688 661.32791360595729 0 0 0 0 9.6925664832922962 296.53032918265671 0 296.53032918265671 724.25518538596953 0 0 0 0 -26.526392463183669 182.09383417193021 0 182.09383417193021 663.98580781387864 0 0 0 0 10.648528782154358 196.77141284897516 0 196.77141284897516 592.95173993951175 0 0 0 0 179.9048383677648 304.91765475520515 0 304.91765475520515 792.24749449051887 0 0 0 0 19.522754327374798 61.833458966568287 0 61.833458966568287 592.69340842671227 0 0 0 0 6.8643282133134562 263.58862223580945 0 263.58862223580945 808.1806812191644 0 0 0 0 87.876522772851558 181.02812024619197 0 181.02812024619197 453.79381736211508 0 0 0 0 269.77526114665693 296.97211721919302 0 296.97211721919302 746.9642334713717 0 0 0 0 317.80747652246293 512.72272576730757 0 512.72272576730757 876.0615462573478 0 0 0 0 254.38489263205224 573.84482945906711 0 573.84482945906711 1219.8226520608587 0 0 0 0 49.828241245598861 365.77942254498339 0 365.77942254498339 988.01713826676132 0 0 0 0 10.140417573161358 261.0589168686929 0 261.0589168686929 814.7112852956343 0 0 0 0 41.866765585769819 287.34862673014584 0 287.34862673014584 731.8203109576134 0 0 0 0 102.14121346205945 274.58695840805012 0 274.58695840805012 718.39954064291669 0 0 0 0 144.98099940894267 399.43021086785302 0 399.43021086785302 839.9217527475339 0 0 0 0 223.77766829661044 428.49461814776168 0 428.49461814776168 742.23463964427356 0 0 0 0 196.74107275515794 541.21377517778456 0 541.21377517778456 956.52131502123666 0 0 0 0 158.55524040594298 376.22369248043105 0 376.22369248043105 876.62329724762822 0 0 0 0 727.98656044157087 722.48791325359343 0 722.48791325359343 900.74912209735703 0 0 0 0 609.62986222172299 532.6301687748346 0 532.6301687748346 962.1312043871294 0 0 0 0 281.03851207190991 935.91202812983465 0 935.91202812983465 1826.314747925906 0 0 0 0 -1.2032240749539376 0.9465458865104921 0 0.9465458865104921 7.2178080568240262 0 0 0 0 1261.0850708069597 1511.8485481892567 0 1511.8485481892567 1470.6604017986901 0 0 0 0 0.34754139021376246 110.29447664561485 0 110.29447664561485 651.17775195284048 0 0 0 0 210.90497345037824 128.56725137413014 0 128.56725137413014 172.7357641835406 0 0 0 0 -13.014012497395839 279.60156977366205 0 279.60156977366205 2074.8614203260804 0 0 0 0 -4.9293973572943077 -1.4269766263720669 0 -1.4269766263720669 15.882760416383292 0 0 0 0 631.19853664595905 832.85719732569851 0 832.85719732569851 966.01919975306191 0 0 0 0 -257.77080323818666 1216.7982630425504 0 1216.7982630425504 3494.5060320067932 0 0 0 0 830.10100898209635 2135.7045361500641 0 2135.7045361500641 3498.9720038924206 0 0 0 0 -3.012388071414438 0.33020648222836257 0 0.33020648222836257 13.593859755077204 0 0 0 0 259.62315115290903 1157.5766412180128 0 1157.5766412180128 1822.0519243256276 0 0 0 0 125.15222189609872 149.41428685012215 0 149.41428685012215 1737.4068515108916 0 0 0 0 351.16161620945644 596.11432038190469 0 596.11432038190469 574.26986958054476 0 0 0 0 347.09082376843304 496.90615319230346 0 496.90615319230346 565.99094758696447 0 0 0 0 349.7501095358042 592.02849217556104 0 592.02849217556104 655.15016331440711 0 0 0 0 -5.8618126560313009 -2.6571658266132943 0 -2.6571658266132943 20.658185197616206 0 0 0 0 544.85957850565626 581.32908395315462 0 581.32908395315462 700.85179805313237 0 0 0 0 343.50319153335624 503.78270309382788 0 503.78270309382788 679.95828374878511 0 0 0 0 156.23428206255517 358.78260447290086 0 358.78260447290086 673.89876624326826 0 0 0 0 307.69285762903183 469.61896876973333 0 469.61896876973333 697.10339800216752 0 0 0 0 188.18124404594209 291.09579704264979 0 291.09579704264979 651.55136766891519 0 0 0 0 212.18611690427582 325.9852380320408 0 325.9852380320408 494.26948912297667 0 0 0 0 285.47873567431634 168.10624640223614 0 168.10624640223614 300.6741503901867 0 0 0 0 495.62942333806654 437.72617123304371 0 437.72617123304371 526.07186683249529 0 0 0 0 622.08219360704675 584.23876173017925 0 584.23876173017925 414.98165240121307 0 0 0 0 403.50332987837032 544.90408589185972 0 544.90408589185972 408.10196381378046 0 0 0 0 680.82071122503112 388.68029646335344 0 388.68029646335344 278.90954850218259 0 0 0 0 502.02103286130119 392.11374090774916 0 392.11374090774916 501.09543566255888 0 0 0 0 51.411531841240432 1138.9486394080086 0 1138.9486394080086 3476.3322089398512 0 0 0 0 1358.3871004779221 1576.9100352627083 0 1576.9100352627083 962.09526244972949 0 0 0 0 -438.82619752760593 -13.199845194008958 0 -13.199845194008958 1055.1899133004044 0 0 0 0 49.224570859526949 -357.48838849174535 0 -357.48838849174535 3500.085290635674 0 0 0 0 117.55804031203616 -133.6204364653895 0 -133.6204364653895 -205.30534008868563 0 0 0 0 49.147117676713911 -357.59536036336794 0 -357.59536036336794 3499.9516575317584 0 0 0 0 1038.8712051764846 643.5968962884308 0 643.5968962884308 -1205.6062691097322 0 0 0 0 8.1117383163238035 6.2185858440692243 0 6.2185858440692243 3.516285319811427 0 0 0 0 -331.27824599639371 115.74803666084154 0 115.74803666084154 324.12867993335385 0 0 0 0 92.168966572013687 222.6102646842437 0 222.6102646842437 336.43750275817001 0 0 0 0 -54.12806256115573 147.45053224795629 0 147.45053224795629 492.69739183075581 0 0 0 0 97.790717415089603 257.93719535080891 0 257.93719535080891 522.20010568892758 0 0 0 0 114.60025812956337 203.65945339429163 0 203.65945339429163 551.27953338983207 0 0 0 0 73.693841810092181 284.3136791217803 0 284.3136791217803 629.65627492750355 0 0 0 0 75.456170692859587 401.4359155702914 0 401.4359155702914 514.68469776307757 0 0 0 0 126.1875134683296 268.40974070021912 0 268.40974070021912 628.22273274234612 0 0 0 0 240.52058220104391 254.29397682426861 0 254.29397682426861 570.02437068861036 0 0 0 0 163.61296009394823 181.53682537134227 0 181.53682537134227 747.80467228867928 0 0 0 0 -186.75219406211545 -197.17080200725104 0 -197.17080200725104 40.914623219941859 0 0 0 0 -62.634972930738513 -23.146058633014036 0 -23.146058633014036 -25.415536755492212 0 0 0 0 0.90920567381847306 -2.2541836393867243 0 -2.2541836393867243 3.3568705048963636 0 0 0 0 191.6290780261229 -339.0074673652889 0 -339.0074673652889 77.952582325437106 0 0 0 0 119.51450326399299 323.42750211829116 0 323.42750211829116 834.33264614726068 0 0 0 0 142.67370537409306 321.00463624707118 0 321.00463624707118 659.25060918541567 0 0 0 0 135.78423066885421 275.40128010921399 0 275.40128010921399 491.39653092829394 0 0 0 0 121.50025841899333 225.21268726090784 0 225.21268726090784 705.99392129626358 0 0 0 0 151.65480099158776 252.30957305026823 0 252.30957305026823 613.76213475569239 0 0 0 0 127.63183731443837 270.34311677532969 0 270.34311677532969 660.81980405865761 0 0 0 0 108.38282857298145 253.13676662680518 0 253.13676662680518 647.58372532093654 0 0 0 0 115.99859309302497 337.67486026295956 0 337.67486026295956 738.66129398132034 0 0 0 0 81.368626369896219 290.46511235714479 0 290.46511235714479 687.84138634282863 0 0 0 0 88.289005438697586 358.29877498080896 0 358.29877498080896 816.09671619591245 0 0 0 0 64.395049639036472 272.42522929170445 0 272.42522929170445 737.55546693786164 0 0 0 0 70.555439778829623 265.73640408833307 0 265.73640408833307 703.39189881061611 0 0 0 0 57.838971419563222 206.92704596222029 0 206.92704596222029 599.1829554449796 0 0 0 0 70.503686420744089 215.70590398355853 0 215.70590398355853 585.55976274804561 0 0 0 0 51.201034160213112 270.32260036196385 0 270.32260036196385 744.21248512904276 0 0 0 0 42.462259672602059 201.40728902600586 0 201.40728902600586 622.51141542810365 0 0 0 0 86.441264337137 259.50131568709912 0 259.50131568709912 661.76351832456203 0 0 0 0 94.244129066905657 227.62353164494925 0 227.62353164494925 565.1816907156317 0 0 0 0 77.836318931574624 190.76312043813232 0 190.76312043813232 563.07795719706337 0 0 0 0 82.0998887581909 178.64098357746843 0 178.64098357746843 526.60325754102087 0 0 0 0 4.3544956404578556 -6.2608357684776763 0 -6.2608357684776763 6.8802403146224833 0 0 0 0 56.652295317713651 -86.27378385636257 0 -86.27378385636257 775.71436045429436 0 0 0 0 -9.3010494864483917 -17.207922953180969 0 -17.207922953180969 -24.275400345883099 0 0 0 0 130.5028694311909 185.84994224707771 0 185.84994224707771 469.96499876430244 0 0 0 0 93.171699877723313 209.56620099015709 0 209.56620099015709 533.7242820692336 0 0 0 0 95.154306908980629 210.94403280699044 0 210.94403280699044 499.47013836639235 0 0 0 0 -4.5918053626865003 -33.273684931220487 0 -33.273684931220487 -30.777809169085231 0 0 0 0 67.231396680661419 278.20672598626697 0 278.20672598626697 -226.04093823937001 0 0 0 0 7.5829189482514776 -8.4781249792559947 0 -8.4781249792559947 7.6808341219475551 0 0 0 0 18.167368672869088 84.237621882552048 0 84.237621882552048 425.42220058070961 0 0 0 0 0.67966233205362858 -1.6860943490323166 0 -1.6860943490323166 1.6878399028290119 0 0 0 0 55.67202960888585 156.51002825635078 0 156.51002825635078 521.1898971061164 0 0 0 0 -32.869685591120287 116.60717229585862 0 116.60717229585862 526.21255150780416 0 0 0 0 -24.863580388567584 152.59501342254225 0 152.59501342254225 632.40908657971158 0 0 0 0 114.02483641460003 176.15493490439258 0 176.15493490439258 424.37459638162545 0 0 0 0 36.606155206256517 132.22500062662584 0 132.22500062662584 545.93175614142092 0 0 0 0 97.739674522290898 112.17041747434996 0 112.17041747434996 412.98991291361017 0 0 0 0 15.379391883933067 107.17676297287107 0 107.17676297287107 479.24437663875869 0 0 0 0 -19.621906275377114 -13.284116802096833 0 -13.284116802096833 23.53159958179458 0 0 0 0 -0.45876105395473132 -32.035334819869604 0 -32.035334819869604 -23.475249943876406 0 0 0 0 0.82497748706737184 -23.07149622340512 0 -23.07149622340512 -23.865052896051566 0 0 0 0 -5.80815938987962 -26.478964162393822 0 -26.478964162393822 0.42568958841729909 0 0 0 0 -13.800427507627319 -19.250376946212782 0 -19.250376946212782 5.5355147117807064 0 0 0 0 -20.507889422962762 -37.835726073783007 0 -37.835726073783007 -0.73630090695223771 0 0 0 0 -16.490919484776896 -36.535263320969534 0 -36.535263320969534 -17.672514064572169 0 0 0 0 -3.4341065716389494 -29.65270839958248 0 -29.65270839958248 -20.090508257795591 0 0 0 0 -7.0410823160391374 -32.868333248406998 0 -32.868333248406998 -17.218203961449035 0 0 0 0 -8.9469813003599938 -29.655474818304356 0 -29.655474818304356 -12.712630284455372 0 0 0 0 -41.368733357321162 -40.296999338159367 0 -40.296999338159367 -5.9145576929440722 0 0 0 0 -328.11291776767484 -355.60715950563281 0 -355.60715950563281 81.24035405657196 0 0 0 0 -0.83389862040169316 -10.137333490725645 0 -10.137333490725645 36.24333424839736 0 0 0 0 -50.875940608512337 -78.597931312033325 0 -78.597931312033325 -58.069881055415408 0 0 0 0 -38.686217783720167 -16.214673978414794 0 -16.214673978414794 -52.3708185114956 0 0 0 0 -10.295769274892336 -43.387343416718068 0 -43.387343416718068 -26.423855310234558 0 0 0 0 -2.3152721278684112 -15.445127905200934 0 -15.445127905200934 -51.214350622787606 0 0 0 0 -18.195499527557672 -47.175448917848371 0 -47.175448917848371 -38.045201417553471 0 0 0 0 -86.411324589932519 46.404635433777003 0 46.404635433777003 -19.838973201141926 0 0 0 0 -69.706896076724661 53.145366040691442 0 53.145366040691442 -8.234624669974437 0 0 0 0 -186.55004747965768 79.533807353491284 0 79.533807353491284 -14.009347347862786 0 0 0 0 -177.51178301177242 61.963506342202891 0 61.963506342202891 -58.068998263886897 0 0 0 0 -110.58884937008361 -6.4091265618371835 0 -6.4091265618371835 -103.18550925599993 0 0 0 0 -65.587940352659643 -226.49776147233933 0 -226.49776147233933 -196.20313774782699 0 0 0 0 -61.128480857822524 -169.07513976250993 0 -169.07513976250993 603.18418107557227 0 0 0 0 -109.603453799818 42.559400625359558 0 42.559400625359558 63.309209150884271 0 0 0 0 -74.027576797545407 287.36064654347138 0 287.36064654347138 373.86829504196794 0 0 0 0 220.43733836625233 80.970248361685663 0 80.970248361685663 65.66905709925868 0 0 0 0 -134.13102445102686 17.423500254342798 0 17.423500254342798 58.296623799804365 0 0 0 0 -353.58404256366703 -35.098623487181612 0 -35.098623487181612 236.93475351641973 0 0 0 0 -292.17710980102402 102.14120343042305 0 102.14120343042305 102.10896337376471 0 0 0 0 -277.51177750796342 73.561901922636025 0 73.561901922636025 150.84109438210726 0 0 0 0 -354.56624983801203 -16.539444335561711 0 -16.539444335561711 8.9261798002535215 0 0 0 0 -352.81783376169119 56.054334204109182 0 56.054334204109182 72.97203983637155 0 0 0 0 -379.42938558573155 122.36784595385325 0 122.36784595385325 19.945658594966517 0 0 0 0 -1.0184172065683053 0.21944019090883771 0 0.21944019090883771 14.050972347953689 0 0 0 0 -484.82666742556648 82.703658581747732 0 82.703658581747732 66.859442136774305 0 0 0 0 -368.77503651209645 20.454827273803858 0 20.454827273803858 -31.65021660955972 0 0 0 0 -365.71657597475945 62.202428921365026 0 62.202428921365026 -8.5798209403292276 0 0 0 0 -306.26442606062483 113.91142983011378 0 113.91142983011378 25.691923189580848 0 0 0 0 -266.20186324002316 92.362426953812246 0 92.362426953812246 22.62341072979325 0 0 0 0 -164.04273049143103 163.30461114792342 0 163.30461114792342 70.003952964063501 0 0 0 0 -291.80995938195701 113.90169933435391 0 113.90169933435391 24.431712740828516 0 0 0 0 -263.37252080246708 95.801119911091519 0 95.801119911091519 16.217139378248248 0 0 0 0 -247.60684878239863 92.512097168277251 0 92.512097168277251 -27.663755825866247 0 0 0 0 -307.54254407689041 87.720566220712499 0 87.720566220712499 15.702362472075038 0 0 0 0 -223.90939522323424 122.93243614681705 0 122.93243614681705 5.6832985118526267 0 0 0 0 -246.67331004438711 60.926011469502555 0 60.926011469502555 -33.090333370913868 0 0 0 0 -275.57336719633304 97.236082465999061 0 97.236082465999061 -19.010339772008592 0 0 0 0 -277.27739795874004 94.303000479310867 0 94.303000479310867 -23.303226377269311 0 0 0 0 -277.63752639274389 125.2619193365972 0 125.2619193365972 15.577858403659775 0 0 0 0 -0.76144695322881928 -1.1147688564710876 0 -1.1147688564710876 7.5035686728031692 0 0 0 0 -161.05952303846243 -313.86328499674346 0 -313.86328499674346 450.57021340745268 0 0 0 0 -308.70368172168003 112.84557300015877 0 112.84557300015877 69.584207263105782 0 0 0 0 -283.38850004394772 105.9631481217657 0 105.9631481217657 -22.442048462056846 0 0 0 0 -311.86164943999211 53.264098636893323 0 53.264098636893323 -64.338171949246316 0 0 0 0 -278.71213651973358 93.745384381501935 0 93.745384381501935 -37.056997286570549 0 0 0 0 -359.72945704384529 63.153797826114896 0 63.153797826114896 304.55015430110507 0 0 0 0 -322.94920041366004 19.367299863755761 0 19.367299863755761 111.94561247075035 0 0 0 0 -323.13521147599442 6.419187652495566 0 6.419187652495566 -2.1231445513112703 0 0 0 0 -604.39797341132271 -239.61402890731551 0 -239.61402890731551 4.1369103819743032 0 0 0 0 -508.55021658085843 -34.537933088999125 0 -34.537933088999125 195.29877375268552 0 0 0 0 -1.0648051102697789 -6.8631510095313004 0 -6.8631510095313004 26.132617657037855 0 0 0 0 -267.33252718447056 -69.490737904692651 0 -69.490737904692651 -90.954083657561569 0 0 0 0 -368.67937661320411 5.2721651277679484 0 5.2721651277679484 14.691496247018222 0 0 0 0 -323.08468894686712 -124.31801802952486 0 -124.31801802952486 -122.38279867952224 0 0 0 0 -247.50194384674796 -67.654864844240365 0 -67.654864844240365 -108.37005765365757 0 0 0 0 -237.47430580204855 56.625767782985349 0 56.625767782985349 -42.360925121465698 0 0 0 0 -386.62485027201092 -265.63947184013523 0 -265.63947184013523 -93.438899319065968 0 0 0 0 -0.1804349452619789 -10.563451868857804 0 -10.563451868857804 33.952462216127628 0 0 0 0 -16.446113057321099 271.83395025248319 0 271.83395025248319 505.34589492056693 0 0 0 0 94.103895966967684 459.52976461845537 0 459.52976461845537 321.33799498636836 0 0 0 0 89.659763294241202 468.79588833211528 0 468.79588833211528 668.98748169463943 0 0 0 0 197.17879864035513 389.18882218917861 0 389.18882218917861 409.12314002310814 0 0 0 0 89.017640387198526 704.50479603664462 0 704.50479603664462 1008.5794159400684 0 0 0 0 -0.25842370280504134 -2.0357271242673391 0 -2.0357271242673391 9.8755898444327954 0 0 0 0 836.02252614766712 885.64759724623218 0 885.64759724623218 693.20482109842851 0 0 0 0 -224.72491053767499 298.9369885142296 0 298.9369885142296 807.83146206332822 0 0 0 0 -193.80957174210494 13.628282737203335 0 13.628282737203335 715.70651192383957 0 0 0 0 55.377994740304651 -343.93024691515348 0 -343.93024691515348 3499.6315053695143 0 0 0 0 17.884313784254775 20.251030872071851 0 20.251030872071851 6.9482298311070707 0 0 0 0 97.798094140917783 244.62584273708126 0 244.62584273708126 -617.85280665734172 0 0 0 0 55.233087442197245 -344.80181958813046 0 -344.80181958813046 3496.9537050578256 0 0 0 0 37.284074001415902 -330.82576585956303 0 -330.82576585956303 3501.3145770550618 0 0 0 0 14.331256921890493 41.059634232219736 0 41.059634232219736 11.090441632433439 0 0 0 0 -386.97946810175796 -20.475480145294569 0 -20.475480145294569 3316.7528304443458 0 0 0 0 38.651900633546781 -331.51459222311678 0 -331.51459222311678 3494.3531860070816 0 0 0 0 18.577562755561573 32.00808351040439 0 32.00808351040439 9.991400360611955 0 0 0 0 325.80627198623233 108.99820589211595 0 108.99820589211595 -257.00155602790801 0 0 0 0 -54.615836361511811 443.77807149693399 0 443.77807149693399 723.02754548020312 0 0 0 0 -186.05490503018677 214.53393124482682 0 214.53393124482682 327.24612530864397 0 0 0 0 -281.15702831566614 -34.962561022264708 0 -34.962561022264708 659.24721154033523 0 0 0 0 -178.93645652636451 67.418877444604732 0 67.418877444604732 130.11741835688008 0 0 0 0 -457.66954895524691 -257.00326679308 0 -257.00326679308 385.18710414803354 0 0 0 0 -493.43644230208156 -457.45520635242428 0 -457.45520635242428 -142.46375734715548 0 0 0 0 173.68272091597441 -93.134412720415639 0 -93.134412720415639 79.403704249853035 0 0 0 0 11.941339758402137 -361.28573217133089 0 -361.28573217133089 133.13920150704143 0 0 0 0 -657.76004447392575 -131.33021018945146 0 -131.33021018945146 227.41721153054823 0 0 0 0 -219.92252004836291 194.24293148515426 0 194.24293148515426 42.131342500506435 0 0 0 0 -612.24698733024161 -308.92267116257244 0 -308.92267116257244 196.787549804023 0 0 0 0 1.7684123618222474 -6.2164201800538592 0 -6.2164201800538592 11.83716837330914 0 0 0 0 -158.25337221641917 257.23873550852295 0 257.23873550852295 377.79071272400324 0 0 0 0 -256.38062706525989 -92.482793092534848 0 -92.482793092534848 133.74483707488253 0 0 0 0 -66.912112381588031 21.308947956480552 0 21.308947956480552 568.60755624970625 0 0 0 0 -168.67436348277133 263.74865437299559 0 263.74865437299559 855.38872602890478 0 0 0 0 -72.998666374257482 -96.484591093489144 0 -96.484591093489144 298.87834086447401 0 0 0 0 662.52398473570156 1099.3554283115081 0 1099.3554283115081 1688.7172290091657 0 0 0 0 6.4048207283205363 46.047645933446802 0 46.047645933446802 18.303699248139104 0 0 0 0 -486.70225713949333 -61.72232380159403 0 -61.72232380159403 3493.5561434490155 0 0 0 0 -27.008846665474969 -528.21684093327713 0 -528.21684093327713 3119.7380054715177 0 0 0 0 -3.5301794545753964 -543.17825200702282 0 -543.17825200702282 2338.8557078865415 0 0 0 0 -10.587388918975504 30.285241076374817 0 30.285241076374817 19.803027096096098 0 0 0 0 371.14570120876243 -1393.5059661760097 0 -1393.5059661760097 3495.308965265514 0 0 0 0 0.51391374997993167 12.310218779000429 0 12.310218779000429 -2.1168142041026954 0 0 0 0 -81.535765658827586 21.932106974047201 0 21.932106974047201 14.440884113020729 0 0 0 0 6.1553697752763661 24.933530056311092 0 24.933530056311092 30.007238876298032 0 0 0 0 -8.9214996126875121 -751.55519675753021 0 -751.55519675753021 1250.3487104771921 0 0 0 0 147.43596075297313 -32.008264823886748 0 -32.008264823886748 1273.3482124369184 0 0 0 0 -25.801349070853121 25.421089214869426 0 25.421089214869426 -8.0016331660008291 0 0 0 0 -11.187051364490344 5.9116072611650452 0 5.9116072611650452 -31.959898118785532 0 0 0 0 119.6766301176684 15.511598702369156 0 15.511598702369156 -32.379371865346911 0 0 0 0 305.01113123572151 192.10837291813368 0 192.10837291813368 101.45938493434005 0 0 0 0 15.19768542131078 -51.427644013929239 0 -51.427644013929239 -8.4650768876890652 0 0 0 0 2.7362468591870472 4.0100680369934096 0 4.0100680369934096 14.691887734306334 0 0 0 0 -30.745772804158221 -630.35847736607684 0 -630.35847736607684 91.722003306189436 0 0 0 0 1.9866312762179401 -3.5687979959888594 0 -3.5687979959888594 5.2072097696852779 0 0 0 0 515.32086562249538 -384.71693701378535 0 -384.71693701378535 -174.14201657986268 0 0 0 0 156.49777694382396 -63.886497421470267 0 -63.886497421470267 777.07472308825527 0 0 0 0 113.07566494611842 97.988441265391884 0 97.988441265391884 173.61700211627613 0 0 0 0 -438.56339218403224 132.0991014714391 0 132.0991014714391 348.31442336717737 0 0 0 0 710.28380037770285 -869.88493424734406 0 -869.88493424734406 727.56052815708972 0 0 0 0 133.94558973650075 78.345803847809293 0 78.345803847809293 1367.0943150866224 0 0 0 0 493.29997287876461 493.9300690797827 0 493.9300690797827 925.5330879493049 0 0 0 0 1327.1295568055905 -129.27123958538141 0 -129.27123958538141 -42.075047255595564 0 0 0 0 490.65198496514643 310.05433028317202 0 310.05433028317202 187.75188792077824 0 0 0 0 6.2859486797340196 -199.23534155864036 0 -199.23534155864036 141.89442873361986 0 0 0 0 156.66815650912349 -92.211635782517988 0 -92.211635782517988 16.683849857392488 0 0 0 0 431.93446086915139 -111.82148072573182 0 -111.82148072573182 -113.58600401274452 0 0 0 0 418.08224112569974 175.41064229787003 0 175.41064229787003 54.096556755612255 0 0 0 0 209.04329557268784 14.01488650921965 0 14.01488650921965 58.33550568742794 0 0 0 0 183.38236711751097 -95.477257668258972 0 -95.477257668258972 6.8978379170148401 0 0 0 0 -45.57424188417508 178.65349972805416 0 178.65349972805416 182.72839293501602 0 0 0 0 108.35386073461041 60.558429242595594 0 60.558429242595594 87.239394916221499 0 0 0 0 135.7823956365994 69.680524186405819 0 69.680524186405819 17.608540741843171 0 0 0 0 143.01404576157793 223.93846162295631 0 223.93846162295631 186.58551309823815 0 0 0 0 144.19668728105808 209.17815310518927 0 209.17815310518927 161.60753663159267 0 0 0 0 -202.18141190393089 221.42292618526699 0 221.42292618526699 371.16274310253357 0 0 0 0 -164.27536527563643 166.46906323959411 0 166.46906323959411 184.35944172366726 0 0 0 0 -191.19601592959253 -11.621816574437162 0 -11.621816574437162 -17.543257997574983 0 0 0 0 -332.87812868546769 -730.37860203769196 0 -730.37860203769196 47.470651785726659 0 0 0 0 1.399545885700213 -3.4561144419237166 0 -3.4561144419237166 5.142166167494338 0 0 0 0 -188.31825577288856 167.98143350282771 0 167.98143350282771 354.8500257753476 0 0 0 0 -188.66105808391694 161.84605345574528 0 161.84605345574528 490.36534914164804 0 0 0 0 -177.74539533303414 -35.724775624563335 0 -35.724775624563335 389.26622976866383 0 0 0 0 -161.76287301595858 -72.704953186032071 0 -72.704953186032071 179.69950718813925 0 0 0 0 718.36119364189562 -338.47980293824367 0 -338.47980293824367 -827.07946049024758 0 0 0 0 -144.5574413069935 -200.47655995040259 0 -200.47655995040259 667.80203861064365 0 0 0 0 -99.182075190937212 92.91301791060323 0 92.91301791060323 266.84295055078837 0 0 0 0 -137.2553499791145 -9.7800230020147865 0 -9.7800230020147865 202.73500350129325 0 0 0 0 -129.71219043239154 9.2430586901227798 0 9.2430586901227798 176.92231436811562 0 0 0 0 -19.22268161033503 42.595315376340295 0 42.595315376340295 137.30484726083523 0 0 0 0 -153.50541292771277 -40.029345503164222 0 -40.029345503164222 176.51734521485196 0 0 0 0 -64.035056096507105 -23.821073905564845 0 -23.821073905564845 59.995895271320478 0 0 0 0 -388.27668365837917 177.69001519842277 0 177.69001519842277 68.561721542293526 0 0 0 0 -258.91004983213861 -64.481232042471675 0 -64.481232042471675 97.873258330597309 0 0 0 0 -151.37910840382119 10.57421283077565 0 10.57421283077565 137.78758679589737 0 0 0 0 -128.3716936022233 -9.6770935927602295 0 -9.6770935927602295 -71.895345899931272 0 0 0 0 -128.19859362673765 -15.300424363670118 0 -15.300424363670118 81.628496687422739 0 0 0 0 -21.281691134127414 45.287590793093841 0 45.287590793093841 -48.519584101806686 0 0 0 0 107.69070814075178 39.991018357119174 0 39.991018357119174 33.308763664852449 0 0 0 0 8.8212459472314411 -18.999395757551774 0 -18.999395757551774 31.528542981185552 0 0 0 0 6.6997809837947244 -15.272821441691264 0 -15.272821441691264 31.327663291856396 0 0 0 0 105.2654429963651 52.370332105983834 0 52.370332105983834 81.146377926419518 0 0 0 0 113.51748921574915 19.03878551087837 0 19.03878551087837 57.544727522530593 0 0 0 0 90.181444121841679 17.043189377298177 0 17.043189377298177 146.25733808721998 0 0 0 0 81.215013192678498 -98.318347980788076 0 -98.318347980788076 106.89795436387067 0 0 0 0 97.672892109343138 13.442065091963741 0 13.442065091963741 81.087462045405118 0 0 0 0 98.6080262190344 45.735840340879804 0 45.735840340879804 90.126654218700423 0 0 0 0 14.069747008732293 -4.1862631819767557 0 -4.1862631819767557 71.588927864242578 0 0 0 0 18.826483781454442 -50.318623474830019 0 -50.318623474830019 21.016955827450147 0 0 0 0 3.2588923252406863 -12.401693913535652 0 -12.401693913535652 22.873371943233536 0 0 0 0 2.3369637350199834 -12.380255793968033 0 -12.380255793968033 38.950069404009326 0 0 0 0 -103.93249754371209 -100.35911165464131 0 -100.35911165464131 85.726095538262598 0 0 0 0 -24.615900093865093 23.217146717612195 0 23.217146717612195 56.730102197299857 0 0 0 0 24.878818848955234 -68.410447576570732 0 -68.410447576570732 5.3970978589495644 0 0 0 0 -14.839661778367372 48.262021618545987 0 48.262021618545987 24.73492525878828 0 0 0 0 3.082627700091507 -13.375602952979534 0 -13.375602952979534 72.407218592903519 0 0 0 0 39.59399791995429 153.33527075102029 0 153.33527075102029 72.422274342842641 0 0 0 0 -216.76280660067096 -41.924114602934424 0 -41.924114602934424 50.923199826494965 0 0 0 0 -345.08784021816973 87.993302346636483 0 87.993302346636483 28.140132529297261 0 0 0 0 -0.910130623872202 -0.11951950379507181 0 -0.11951950379507181 11.120079770405027 0 0 0 0 -276.97857184325017 82.183444550337299 0 82.183444550337299 106.44635261784788 0 0 0 0 -12.197340777742738 -251.21291794061653 0 -251.21291794061653 145.15790677070618 0 0 0 0 -0.4033994279816342 -0.3874476072610733 0 -0.3874476072610733 4.3144833927069612 0 0 0 0 -1.1952435351615804 5.5097418570112495 0 5.5097418570112495 -49.308283837250201 0 0 0 0 10.298811002175626 31.7362111647235 0 31.7362111647235 34.487453975442804 0 0 0 0 -5.6654947393810744 -14.551671691191586 0 -14.551671691191586 40.700654043313989 0 0 0 0 -113.81051210776923 -123.27488144210656 0 -123.27488144210656 317.73815355330589 0 0 0 0 -1.6197304017968883 -8.2272661090062371 0 -8.2272661090062371 19.804589093124918 0 0 0 0 -125.49042194500362 331.31436261311319 0 331.31436261311319 150.24570648290683 0 0 0 0 -267.83249148828781 -143.42895712527388 0 -143.42895712527388 462.77340497109981 0 0 0 0 2.2192155668861915 16.791879480055286 0 16.791879480055286 32.203310160897672 0 0 0 0 1.9253899351672885 17.091205934640129 0 17.091205934640129 45.822612606047187 0 0 0 0 -9.5032672925846242 7.5120944462270103 0 7.5120944462270103 6.0800828316187818 0 0 0 0 4.5563217167887871 -17.124394346743081 0 -17.124394346743081 44.337632750091672 0 0 0 0 -117.70229549796596 -4.7660752424126258 0 -4.7660752424126258 159.64482385715382 0 0 0 0 55.292958925996572 119.97567654321392 0 119.97567654321392 199.26037655294203 0 0 0 0 -3.195334351577003 -72.053985440183169 0 -72.053985440183169 17.585136055902694 0 0 0 0 17.254075616629052 185.36332515109825 0 185.36332515109825 281.46167660063838 0 0 0 0 -70.233103092767124 5.2357004223140393 0 5.2357004223140393 108.19151151013648 0 0 0 0 1.5672403903314907 -11.988929000849225 0 -11.988929000849225 37.053778824056735 0 0 0 0 -3.5958395700362438 -1.7613403343107734 0 -1.7613403343107734 12.604157489026761 0 0 0 0 0.68219950804905238 38.362907401744451 0 38.362907401744451 207.17185387994323 0 0 0 0 42.053192091778328 19.874897325054917 0 19.874897325054917 8.6598078427596192 0 0 0 0 -0.32389792519668248 -1.3713786902848142 0 -1.3713786902848142 0.24308606325121218 0 0 0 0 268.53691374030677 -167.48447151283472 0 -167.48447151283472 -156.0603233952279 0 0 0 0 -72.581971532163152 178.201237334295 0 178.201237334295 86.5790935891564 0 0 0 0 72.971496923388258 -52.430246127371447 0 -52.430246127371447 428.46571695445164 0 0 0 0 -147.57401277118061 -18.049766205698688 0 -18.049766205698688 340.00968498586735 0 0 0 0 55.699321571528344 278.02781672487617 0 278.02781672487617 442.77262279354818 0 0 0 0 -27.128490252518532 167.77438191136389 0 167.77438191136389 437.70349622033245 0 0 0 0 90.691807669700211 378.37370799390192 0 378.37370799390192 488.93582019934547 0 0 0 0 89.764597671223783 245.54881465801009 0 245.54881465801009 292.00136425860001 0 0 0 0 47.117449808552919 313.2086169377344 0 313.2086169377344 391.59645889232343 0 0 0 0 -10.459152956835169 123.56918658404902 0 123.56918658404902 319.05196798894031 0 0 0 0 113.02993887436241 275.97240829138173 0 275.97240829138173 323.44307106410997 0 0 0 0 143.33911530057935 273.85490195812599 0 273.85490195812599 322.50752934794582 0 0 0 0 149.38730650953403 313.64590109606797 0 313.64590109606797 314.10131248859398 0 0 0 0 191.38071650444635 400.58632987489545 0 400.58632987489545 340.84921278334514 0 0 0 0 160.0624335205739 338.87896928297414 0 338.87896928297414 328.11497111203789 0 0 0 0 160.05543089893945 342.06624494476273 0 342.06624494476273 285.20268274281989 0 0 0 0 207.59926817054657 338.42352104766906 0 338.42352104766906 283.93542844888361 0 0 0 0 193.18935671544568 206.28920654712783 0 206.28920654712783 196.90473019082856 0 0 0 0 175.98796708348527 302.79159210280341 0 302.79159210280341 250.8256810651219 0 0 0 0 133.25452648482224 239.23106949188514 0 239.23106949188514 237.41485997792915 0 0 0 0 135.5340774324618 294.89167653476034 0 294.89167653476034 290.79162215044198 0 0 0 0 141.37359208284352 266.20431090392049 0 266.20431090392049 325.8783163146727 0 0 0 0 138.70837817608253 194.58437312385649 0 194.58437312385649 242.8719523112668 0 0 0 0 113.18721518780148 172.97542456218071 0 172.97542456218071 266.72335618943544 0 0 0 0 90.074405261690117 158.80322473503475 0 158.80322473503475 256.64593726617386 0 0 0 0 92.156464161414988 105.3884338991702 0 105.3884338991702 174.75271219462229 0 0 0 0 98.752695087072425 123.22878670968203 0 123.22878670968203 176.44839576639788 0 0 0 0 136.77706136218148 176.24047517604049 0 176.24047517604049 210.29878692375496 0 0 0 0 222.32201586990527 126.41692401292312 0 126.41692401292312 761.29048345985757 0 0 0 0 259.84109047819061 99.699231552400306 0 99.699231552400306 199.48345805396821 0 0 0 0 121.43428232494398 173.09229480144131 0 173.09229480144131 461.52162751927972 0 0 0 0 219.40628308223677 342.63134886786065 0 342.63134886786065 374.71865589899426 0 0 0 0 1.3823258529782811 -3.1840105643029162 0 -3.1840105643029162 10.286292652548099 0 0 0 0 310.14145965614671 258.90406523952697 0 258.90406523952697 270.15514441415144 0 0 0 0 600.34505771846 540.80380452250211 0 540.80380452250211 473.13330839155242 0 0 0 0 -150.09045358576645 -149.4636969168314 0 -149.4636969168314 63.072601330321049 0 0 0 0 4.0642935733011711 -10.744541253058458 0 -10.744541253058458 28.139431581363453 0 0 0 0 276.08141021255051 273.14309686686465 0 273.14309686686465 265.21178128187057 0 0 0 0 221.1291615278501 186.87900071257536 0 186.87900071257536 166.92095148182125 0 0 0 0 35.881279610703245 69.446521199432027 0 69.446521199432027 195.02399727444572 0 0 0 0 65.848376695207236 52.389960974993301 0 52.389960974993301 0.27429018486873247 0 0 0 0 -34.780582155569732 117.75615550998555 0 117.75615550998555 258.07102304261934 0 0 0 0 3.0636180700987223 4.3958986389937138 0 4.3958986389937138 -3.5540115716288767 0 0 0 0 -363.75261021415668 -175.03921380007523 0 -175.03921380007523 -64.533435515761084 0 0 0 0 0.61348732274471907 1.2597195082591526 0 1.2597195082591526 0.92906677604015897 0 0 0 0 106.34498690141845 239.85582120857725 0 239.85582120857725 512.33914439305954 0 0 0 0 -26.555754938767905 -30.875849291463965 0 -30.875849291463965 157.7604274927362 0 0 0 0 -287.29249233001156 -108.33601791247202 0 -108.33601791247202 29.903615636911127 0 0 0 0 -208.77711398184601 -247.62188547071128 0 -247.62188547071128 -43.353541587392101 0 0 0 0 -384.9352365195482 -174.23832865117583 0 -174.23832865117583 94.32075376585999 0 0 0 0 -455.07078099986029 -153.38846204844594 0 -153.38846204844594 -180.12031656262116 0 0 0 0 -398.84740658385363 -250.06061285048054 0 -250.06061285048054 -39.44085930052097 0 0 0 0 -751.87403173214989 -558.62885418895166 0 -558.62885418895166 -430.63786678086035 0 0 0 0 -643.47835319377464 -604.2648340867454 0 -604.2648340867454 -231.15175138626364 0 0 0 0 1.3678974013091443 0.7678571851287046 0 0.7678571851287046 1.538002675918932 0 0 0 0 -764.2937383583776 -486.89490335673327 0 -486.89490335673327 -303.71004605269991 0 0 0 0 -346.67040482860011 -201.90132242579421 0 -201.90132242579421 244.98678747353551 0 0 0 0 -485.7819230391483 -350.02478306485136 0 -350.02478306485136 138.91009211659548 0 0 0 0 -281.94110821610093 -99.238844058170798 0 -99.238844058170798 181.61495853861561 0 0 0 0 -193.63776727483719 -167.17403213518264 0 -167.17403213518264 160.97169817745453 0 0 0 0 -191.14656003407038 -141.68645496304816 0 -141.68645496304816 300.61482921226707 0 0 0 0 -267.41378302799831 -112.03530114160094 0 -112.03530114160094 174.60899685288859 0 0 0 0 -138.14119764594034 -187.68944474762247 0 -187.68944474762247 31.11812337153242 0 0 0 0 -283.04850767095377 -148.74974251332605 0 -148.74974251332605 103.32224055864208 0 0 0 0 -385.67651379663539 -121.89580185876548 0 -121.89580185876548 204.50895481654152 0 0 0 0 -97.585867789502345 -11.854950831311726 0 -11.854950831311726 161.57326243878924 0 0 0 0 2.2964353977445171 -106.9687135168133 0 -106.9687135168133 -61.90992360819655 0 0 0 0 -9.6242360104433828 -72.829800598876318 0 -72.829800598876318 132.21791010607558 0 0 0 0 67.319525779054061 -394.87980814847469 0 -394.87980814847469 53.555989042986766 0 0 0 0 197.4535926137363 -142.44707006000681 0 -142.44707006000681 -61.887772069627857 0 0 0 0 -194.18722696505847 -132.2630935043635 0 -132.2630935043635 15.724289422818401 0 0 0 0 -752.57766312890681 -52.909002079031779 0 -52.909002079031779 216.61185359636147 0 0 0 0 -510.32301963480029 -376.07483854567909 0 -376.07483854567909 258.80614894446626 0 0 0 0 -262.21873859903326 -425.94321693955135 0 -425.94321693955135 219.96730486668821 0 0 0 0 -600.21629114915743 919.28415839666195 0 919.28415839666195 370.11686212262475 0 0 0 0 -176.07630276311738 -43.743874154453806 0 -43.743874154453806 68.558538768351355 0 0 0 0 -225.59851398974979 -3.2721002075595607 0 -3.2721002075595607 -37.168825917920913 0 0 0 0 -241.28915329521033 -6.047245835296053 0 -6.047245835296053 80.542297995247282 0 0 0 0 61.490131508433478 1.393745620836853 0 1.393745620836853 -40.230096559324011 0 0 0 0 -282.2693045032488 -17.367283283401775 0 -17.367283283401775 98.151961940486217 0 0 0 0 -0.067485239220944848 0.16812653100376451 0 0.16812653100376451 0.35901205702685957 0 0 0 0 -727.86973437665051 189.5845677250677 0 189.5845677250677 123.9194771094335 0 0 0 0 -2.2770678524653043 3.4086337450814597 0 3.4086337450814597 20.696227850229604 0 0 0 0 -23.508144176766336 38.072663054248551 0 38.072663054248551 4.7903276793585974 0 0 0 0 -1.0568264236436893 2.5809557858523853 0 2.5809557858523853 0.36616946319406907 0 0 0 0 -315.97321418155616 47.119664247060427 0 47.119664247060427 20.944441917970835 0 0 0 0 -485.88629487831577 94.896460182368173 0 94.896460182368173 17.381291731871897 0 0 0 0 -266.21326350366121 25.963211514692375 0 25.963211514692375 -13.375921524886508 0 0 0 0 -1.9752898534262591 0.97051808712540222 0 0.97051808712540222 14.914692865224026 0 0 0 0 -343.79812572028732 40.825255095332977 0 40.825255095332977 -54.643856175025576 0 0 0 0 -167.32957642436031 -100.93653959603398 0 -100.93653959603398 48.427300444425782 0 0 0 0 -129.90666838542484 -134.67452336649148 0 -134.67452336649148 33.85857070509519 0 0 0 0 -190.00198928793247 -179.21312879659854 0 -179.21312879659854 73.980824828933692 0 0 0 0 -318.4758201885279 -223.58339630635601 0 -223.58339630635601 70.487715384166222 0 0 0 0 -41.19999962696329 -53.093183346529258 0 -53.093183346529258 85.136962416181632 0 0 0 0 -54.082498895127173 -240.76379187294515 0 -240.76379187294515 30.929402316440246 0 0 0 0 -377.60301255749721 37.306622428885021 0 37.306622428885021 -61.550276212234166 0 0 0 0 -1.4417048209199033 -1.8634815018090478 0 -1.8634815018090478 0.15913718165953128 0 0 0 0 -3.661709587889618 -42.294550516369782 0 -42.294550516369782 4.3994405048142653 0 0 0 0 -245.73626264413633 -67.48832961799053 0 -67.48832961799053 13.686494346395193 0 0 0 0 -424.83468365599856 4.2051993742134073 0 4.2051993742134073 369.1870120572421 0 0 0 0 -219.21018907194411 -523.10608044495166 0 -523.10608044495166 454.16215526326414 0 0 0 0 -469.0304152026024 -219.20612170525783 0 -219.20612170525783 87.650270994447055 0 0 0 0 -162.96504153278602 -245.57285661102651 0 -245.57285661102651 -441.38646348142356 0 0 0 0 -275.59046010200927 -47.879386824432004 0 -47.879386824432004 -15.910173212374502 0 0 0 0 -367.88413764013058 -101.64520150230965 0 -101.64520150230965 -1.8823505782638676 0 0 0 0 -313.65373203767376 -206.03446504972817 0 -206.03446504972817 -234.483257695887 0 0 0 0 -266.59699207690301 89.898586467337736 0 89.898586467337736 372.90692753225449 0 0 0 0 44.57734997478542 -79.463747005571349 0 -79.463747005571349 -81.648952794916113 0 0 0 0 -238.47472968025704 29.8685615018112 0 29.8685615018112 43.310002692393027 0 0 0 0 -0.059782522873310651 -0.71100471511410746 0 -0.71100471511410746 5.0467494087055798 0 0 0 0 -105.62498781231625 -281.97851874636399 0 -281.97851874636399 471.43275938849911 0 0 0 0 405.00991785494125 -263.48634086172569 0 -263.48634086172569 63.168044179736171 0 0 0 0 -251.04938391331962 -38.727082815006725 0 -38.727082815006725 167.53357542937738 0 0 0 0 -257.84572099765865 -192.26116693209042 0 -192.26116693209042 269.03712143772282 0 0 0 0 -383.36979510196807 -159.57192558365205 0 -159.57192558365205 139.93601104876143 0 0 0 0 -348.02957623467137 -29.28882424873882 0 -29.28882424873882 129.19355562409419 0 0 0 0 -428.40284542358131 -79.210706699319417 0 -79.210706699319417 4.5251400369452313 0 0 0 0 -467.82673365011863 -165.91861284746483 0 -165.91861284746483 94.401504933572141 0 0 0 0 -383.93235227274545 -118.68675981225897 0 -118.68675981225897 47.257730054639978 0 0 0 0 -319.0406853212271 -85.677154500608594 0 -85.677154500608594 235.82647862637532 0 0 0 0 -340.98000906070956 -251.15236767437455 0 -251.15236767437455 -107.09245396168262 0 0 0 0 -4.6924868125967327 -2.9759882788851826 0 -2.9759882788851826 12.276370033504577 0 0 0 0 -124.28453157695458 -54.82536467628961 0 -54.82536467628961 -264.69360792869702 0 0 0 0 -330.24396592262201 -21.218906809146574 0 -21.218906809146574 131.85128615040594 0 0 0 0 -258.63135398355553 -38.043940405463218 0 -38.043940405463218 116.096322285106 0 0 0 0 -327.93756766040269 -79.740507852467999 0 -79.740507852467999 96.9289760729298 0 0 0 0 -279.09493349067179 -39.668899513409997 0 -39.668899513409997 103.72444617438305 0 0 0 0 -286.10481037982527 -74.880005596256524 0 -74.880005596256524 205.13116037109285 0 0 0 0 -323.66265282249879 3.1277258568879915 0 3.1277258568879915 79.891209409033763 0 0 0 0 -271.14924092198271 91.253940461421735 0 91.253940461421735 202.06942394221915 0 0 0 0 -321.10989128585334 -16.392143834062153 0 -16.392143834062153 122.81932321684144 0 0 0 0 -281.89154606626278 -38.520082771550733 0 -38.520082771550733 103.75410050907522 0 0 0 0 -279.74270831835202 5.4181177143473178 0 5.4181177143473178 76.408901711245562 0 0 0 0 -282.6160944831272 -28.526521470208536 0 -28.526521470208536 -12.161596636957256 0 0 0 0 -243.75672305961348 -156.81131658397135 0 -156.81131658397135 52.716511807986535 0 0 0 0 -245.11457785245148 -140.41004827480356 0 -140.41004827480356 -58.251848592881288 0 0 0 0 -254.20050514804734 -224.84952256843826 0 -224.84952256843826 54.080150726374995 0 0 0 0 -67.490430399971729 -152.08287023490266 0 -152.08287023490266 59.133908312709536 0 0 0 0 -175.94550331787286 -95.061039580272336 0 -95.061039580272336 45.760017793336374 0 0 0 0 -394.45772027980706 -47.165300297930116 0 -47.165300297930116 99.03216857330699 0 0 0 0 -323.07275664961617 -61.413547420102987 0 -61.413547420102987 41.122988150082165 0 0 0 0 -281.72859900973867 -149.26906136435355 0 -149.26906136435355 150.93406503426377 0 0 0 0 -351.22426887955226 -117.86050916334352 0 -117.86050916334352 136.92552955643623 0 0 0 0 -383.31732288169951 -53.142726878475514 0 -53.142726878475514 32.261400677525671 0 0 0 0 -427.2455979995882 -66.744751104124589 0 -66.744751104124589 698.11752668843837 0 0 0 0 -431.75952566355772 -451.47742493978876 0 -451.47742493978876 242.67368697557686 0 0 0 0 82.413617985833298 213.53480739556107 0 213.53480739556107 389.71842673633364 0 0 0 0 536.03620991240314 587.26034187659388 0 587.26034187659388 563.74722580399703 0 0 0 0 1.2060816536742394 -1.5684501966099376 0 -1.5684501966099376 4.08275910704117 0 0 0 0 -32.65731530712128 52.20857379156223 0 52.20857379156223 63.275018162414199 0 0 0 0 -1.5557957421884083 4.6162127851941364 0 4.6162127851941364 5.6163907890041003 0 0 0 0 -468.97349553647837 -558.76752331156604 0 -558.76752331156604 -452.69193031556915 0 0 0 0 382.3455904019911 407.75339985645405 0 407.75339985645405 269.09197002814471 0 0 0 0 3.1243752952535129 -2.9524217033033722 0 -2.9524217033033722 15.236195877005088 0 0 0 0 -679.67209068310876 -261.05258665123256 0 -261.05258665123256 -106.3164029093241 0 0 0 0 -333.03306558901113 28.830117954334128 0 28.830117954334128 -115.77253129769815 0 0 0 0 -545.94873121297132 -84.222604511189274 0 -84.222604511189274 -73.389739561229362 0 0 0 0 -250.99599452227767 -153.49938959072369 0 -153.49938959072369 -250.40772150210978 0 0 0 0 -327.84189419213931 -77.08258421505343 0 -77.08258421505343 101.93199231677863 0 0 0 0 0.20378418796533992 -0.84442534608820097 0 -0.84442534608820097 4.9072100360803859 0 0 0 0 -103.59822112160145 155.63748438025505 0 155.63748438025505 -71.758031247583858 0 0 0 0 -111.7521164804084 226.98549589994218 0 226.98549589994218 301.90644573142345 0 0 0 0 245.1325621885353 150.33270316223206 0 150.33270316223206 251.95501733091078 0 0 0 0 -30.088770559234035 233.3321133378704 0 233.3321133378704 330.71915910771349 0 0 0 0 -35.135750359615486 133.11739313187718 0 133.11739313187718 95.457572597792023 0 0 0 0 -295.11400955426097 100.5855507991364 0 100.5855507991364 275.64491013492807 0 0 0 0 -84.805930913769771 186.76213513703988 0 186.76213513703988 151.44003666438221 0 0 0 0 98.034410664809741 82.26577549081685 0 82.26577549081685 160.1634601187543 0 0 0 0 -3.5382302344286023 -9.0296816813769425 0 -9.0296816813769425 31.971198030681052 0 0 0 0 -24.589395014597812 -28.073615649977 0 -28.073615649977 2.6610141385172028 0 0 0 0 -22.35480251966419 -39.484560548400623 0 -39.484560548400623 10.962138669434353 0 0 0 0 -11.640682002430367 -24.002052306786936 0 -24.002052306786936 19.070283882232616 0 0 0 0 3.2771704454899009 -28.852690088388044 0 -28.852690088388044 0.68115052433768142 0 0 0 0 3.4978754445277573 -44.149315349461403 0 -44.149315349461403 16.208923374273581 0 0 0 0 2.5764272134756716 -66.949123702703218 0 -66.949123702703218 90.216506082870183 0 0 0 0 56.066839064235864 -173.42303211862964 0 -173.42303211862964 186.69981204663054 0 0 0 0 -7.9676154764551796 -17.337721184331514 0 -17.337721184331514 -11.325025166875179 0 0 0 0 -23.04838212348659 -41.057459045783617 0 -41.057459045783617 31.759099083956244 0 0 0 0 11.902717702044356 -41.983385900239227 0 -41.983385900239227 107.09581702642754 0 0 0 0 -0.23525873856090973 -2.7283791299794871 0 -2.7283791299794871 -2.0516584622426421 0 0 0 0 67.553207457317967 -35.395757841699378 0 -35.395757841699378 389.7352437984955 0 0 0 0 11.335259285537632 47.981500567315379 0 47.981500567315379 442.25774139564601 0 0 0 0 -15.148174043297786 45.344280471035745 0 45.344280471035745 258.46202521304076 0 0 0 0 103.45406839947015 22.615785329064238 0 22.615785329064238 168.08129755791742 0 0 0 0 -23.58287462900919 11.551939415954621 0 11.551939415954621 123.7654111651791 0 0 0 0 -28.388994646024031 2.4349980689548829 0 2.4349980689548829 143.30947200698574 0 0 0 0 20.953646793747112 81.680922132072737 0 81.680922132072737 47.969289093583939 0 0 0 0 -14.494901139400412 57.689104427452548 0 57.689104427452548 130.5191357274598 0 0 0 0 -6.1140404600914735 88.501422887122317 0 88.501422887122317 156.84436849771555 0 0 0 0 0.58314566559500847 6.5479286710620244 0 6.5479286710620244 -10.892558312832364 0 0 0 0 -44.066733652463881 151.63531901359966 0 151.63531901359966 114.79926412682107 0 0 0 0 59.576758946355085 -13.895754364952154 0 -13.895754364952154 137.19129259837791 0 0 0 0 80.348385515657355 23.221512019576039 0 23.221512019576039 -2.9597752916743048 0 0 0 0 95.589568208843048 46.719016512754024 0 46.719016512754024 142.24540532568608 0 0 0 0 14.682986930931634 148.55956880478243 0 148.55956880478243 382.13563641600194 0 0 0 0 -17.331081712922241 16.833749041004921 0 16.833749041004921 483.75246069002606 0 0 0 0 11.299430649349233 190.55913517437148 0 190.55913517437148 304.6974771640671 0 0 0 0 8.2610993762336911 4.4095291424198138 0 4.4095291424198138 -2.0786041868397547 0 0 0 0 -0.73421517477390807 206.78210438463429 0 206.78210438463429 285.85895198191247 0 0 0 0 -463.87119369783761 -336.17791158632372 0 -336.17791158632372 113.50686884866445 0 0 0 0 -9.9287754940691855 -1.3965316801952312 0 -1.3965316801952312 38.893851757607592 0 0 0 0 10.392741669433235 28.64112291962374 0 28.64112291962374 109.12599451198184 0 0 0 0 -295.27660294204907 -43.562756762155914 0 -43.562756762155914 -14.449529207326123 0 0 0 0 -319.09836211438369 -24.875585480178415 0 -24.875585480178415 55.701569910175749 0 0 0 0 -277.23669298999511 21.440492390429426 0 21.440492390429426 -13.905144679854857 0 0 0 0 -335.6162216193411 -58.138972615590319 0 -58.138972615590319 -11.244378850526118 0 0 0 0 -230.64852180849903 11.003414170867472 0 11.003414170867472 90.618540737006697 0 0 0 0 -7.4667032017088335 -8.5515719311208116 0 -8.5515719311208116 52.356652640312603 0 0 0 0 -204.79346545701986 230.6236380711216 0 230.6236380711216 35.509318687778432 0 0 0 0 -3.4302642513283845 -14.475578444135095 0 -14.475578444135095 60.643507362469904 0 0 0 0 76.834615271576695 264.58361024764599 0 264.58361024764599 -135.67143115184444 0 0 0 0 -171.03641892847691 -105.29569514617469 0 -105.29569514617469 21.899837136767019 0 0 0 0 -297.48206275755547 1.2713524599530501 0 1.2713524599530501 41.516684711546986 0 0 0 0 -183.26144902026454 -50.892829736705608 0 -50.892829736705608 25.296176956559066 0 0 0 0 -96.688594776408195 -47.69271518091773 0 -47.69271518091773 17.354783215254429 0 0 0 0 -123.25307058267077 -87.619640046152199 0 -87.619640046152199 29.761141641130962 0 0 0 0 -56.543941433473719 -63.116357025246543 0 -63.116357025246543 37.305551576799189 0 0 0 0 -165.03502402503659 -20.62669638287116 0 -20.62669638287116 75.506604893816984 0 0 0 0 -153.0995415065704 -55.174928950371395 0 -55.174928950371395 69.562353374320992 0 0 0 0 -276.0616527549505 -183.26662892176682 0 -183.26662892176682 23.540819875146553 0 0 0 0 -17.105303331222188 40.496779358900312 0 40.496779358900312 65.094456663224264 0 0 0 0 -112.97033721111927 -19.744315876196197 0 -19.744315876196197 -35.090620412054705 0 0 0 0 -1.1147251744753088 -17.298548056082609 0 -17.298548056082609 63.73728219037929 0 0 0 0 -96.340270747908676 -75.316020188551192 0 -75.316020188551192 138.0746929618108 0 0 0 0 -35.087158695832159 -141.41921800459386 0 -141.41921800459386 -90.485219069567393 0 0 0 0 -23.862258955995912 140.47735642058251 0 140.47735642058251 28.492460879806458 0 0 0 0 -68.464466228935407 63.111644281350891 0 63.111644281350891 341.43617638107389 0 0 0 0 5.4766574828378207 1.1381962854786138 0 1.1381962854786138 -2.2746580779965626 0 0 0 0 -137.88436883701843 -8.1078588562522782 0 -8.1078588562522782 546.06030833787372 0 0 0 0 81.368684092737453 57.238481022533961 0 57.238481022533961 341.06966870382894 0 0 0 0 -199.32458182122946 201.99934539635433 0 201.99934539635433 377.4387758752564 0 0 0 0 -122.35721690942773 -494.86712219134643 0 -494.86712219134643 286.07652829098515 0 0 0 0 102.00488908539705 61.90063904206545 0 61.90063904206545 -37.365314153423242 0 0 0 0 229.54711161299923 7.1042778552400705 0 7.1042778552400705 -22.824162541306578 0 0 0 0 47.983058760733911 61.801756949294941 0 61.801756949294941 93.761856689838169 0 0 0 0 -4.8293311226317064 13.766241496173222 0 13.766241496173222 -9.020205983665079 0 0 0 0 6.1488975222683848 27.952627929298615 0 27.952627929298615 24.909465658511181 0 0 0 0 0.57744930515745807 45.384685554475254 0 45.384685554475254 67.17060273399693 0 0 0 0 -3.7156063328586129 31.356577988284698 0 31.356577988284698 34.623454465501709 0 0 0 0 -20.07809357893208 18.372263939265395 0 18.372263939265395 30.997737285797484 0 0 0 0 1.5777813007527777 20.67726590431937 0 20.67726590431937 8.1220934298221863 0 0 0 0 -13.612168704931229 -13.3731907876886 0 -13.3731907876886 147.18568252693512 0 0 0 0 -18.092372871991785 29.143491320492103 0 29.143491320492103 56.460134898836259 0 0 0 0 0.87205153275243386 -0.69866232062832978 0 -0.69866232062832978 1.3228193411556219 0 0 0 0 40.138318145053375 -65.719844379782444 0 -65.719844379782444 9.3301648601554916 0 0 0 0 42.895166512507487 -112.02465842859738 0 -112.02465842859738 130.71264506953594 0 0 0 0 1.6520109405897867 -0.75667493227939531 0 -0.75667493227939531 9.5698797495930989 0 0 0 0 51.997761339716817 150.8122759724356 0 150.8122759724356 348.28297974381712 0 0 0 0 81.626315053843058 240.35782820238728 0 240.35782820238728 618.64393601717893 0 0 0 0 63.722441116813229 102.82882945557503 0 102.82882945557503 315.83218783608754 0 0 0 0 31.159708571056143 155.9880285780564 0 155.9880285780564 240.41714271229284 0 0 0 0 35.325099582793428 -62.273125306994189 0 -62.273125306994189 231.75790476326392 0 0 0 0 55.105056787401736 48.186031692115648 0 48.186031692115648 185.26635896037624 0 0 0 0 64.72013398043822 -56.434127509812242 0 -56.434127509812242 415.3320251056939 0 0 0 0 130.38392675900218 -8.1540339167186175 0 -8.1540339167186175 176.36782836753991 0 0 0 0 85.872907350566791 -58.91421249402174 0 -58.91421249402174 58.077427280921256 0 0 0 0 36.94878790731903 -44.599575731284858 0 -44.599575731284858 69.566349534332403 0 0 0 0 75.068831756206876 27.152182146070118 0 27.152182146070118 156.28362740395823 0 0 0 0 52.11803767025151 -50.119949122439721 0 -50.119949122439721 65.238264220170095 0 0 0 0 50.237297058250469 -99.281433431848654 0 -99.281433431848654 -33.844214640615974 0 0 0 0 -65.276014169045993 -102.48723468607932 0 -102.48723468607932 67.899095317760612 0 0 0 0 -0.026753875613373723 -27.732730949224788 0 -27.732730949224788 129.30395258734643 0 0 0 0 3.1108167372276441 21.19567598325375 0 21.19567598325375 202.3475710243074 0 0 0 0 41.353567937826796 24.20808669955295 0 24.20808669955295 119.05104431180371 0 0 0 0 7.1654825448206623 -7.9076953627372859 0 -7.9076953627372859 174.23612291991594 0 0 0 0 57.717687171505801 74.796542907988623 0 74.796542907988623 293.5600446768658 0 0 0 0 0.065635513089056116 -25.254294199745345 0 -25.254294199745345 260.78252235791297 0 0 0 0 -21.575810351799575 -32.022570235480089 0 -32.022570235480089 263.72370224991027 0 0 0 0 -34.846218292656104 -31.248222167196218 0 -31.248222167196218 366.94884409591396 0 0 0 0 51.032785533220803 40.525803690296016 0 40.525803690296016 13.268665004274226 0 0 0 0 7.3164051796875889 21.344398197932037 0 21.344398197932037 15.246482688613384 0 0 0 0 -2.3385283254304765 1.5393035437446088 0 1.5393035437446088 22.972088938229717 0 0 0 0 1.5977908185658891 2.6667565414063006 0 2.6667565414063006 3.5539230552183199 0 0 0 0 0.012219137572675219 -1.5015052237716233 0 -1.5015052237716233 25.526895651099039 0 0 0 0 15.495350913836553 65.690904812508961 0 65.690904812508961 220.93086250434862 0 0 0 0 -7.7254795683061221 -1.3679321723902831 0 -1.3679321723902831 25.534208307877634 0 0 0 0 -0.062140930254345882 -5.5065519785639481 0 -5.5065519785639481 25.975437328466796 0 0 0 0 -8.295621390972995 -5.4192977348866407 0 -5.4192977348866407 28.43018395639956 0 0 0 0 -1.6903386065300545 2.3932449281523134 0 2.3932449281523134 4.8119002098515438 0 0 0 0 -0.53592478274891875 -1.2468251730006159 0 -1.2468251730006159 36.903301514743362 0 0 0 0 24.925791924612277 4.085871866918751 0 4.085871866918751 35.878885947053277 0 0 0 0 -1.2323415400906939 -5.9532276083991746 0 -5.9532276083991746 38.275972568604629 0 0 0 0 4.7602056959485752 -16.680229816467545 0 -16.680229816467545 22.307085219741566 0 0 0 0 -14.262630059879754 -17.604258995414057 0 -17.604258995414057 27.59349942591507 0 0 0 0 -4.4971214292240802 12.64757137822744 0 12.64757137822744 65.031609831894457 0 0 0 0 -5.1998988888556674 -6.7662456624198626 0 -6.7662456624198626 44.542244788772166 0 0 0 0 -0.61587679811157159 17.012303591964155 0 17.012303591964155 67.468085417189286 0 0 0 0 -14.205786693626862 37.574027572889463 0 37.574027572889463 65.543260939384709 0 0 0 0 -18.593883100902531 23.392392522197042 0 23.392392522197042 100.08111896293121 0 0 0 0 -29.122731455723681 -7.2214805681287544 0 -7.2214805681287544 75.26570614476077 0 0 0 0 -26.898824818379808 4.1638924507496995 0 4.1638924507496995 61.189951379557897 0 0 0 0 -3.458363553701413 -10.623583713093836 0 -10.623583713093836 46.255930027838986 0 0 0 0 -37.322373093647457 -9.9062812486372422 0 -9.9062812486372422 68.479968096929952 0 0 0 0 -25.894515117902188 -53.138940092503617 0 -53.138940092503617 53.980152334384002 0 0 0 0 -27.98673382819419 -2.9738677519817429 0 -2.9738677519817429 61.796248561338871 0 0 0 0 -11.294911935556383 -20.26909947045425 0 -20.26909947045425 -8.3469144001854261 0 0 0 0 -17.327305127493219 -38.026001952286606 0 -38.026001952286606 62.036603949978598 0 0 0 0 -4.9895457143156818 -44.012289396050619 0 -44.012289396050619 33.679888602477149 0 0 0 0 25.08330614740953 -24.619986172794597 0 -24.619986172794597 22.524475998536218 0 0 0 0 -18.153842064506534 0.88405971518659499 0 0.88405971518659499 -11.60487100109458 0 0 0 0 -4.0713946180442395 -0.010364440928825047 0 -0.010364440928825047 1.4391473517871987 0 0 0 0 4.7489469320176454 31.7646642789623 0 31.7646642789623 50.908461168051872 0 0 0 0 -40.234944552428985 -21.300479226156313 0 -21.300479226156313 99.060375110173482 0 0 0 0 -5.1106400022570657 -14.337421590289367 0 -14.337421590289367 48.321313265942365 0 0 0 0 -9.5295358069891964 1.0290692737280835 0 1.0290692737280835 34.00131958917504 0 0 0 0 1.384269386742323 -0.4260739581240216 0 -0.4260739581240216 12.224483899040138 0 0 0 0 -2.075993358941485 0.60876770314484929 0 0.60876770314484929 7.3096361905117533 0 0 0 0 22.932738960140838 6.1758800723619061 0 6.1758800723619061 28.582134896816569 0 0 0 0 -11.944797971842803 10.954268540073826 0 10.954268540073826 138.93331197538646 0 0 0 0 83.320666354167059 -108.14135189920489 0 -108.14135189920489 -17.729701226591715 0 0 0 0 -15.05334353654024 27.093315901409369 0 27.093315901409369 109.21791705960641 0 0 0 0 -0.59854817043031971 0.46423432270489684 0 0.46423432270489684 2.1379121389452393 0 0 0 0 12.866473119438837 -38.23024291411275 0 -38.23024291411275 143.32481816054496 0 0 0 0 103.8535472450661 108.30556677654386 0 108.30556677654386 82.75660250367946 0 0 0 0 0.27508565143889363 9.7002366982518797 0 9.7002366982518797 64.926385615457548 0 0 0 0 62.106252473151201 -23.310280378440439 0 -23.310280378440439 52.126329408521997 0 0 0 0 43.598711751251322 43.16097236200585 0 43.16097236200585 79.987956311008475 0 0 0 0 8.2648597756059274 -17.723608554126258 0 -17.723608554126258 52.229127973347204 0 0 0 0 -21.157332624608738 -49.757029662705463 0 -49.757029662705463 41.739598346059211 0 0 0 0 1.3834412378348375 6.9809641799729434 0 6.9809641799729434 41.759851481183432 0 0 0 0 -0.16104287535794271 -22.105030348073342 0 -22.105030348073342 119.72276268954374 0 0 0 0 0.11213515536473295 -24.641255113092484 0 -24.641255113092484 136.93889940946337 0 0 0 0 -40.550292377473191 37.692099797866831 0 37.692099797866831 30.649002316538827 0 0 0 0 1.7609916383515132 -5.1579393929578146 0 -5.1579393929578146 6.1573742940536533 0 0 0 0 76.288689416370516 232.20218789685896 0 232.20218789685896 580.52437708987873 0 0 0 0 97.036207860177797 142.87524832892814 0 142.87524832892814 569.26220195488713 0 0 0 0 -4.1917425463301079 23.465553286980139 0 23.465553286980139 -4.2074450379077462 0 0 0 0 -0.099978585066263129 11.772307543986244 0 11.772307543986244 18.469949888458359 0 0 0 0 0.069477007970294768 -1.6131151640348378 0 -1.6131151640348378 3.7112608605798698 0 0 0 0 -43.41494168000353 -80.91801756779023 0 -80.91801756779023 44.5341044803572 0 0 0 0 0.16556268257176437 177.44809794492176 0 177.44809794492176 1488.6808613330359 0 0 0 0 62.393346083107275 306.67594276427553 0 306.67594276427553 1481.9991027260839 0 0 0 0 62.426828005799933 -122.50964521904825 0 -122.50964521904825 867.57135196014133 0 0 0 0 209.54192700083883 284.6814088781357 0 284.6814088781357 726.18494572666532 0 0 0 0 -9.3543304720788001 50.968035722107743 0 50.968035722107743 971.46694172470598 0 0 0 0 25.289153893757202 90.778610147935979 0 90.778610147935979 603.22571909778344 0 0 0 0 -59.125952107138119 59.557838246291794 0 59.557838246291794 656.37189926768042 0 0 0 0 -39.265377007050233 35.403321185403911 0 35.403321185403911 508.66385915387946 0 0 0 0 61.221255746136649 173.71166438468208 0 173.71166438468208 574.32607790327165 0 0 0 0 -57.442091175149471 33.413070405862527 0 33.413070405862527 457.1280788686272 0 0 0 0 -59.99968751623237 31.159649983717827 0 31.159649983717827 523.87228765142208 0 0 0 0 -42.089756423235713 76.295213378212793 0 76.295213378212793 449.01026853409712 0 0 0 0 -26.920052548070089 116.25832906040887 0 116.25832906040887 514.79109110714126 0 0 0 0 -42.489466086350035 77.510928276427876 0 77.510928276427876 445.36753458157182 0 0 0 0 -0.86226268020163843 124.81511703056458 0 124.81511703056458 430.07808087739613 0 0 0 0 -10.771119012069448 101.17940474145144 0 101.17940474145144 512.99325873944326 0 0 0 0 92.248089603215021 218.97528707335732 0 218.97528707335732 449.95097905319199 0 0 0 0 -0.13851882381640807 5.6717971995258338 0 5.6717971995258338 7.520257611661691 0 0 0 0 43.983510271848786 9.9402968708527624 0 9.9402968708527624 76.59596057033923 0 0 0 0 504.02868929160593 -239.82160702545661 0 -239.82160702545661 121.94773166370578 0 0 0 0 47.27960058954497 -23.611462651137117 0 -23.611462651137117 50.49621173646301 0 0 0 0 -243.20495440348014 623.05334285756544 0 623.05334285756544 -39.652343506386387 0 0 0 0 52.707353829100612 129.11886530550692 0 129.11886530550692 276.34769889252493 0 0 0 0 23.495172829570947 49.635645337992173 0 49.635645337992173 267.2755903065472 0 0 0 0 0.80409651494744772 -2.1774116499928482 0 -2.1774116499928482 19.863962951868388 0 0 0 0 -12.391060339685282 79.556983413523994 0 79.556983413523994 326.29637408119743 0 0 0 0 4.7393153235614136 75.738465598886251 0 75.738465598886251 327.14424285697169 0 0 0 0 2.0918064998083059 28.102765415944447 0 28.102765415944447 25.049075839580425 0 0 0 0 1.0856596253622683 19.265986903526937 0 19.265986903526937 81.338557746861625 0 0 0 0 -4.8146304298273179 58.864246929653291 0 58.864246929653291 191.52966556536558 0 0 0 0 -2.265963495881488 -1.404307386197587 0 -1.404307386197587 9.9185170910002682 0 0 0 0 21.227756519669697 -18.947882366570411 0 -18.947882366570411 -10.166551271006028 0 0 0 0 22.748001414436501 -12.620442387982621 0 -12.620442387982621 45.681042420867016 0 0 0 0 -10.555570578197578 -24.209422974994595 0 -24.209422974994595 71.609300459560473 0 0 0 0 -43.58138692534925 -2.5937600979523268 0 -2.5937600979523268 93.655985497272923 0 0 0 0 16.25966577746857 -39.151787412687554 0 -39.151787412687554 79.401461241290235 0 0 0 0 -27.646368877864962 15.298828306418727 0 15.298828306418727 60.626709970383672 0 0 0 0 -15.133465928312559 -1.970236053311055 0 -1.970236053311055 58.273291142249946 0 0 0 0 -0.0062951636098621489 -9.2700134930564673 0 -9.2700134930564673 60.172268607377191 0 0 0 0 -0.21802575478217445 -0.4966772683301599 0 -0.4966772683301599 -0.89420828188453072 0 0 0 0 -0.18167968058127593 -54.651059308773256 0 -54.651059308773256 88.587005600275006 0 0 0 0 107.63367137603205 46.229382644582074 0 46.229382644582074 -68.885099917340995 0 0 0 0 -13.666132178612884 85.118848632235313 0 85.118848632235313 264.5066178721172 0 0 0 0 -48.362971108681677 -104.77310076131835 0 -104.77310076131835 187.26428381151345 0 0 0 0 0.90734080147531804 -1.2290095009285267 0 -1.2290095009285267 -0.014176585982994538 0 0 0 0 -19.216676306925876 -15.897752526143449 0 -15.897752526143449 -73.699684827923193 0 0 0 0 21.444657791094002 -93.090269238895416 0 -93.090269238895416 -118.46399043948622 0 0 0 0 14.828384039068638 -27.825043908458611 0 -27.825043908458611 -17.621710646075371 0 0 0 0 14.28556344391485 -99.497187302142265 0 -99.497187302142265 -16.464772620951408 0 0 0 0 0.11455600643566047 -40.489206541904423 0 -40.489206541904423 18.790451459972246 0 0 0 0 1.0558451154965454 -54.938723166967975 0 -54.938723166967975 -10.115311756671872 0 0 0 0 10.982013160497075 -6.5169867048898595 0 -6.5169867048898595 8.4036917798803188 0 0 0 0 15.860404441835781 -34.664765035239725 0 -34.664765035239725 49.712232086589211 0 0 0 0 19.462108636009198 6.6203785105199131 0 6.6203785105199131 63.366750751360087 0 0 0 0 4.4019300217587443 -121.13175715256511 0 -121.13175715256511 47.667782491567777 0 0 0 0 -4.2958604398647253 -106.75593531653431 0 -106.75593531653431 23.949411386922293 0 0 0 0 -25.661295561880252 -150.8338160127314 0 -150.8338160127314 18.892515047220513 0 0 0 0 31.537415535381911 -27.34054204691347 0 -27.34054204691347 39.828765068916255 0 0 0 0 -27.872268653653236 -44.480598248221213 0 -44.480598248221213 -6.7495777369913412 0 0 0 0 5.2850725291817753 -69.69933248237794 0 -69.69933248237794 11.674809660311439 0 0 0 0 -98.440045052076016 -83.22800031859515 0 -83.22800031859515 38.534150619685533 0 0 0 0 -12.955253336144892 -67.981897884892533 0 -67.981897884892533 -52.872534049864043 0 0 0 0 -184.51347559326382 -49.79846261300554 0 -49.79846261300554 -52.511877171418746 0 0 0 0 1.7635458941247897 -7.6918333615068519 0 -7.6918333615068519 -5.3184809114213181 0 0 0 0 -0.078520576562552069 -16.29602969374632 0 -16.29602969374632 90.171225126548563 0 0 0 0 2.1472414565789855 -0.84662285652308356 0 -0.84662285652308356 11.21974850463755 0 0 0 0 -31.69037852982774 16.820838287516381 0 16.820838287516381 110.39204185120616 0 0 0 0 -13.60854142778544 -26.590452654578257 0 -26.590452654578257 71.89567283658107 0 0 0 0 -0.096471106911186544 -14.401390371955131 0 -14.401390371955131 61.23702118927298 0 0 0 0 -20.207804071955593 -31.783326473130728 0 -31.783326473130728 70.020228284614859 0 0 0 0 -30.838489926321643 -95.683796032710234 0 -95.683796032710234 -59.870480181434687 0 0 0 0 -55.696812010389465 -77.811473137888242 0 -77.811473137888242 -24.964246039591671 0 0 0 0 -3.1969788292081529 -7.2960881048112256 0 -7.2960881048112256 68.862334839933794 0 0 0 0 -52.205937833060261 -45.85317005111574 0 -45.85317005111574 98.564573888259474 0 0 0 0 37.242147057195382 -0.15987789225800952 0 -0.15987789225800952 53.242427178425714 0 0 0 0 -35.801810981775134 -10.14343724336868 0 -10.14343724336868 135.68462996506423 0 0 0 0 8.7892828507469858 -13.037030353680166 0 -13.037030353680166 39.890637876618712 0 0 0 0 51.307070513077633 -42.873477469634963 0 -42.873477469634963 134.13728049653582 0 0 0 0 -11.1445951673727 -5.5737182186421705 0 -5.5737182186421705 112.4092322440556 0 0 0 0 8.2099213279518608 44.924123745600809 0 44.924123745600809 130.45101462552702 0 0 0 0 -58.516082594769841 18.346697421438876 0 18.346697421438876 119.86571067185287 0 0 0 0 -48.360317789355918 42.851873874132252 0 42.851873874132252 129.12037984871131 0 0 0 0 -41.032082448052961 -12.272720911929355 0 -12.272720911929355 59.543219116138062 0 0 0 0 -2.922840010097616 -21.185159606255183 0 -21.185159606255183 48.605526078241382 0 0 0 0 16.218706140437234 7.4912596979047521 0 7.4912596979047521 75.905862101368257 0 0 0 0 -47.849950353125791 -14.663964024894085 0 -14.663964024894085 72.079642446158687 0 0 0 0 -84.603155131441781 3.2944232113368344 0 3.2944232113368344 150.50272188223607 0 0 0 0 0.31555495609652473 -18.067231203626918 0 -18.067231203626918 61.084520138508651 0 0 0 0 -44.786858012143966 -35.726192244495905 0 -35.726192244495905 44.781270310233595 0 0 0 0 -0.031642796045364463 1.9680293407393066 0 1.9680293407393066 14.861871802833576 0 0 0 0 -56.177837872571331 -5.7377731747737926 0 -5.7377731747737926 57.404027084383415 0 0 0 0 -117.03854074134506 -108.45255442943744 0 -108.45255442943744 -43.220642973414215 0 0 0 0 38.153774385168049 124.46073506005814 0 124.46073506005814 161.71952266841254 0 0 0 0 0.15668887812931853 -0.67425703396796166 0 -0.67425703396796166 -0.88725635734613206 0 0 0 0 -110.24580998699162 -210.67107596351707 0 -210.67107596351707 59.90119431988569 0 0 0 0 -25.20463486819699 -144.55835281476902 0 -144.55835281476902 -137.01756292208302 0 0 0 0 -141.17166875074065 -24.461694295794587 0 -24.461694295794587 148.51040308336087 0 0 0 0 -138.46983571895066 -52.412905709326878 0 -52.412905709326878 138.67460957293224 0 0 0 0 -152.55104155505774 -45.117237719554396 0 -45.117237719554396 138.0507142192655 0 0 0 0 -110.44142714292832 24.155707169151356 0 24.155707169151356 128.18416097269801 0 0 0 0 -150.96891462861095 22.123051467038749 0 22.123051467038749 193.32468702355436 0 0 0 0 -119.21717054817168 12.445888365524297 0 12.445888365524297 120.49834936874686 0 0 0 0 -76.179792792026774 46.610906017194793 0 46.610906017194793 136.70374037729925 0 0 0 0 -85.437517253722035 85.068974471025285 0 85.068974471025285 104.99587734984379 0 0 0 0 -132.99204969059883 105.10429568389372 0 105.10429568389372 166.73592687689961 0 0 0 0 -35.577570690326183 68.797947544881026 0 68.797947544881026 109.88720767509221 0 0 0 0 -44.343282836747392 54.253780269975323 0 54.253780269975323 86.703296605723153 0 0 0 0 -35.876018376557113 -57.80996016372228 0 -57.80996016372228 439.63429000309407 0 0 0 0 9.6304345420049344 25.765817842494641 0 25.765817842494641 10.916343317477157 0 0 0 0 -22.066264512232237 31.747206874926633 0 31.747206874926633 107.727460565824 0 0 0 0 -14.252324201054307 -1.5046003028255654 0 -1.5046003028255654 161.46124787355438 0 0 0 0 26.119992083370903 -8.7375233126549574 0 -8.7375233126549574 96.558837001917709 0 0 0 0 -1.2147967656368577 4.5765985471783068 0 4.5765985471783068 16.845261806354358 0 0 0 0 5.4586553159025364 25.150186959556123 0 25.150186959556123 13.219204557026465 0 0 0 0 -6.6702867547855931 21.781041994021507 0 21.781041994021507 302.45443550989876 0 0 0 0 16.603461107917383 67.506114147789049 0 67.506114147789049 276.11338173471449 0 0 0 0 -14.804315857568668 -11.804273322352856 0 -11.804273322352856 399.64804354068474 0 0 0 0 -20.215948423597467 -37.746885461116108 0 -37.746885461116108 464.98391299926152 0 0 0 0 -42.271741438815297 51.721574100120051 0 51.721574100120051 413.96523691849143 0 0 0 0 -43.788957940712862 47.891630531637929 0 47.891630531637929 422.23945586009359 0 0 0 0 -48.119070696883682 54.552725498389918 0 54.552725498389918 405.63064429314909 0 0 0 0 -17.235493994717899 65.308314588131907 0 65.308314588131907 402.16592397984641 0 0 0 0 -49.148096838811853 49.450205156994343 0 49.450205156994343 426.90589515576721 0 0 0 0 -63.71253078843074 38.843404731465853 0 38.843404731465853 469.3583508552183 0 0 0 0 -43.324846816412901 41.193466396740405 0 41.193466396740405 430.38595404628359 0 0 0 0 -63.536205099984173 25.843641528485023 0 25.843641528485023 418.80080957041355 0 0 0 0 -26.163303230149722 39.704417108900088 0 39.704417108900088 411.82685839915212 0 0 0 0 -16.676302315449902 53.033499257246149 0 53.033499257246149 412.98670447628683 0 0 0 0 -41.058717013488604 48.605255140399095 0 48.605255140399095 422.31156364905473 0 0 0 0 -18.917583146992911 80.551981551299832 0 80.551981551299832 281.07257193645637 0 0 0 0 -39.24543536010242 174.56841183609504 0 174.56841183609504 532.37223211233868 0 0 0 0 -16.041168209873376 246.27902719467238 0 246.27902719467238 149.4506938548584 0 0 0 0 -146.03610108607063 393.11419300734269 0 393.11419300734269 687.03859053740234 0 0 0 0 18.827492091350223 -183.65496905701366 0 -183.65496905701366 640.91332390464959 0 0 0 0 -192.11178574538462 38.396452372573549 0 38.396452372573549 864.59441542605055 0 0 0 0 -95.498920961976182 37.479387267652783 0 37.479387267652783 505.57260601326379 0 0 0 0 -70.087188238681392 29.07262370512035 0 29.07262370512035 488.42635577092005 0 0 0 0 -72.686630438995508 -26.999825046663318 0 -26.999825046663318 907.78552958004002 0 0 0 0 -67.357655487803413 -25.909983255116458 0 -25.909983255116458 897.51824991451576 0 0 0 0 255.10809659360189 54.968718794436427 0 54.968718794436427 552.70160671968188 0 0 0 0 -45.843413535532818 -106.95880747663614 0 -106.95880747663614 1027.820185568562 0 0 0 0 3.3718726634790706 1.8252108196545862 0 1.8252108196545862 5.1366504696726452 0 0 0 0 111.79481904727163 48.540592003730126 0 48.540592003730126 39.964356288706767 0 0 0 0 -3.235810923483232 -0.41624742589888797 0 -0.41624742589888797 5.717567635750207 0 0 0 0 17.063658688090982 -246.45345197209826 0 -246.45345197209826 1031.9393997296283 0 0 0 0 39.854343438300475 -88.793449141325254 0 -88.793449141325254 620.29529238014948 0 0 0 0 7.1372548076326723 -7.6184342250576265 0 -7.6184342250576265 5.3623832870342873 0 0 0 0 37.195468456182425 -182.62422245362541 0 -182.62422245362541 883.91746797558153 0 0 0 0 -11.250750146336941 27.054452845775813 0 27.054452845775813 836.86152101912739 0 0 0 0 4.9982041325214581 -5.7721270389796757 0 -5.7721270389796757 1.6819031700525571 0 0 0 0 56.189579337303257 -176.08505573931325 0 -176.08505573931325 1067.3399586309824 0 0 0 0 118.56529261606829 -89.126472270247177 0 -89.126472270247177 915.48314631609537 0 0 0 0 -3.158059775170841 10.922249709983589 0 10.922249709983589 63.218336067513519 0 0 0 0 -66.960959260308755 -145.47934223199991 0 -145.47934223199991 1368.3203797834431 0 0 0 0 12.124531766839111 15.975606540386053 0 15.975606540386053 6.7991047881408377 0 0 0 0 13.779822627200321 22.513004383018995 0 22.513004383018995 9.5273016230528924 0 0 0 0 6.2840576407083972 270.42016460669402 0 270.42016460669402 -383.33916368428982 0 0 0 0 134.65557449485232 190.48922584207321 0 190.48922584207321 -139.87674659705954 0 0 0 0 -225.76983885333948 80.404870061654947 0 80.404870061654947 -169.83290767173457 0 0 0 0 36.417068510394074 -31.267551815333718 0 -31.267551815333718 -341.86221008033317 0 0 0 0 -19.124911114813358 -7.9239467529350804 0 -7.9239467529350804 -20.860507067860453 0 0 0 0 -92.060614762112664 163.86674898683123 0 163.86674898683123 117.46002133918228 0 0 0 0 -37.931919416147309 270.36059462229787 0 270.36059462229787 -3.1764645258808741 0 0 0 0 -56.403397162481724 92.468196003064804 0 92.468196003064804 -121.08833051918191 0 0 0 0 13.098701399094617 25.162739290963884 0 25.162739290963884 10.772194553126866 0 0 0 0 -48.55619798325165 165.29301780898822 0 165.29301780898822 -53.674341215408276 0 0 0 0 -47.154396496420759 105.99511843442451 0 105.99511843442451 4.4419144128332846 0 0 0 0 -108.52215715352918 179.34648857684078 0 179.34648857684078 143.74259784152673 0 0 0 0 -132.45888905489915 119.97870916372631 0 119.97870916372631 272.53171371118515 0 0 0 0 -102.53873123570838 151.13948667265504 0 151.13948667265504 135.95294009414647 0 0 0 0 -136.12389289185114 -25.685973693868618 0 -25.685973693868618 450.2181787675072 0 0 0 0 -143.01335245432824 14.90665030339369 0 14.90665030339369 212.82854683115875 0 0 0 0 -150.08285688157821 35.315883263268915 0 35.315883263268915 262.36723518460803 0 0 0 0 -160.45115275874832 -20.593551891499374 0 -20.593551891499374 214.49488003484794 0 0 0 0 -68.627303219864785 7.2286624182311243 0 7.2286624182311243 150.13477593641437 0 0 0 0 -69.479222684145512 -7.9972710084209666 0 -7.9972710084209666 149.69964298960986 0 0 0 0 -137.11505183260488 -25.828885884500778 0 -25.828885884500778 149.30841369020345 0 0 0 0 -223.29416276741699 33.807888350056601 0 33.807888350056601 140.08551206775883 0 0 0 0 -187.15583789427774 -37.653858622856205 0 -37.653858622856205 147.35171451688802 0 0 0 0 345.23720089408141 488.75818409076055 0 488.75818409076055 -368.18729672094196 0 0 0 0 318.12371704307759 -165.84493961621956 0 -165.84493961621956 -70.128528052584443 0 0 0 0 -31.548174676471035 16.409979218409717 0 16.409979218409717 151.37465026829159 0 0 0 0 1.6815291490323068 8.1919546355623893 0 8.1919546355623893 19.603210925922809 0 0 0 0 -16.254195141474383 -60.059667239973351 0 -60.059667239973351 198.56230221959049 0 0 0 0 2.4747483590374917 4.3863716915503659 0 4.3863716915503659 7.7546275069270507 0 0 0 0 18.416443582752891 -202.28513232635669 0 -202.28513232635669 779.34033596036898 0 0 0 0 -75.202466188235348 272.33711655653678 0 272.33711655653678 423.25645764757064 0 0 0 0 11.239855741613155 167.19432776747271 0 167.19432776747271 116.68654950678047 0 0 0 0 444.34469012805278 81.988192139218881 0 81.988192139218881 -3.4226778663214645 0 0 0 0 147.70575676987437 409.98896910825715 0 409.98896910825715 543.9407935377385 0 0 0 0 205.99698077047697 -204.55355918966598 0 -204.55355918966598 220.92986512172502 0 0 0 0 38.284505199000705 190.96875623108281 0 190.96875623108281 522.49791363154145 0 0 0 0 11.834331521773947 30.326750356496632 0 30.326750356496632 118.36412071755331 0 0 0 0 351.92966171022181 372.53035214142074 0 372.53035214142074 221.98310409305122 0 0 0 0 196.96853859251746 216.73457734960721 0 216.73457734960721 97.308023454839713 0 0 0 0 180.08291911361675 229.94971993366198 0 229.94971993366198 141.07125987499603 0 0 0 0 205.11511235652401 196.10810804005948 0 196.10810804005948 89.818024537569727 0 0 0 0 -67.676857074884538 73.758594256123615 0 73.758594256123615 144.33398212191241 0 0 0 0 86.954899235754056 119.9978940758192 0 119.9978940758192 153.99264594235137 0 0 0 0 205.18816235533217 144.94139033400944 0 144.94139033400944 140.36425865041383 0 0 0 0 71.257235452465466 176.71610329899704 0 176.71610329899704 134.20994716107089 0 0 0 0 96.603431756566351 142.64729343282124 0 142.64729343282124 84.414429731259588 0 0 0 0 10.182854897042489 162.77087813357502 0 162.77087813357502 231.08152797741786 0 0 0 0 -31.487505759616397 23.708110680308891 0 23.708110680308891 86.777672258564508 0 0 0 0 -53.930415560196252 43.905367979394214 0 43.905367979394214 69.559573335689493 0 0 0 0 -62.946368438278569 19.086044549905637 0 19.086044549905637 1.674869556001795 0 0 0 0 -163.95907509352128 -94.94399085763871 0 -94.94399085763871 47.025970964446969 0 0 0 0 -0.31016912563755028 -4.1858123930380344 0 -4.1858123930380344 10.585610457974951 0 0 0 0 -73.518552420174274 76.222488310133485 0 76.222488310133485 111.40381332158722 0 0 0 0 -103.12170264387714 -225.8977673004847 0 -225.8977673004847 -7.5260517321094085 0 0 0 0 -159.88289061677642 -162.58149763014808 0 -162.58149763014808 94.293084413104225 0 0 0 0 -28.230743261702628 103.7009069512369 0 103.7009069512369 70.214342698105611 0 0 0 0 -30.66379503387725 74.249247305539029 0 74.249247305539029 140.62828233485925 0 0 0 0 -0.50772981013142271 124.12897349752166 0 124.12897349752166 173.10954242061416 0 0 0 0 22.843892025211971 122.56946122636873 0 122.56946122636873 147.71398969776055 0 0 0 0 36.895437983865122 107.47349384064728 0 107.47349384064728 163.08577350713313 0 0 0 0 9.6797440305927012 112.25818979881296 0 112.25818979881296 186.48051892900548 0 0 0 0 -31.145027183933053 22.414549527253257 0 22.414549527253257 252.37024797775121 0 0 0 0 4.0861461867953039 64.689702352145105 0 64.689702352145105 189.48079533943383 0 0 0 0 -34.057586978829931 83.400741559664311 0 83.400741559664311 265.38106432708446 0 0 0 0 80.079762513872993 184.57260142023733 0 184.57260142023733 314.34543523007233 0 0 0 0 35.044216011241588 103.6596259743601 0 103.6596259743601 174.03486443441216 0 0 0 0 -29.767631176417126 15.952972440732992 0 15.952972440732992 282.52089546418392 0 0 0 0 -63.114286445442758 43.010115417118868 0 43.010115417118868 145.46876788584632 0 0 0 0 -0.46951065950139892 -3.3760424188327676 0 -3.3760424188327676 9.1350988138240723 0 0 0 0 -14.027442812752156 55.67898117797813 0 55.67898117797813 138.91804842201236 0 0 0 0 53.543408193887444 3.9850258655915241 0 3.9850258655915241 -64.120186460386321 0 0 0 0 -7.4880698309207219 82.55021730603039 0 82.55021730603039 -202.81147132438491 0 0 0 0 83.617087818307937 -151.87805783578915 0 -151.87805783578915 145.66773461783305 0 0 0 0 16.914136753181083 98.910377094529395 0 98.910377094529395 429.85257092876782 0 0 0 0 83.919236944423915 215.15157144803834 0 215.15157144803834 380.2816681330587 0 0 0 0 -0.91777588463190973 -0.9835321864216553 0 -0.9835321864216553 4.5180631824715647 0 0 0 0 105.71125725870297 -180.05902905956464 0 -180.05902905956464 -76.868826159998662 0 0 0 0 2.2238337740116947 -0.66179756899632025 0 -0.66179756899632025 -3.0155933729193194 0 0 0 0 -253.03825160033648 -171.06105092672533 0 -171.06105092672533 -1434.2995790932764 0 0 0 0 217.71389050002745 40.127317576072528 0 40.127317576072528 335.7684943205677 0 0 0 0 94.256355419516694 370.87528993552405 0 370.87528993552405 -714.08655376825482 0 0 0 0 90.593004219135764 858.48267705331091 0 858.48267705331091 -636.44547931048146 0 0 0 0 -129.25620744303433 425.27452829835966 0 425.27452829835966 113.48357206782521 0 0 0 0 -80.022763174318243 106.52868551173015 0 106.52868551173015 1214.186399236838 0 0 0 0 -317.80890230608748 -279.53228047685843 0 -279.53228047685843 2079.780467381468 0 0 0 0 1.6018613950444269 -2.8574335782253399 0 -2.8574335782253399 1.9068438347887451 0 0 0 0 -418.50446240340534 362.73563179885969 0 362.73563179885969 47.117984026037448 0 0 0 0 6.0233852821805591 4.6222604659040485 0 4.6222604659040485 2.0875261998383081 0 0 0 0 191.95872347320983 -310.35306246835171 0 -310.35306246835171 1844.7805969695837 0 0 0 0 -11.961904665314565 -50.685901150200408 0 -50.685901150200408 68.734240814288924 0 0 0 0 -55.7557040843094 -130.37100841447318 0 -130.37100841447318 -0.35137947585462825 0 0 0 0 -160.33900967258887 -445.39925631925871 0 -445.39925631925871 2189.0677416833933 0 0 0 0 1171.0072740445321 -65.707282975694397 0 -65.707282975694397 498.88747952861013 0 0 0 0 27.098445611964053 -110.66273026952695 0 -110.66273026952695 -35.502497138309991 0 0 0 0 -58.492558382556837 -29.457101467681127 0 -29.457101467681127 77.979893239360536 0 0 0 0 -29.664672129632891 -127.37155820363841 0 -127.37155820363841 -26.408599395665078 0 0 0 0 -23.99647207717981 -44.997506379353212 0 -44.997506379353212 57.204049134660877 0 0 0 0 -13.023642659351026 27.26066267007991 0 27.26066267007991 241.49376480140199 0 0 0 0 7.4229585072502999 4.5841554747167947 0 4.5841554747167947 14.381292592629581 0 0 0 0 -235.93871292195035 229.19304705952891 0 229.19304705952891 21.342781389575975 0 0 0 0 219.53712963789621 258.30096408551617 0 258.30096408551617 -1637.924887894289 0 0 0 0 254.36797137907524 638.90058074348053 0 638.90058074348053 263.16188448700996 0 0 0 0 -73.772507914441576 -63.27448206353256 0 -63.27448206353256 372.36594411362603 0 0 0 0 -26.818902053685633 -69.112301572658907 0 -69.112301572658907 242.44376542863756 0 0 0 0 -110.55399570611007 -4.6609097576802014 0 -4.6609097576802014 284.19117065171667 0 0 0 0 -19.992709550366726 18.8978207177679 0 18.8978207177679 270.95221379084978 0 0 0 0 -53.840902348826603 43.65560823031592 0 43.65560823031592 285.50172620084777 0 0 0 0 -91.796513681036231 -4.5418362087184505 0 -4.5418362087184505 300.53272295645002 0 0 0 0 -3.82512102200144 -86.245466432792455 0 -86.245466432792455 117.6689268253831 0 0 0 0 -32.947275130579328 17.576974109979346 0 17.576974109979346 22.859167355000864 0 0 0 0 -92.485673673511883 121.61660105923147 0 121.61660105923147 310.67086417174141 0 0 0 0 216.74858713372032 -338.5733074798809 0 -338.5733074798809 26.80367702498188 0 0 0 0 -6.9795283073511243 -54.176846204040245 0 -54.176846204040245 67.919461815806812 0 0 0 0 0.2272575398801564 -171.58469492243603 0 -171.58469492243603 -168.26547697928254 0 0 0 0 62.151295545078483 15.09685318523043 0 15.09685318523043 -1.8910704147710931 0 0 0 0 -140.91550250683918 34.970113324407066 0 34.970113324407066 244.34888610595954 0 0 0 0 -88.735999359797233 173.43897297632429 0 173.43897297632429 371.448540498277 0 0 0 0 122.78237710227313 204.3419219068237 0 204.3419219068237 165.17083830281626 0 0 0 0 -6.5225871436659872 -106.52087667729211 0 -106.52087667729211 296.045427972982 0 0 0 0 -1.0061783849207355 4.878487343094946 0 4.878487343094946 10.230804852803544 0 0 0 0 4.7238467729439435 46.387122364776587 0 46.387122364776587 26.860389777059027 0 0 0 0 54.829376769988812 -56.317569912132967 0 -56.317569912132967 85.616560511494754 0 0 0 0 96.866885653952522 79.756408754441509 0 79.756408754441509 62.708711045794189 0 0 0 0 -10.164492481144862 12.950082318522618 0 12.950082318522618 97.647441226843512 0 0 0 0 -3.5365305946330352 23.477169675600848 0 23.477169675600848 53.733575109055195 0 0 0 0 -37.152549895587072 -1.9125658676348394 0 -1.9125658676348394 98.150567126154783 0 0 0 0 -6.1986747124966541 -3.1246069276321577 0 -3.1246069276321577 46.900027142575709 0 0 0 0 -2.2532361196592681 -7.5584034451883042 0 -7.5584034451883042 57.220446612709054 0 0 0 0 -19.676190304026932 -12.274717620388401 0 -12.274717620388401 103.90228845576348 0 0 0 0 -2.9611515473686403 6.5703557755092419 0 6.5703557755092419 28.966959536385218 0 0 0 0 -3.4128821838448857 0.3812583528997493 0 0.3812583528997493 46.578053748964521 0 0 0 0 -5.2605102431555224 -0.038721021505807585 0 -0.038721021505807585 46.703726022824412 0 0 0 0 -2.7845212162274358 -1.1905765034923945 0 -1.1905765034923945 7.3433388184585908 0 0 0 0 -2.6933501873201919 0.16379715571063969 0 0.16379715571063969 6.2758628049180629 0 0 0 0 -40.568141312635817 -19.134006029187731 0 -19.134006029187731 10.964459303417243 0 0 0 0 -3.9315053341570092 45.319435797613551 0 45.319435797613551 116.07097099633029 0 0 0 0 11.677120803410702 -25.765377686397869 0 -25.765377686397869 71.373560197593179 0 0 0 0 -7.1946580081360025 50.39198414536304 0 50.39198414536304 280.04573023301054 0 0 0 0 -82.287034890567156 -127.06308185843591 0 -127.06308185843591 -33.465296401387604 0 0 0 0 -0.98163746428905974 -1.3479237937908266 0 -1.3479237937908266 2.1156774269930878 0 0 0 0 -63.11142169037862 -8.4880140539262356 0 -8.4880140539262356 58.035142581713444 0 0 0 0 -27.104919192271609 21.390214425915474 0 21.390214425915474 25.78416673704487 0 0 0 0 -9.5732500532935774 2.9141360741341487 0 2.9141360741341487 49.652957050979239 0 0 0 0 -7.9089963565416559 0.23218335196507667 0 0.23218335196507667 -0.062258047289148521 0 0 0 0 -35.782540494530849 15.533600861885134 0 15.533600861885134 79.798287382844137 0 0 0 0 2.1677379165175807 -36.715135884716801 0 -36.715135884716801 49.241422769220662 0 0 0 0 -1.7998960301374609 -3.8531684519548435 0 -3.8531684519548435 32.748841852735495 0 0 0 0 23.313067153095176 -35.636100771127531 0 -35.636100771127531 70.281712421550765 0 0 0 0 -21.171241920288594 -55.050958922893187 0 -55.050958922893187 134.40828776032868 0 0 0 0 -21.774046866028129 -0.015047485234390479 0 -0.015047485234390479 220.25704400403993 0 0 0 0 -13.392955931739039 -4.6147963988796619 0 -4.6147963988796619 103.354031979914 0 0 0 0 50.340420915887989 -100.88021153605223 0 -100.88021153605223 119.24646344221401 0 0 0 0 -1.695459834664919 -0.35491812606922224 0 -0.35491812606922224 1.5126682989846358 0 0 0 0 1.3801357595546051 43.797858985552011 0 43.797858985552011 248.19129102223087 0 0 0 0 45.343145210269313 -24.450737092810414 0 -24.450737092810414 219.95862588914315 0 0 0 0 72.837812797923903 31.128894331166521 0 31.128894331166521 147.89574972336413 0 0 0 0 -48.743363938562197 28.994725414988352 0 28.994725414988352 152.15548617570312 0 0 0 0 1.2052926035622136 22.017816868413888 0 22.017816868413888 138.85632200741384 0 0 0 0 1.1122918663322707 19.362413589231437 0 19.362413589231437 155.60424286832858 0 0 0 0 -30.773323257732955 19.503146853086946 0 19.503146853086946 153.73461857430812 0 0 0 0 -8.0249647812348712 19.333851751796828 0 19.333851751796828 151.38909415935632 0 0 0 0 11.045315920834582 20.103935404855292 0 20.103935404855292 137.49613886207226 0 0 0 0 -5.1537142889185361 14.829453954762357 0 14.829453954762357 143.08495436931844 0 0 0 0 50.929995880431306 9.1390224636488711 0 9.1390224636488711 127.39826438295495 0 0 0 0 46.35427469154024 6.2367366568923899 0 6.2367366568923899 129.10609985240444 0 0 0 0 31.573019942534302 28.311627812967345 0 28.311627812967345 144.00963699437125 0 0 0 0 -16.985115385248719 -31.280074083524596 0 -31.280074083524596 167.54763466002623 0 0 0 0 16.886444540036337 -11.85243462438666 0 -11.85243462438666 103.37993792183261 0 0 0 0 -5.1826495968066411 24.651598569875205 0 24.651598569875205 119.16258166029002 0 0 0 0 -9.0869376090095102 -17.54748791243037 0 -17.54748791243037 167.49852622834987 0 0 0 0 -11.173379248394212 11.985770547391439 0 11.985770547391439 142.6707429993985 0 0 0 0 -11.676330884370316 2.7049616001813774 0 2.7049616001813774 115.52352679736214 0 0 0 0 -35.523521830607024 14.580475586924877 0 14.580475586924877 179.68784670120112 0 0 0 0 -24.607680826665273 13.592170960906515 0 13.592170960906515 141.63654574121756 0 0 0 0 -63.659177933735009 -10.261464863986475 0 -10.261464863986475 139.7908093668857 0 0 0 0 -20.329724546085913 -21.676657597146914 0 -21.676657597146914 86.816046876061591 0 0 0 0 -6.3797581567657176 26.856425700209002 0 26.856425700209002 40.161379164099344 0 0 0 0 -20.812159703235011 -25.249438285056385 0 -25.249438285056385 68.670910190441646 0 0 0 0 -10.345473195565091 16.384270432183257 0 16.384270432183257 118.07669111652649 0 0 0 0 -1.5590082761917645 -3.3939101409718191 0 -3.3939101409718191 6.8772936284733817 0 0 0 0 47.617745615856165 -74.433106927957851 0 -74.433106927957851 46.083886837724549 0 0 0 0 -1.5183999021354837 7.8219693745062457 0 7.8219693745062457 6.4057841968792957 0 0 0 0 -2.0109059860408198 -2.5479050852553797 0 -2.5479050852553797 51.504313393195005 0 0 0 0 -17.712171005096025 -62.197697631985648 0 -62.197697631985648 188.73160440044012 0 0 0 0 43.327833572359395 64.157329548543203 0 64.157329548543203 -11.472232815547613 0 0 0 0 23.778533852571854 -25.615907033796248 0 -25.615907033796248 76.885050499775389 0 0 0 0 50.568672876273013 -72.149981566588394 0 -72.149981566588394 262.29265794437379 0 0 0 0 -61.502904629811383 30.209653129000799 0 30.209653129000799 252.50364153578994 0 0 0 0 -44.888429044050099 33.862132097827271 0 33.862132097827271 150.12216591622564 0 0 0 0 -10.820362898488952 -49.569481362466831 0 -49.569481362466831 104.99776679382194 0 0 0 0 -3.2077687447951293 4.883830976178352 0 4.883830976178352 10.001799494331522 0 0 0 0 2.1054384353299156 9.3367165843010298 0 9.3367165843010298 44.249580930776574 0 0 0 0 14.695105980252265 68.604313373682089 0 68.604313373682089 129.89534442397417 0 0 0 0 -28.837360485390491 27.377792999963276 0 27.377792999963276 92.471307394880569 0 0 0 0 0.26527377526690543 -36.580008503544377 0 -36.580008503544377 149.01813028333709 0 0 0 0 -3.2919371956453856 -16.90142300823652 0 -16.90142300823652 84.391762413667948 0 0 0 0 -5.5487887459713043 0.083861663098730332 0 0.083861663098730332 11.508490576866734 0 0 0 0 6.0396471376810412 10.79900736599167 0 10.79900736599167 54.80692604192344 0 0 0 0 -1.1866832286333304 -0.64031429269425644 0 -0.64031429269425644 9.010288729186577 0 0 0 0 -50.750160198258982 -5.4439587728174956 0 -5.4439587728174956 142.68405918002827 0 0 0 0 -23.299604342641032 5.1939548892441962 0 5.1939548892441962 78.521826404932654 0 0 0 0 -60.017427524448522 -17.94038607695984 0 -17.94038607695984 135.79384710347222 0 0 0 0 -0.15983872198739846 -12.788123871306198 0 -12.788123871306198 73.031163180865406 0 0 0 0 -3.0057550658535952 -14.891204314684671 0 -14.891204314684671 27.82617454762395 0 0 0 0 -6.2772240182794121 -28.949579331274435 0 -28.949579331274435 80.586703089291404 0 0 0 0 -8.0518974951022173 -0.70479426318560456 0 -0.70479426318560456 11.461837997515055 0 0 0 0 -39.708362494978701 -3.5733645319924108 0 -3.5733645319924108 126.44373411621928 0 0 0 0 11.189393225147342 -20.946431874726841 0 -20.946431874726841 86.120689000672428 0 0 0 0 -0.44925536517985165 -10.227957062714268 0 -10.227957062714268 32.693798479056568 0 0 0 0 -1.2533333514632572 -13.420290381068838 0 -13.420290381068838 41.663422202025998 0 0 0 0 0.13818643666098396 -15.837104637809361 0 -15.837104637809361 37.877927503432261 0 0 0 0 32.349175246818049 -83.222448731146869 0 -83.222448731146869 126.759919266932 0 0 0 0 1.8936851183470935 22.962515890365466 0 22.962515890365466 143.30129553048778 0 0 0 0 1.1803397357471113 -5.7832966184250836 0 -5.7832966184250836 45.67074729478918 0 0 0 0 -3.839261531156124 -6.949202182752714 0 -6.949202182752714 58.298529390851726 0 0 0 0 -31.28057268643397 -40.24270827681903 0 -40.24270827681903 36.798951821427181 0 0 0 0 -0.90891607692576848 0.19989979445659856 0 0.19989979445659856 15.381632174531653 0 0 0 0 25.670518012610046 -14.625684497746988 0 -14.625684497746988 66.285054946980381 0 0 0 0 -46.222410291361484 -43.275021149827808 0 -43.275021149827808 117.81351287447615 0 0 0 0 77.295535440271124 -81.373558620922267 0 -81.373558620922267 54.559367942159952 0 0 0 0 -8.4350945890319053 -13.88204426052107 0 -13.88204426052107 84.969259843863256 0 0 0 0 -20.588545191886624 -54.589857561571989 0 -54.589857561571989 121.76409395054361 0 0 0 0 39.645324369706941 -32.237257194705307 0 -32.237257194705307 48.26275196345523 0 0 0 0 -16.226718959454502 -6.8311364143955871 0 -6.8311364143955871 31.728753929171944 0 0 0 0 0.36454464241754003 -2.0322388414442116 0 -2.0322388414442116 4.4111411357773989 0 0 0 0 -9.2207399298645214 16.147109530094895 0 16.147109530094895 28.178275201593351 0 0 0 0 36.724892171028841 -55.755371143284719 0 -55.755371143284719 153.22845093250362 0 0 0 0 76.625877751901498 -110.67056802342688 0 -110.67056802342688 112.17508542207361 0 0 0 0 4.2329179654296407 2.1821883297255624 0 2.1821883297255624 7.2047275906148798 0 0 0 0 -1.2954650717838376 -6.269760443836276 0 -6.269760443836276 51.738459769905603 0 0 0 0 -22.474060964250384 9.4440715037562768 0 9.4440715037562768 85.513114736284479 0 0 0 0 0.47649656131761731 3.3477908997301711 0 3.3477908997301711 39.799663724461425 0 0 0 0 1.9003407725575929 -9.4620001094722426 0 -9.4620001094722426 22.405348305924008 0 0 0 0 -0.38606145846824802 -48.696837708324892 0 -48.696837708324892 122.92111590597779 0 0 0 0 0.058344550610168966 5.9952308939719785 0 5.9952308939719785 33.315411670814598 0 0 0 0 -1.1939104146364343 -7.6769968519529357 0 -7.6769968519529357 70.755034349203925 0 0 0 0 38.876591509539139 -21.172616370371543 0 -21.172616370371543 69.815360593420337 0 0 0 0 5.1646455086265632 10.389258041017456 0 10.389258041017456 40.378227536944905 0 0 0 0 4.4873636424922339 8.1041898966929296 0 8.1041898966929296 30.929555583117832 0 0 0 0 0.62499644415430389 -6.6169218347364591 0 -6.6169218347364591 87.393620221151792 0 0 0 0 4.3968225884618732 16.456616866427794 0 16.456616866427794 62.319974455836928 0 0 0 0 31.889665758153569 126.68691603868501 0 126.68691603868501 -34.163312526186928 0 0 0 0 -13.480694251994365 2.8024655760006425 0 2.8024655760006425 52.50491424220067 0 0 0 0 -21.189090634236436 17.230589207480079 0 17.230589207480079 109.02952643335811 0 0 0 0 12.590421770468311 -5.7140805163653567 0 -5.7140805163653567 103.40203390796523 0 0 0 0 -0.59458509619173938 -12.19200241225272 0 -12.19200241225272 87.379798703592485 0 0 0 0 -7.1376627823710699 15.529064079770123 0 15.529064079770123 12.413018380090421 0 0 0 0 -21.972958282387935 22.756764703925001 0 22.756764703925001 77.13342173410274 0 0 0 0 -21.719601315689488 20.994193744958466 0 20.994193744958466 69.89624427499075 0 0 0 0 0.79863760359782443 -4.5713250353105934 0 -4.5713250353105934 24.500425270522669 0 0 0 0 455.07279497835498 131.51366128645896 0 131.51366128645896 50.389836756110526 0 0 0 0 -14.251747925937707 -518.91885413784621 0 -518.91885413784621 -65.607573050516294 0 0 0 0 -5.2763162339714427 14.599732720533211 0 14.599732720533211 74.949997393880039 0 0 0 0 22.855383365713806 23.860193113141577 0 23.860193113141577 89.770644847201766 0 0 0 0 1.6573963369687661 16.236169158656011 0 16.236169158656011 66.258419729422627 0 0 0 0 -6.1378968690228337 0.055653987791188797 0 0.055653987791188797 75.635536073374425 0 0 0 0 -36.501024204374971 155.63067457495345 0 155.63067457495345 358.69024184325099 0 0 0 0 -135.14796929922522 87.624465648652404 0 87.624465648652404 412.67598055640701 0 0 0 0 -201.99305710029194 -38.454193305144145 0 -38.454193305144145 322.50373273639343 0 0 0 0 -185.65531564766115 179.98496087903914 0 179.98496087903914 343.89676596103527 0 0 0 0 -16.82051979420612 19.49641301419615 0 19.49641301419615 70.225178162058 0 0 0 0 -21.435016252014485 20.937517822794632 0 20.937517822794632 34.855471908216828 0 0 0 0 -27.688766351646336 44.345190269006707 0 44.345190269006707 69.389605639444198 0 0 0 0 -11.366489202922526 27.088175580102046 0 27.088175580102046 30.982731050921956 0 0 0 0 -23.155539116241016 -43.305318215301668 0 -43.305318215301668 105.32852559199091 0 0 0 0 -22.549375468262951 27.431751236499622 0 27.431751236499622 76.668982749586576 0 0 0 0 -13.906607300893295 -10.258346519603265 0 -10.258346519603265 87.450778782986163 0 0 0 0 -20.239038032596454 9.8633177678493666 0 9.8633177678493666 57.984880186294504 0 0 0 0 -21.139989782439443 10.098370457057172 0 10.098370457057172 57.954481248598313 0 0 0 0 -9.2177611390168295 32.661819665634539 0 32.661819665634539 -14.135388156952104 0 0 0 0 0.4959524321644535 -0.89937039341609193 0 -0.89937039341609193 -0.60970726060561731 0 0 0 0 43.065491540480252 47.489440612087492 0 47.489440612087492 121.5021346662179 0 0 0 0 12.243697998165317 -13.146175346264499 0 -13.146175346264499 5.1084481477009831 0 0 0 0 -54.972946128085368 79.391582631009442 0 79.391582631009442 119.27345528469596 0 0 0 0 -70.494514332659207 44.848434773355621 0 44.848434773355621 113.32652490554756 0 0 0 0 -56.959575185739823 -25.884732566518323 0 -25.884732566518323 142.35187100857729 0 0 0 0 -55.446987224136592 -20.313342814013595 0 -20.313342814013595 115.33475156092027 0 0 0 0 -12.299008744241222 -30.787514895587435 0 -30.787514895587435 41.413778499302936 0 0 0 0 111.94320582905402 -292.42990811747586 0 -292.42990811747586 148.72702520193707 0 0 0 0 27.420150415136959 131.88046275300439 0 131.88046275300439 151.72577242575841 0 0 0 0 80.814120859038667 72.165452470850141 0 72.165452470850141 40.48988559107238 0 0 0 0 1.3719639598839555 1.2514287886418032 0 1.2514287886418032 1.690248062761583 0 0 0 0 59.65892865074693 -47.979135789364591 0 -47.979135789364591 144.40755799834733 0 0 0 0 -14.37993203392125 -40.644396171366679 0 -40.644396171366679 239.32240705449658 0 0 0 0 132.82749426167447 -251.9045959459836 0 -251.9045959459836 385.3172661360295 0 0 0 0 -59.936046355294366 -25.001247156797035 0 -25.001247156797035 146.58484443233465 0 0 0 0 -22.371827533249416 -7.8051856111851521 0 -7.8051856111851521 132.18268434028869 0 0 0 0 -35.740782278904589 8.1106710866224603 0 8.1106710866224603 157.9353086079791 0 0 0 0 -21.825904788429398 27.747872365835065 0 27.747872365835065 65.176083159658447 0 0 0 0 -13.038990390060462 22.41116720867285 0 22.41116720867285 67.643734912577202 0 0 0 0 -17.409996608122128 61.977199013323116 0 61.977199013323116 102.58826586531359 0 0 0 0 36.062092366308661 88.022574207108846 0 88.022574207108846 3.1731004652392585 0 0 0 0 5.2423875910972129 -26.132536765428085 0 -26.132536765428085 -22.633094134336716 0 0 0 0 -112.43334658046388 136.92555781874034 0 136.92555781874034 409.04960040346486 0 0 0 0 -25.432466288637443 62.296623170572275 0 62.296623170572275 208.52444219720201 0 0 0 0 -5.5813933048821127 3.0997933857288444 0 3.0997933857288444 132.4343832974846 0 0 0 0 -13.842671401416915 -26.989121638179199 0 -26.989121638179199 53.401825680519508 0 0 0 0 -5.6225064309236004 4.2238684031302682 0 4.2238684031302682 40.595498292082084 0 0 0 0 -10.430783069435645 -49.493484267652178 0 -49.493484267652178 79.57547212802605 0 0 0 0 -86.404846291846297 -33.64233543829323 0 -33.64233543829323 180.00813688613562 0 0 0 0 -9.1412166104771373 22.729039601672795 0 22.729039601672795 74.932618286300112 0 0 0 0 18.342171389273062 -57.589870123934816 0 -57.589870123934816 -54.987335265017464 0 0 0 0 -12.654346036827974 -20.302605518963901 0 -20.302605518963901 36.865032914211042 0 0 0 0 6.9126135248116043 -4.9820287745751557 0 -4.9820287745751557 49.093237334027435 0 0 0 0 18.600693412769033 -8.8647492170130135 0 -8.8647492170130135 28.082173422299093 0 0 0 0 -2.7894368597318291 8.7326372490101676 0 8.7326372490101676 15.813058508548721 0 0 0 0 -19.347402057222098 9.2731165004806826 0 9.2731165004806826 70.44970469949476 0 0 0 0 -19.168647487507769 10.300660200526181 0 10.300660200526181 59.42517771339044 0 0 0 0 -26.110897692574326 67.222781822209072 0 67.222781822209072 -47.996880129503552 0 0 0 0 -77.635549071738524 32.026139682314351 0 32.026139682314351 81.218461154567194 0 0 0 0 -3.8782314243881046 3.0857245625174983 0 3.0857245625174983 72.867071508197114 0 0 0 0 -31.510195922390267 -10.158065945455746 0 -10.158065945455746 119.6428598598286 0 0 0 0 -54.319836844616475 -16.722997603072145 0 -16.722997603072145 314.0188914956816 0 0 0 0 106.15818215804165 3.1908683473448036 0 3.1908683473448036 202.29073309165688 0 0 0 0 -88.043218732536957 -3.8935061246438636 0 -3.8935061246438636 181.16492298895901 0 0 0 0 -54.295717805472123 -28.008194092049962 0 -28.008194092049962 143.95986438649561 0 0 0 0 -11.654019018496911 13.27329699272741 0 13.27329699272741 105.59356627920351 0 0 0 0 -123.17038723028054 102.36995408250368 0 102.36995408250368 138.63240792181386 0 0 0 0 15.057928215960374 81.482578827977704 0 81.482578827977704 275.71335350413574 0 0 0 0 -48.668532549660995 -16.9027449898349 0 -16.9027449898349 352.21450340840966 0 0 0 0 -43.973987665228378 -40.873342449536722 0 -40.873342449536722 357.99271447058709 0 0 0 0 36.414003883016903 -56.344869925203966 0 -56.344869925203966 292.02123631061113 0 0 0 0 -40.417279423892978 -46.916916514041077 0 -46.916916514041077 299.28898455916715 0 0 0 0 -48.03556434390066 70.764677101666166 0 70.764677101666166 156.23985375481425 0 0 0 0 -13.324783824621363 -26.468127572254161 0 -26.468127572254161 122.52886009246868 0 0 0 0 -9.49152069731349 -0.4369620871348161 0 -0.4369620871348161 131.50986487185583 0 0 0 0 30.468914409647823 -29.157060870853456 0 -29.157060870853456 -2.8209226785693318 0 0 0 0 -3.1456967487167917 -2.4663346566898774 0 -2.4663346566898774 4.4750400599787667 0 0 0 0 -21.993668762436755 -22.733971751134959 0 -22.733971751134959 -1.3570855651923921 0 0 0 0 -6.4508459306616714 -22.870663384826912 0 -22.870663384826912 25.194020945142256 0 0 0 0 133.36040215879001 -140.66525661216383 0 -140.66525661216383 113.9203986407083 0 0 0 0 0.16655783324950235 0.79981517370922717 0 0.79981517370922717 2.170102967743162 0 0 0 0 -2.4871180895725047 -98.815054959450208 0 -98.815054959450208 37.332033238541044 0 0 0 0 -14.338938422256776 -29.6923064106212 0 -29.6923064106212 42.037922639296369 0 0 0 0 6.0622774699332496 1.9850674545341462 0 1.9850674545341462 97.753804941692579 0 0 0 0 -17.847072844462755 -27.432275037074703 0 -27.432275037074703 45.388819186293148 0 0 0 0 10.359016308345446 15.45152706684712 0 15.45152706684712 110.02108455428242 0 0 0 0 -1.5090645820773716 -45.65377600921056 0 -45.65377600921056 -2.611834542833094 0 0 0 0 4.9806180027239861 50.577867431944469 0 50.577867431944469 23.863508314792398 0 0 0 0 -5.1571869093730998 31.24296670282061 0 31.24296670282061 38.303427917252023 0 0 0 0 -24.888579963785133 19.845972082663138 0 19.845972082663138 156.21705332068086 0 0 0 0 14.538485899396278 26.592549085769861 0 26.592549085769861 39.157026979897637 0 0 0 0 24.202909340231599 48.198715059552342 0 48.198715059552342 23.708360311375145 0 0 0 0 -50.891923188173678 13.16955863990006 0 13.16955863990006 180.38610800143215 0 0 0 0 -45.766134795026801 35.536062420120288 0 35.536062420120288 206.59859115425206 0 0 0 0 38.806246457669658 51.385619612534356 0 51.385619612534356 164.06416972169245 0 0 0 0 -40.863225874020827 21.127925486413005 0 21.127925486413005 203.73170066816965 0 0 0 0 -41.935900873867467 5.0216038409926114 0 5.0216038409926114 155.53538732558764 0 0 0 0 -40.034074590833598 79.468744318350218 0 79.468744318350218 285.70623152788176 0 0 0 0 31.735777928926723 52.208476908381272 0 52.208476908381272 195.46667343456647 0 0 0 0 -47.94196178661764 9.5484308841696475 0 9.5484308841696475 300.88436408022972 0 0 0 0 0.19567031767939302 -0.74132453894731754 0 -0.74132453894731754 0.82458341173685312 0 0 0 0 -152.04668125433182 11.371603173298354 0 11.371603173298354 277.3055020677084 0 0 0 0 115.33020414601128 147.71311677905032 0 147.71311677905032 162.02804037093301 0 0 0 0 -15.383112826621357 103.53676571799588 0 103.53676571799588 5.1833489954588003 0 0 0 0 -1.2139483755980136 1.6490006815270704 0 1.6490006815270704 2.0931145539899205 0 0 0 0 -82.855775560745343 20.309731108838605 0 20.309731108838605 14.026380306531792 0 0 0 0 -52.128956450655835 -13.552528887979861 0 -13.552528887979861 4.9556294168141903 0 0 0 0 -8.830585012246047 20.051787067714031 0 20.051787067714031 -19.985550678502477 0 0 0 0 6.4760824666691406 37.181485826498829 0 37.181485826498829 28.350517330691218 0 0 0 0 -1.3751316626608332 1.7677723885338423 0 1.7677723885338423 3.0345657224719389 0 0 0 0 -27.182638385384053 7.1267848577554105 0 7.1267848577554105 3.5355432201758958 0 0 0 0 9.7672267433143887 0.8693635496956631 0 0.8693635496956631 8.282818706065882 0 0 0 0 0.060798109093468611 -10.504289702552342 0 -10.504289702552342 -3.5714001148589887 0 0 0 0 -10.121340683264636 18.512801977165566 0 18.512801977165566 31.382062442807836 0 0 0 0 -20.272666847341497 1.9980519457603805 0 1.9980519457603805 34.251740569394315 0 0 0 0 -18.580712091776004 -17.136656225746862 0 -17.136656225746862 40.624309249786421 0 0 0 0 -21.84604725051328 -3.1043212520942163 0 -3.1043212520942163 19.004256519849662 0 0 0 0 -49.158835217661476 -4.480202466409537 0 -4.480202466409537 8.3612082856707275 0 0 0 0 -9.9239233308213777 -5.0910415559205262 0 -5.0910415559205262 1.594824619154025 0 0 0 0 -15.185273466512754 22.989325772767188 0 22.989325772767188 13.511585421612835 0 0 0 0 -12.547052073489013 37.233388035019743 0 37.233388035019743 -22.225487258445355 0 0 0 0 -20.296845027427494 21.342548888016609 0 21.342548888016609 -14.583092169443262 0 0 0 0 19.832288948198922 30.343885837355629 0 30.343885837355629 -25.255599603828159 0 0 0 0 79.848849526108395 -32.682985319828731 0 -32.682985319828731 26.673960956759402 0 0 0 0 35.183123428903571 71.284005444580544 0 71.284005444580544 -44.838934264589625 0 0 0 0 -59.720185379374669 -60.943098847993497 0 -60.943098847993497 103.0895057105372 0 0 0 0 16.318581906718766 -51.797483398804616 0 -51.797483398804616 127.36766492907191 0 0 0 0 62.502659820320545 -139.67268427058298 0 -139.67268427058298 327.61361571085581 0 0 0 0 207.10852797498302 90.348514209101268 0 90.348514209101268 185.57099957947503 0 0 0 0 9.6785598785811011 -65.321139564162877 0 -65.321139564162877 187.29219858528813 0 0 0 0 29.713239857887856 -40.252755462839559 0 -40.252755462839559 127.70210939193589 0 0 0 0 0.0089208163385008574 -16.574343224110635 0 -16.574343224110635 126.73255239860737 0 0 0 0 4.4156022019840204 -28.828887506388128 0 -28.828887506388128 57.471080660104917 0 0 0 0 37.701989099369513 -36.754661303446483 0 -36.754661303446483 57.580827420286369 0 0 0 0 42.363320109492932 -13.424398779725379 0 -13.424398779725379 -25.687208827162976 0 0 0 0 0.045767735935122379 2.9201046083762776 0 2.9201046083762776 3.0194140485837124 0 0 0 0 -6.081340761394836 6.0351199723372702 0 6.0351199723372702 -20.978826545775519 0 0 0 0 13.274891039869598 -13.67508838174399 0 -13.67508838174399 -12.786781926544791 0 0 0 0 -0.0067564739428390263 4.8489459205666208 0 4.8489459205666208 -24.908327681441733 0 0 0 0 7.7259641642151315 21.510583706574835 0 21.510583706574835 -46.003483294509351 0 0 0 0 0.061924192160305286 -0.25724243210868281 0 -0.25724243210868281 0.097838183663156997 0 0 0 0 -1.7859614654607265 -0.30488589203544336 0 -0.30488589203544336 0.9840612640271047 0 0 0 0 2.4679000060314458 -4.2369741546135629 0 -4.2369741546135629 0.82237197624635883 0 0 0 0 8.8493246213627383 9.6494848169040779 0 9.6494848169040779 -39.900767663377337 0 0 0 0 -7.222334784196363 12.420041636112728 0 12.420041636112728 -24.173996517171418 0 0 0 0 -7.5991518847110413 33.048794306159834 0 33.048794306159834 -67.022135509672808 0 0 0 0 -0.79311898038000683 0.29979870231041161 0 0.29979870231041161 -0.093643265934701958 0 0 0 0 17.638743228480479 28.499245668592266 0 28.499245668592266 20.723699791036779 0 0 0 0 -9.4440109234854646 8.187646516103996 0 8.187646516103996 -39.055139742937172 0 0 0 0 -5.390805148947714 -1.745222574256303 0 -1.745222574256303 -0.63120160140340431 0 0 0 0 34.017292462038313 -63.290458935982315 0 -63.290458935982315 102.59597700584709 0 0 0 0 -12.756841505716977 -25.277070606469351 0 -25.277070606469351 200.0385865415883 0 0 0 0 60.900324499652754 -105.50698954743712 0 -105.50698954743712 225.63429502984945 0 0 0 0 -23.762955929192458 -31.278896420175442 0 -31.278896420175442 298.3663774413144 0 0 0 0 -26.568066592292894 -62.628727582454303 0 -62.628727582454303 291.19249785649299 0 0 0 0 -45.975298644572376 -75.320639275370922 0 -75.320639275370922 368.4535290744243 0 0 0 0 -57.372655090773151 -1.4583832764910767 0 -1.4583832764910767 478.79842865318642 0 0 0 0 -51.299378481812994 -79.002617389480292 0 -79.002617389480292 549.53181484587549 0 0 0 0 28.342722360483776 -211.19442222337966 0 -211.19442222337966 779.59098993470252 0 0 0 0 44.120509545780578 -241.62924795422441 0 -241.62924795422441 590.01409432033529 0 0 0 0 -0.29580339994886751 -0.13370894080425444 0 -0.13370894080425444 1.2598449906468545 0 0 0 0 94.773235447826892 -88.846754228488862 0 -88.846754228488862 826.15452338818795 0 0 0 0 2.4679000060405443 3.1218866564740892 0 3.1218866564740892 1.6016156764089828 0 0 0 0 0.0082158555576167126 -5.174327030324152 0 -5.174327030324152 2.350720552392886 0 0 0 0 -0.075518848452854906 0.044611235445330522 0 0.044611235445330522 0.0059766616005845208 0 0 0 0 -7.1965900067193616 11.978386423145764 0 11.978386423145764 74.06004902066104 0 0 0 0 -12.423040807283847 14.782495607774624 0 14.782495607774624 4.9174194519040819 0 0 0 0 -12.7432504591218 13.106199060792759 0 13.106199060792759 -5.0079626845130827 0 0 0 0 -28.813451156516294 42.047074312686163 0 42.047074312686163 94.627513399426789 0 0 0 0 -25.661111814621904 26.709505442609867 0 26.709505442609867 86.817177621636063 0 0 0 0 -3.9280652350637411 7.6906327338983829 0 7.6906327338983829 70.539947065406977 0 0 0 0 -15.898784261983366 7.0612924120652849 0 7.0612924120652849 72.366598612966982 0 0 0 0 -4.1550317110823016 11.851756156091028 0 11.851756156091028 70.076460584576239 0 0 0 0 -4.1464534959289949 11.931557967106073 0 11.931557967106073 70.111116565970178 0 0 0 0 -19.006083037898406 23.881364522568219 0 23.881364522568219 46.088878942038718 0 0 0 0 4.0061554364106087 7.4602023368297523 0 7.4602023368297523 48.216126872124732 0 0 0 0 -17.982308628373858 21.193100068261629 0 21.193100068261629 59.349890359011624 0 0 0 0 3.053489294679224 18.523045621288638 0 18.523045621288638 44.272141110970153 0 0 0 0 3.5247281405482127 22.762853979569286 0 22.762853979569286 53.219383478004602 0 0 0 0 -0.75008488809285367 1.8040953066281489 0 1.8040953066281489 12.652273181579751 0 0 0 0 4.554352064723389 11.169853256393253 0 11.169853256393253 6.5819141529650551 0 0 0 0 -18.550858387310655 20.948650173450005 0 20.948650173450005 33.984975470159043 0 0 0 0 9.9026390794691554 12.69025701609092 0 12.69025701609092 2.690965205981513 0 0 0 0 20.64435146490024 -77.815108360241538 0 -77.815108360241538 206.50211545825368 0 0 0 0 6.5958134670806468 4.0019306614057388 0 4.0019306614057388 -4.4642749122521082 0 0 0 0 14.615389710352332 -7.4680187248941365 0 -7.4680187248941365 105.04208940540593 0 0 0 0 7.2958482639815481 7.6064889353611669 0 7.6064889353611669 6.3115220759647848 0 0 0 0 7.0509953584749923 -8.0934778957089293 0 -8.0934778957089293 122.84921523760568 0 0 0 0 12.920408374824291 27.458231944857289 0 27.458231944857289 138.74417396933131 0 0 0 0 7.8997232325745665 47.841074369582699 0 47.841074369582699 19.686380285597394 0 0 0 0 21.89050306445202 18.882259154040185 0 18.882259154040185 139.93865574811934 0 0 0 0 45.360478505851859 44.267732523181621 0 44.267732523181621 165.57484358607189 0 0 0 0 -56.845105194972348 -35.738289706837804 0 -35.738289706837804 314.72631227784223 0 0 0 0 14.638621545677307 8.5899249903417498 0 8.5899249903417498 4.859053891066619 0 0 0 0 -17.958604686947638 61.040300571903572 0 61.040300571903572 -8.096947012459168 0 0 0 0 41.276754343553989 -69.829292736492789 0 -69.829292736492789 285.31097803866214 0 0 0 0 -33.748288250926606 -8.0898000987352816 0 -8.0898000987352816 32.908767811395592 0 0 0 0 19.397208129755199 11.706926797729466 0 11.706926797729466 -65.003226101616747 0 0 0 0 247.43487115444896 -17.457034360683792 0 -17.457034360683792 160.56612046606824 0 0 0 0 -190.2558570922215 -286.65250314469813 0 -286.65250314469813 519.06546393741519 0 0 0 0 77.993257192379588 111.31547908599168 0 111.31547908599168 -97.246095241200237 0 0 0 0 -404.3510742722101 -294.62411662920931 0 -294.62411662920931 615.7628472089782 0 0 0 0 5.8132987038928796 1.5363108383197783 0 1.5363108383197783 0.67889323910510413 0 0 0 0 116.70311073338405 191.02503178505367 0 191.02503178505367 65.251718355786579 0 0 0 0 56.589207451957918 317.6196858335079 0 317.6196858335079 243.86221398467569 0 0 0 0 -40.137959735263394 196.15296566644429 0 196.15296566644429 137.98551028833026 0 0 0 0 -61.779062828059978 125.54178336330096 0 125.54178336330096 -63.041045939571632 0 0 0 0 -1.8142940062272004 -0.64831978819999847 0 -0.64831978819999847 22.830165330654374 0 0 0 0 28.499794254518747 39.936443187771147 0 39.936443187771147 10.875339451563377 0 0 0 0 11.444249795560154 55.994085204104522 0 55.994085204104522 17.596517007177226 0 0 0 0 8.3939327908260566 68.581169256131489 0 68.581169256131489 -19.722905713155342 0 0 0 0 -20.814039148267511 4.1372183625112484 0 4.1372183625112484 79.650635378450716 0 0 0 0 -28.258110644406088 6.8954357044103745 0 6.8954357044103745 108.58297902278355 0 0 0 0 -15.297972002036374 16.291148614142912 0 16.291148614142912 102.70087703012905 0 0 0 0 -4.3699216790073603 16.161862432192073 0 16.161862432192073 72.844636541352514 0 0 0 0 -104.20983582609551 28.512364475773211 0 28.512364475773211 159.39278860791092 0 0 0 0 -24.02735549670706 16.809853669365566 0 16.809853669365566 192.81666226552989 0 0 0 0 -6.3273500167642087 16.922807190079446 0 16.922807190079446 110.99935728134773 0 0 0 0 3.7007251199107714 31.80908805711988 0 31.80908805711988 115.29925895642737 0 0 0 0 -1.2767118251174221 22.119022896203699 0 22.119022896203699 34.139281125889838 0 0 0 0 2.8880208054661125 25.255561511141423 0 25.255561511141423 126.5012295873521 0 0 0 0 -0.5586709509125285 16.247499908945429 0 16.247499908945429 102.98709334329033 0 0 0 0 4.1884010562066578 33.041733099637895 0 33.041733099637895 122.23681846114778 0 0 0 0 10.42507533814296 34.655200931235413 0 34.655200931235413 108.16646367937938 0 0 0 0 9.026909552764927 26.87813784808975 0 26.87813784808975 8.7098135601086746 0 0 0 0 -9.5043667161778913 22.90253099286441 0 22.90253099286441 115.86284150205748 0 0 0 0 2.140316649280976 25.436734378869005 0 25.436734378869005 104.37541468515701 0 0 0 0 -9.0809603713910292 16.06497025580029 0 16.06497025580029 68.531386295875336 0 0 0 0 300.50283546441096 -152.24081787390469 0 -152.24081787390469 -59.243614265189535 0 0 0 0 0.77947488225670014 4.6699694301960228 0 4.6699694301960228 5.6261044728927638 0 0 0 0 26.102272892736437 -64.38936783941449 0 -64.38936783941449 70.459130113436913 0 0 0 0 -3.0092058340785366 15.68236081939588 0 15.68236081939588 61.803074064997205 0 0 0 0 -235.04813435743745 976.79606383854707 0 976.79606383854707 464.57709949933633 0 0 0 0 -18.210254304855539 24.914462775777793 0 24.914462775777793 114.75986063560003 0 0 0 0 -0.18584717508110771 50.722516831539906 0 50.722516831539906 71.963820762674004 0 0 0 0 -14.886098982735531 0.31763929767892662 0 0.31763929767892662 55.94619761285648 0 0 0 0 936.87239575622516 161.02646862335973 0 161.02646862335973 98.324144172214005 0 0 0 0 -14.709003022617708 41.721237798091352 0 41.721237798091352 148.37683872520665 0 0 0 0 -39.577175505786727 -70.130763218023731 0 -70.130763218023731 162.60109531081656 0 0 0 0 -12.23726291828126 16.203325710274129 0 16.203325710274129 18.423700049834082 0 0 0 0 -62.345196198610211 -38.85641457515635 0 -38.85641457515635 129.64521086553259 0 0 0 0 13.32666699913716 -40.677159784289643 0 -40.677159784289643 30.890531487268163 0 0 0 0 0.10790511366667488 -69.955908028364661 0 -69.955908028364661 85.887456767471122 0 0 0 0 -33.563607203750507 -33.016955318342298 0 -33.016955318342298 54.648044310496516 0 0 0 0 -33.803981623887012 -33.925906677084186 0 -33.925906677084186 71.101402849134047 0 0 0 0 -66.999573992809928 9.5214168060831526 0 9.5214168060831526 85.454654274067707 0 0 0 0 -76.88725258662771 -17.7465202040554 0 -17.7465202040554 101.31049450927185 0 0 0 0 -39.829334804891914 0.020731804952674793 0 0.020731804952674793 63.233181030217565 0 0 0 0 -30.172716416704588 21.387728080299894 0 21.387728080299894 63.776409049454742 0 0 0 0 -33.851348187305121 -3.6862683059280243 0 -3.6862683059280243 57.483241121301035 0 0 0 0 8.9360644895859878 -25.108173836723836 0 -25.108173836723836 6.7574039208057002 0 0 0 0 -35.568725131150131 21.768090794495379 0 21.768090794495379 4.2132067455513607 0 0 0 0 -22.691595880346995 -3.2336453475586495 0 -3.2336453475586495 38.404775039107335 0 0 0 0 -36.517767168794308 19.292794129078175 0 19.292794129078175 34.716975346745357 0 0 0 0 -47.349828593519305 7.3208508478396652 0 7.3208508478396652 30.673724607788245 0 0 0 0 -20.299862683466927 24.289974465727937 0 24.289974465727937 23.175827226080401 0 0 0 0 -26.274829585378939 18.968702304404133 0 18.968702304404133 20.084835592502714 0 0 0 0 -32.511169813678407 27.954029436348264 0 27.954029436348264 30.122908660745452 0 0 0 0 -25.203390209653662 24.26745467961473 0 24.26745467961473 53.603133108974362 0 0 0 0 -28.105598055613427 24.902004602471152 0 24.902004602471152 57.647044601626476 0 0 0 0 -32.108301164653312 32.571433041413002 0 32.571433041413002 44.170011798669449 0 0 0 0 -31.922761388917934 12.545642821834463 0 12.545642821834463 44.455723085475256 0 0 0 0 -6.6440198327368307 -9.2688462661753874 0 -9.2688462661753874 62.196884448858327 0 0 0 0 56.387876289439191 42.797713241254314 0 42.797713241254314 49.366921804459707 0 0 0 0 -50.205031237508138 12.578836091661287 0 12.578836091661287 75.086963023270073 0 0 0 0 -1.5908106200615724 15.91280877408516 0 15.91280877408516 48.892038885797199 0 0 0 0 0.69148818491912256 6.1520888165740537 0 6.1520888165740537 19.119068575142023 0 0 0 0 -10.931826465523045 179.81308577360141 0 179.81308577360141 54.430366971862213 0 0 0 0 -62.468564976687048 19.646863821290481 0 19.646863821290481 36.389963302728574 0 0 0 0 112.06832796504818 4.2137735899801783 0 4.2137735899801783 17.450604369863868 0 0 0 0 -2.7821628708115895 29.784595689794514 0 29.784595689794514 71.129761313062772 0 0 0 0 0.4071538567159223 35.781763192551807 0 35.781763192551807 31.273125954685383 0 0 0 0 -7.2765277813959983 1.0725146041113476 0 1.0725146041113476 33.433770057541551 0 0 0 0 0.72511151059287116 9.9692636603572211 0 9.9692636603572211 8.4508510282902947 0 0 0 0 -5.2155698653950822 15.047419874023035 0 15.047419874023035 21.176284863355249 0 0 0 0 11.360392415189381 -1.7675562736080792 0 -1.7675562736080792 38.22625024052104 0 0 0 0 2.5095102892355499 20.13311057736064 0 20.13311057736064 41.895851580833551 0 0 0 0 1.9379437061722433 10.460181147515446 0 10.460181147515446 33.570706196761769 0 0 0 0 -30.611226568420534 6.7997577825899498 0 6.7997577825899498 42.03512381550172 0 0 0 0 23.679394298413172 31.994379585541537 0 31.994379585541537 27.154349819173149 0 0 0 0 33.786146176905504 19.491935361226751 0 19.491935361226751 33.1444668375334 0 0 0 0 -0.10845422896841495 19.435890173868884 0 19.435890173868884 33.680559937129075 0 0 0 0 -75.073631455121586 38.866338938365743 0 38.866338938365743 135.33310071667802 0 0 0 0 9.9373573008317351 20.49554388056962 0 20.49554388056962 32.211249628101172 0 0 0 0 1.2158647204884363 9.7314375036604694 0 9.7314375036604694 1.1911424095128353 0 0 0 0 52.142511123725853 62.225938668107119 0 62.225938668107119 6.1796797275601421 0 0 0 0 -20.93416110902541 -4.2804390153896748 0 -4.2804390153896748 57.708744882424071 0 0 0 0 12.392471950314757 56.336839362236788 0 56.336839362236788 46.614117020464619 0 0 0 0 -17.406323542727478 45.134361405842355 0 45.134361405842355 119.41256524626806 0 0 0 0 25.398386089491396 34.929284819343593 0 34.929284819343593 4.3594479353778297 0 0 0 0 -15.508232278307787 68.967289049734518 0 68.967289049734518 15.830866643318586 0 0 0 0 -18.664058788944203 38.144053520517446 0 38.144053520517446 12.521193064962063 0 0 0 0 -35.616661033537639 49.372308475958107 0 49.372308475958107 60.342433664138298 0 0 0 0 -23.881794348159019 34.27787330596766 0 34.27787330596766 33.391001700501874 0 0 0 0 -16.883868923021964 29.675313334554403 0 29.675313334554403 31.584185669984436 0 0 0 0 -18.272196652316779 30.708772305029925 0 30.708772305029925 35.595455629604658 0 0 0 0 -21.811906951877972 30.659371011111034 0 30.659371011111034 43.195641419746607 0 0 0 0 22.114086196630637 26.922666157693925 0 26.922666157693925 93.166772973196203 0 0 0 0 0.52885117847999297 -1.8549413799613816 0 -1.8549413799613816 17.855877808875924 0 0 0 0 -0.13780770939298126 8.12698186235294 0 8.12698186235294 69.098786688077908 0 0 0 0 15.649995323687108 25.924474960309453 0 25.924474960309453 100.77786098026399 0 0 0 0 10.738762954577396 31.316733381583617 0 31.316733381583617 96.279886617077864 0 0 0 0 19.925442904775764 64.382302837309908 0 64.382302837309908 214.60363943473203 0 0 0 0 0.91512878783786888 -2.8558219490135741 0 -2.8558219490135741 -0.28651694529967209 0 0 0 0 -3.3485610669986272 59.564496006343688 0 59.564496006343688 -47.372819024505588 0 0 0 0 -15.862540880591723 69.342077553777244 0 69.342077553777244 114.96701859199493 0 0 0 0 -84.147529200396946 49.771663225303655 0 49.771663225303655 134.65555973811934 0 0 0 0 -33.075842338062898 40.376936619320531 0 40.376936619320531 136.28368600130852 0 0 0 0 -22.797065448808553 78.780258079402756 0 78.780258079402756 112.63793840235371 0 0 0 0 -39.072817856954316 57.983330848589276 0 57.983330848589276 86.457758978111087 0 0 0 0 -25.135870808700474 25.834737287693315 0 25.834737287693315 82.34145068579528 0 0 0 0 -21.334116008466708 24.166904968037215 0 24.166904968037215 81.416263733924723 0 0 0 0 -21.87779465782296 27.040932095478183 0 27.040932095478183 102.23854084470713 0 0 0 0 -10.32212413574166 2.4436850731640334 0 2.4436850731640334 94.378317398304716 0 0 0 0 -18.630184529466362 12.943949334212334 0 12.943949334212334 81.622901049605389 0 0 0 0 -27.391610403547929 15.025650564137777 0 15.025650564137777 81.333310021492707 0 0 0 0 -19.285888398770339 9.9329973928568052 0 9.9329973928568052 68.866804205632434 0 0 0 0 3.8657791756629649 1.4079747963578484 0 1.4079747963578484 112.02381694966516 0 0 0 0 0.55947046609948625 12.280985252765689 0 12.280985252765689 59.435173549198467 0 0 0 0 5.5535530466795535 4.6721657548700932 0 4.6721657548700932 75.283694794536132 0 0 0 0 -99.306583056467161 -41.736217821944592 0 -41.736217821944592 95.197716147689789 0 0 0 0 -5.5202839132699282 -0.22712786012256814 0 -0.22712786012256814 100.50875342480307 0 0 0 0 28.111616925336875 19.654297709381808 0 19.654297709381808 88.636757101433432 0 0 0 0 -16.83370230659775 -17.980982912322801 0 -17.980982912322801 36.328954474232049 0 0 0 0 117.53577532712552 -54.01918451389065 0 -54.01918451389065 -312.44784505525422 0 0 0 0 5.5611879299544373 4.7923977133891658 0 4.7923977133891658 6.2618891196883055 0 0 0 0 43.064838052821415 86.459251131976998 0 86.459251131976998 153.15371332506518 0 0 0 0 -79.079954793030311 186.438598686771 0 186.438598686771 641.11619210909703 0 0 0 0 6.1149845748154803 -136.10374304080688 0 -136.10374304080688 152.13178915579192 0 0 0 0 -8.3438619697334389 1.6917004303682006 0 1.6917004303682006 130.80705392949312 0 0 0 0 -19.967383003816394 28.061748945997351 0 28.061748945997351 100.0100301520315 0 0 0 0 -52.670498130122496 19.626172013681753 0 19.626172013681753 151.23844828391066 0 0 0 0 -41.707672535599841 22.409384136635708 0 22.409384136635708 118.68723347055493 0 0 0 0 -216.40570503012304 -191.4674472503375 0 -191.4674472503375 277.92513872698328 0 0 0 0 53.431536843234937 -95.083026626574792 0 -95.083026626574792 148.40559018837666 0 0 0 0 -4.9679685129643207 -11.813969959978333 0 -11.813969959978333 126.29264167693668 0 0 0 0 -24.615137394696831 -173.60916116794033 0 -173.60916116794033 106.47563474575873 0 0 0 0 78.81273303498665 -203.59265035312274 0 -203.59265035312274 51.711689592848415 0 0 0 0 84.858306278078089 -45.605794349154166 0 -45.605794349154166 -6.6414248161381693 0 0 0 0 340.61791477724319 -129.38570648799214 0 -129.38570648799214 19.619157016044483 0 0 0 0 -20.502208631197277 99.441384155109517 0 99.441384155109517 90.382166576499003 0 0 0 0 6.3643386427390087 16.89584471933928 0 16.89584471933928 37.084033248195908 0 0 0 0 -4.9144198828080334 -60.227998453498003 0 -60.227998453498003 109.22741822220996 0 0 0 0 -84.563630392366576 -63.497724912405829 0 -63.497724912405829 11.640709721323219 0 0 0 0 167.5548767522223 232.25108940201608 0 232.25108940201608 178.73670193299586 0 0 0 0 4.4618535521392788 9.2554018974993895 0 9.2554018974993895 7.228323714673067 0 0 0 0 130.08749036757217 -122.30586740904982 0 -122.30586740904982 55.283980392545345 0 0 0 0 7.0092799001822641 -104.01423564147262 0 -104.01423564147262 60.162591235876789 0 0 0 0 42.719401972581636 76.828475655347575 0 76.828475655347575 -15.772952511504627 0 0 0 0 8.0987691160253235 -87.369452669036036 0 -87.369452669036036 164.50856868769188 0 0 0 0 15.577396737420713 43.056757625805403 0 43.056757625805403 19.581785709020551 0 0 0 0 8.7757277584788014 22.528415815497983 0 22.528415815497983 55.262847393203685 0 0 0 0 -20.133634716597953 32.844361729970842 0 32.844361729970842 29.825894619145402 0 0 0 0 16.9207537956745 35.775387526720806 0 35.775387526720806 17.1880412930077 0 0 0 0 -5.6648684433268031 12.757469335511527 0 12.757469335511527 11.039251243188687 0 0 0 0 -15.113851799579379 7.8291989974713943 0 7.8291989974713943 7.6342621646763291 0 0 0 0 93.894259564294771 22.550332702005107 0 22.550332702005107 9.6677012196523719 0 0 0 0 16.287200820265753 73.748480898189882 0 73.748480898189882 59.843249515717616 0 0 0 0 -13.276508145472235 37.024410564048139 0 37.024410564048139 31.953220876537671 0 0 0 0 -14.840711882349524 25.566769974901263 0 25.566769974901263 45.234385662763088 0 0 0 0 -17.428886918745775 44.735510091588367 0 44.735510091588367 26.77819380197343 0 0 0 0 -7.0019450731224424 22.98436114748074 0 22.98436114748074 5.6809815179585712 0 0 0 0 -34.895891085036055 41.69378424532988 0 41.69378424532988 41.091498722664255 0 0 0 0 1.5327004137002405 9.4327358735232494 0 9.4327358735232494 14.019252398626946 0 0 0 0 -8.8113504333086894 29.526769600444823 0 29.526769600444823 22.799108470644569 0 0 0 0 7.1296721894541406 42.097553908111877 0 42.097553908111877 25.779841265262803 0 0 0 0 7.7213477455757094 24.009549191797447 0 24.009549191797447 48.997945855282055 0 0 0 0 -7.1560741546600184 13.048605298281473 0 13.048605298281473 30.333821656113287 0 0 0 0 0.80167982710366914 4.2550225025030812 0 4.2550225025030812 9.6322112510246676 0 0 0 0 -10.613066970612635 8.5072635590877326 0 8.5072635590877326 51.094577878517157 0 0 0 0 -3.5344525280070229 23.545407279601932 0 23.545407279601932 60.729012800144119 0 0 0 0 1.8240775651049397 14.10907451200719 0 14.10907451200719 48.08726030098893 0 0 0 0 -0.93704845363870604 12.912535308437896 0 12.912535308437896 32.522681020315673 0 0 0 0 -10.695314479382432 12.239886331164598 0 12.239886331164598 59.437543761443521 0 0 0 0 -13.512751203241596 6.0885723670388643 0 6.0885723670388643 38.626842243251957 0 0 0 0 -31.162923446870991 7.8607214277144521 0 7.8607214277144521 14.979591933617485 0 0 0 0 -15.992767654797753 1.8212738868480471 0 1.8212738868480471 30.701732442213924 0 0 0 0 9.5836497681038963 -75.790834321687726 0 -75.790834321687726 28.413624464905297 0 0 0 0 -23.663808986621007 20.029707103072724 0 20.029707103072724 56.849097501835786 0 0 0 0 5.7819756913531819 6.0533077490345022 0 6.0533077490345022 58.78896631047246 0 0 0 0 -12.017051932292816 21.26713931822087 0 21.26713931822087 53.288163727411302 0 0 0 0 -14.077590235821845 17.848904596896318 0 17.848904596896318 52.951626952351944 0 0 0 0 -7.6125629105336472 5.4277338816011103 0 5.4277338816011103 42.493504232930263 0 0 0 0 -41.02990935874368 15.128293398236565 0 15.128293398236565 108.41735235809756 0 0 0 0 -2.3072840839285647 16.623889401736847 0 16.623889401736847 61.939212337581296 0 0 0 0 -30.342389548708525 -55.084759557015786 0 -55.084759557015786 129.12249947208329 0 0 0 0 -31.40480840243773 -28.516092025232936 0 -28.516092025232936 50.996349833449642 0 0 0 0 -51.288848663254612 11.765600154303684 0 11.765600154303684 107.52820440620599 0 0 0 0 -55.105488374731067 2.0255636216679704 0 2.0255636216679704 119.04576287628151 0 0 0 0 -191.5307738462152 -122.81035331138992 0 -122.81035331138992 55.550839168048697 0 0 0 0 -22.602689847737565 2.9556885924066592 0 2.9556885924066592 34.335161887807772 0 0 0 0 -10.128262710716356 17.571486762862406 0 17.571486762862406 39.111491811388262 0 0 0 0 -11.782803389814946 -11.974053638219555 0 -11.974053638219555 23.944760041904601 0 0 0 0 -31.172789820007893 -20.988200690000667 0 -20.988200690000667 22.204923873534426 0 0 0 0 -24.222010273408905 -40.88857178834958 0 -40.88857178834958 13.495778281013713 0 0 0 0 -35.866764010705992 -26.266380872097216 0 -26.266380872097216 -16.998611634669942 0 0 0 0 -1.3096837271957984 -2.3815824691854033 0 -2.3815824691854033 -2.1800751388362301 0 0 0 0 21.202234664855496 30.031156988166913 0 30.031156988166913 17.495239551622944 0 0 0 0 -122.44159218293862 143.97168386902194 0 143.97168386902194 189.46268444766974 0 0 0 0 242.81799738707196 125.46422071379493 0 125.46422071379493 -7.7117097637747065 0 0 0 0 143.71860826818011 184.70190430187358 0 184.70190430187358 143.82294439748603 0 0 0 0 -4.5768462867438888 13.379372440226799 0 13.379372440226799 50.323161363226802 0 0 0 0 -6.768842919276965 6.978266443258228 0 6.978266443258228 65.267733954539636 0 0 0 0 -16.081028581713781 9.4784601017317982 0 9.4784601017317982 72.439028574412077 0 0 0 0 -183.16101793212601 -2.4302451234325417 0 -2.4302451234325417 134.95496975688366 0 0 0 0 -23.334343566461939 13.174203724647668 0 13.174203724647668 75.125870557822054 0 0 0 0 -8.1379701368987298 60.825395295563794 0 60.825395295563794 40.877839724707883 0 0 0 0 -54.239389195260628 69.463905182641611 0 69.463905182641611 61.322225130235893 0 0 0 0 -3.2822912534480819 -1.3450637695665115 0 -1.3450637695665115 3.4544919596355044 0 0 0 0 -4.3225491458247234 38.696539903372468 0 38.696539903372468 67.616061151129543 0 0 0 0 153.74339264060291 31.901204649793726 0 31.901204649793726 26.875688253639964 0 0 0 0 142.54758232618406 113.87514558613839 0 113.87514558613839 41.720616418093414 0 0 0 0 -7.1897421320895383 1.1894597491178729 0 1.1894597491178729 6.6644612132587184 0 0 0 0 -33.722517638512727 -20.423791824403452 0 -20.423791824403452 33.298361552326242 0 0 0 0 -11.83078335170114 11.84116153275928 0 11.84116153275928 22.29541094197694 0 0 0 0 -0.5355843211207727 -3.5769385531362872 0 -3.5769385531362872 8.4283490600096229 0 0 0 0 44.254290285603929 37.768525604915339 0 37.768525604915339 82.511326608140735 0 0 0 0 -1.116912224179913 -2.175070427799966 0 -2.175070427799966 1.6724944091478164 0 0 0 0 7.2795500837564759 44.740810315124691 0 44.740810315124691 113.36472929401498 0 0 0 0 13.133855045396558 48.51271563458431 0 48.51271563458431 143.14097394583587 0 0 0 0 39.124413800911498 37.636839490922284 0 37.636839490922284 114.27784468542086 0 0 0 0 29.839854793674021 8.0196071471436881 0 8.0196071471436881 126.17344569682609 0 0 0 0 29.922342806594315 8.1809712025133194 0 8.1809712025133194 126.40780803855887 0 0 0 0 -6.0852618697836078 15.247347137465113 0 15.247347137465113 125.50877997331554 0 0 0 0 -1.8415076210522159 0.013562623724141076 0 0.013562623724141076 1.2597662045986908 0 0 0 0 8.3084569912989537 -30.266074995604868 0 -30.266074995604868 74.933607230253983 0 0 0 0 -6.9632852907707274 -0.97448088505188935 0 -0.97448088505188935 96.765854362944083 0 0 0 0 29.941459863117132 -3.1833996749188813 0 -3.1833996749188813 89.128150216900394 0 0 0 0 85.397311898481348 -7.2408020072471118 0 -7.2408020072471118 -149.83090321202326 0 0 0 0 -3.6327400861675727 -4.7200195779414287 0 -4.7200195779414287 0.69552214954543246 0 0 0 0 39.319981868404284 45.785270885819045 0 45.785270885819045 -53.276658170543669 0 0 0 0 -37.249085731330524 22.01476758825811 0 22.01476758825811 14.550992309574212 0 0 0 0 -13.154297894296178 -10.166738463820366 0 -10.166738463820366 83.121060292061884 0 0 0 0 -38.823044567224315 9.0054607841266261 0 9.0054607841266261 64.613190868869424 0 0 0 0 -11.286958238577071 -1.3160855396190954 0 -1.3160855396190954 8.5863329792455048 0 0 0 0 10.156736602930831 21.783175087820574 0 21.783175087820574 31.927087539021613 0 0 0 0 -37.199126013903879 26.016800851066364 0 26.016800851066364 81.737314238331237 0 0 0 0 -34.19713153275552 41.321416028493331 0 41.321416028493331 56.131801151401305 0 0 0 0 0.73538719311727618 48.606333991388965 0 48.606333991388965 -20.144791281216385 0 0 0 0 -42.449147821136648 57.920240844905493 0 57.920240844905493 132.39312060284283 0 0 0 0 -30.922954415971617 31.408101730565249 0 31.408101730565249 57.42797150226852 0 0 0 0 -48.108596403777483 -3.1322296136422665 0 -3.1322296136422665 164.04725737402623 0 0 0 0 -32.099788989480658 41.246917303244118 0 41.246917303244118 155.33721518235689 0 0 0 0 79.304298207182001 119.60324558873253 0 119.60324558873253 51.588201907830808 0 0 0 0 58.251383060766102 -4.8898228904736243 0 -4.8898228904736243 9.4990067131730029 0 0 0 0 328.91898104971187 164.66947015643382 0 164.66947015643382 75.956203337496845 0 0 0 0 17.006926257585292 -158.33180294249905 0 -158.33180294249905 359.63812104095723 0 0 0 0 22.721331745133284 165.20579786921007 0 165.20579786921007 346.05593213529937 0 0 0 0 3.7723004553014761 3.8980476710299996 0 3.8980476710299996 -0.00040213624728835384 0 0 0 0 317.14929211077651 154.60300447080226 0 154.60300447080226 51.435599461634411 0 0 0 0 115.69599033003396 -180.28754653989017 0 -180.28754653989017 326.87232287818676 0 0 0 0 95.670164060655225 268.51352305539331 0 268.51352305539331 333.79208155758261 0 0 0 0 -21.925033674287988 -205.02862284075309 0 -205.02862284075309 -75.339671704059583 0 0 0 0 -69.367134874093153 55.740835781292844 0 55.740835781292844 33.093991530739004 0 0 0 0 12.15534375120842 56.55260204152728 0 56.55260204152728 183.09967885032529 0 0 0 0 6.2272220835220651 21.988343001910835 0 21.988343001910835 212.30503339484858 0 0 0 0 20.447855221987993 20.720214593820856 0 20.720214593820856 156.41703263972886 0 0 0 0 -4.2980986488510098 38.762148576890468 0 38.762148576890468 180.52684588351985 0 0 0 0 19.468366193152178 54.079006514562934 0 54.079006514562934 129.87504247234028 0 0 0 0 23.850821688331052 61.253646265526186 0 61.253646265526186 136.39849368387513 0 0 0 0 -26.897759882213222 139.15827409444069 0 139.15827409444069 197.47451106880908 0 0 0 0 37.547723727066227 98.281861597257603 0 98.281861597257603 92.629202282303595 0 0 0 0 151.66373190319791 156.76785171629308 0 156.76785171629308 122.58330965341884 0 0 0 0 -21.046905956927731 13.688914468883013 0 13.688914468883013 80.432501258932461 0 0 0 0 114.08109752407199 30.848534510907484 0 30.848534510907484 -7.3941275625838898 0 0 0 0 -6.7514310877817891 -4.8870649191427731 0 -4.8870649191427731 17.527187789735649 0 0 0 0 42.117836171939416 31.660237873811639 0 31.660237873811639 84.49802327794896 0 0 0 0 -17.505338142254914 -7.8563596639232856 0 -7.8563596639232856 57.754503028416366 0 0 0 0 0.024470279731758637 -13.771538606233662 0 -13.771538606233662 95.170083324199368 0 0 0 0 -16.494907039414706 -20.968961856397499 0 -20.968961856397499 32.534559640102202 0 0 0 0 4.4610426999270203 -26.150643773809861 0 -26.150643773809861 91.410366685733607 0 0 0 0 -22.869244378499843 -50.961945239538181 0 -50.961945239538181 92.692748237393971 0 0 0 0 -23.390274187559953 29.328797416372254 0 29.328797416372254 116.03712111061759 0 0 0 0 -10.232176847510345 -6.3519322588836076 0 -6.3519322588836076 112.05231692639018 0 0 0 0 -10.725099476934695 1.5440084989317739 0 1.5440084989317739 55.989167496850996 0 0 0 0 -31.342990280906527 -27.457993215460277 0 -27.457993215460277 54.311701109065837 0 0 0 0 -14.104417619142168 17.369147197176062 0 17.369147197176062 107.65749646492623 0 0 0 0 -28.341284871948119 25.714615437584143 0 25.714615437584143 104.60464397885517 0 0 0 0 -8.6208291397151697 20.176745257926086 0 20.176745257926086 65.067569013030152 0 0 0 0 -16.803255908923575 -7.248960158236514 0 -7.248960158236514 42.161460551218624 0 0 0 0 -3.3667633732295599 48.896855699184925 0 48.896855699184925 65.523473715904402 0 0 0 0 -4.9403967223415384 -7.5360665977892438 0 -7.5360665977892438 8.4449290900559735 0 0 0 0 9.6786094863250582 -6.8207632200865191 0 -6.8207632200865191 28.556703156566073 0 0 0 0 -30.52811250677928 13.352258062068358 0 13.352258062068358 29.687961980642285 0 0 0 0 0.42337894853200009 0.81555947194468104 0 0.81555947194468104 2.8104100185146628 0 0 0 0 62.408542391752235 20.78035362540686 0 20.78035362540686 -4.2453761572760413 0 0 0 0 -18.323959996510439 6.3881687977955153 0 6.3881687977955153 22.965957452684961 0 0 0 0 -40.265493343666321 0.89207908420576132 0 0.89207908420576132 39.49158376233936 0 0 0 0 -2.2785053946242693 -7.1262899733390555 0 -7.1262899733390555 -0.58643053524678379 0 0 0 0 5.1978416382039541 -11.735640351367692 0 -11.735640351367692 33.751316230853263 0 0 0 0 -5.9965371965786369 -0.5106454654727699 0 -0.5106454654727699 28.83303936930821 0 0 0 0 -14.278275338050662 -17.260836600471521 0 -17.260836600471521 62.998146681755316 0 0 0 0 -7.9807469439990619 -4.6671823090196654 0 -4.6671823090196654 19.871290199200491 0 0 0 0 2.0258460261025686 6.603547282961145 0 6.603547282961145 13.101599333529663 0 0 0 0 41.046915016234379 -99.448787586425169 0 -99.448787586425169 123.85785096404288 0 0 0 0 -0.78396049720173977 1.473480714020468 0 1.473480714020468 4.963419661739259 0 0 0 0 30.394309184287522 -27.590865272162773 0 -27.590865272162773 -29.243635310231184 0 0 0 0 63.317199481818989 -129.37490834856817 0 -129.37490834856817 72.51647341028729 0 0 0 0 -22.540272650498082 -55.079228122376662 0 -55.079228122376662 13.777811559004476 0 0 0 0 -15.860074439286578 -17.438047551773408 0 -17.438047551773408 13.198351386946712 0 0 0 0 -34.979841390654656 -76.464753343112534 0 -76.464753343112534 -4.053301606887544 0 0 0 0 -7.7827294750859437 -29.4990696105815 0 -29.4990696105815 -4.7974458973112633 0 0 0 0 -14.142884025141935 -14.080670480102114 0 -14.080670480102114 101.38017915751399 0 0 0 0 -18.072366058320167 -12.391481905366732 0 -12.391481905366732 26.828132862222986 0 0 0 0 27.443146190773405 -0.27245371462777257 0 -0.27245371462777257 101.0954811697593 0 0 0 0 33.573597760667326 31.4344823929423 0 31.4344823929423 215.47560695197899 0 0 0 0 -65.384156563522993 -30.987969878595322 0 -30.987969878595322 -36.278998978901654 0 0 0 0 -11.826352115481745 1.0720510159077037 0 1.0720510159077037 58.979850321343974 0 0 0 0 -5.9454408417080273 2.7158049092589991 0 2.7158049092589991 53.502859825348473 0 0 0 0 13.773318011968513 16.664353425324407 0 16.664353425324407 56.214735810659477 0 0 0 0 -0.21445010269469389 5.5592279351626956 0 5.5592279351626956 56.524752052622077 0 0 0 0 5.4259745543836289 6.1763555471952714 0 6.1763555471952714 54.794062903038366 0 0 0 0 2.7563075972962849 9.4749044274559537 0 9.4749044274559537 74.607735249319376 0 0 0 0 9.7243306955368105 5.1999076309283225 0 5.1999076309283225 18.196452513727888 0 0 0 0 5.1948106768940931 -3.025160886671074 0 -3.025160886671074 42.887222515855683 0 0 0 0 -253.44633625022789 -154.23342344063349 0 -154.23342344063349 310.03836596525798 0 0 0 0 171.02859901400188 75.133407710563915 0 75.133407710563915 -17.431484716903469 0 0 0 0 163.76001780626029 104.45802521418227 0 104.45802521418227 47.687293080125528 0 0 0 0 -0.53041365496400239 0.1640331137422848 0 0.1640331137422848 5.5457760728579615 0 0 0 0 108.1608767942721 -147.70610581555775 0 -147.70610581555775 174.02603674966667 0 0 0 0 -69.258986070043647 -78.149137124913977 0 -78.149137124913977 390.21940024994547 0 0 0 0 -67.573886284829314 -4.066910151821503 0 -4.066910151821503 117.35431359887843 0 0 0 0 -55.517957310703423 -41.492987786954473 0 -41.492987786954473 205.94433802251297 0 0 0 0 -17.269791972139501 72.008411962004175 0 72.008411962004175 -57.684671484923456 0 0 0 0 -72.67214104910181 147.0286350159804 0 147.0286350159804 151.26326980829253 0 0 0 0 -81.415351655667109 104.661984438324 0 104.661984438324 308.78181690227029 0 0 0 0 269.87218531737471 -6.5637299203954171 0 -6.5637299203954171 -242.04711256905284 0 0 0 0 -13.706753507395018 -6.0912188945617487 0 -6.0912188945617487 14.94104987955599 0 0 0 0 -1.8525475994230236 0.016572667279248776 0 0.016572667279248776 9.0968990889753059 0 0 0 0 -8.3071342556895615 -6.1140088795655174 0 -6.1140088795655174 65.275240012525501 0 0 0 0 -2.2957634104468525 -2.6611453443620121 0 -2.6611453443620121 50.704209730691218 0 0 0 0 -0.48684747593517841 -7.875143663626659 0 -7.875143663626659 54.449754945817403 0 0 0 0 -0.89186915343952933 -9.2480913644685643 0 -9.2480913644685643 77.501317766596912 0 0 0 0 -40.572606429024972 -48.463282810903365 0 -48.463282810903365 113.18693593062198 0 0 0 0 -0.29585115758629676 -0.47539898338141029 0 -0.47539898338141029 -0.43468902628255535 0 0 0 0 -19.354655889428614 17.888723528907576 0 17.888723528907576 23.529601108166389 0 0 0 0 -8.9356613568356078 -8.4810949065717267 0 -8.4810949065717267 -0.48354335187780606 0 0 0 0 -14.224081105484856 15.48733574328071 0 15.48733574328071 24.640672044348321 0 0 0 0 -18.700737536889392 10.852499566462939 0 10.852499566462939 29.65867279584927 0 0 0 0 3.6212437649444382 -8.0252253922517411 0 -8.0252253922517411 22.520641276030801 0 0 0 0 -27.231820457167487 7.943798189277004 0 7.943798189277004 79.19660213264433 0 0 0 0 10.079536696616969 48.372979283038148 0 48.372979283038148 -42.704126081021968 0 0 0 0 -56.197558636103167 9.8065850844650413 0 9.8065850844650413 50.749468573538252 0 0 0 0 -37.957263404240621 54.998516572770313 0 54.998516572770313 53.389234191199648 0 0 0 0 9.3629647285388273 24.45053450964042 0 24.45053450964042 53.702324950703769 0 0 0 0 20.99384613363145 -48.42277497354371 0 -48.42277497354371 -52.536838372607235 0 0 0 0 93.31726389430969 30.880608554529317 0 30.880608554529317 -31.731116247814498 0 0 0 0 11.925397399792928 -14.467039610724896 0 -14.467039610724896 122.17528211609169 0 0 0 0 6.5448532617864874 16.567794931894625 0 16.567794931894625 31.558979479036111 0 0 0 0 -5.0710085268802274 20.717492625172344 0 20.717492625172344 13.013515183295226 0 0 0 0 55.510641241259464 -1.7489320823697199 0 -1.7489320823697199 106.30605806111998 0 0 0 0 -11.619913452968831 17.448804400250083 0 17.448804400250083 129.41784904447559 0 0 0 0 -1.4272987032236415 57.876844097379944 0 57.876844097379944 46.813308573240647 0 0 0 0 10.344573517567369 34.067712098127231 0 34.067712098127231 46.2751292631051 0 0 0 0 -20.353224804025103 33.444015101395053 0 33.444015101395053 80.803249869233696 0 0 0 0 38.340398479633222 -4.1819530118082184 0 -4.1819530118082184 81.330181235327018 0 0 0 0 0.81398572259797675 8.9264499584978694 0 8.9264499584978694 39.32522335909016 0 0 0 0 0.48047928937126017 8.8349271686529391 0 8.8349271686529391 49.78139210144036 0 0 0 0 -6.3533959791417089 -1.0690454036061112 0 -1.0690454036061112 38.581368190236162 0 0 0 0 -9.6745100508542237 -1.7118626839874196 0 -1.7118626839874196 60.007958367372339 0 0 0 0 3.0071869950943615 13.291731869719115 0 13.291731869719115 112.30992928035994 0 0 0 0 -1.8122462741467682 2.3727719178657907 0 2.3727719178657907 58.035176129771621 0 0 0 0 10.701556136578262 -3.9446140741929412 0 -3.9446140741929412 62.363123665914145 0 0 0 0 4.7642154175814539 18.866030177992798 0 18.866030177992798 -60.47775811102656 0 0 0 0 11.862140433591776 28.788396280549932 0 28.788396280549932 -64.527923375026148 0 0 0 0 0.19827052564428982 10.229166932842418 0 10.229166932842418 116.05311192924273 0 0 0 0 8.9876409183924384 46.160240950619936 0 46.160240950619936 22.275758896767332 0 0 0 0 7.7854047160046775 55.892622941200898 0 55.892622941200898 57.705067067989148 0 0 0 0 0.76957773506370852 0.64654680996542879 0 0.64654680996542879 0.49243163993418193 0 0 0 0 -8.4762730630395708 77.252788102719933 0 77.252788102719933 383.9328024698807 0 0 0 0 42.494340169146653 5.1689531877236732 0 5.1689531877236732 -117.58134626436367 0 0 0 0 -29.670899398654683 6.1880090151753393 0 6.1880090151753393 436.1213953114202 0 0 0 0 18.497696089575584 66.647196278812771 0 66.647196278812771 308.23782653380022 0 0 0 0 14.658092182640758 40.503986003022874 0 40.503986003022874 314.00971920578922 0 0 0 0 -15.165831066263991 38.515500072862778 0 38.515500072862778 307.43482900835079 0 0 0 0 8.1716856987895881 41.259707155317301 0 41.259707155317301 307.08050666165218 0 0 0 0 0.4247912929499762 51.730154056225729 0 51.730154056225729 315.94797823307454 0 0 0 0 -2.5369523573231163 -23.431310035455681 0 -23.431310035455681 319.20289781845486 0 0 0 0 1.1711750757729646 2.080622876280998 0 2.080622876280998 0.5580833513791319 0 0 0 0 9.4395756912063007 39.10111850460089 0 39.10111850460089 155.51194639350251 0 0 0 0 5.3652754239706155 -18.527315370431097 0 -18.527315370431097 221.65685209156072 0 0 0 0 -36.945284448683651 43.221326363851404 0 43.221326363851404 231.78954177210107 0 0 0 0 -17.514253474403176 -19.967880977135792 0 -19.967880977135792 91.978376094877603 0 0 0 0 -2.5939924171539133 52.819845038557105 0 52.819845038557105 240.31516946535703 0 0 0 0 -14.147365373767002 85.866520033508095 0 85.866520033508095 317.85853815446899 0 0 0 0 8.8796402199122895 31.043718669014197 0 31.043718669014197 245.54124136793689 0 0 0 0 -8.0301059532862382 56.691156873821456 0 56.691156873821456 263.60276430970043 0 0 0 0 -13.596708499781471 25.598935707268538 0 25.598935707268538 239.05615469853728 0 0 0 0 -20.041539015104377 17.746791304207363 0 17.746791304207363 288.35161796319153 0 0 0 0 21.408587355292184 8.7098296939475404 0 8.7098296939475404 286.35142457669281 0 0 0 0 -12.553646582360216 -9.1567575984845462 0 -9.1567575984845462 368.03382683552809 0 0 0 0 5.8688483311261734 -31.977080919132277 0 -31.977080919132277 297.37925970862125 0 0 0 0 40.841719887728686 -43.285158378057531 0 -43.285158378057531 297.8017382004939 0 0 0 0 112.44060140167085 -30.315817007885926 0 -30.315817007885926 182.42876760811487 0 0 0 0 10.885813123972184 -21.59817307767662 0 -21.59817307767662 265.40847132543422 0 0 0 0 26.0001831317702 -9.7964441137173708 0 -9.7964441137173708 222.2439469130768 0 0 0 0 58.414436515775378 -31.241028225407717 0 -31.241028225407717 222.07890036097524 0 0 0 0 45.733327325095615 43.724164840568847 0 43.724164840568847 212.7572236280339 0 0 0 0 124.1817613423168 8.2748136037116637 0 8.2748136037116637 205.16096311084493 0 0 0 0 21.608165359226859 74.157483706419953 0 74.157483706419953 242.80499412240897 0 0 0 0 53.115521807270397 58.341742900320241 0 58.341742900320241 241.32440391703858 0 0 0 0 27.36583638318325 27.33115126825578 0 27.33115126825578 260.07962785160635 0 0 0 0 13.079641782087037 46.339737209815212 0 46.339737209815212 263.28237571652426 0 0 0 0 -28.573328583990815 162.37783704181129 0 162.37783704181129 828.58411247118056 0 0 0 0 43.927505422205286 140.05328744761391 0 140.05328744761391 414.34389020242088 0 0 0 0 0.077407806420051628 -0.40378695973464573 0 -0.40378695973464573 1.0284704531828481 0 0 0 0 -19.017659836756138 -32.28899877292497 0 -32.28899877292497 166.50032613386429 0 0 0 0 36.718909549506861 -144.68390151462881 0 -144.68390151462881 329.5061998697056 0 0 0 0 53.085918733632639 -13.856006174046797 0 -13.856006174046797 230.50327392558393 0 0 0 0 80.93720142152506 -191.8520407145661 0 -191.8520407145661 511.23858042596839 0 0 0 0 50.021295691034567 12.659712394323151 0 12.659712394323151 166.49497861486452 0 0 0 0 148.41607352176106 -111.92636327290711 0 -111.92636327290711 82.044304054259555 0 0 0 0 5.948010392069591 -161.95520247322202 0 -161.95520247322202 -108.23565272564156 0 0 0 0 0.62074214681615558 80.888242674807771 0 80.888242674807771 766.80176892145755 0 0 0 0 175.84969777752696 -366.35311629881835 0 -366.35311629881835 602.20514492392977 0 0 0 0 1.0224220428147017 2.0924105874414423 0 2.0924105874414423 5.3179187666223982 0 0 0 0 201.04371857428623 -271.0547675511516 0 -271.0547675511516 285.70010776370327 0 0 0 0 42.900621568577094 -45.886242107600992 0 -45.886242107600992 -1.5258005849464098 0 0 0 0 1.5813107196856064 -0.82560657555892192 0 -0.82560657555892192 0.58044812419359459 0 0 0 0 38.837164466829563 48.813268792204326 0 48.813268792204326 54.673454438110639 0 0 0 0 -26.792409149100877 130.67120896744382 0 130.67120896744382 532.0873391078203 0 0 0 0 39.10919322124937 159.78793131942803 0 159.78793131942803 141.00043577259567 0 0 0 0 49.023392641001067 -157.46426672488906 0 -157.46426672488906 567.11011766245792 0 0 0 0 350.93975258220297 -26.027249612027845 0 -26.027249612027845 112.65237477693881 0 0 0 0 316.79904437164487 -190.85378858329932 0 -190.85378858329932 229.30834078440239 0 0 0 0 119.40558013966393 -49.561630171574507 0 -49.561630171574507 230.43747734642812 0 0 0 0 122.08471285636642 48.095735014630918 0 48.095735014630918 119.23675722497137 0 0 0 0 199.28179550282448 -30.714784585710731 0 -30.714784585710731 99.30486399239453 0 0 0 0 148.20659419274079 53.427925923904695 0 53.427925923904695 148.5269645882945 0 0 0 0 112.94003991084674 -4.8742999410133052 0 -4.8742999410133052 54.324689943341582 0 0 0 0 82.468677547969492 93.298708098933275 0 93.298708098933275 86.551939501568995 0 0 0 0 37.275049788440811 30.208358379895799 0 30.208358379895799 33.991983015592268 0 0 0 0 -73.00096798417735 -61.408621217717155 0 -61.408621217717155 892.03087508301905 0 0 0 0 -164.64202852302162 -361.9234679429228 0 -361.9234679429228 31.80796743434621 0 0 0 0 36.088639402457488 118.21021932243457 0 118.21021932243457 17.43259331885929 0 0 0 0 -0.10177520098917281 -0.18834081322684426 0 -0.18834081322684426 0.54746024798191684 0 0 0 0 -141.48936284920137 85.272476812875539 0 85.272476812875539 104.79172304687381 0 0 0 0 -1.6436351909502172 0.38690346244946738 0 0.38690346244946738 2.0967544319848912 0 0 0 0 -195.20923946859511 -60.349658531302339 0 -60.349658531302339 13.005676490429323 0 0 0 0 -29.195396871204139 5.0956578892582911 0 5.0956578892582911 68.91027979181672 0 0 0 0 94.45337134467627 140.17584040262955 0 140.17584040262955 110.7908474556225 0 0 0 0 -105.45640653250848 20.561889474869531 0 20.561889474869531 179.2124068596604 0 0 0 0 12.928950605656837 41.775962353858631 0 41.775962353858631 176.41107549076696 0 0 0 0 -1.7210047853027062 1.5238245588620742 0 1.5238245588620742 1.018997639496682 0 0 0 0 14.268905852741682 25.645687647225714 0 25.645687647225714 200.22092769514347 0 0 0 0 -57.268372572819089 20.144254220313087 0 20.144254220313087 -1.1380317612056388 0 0 0 0 5.7362364576741811 50.957133803967736 0 50.957133803967736 73.362018481944688 0 0 0 0 -3.5764555293562577 0.91832172583507088 0 0.91832172583507088 2.611573728454573 0 0 0 0 -48.512166198109298 37.030194633414794 0 37.030194633414794 -15.347500704345293 0 0 0 0 -57.37502739434467 27.004396393971547 0 27.004396393971547 42.003924892651412 0 0 0 0 -0.47727541362354842 0.33791038023346687 0 0.33791038023346687 0.26015228946447877 0 0 0 0 -15.500374657583052 213.14603567479935 0 213.14603567479935 -132.39823917936701 0 0 0 0 -43.974376218473481 99.203453656151396 0 99.203453656151396 465.30660456698388 0 0 0 0 13.542525190635388 25.65298248016552 0 25.65298248016552 292.37226913485938 0 0 0 0 21.95111706802345 198.95384037641634 0 198.95384037641634 239.88195886884205 0 0 0 0 51.01282238507747 175.2622517822092 0 175.2622517822092 117.32821054151282 0 0 0 0 67.065881199774594 187.8532067414817 0 187.8532067414817 125.28933701266942 0 0 0 0 21.546971790689895 190.88082040192239 0 190.88082040192239 142.88211240967212 0 0 0 0 51.952685063678018 211.62805037392172 0 211.62805037392172 155.84785817938973 0 0 0 0 -48.261936613615035 113.84220405759697 0 113.84220405759697 297.87392973825627 0 0 0 0 4.3289325368868958 104.29133919792002 0 104.29133919792002 69.666000745259225 0 0 0 0 76.475842571736848 48.413346821704181 0 48.413346821704181 91.820268725336064 0 0 0 0 243.11053732991422 96.351406937224965 0 96.351406937224965 85.057556418280001 0 0 0 0 68.837647785497211 99.094551297195721 0 99.094551297195721 144.97294885200972 0 0 0 0 157.04550648824807 110.86818718185532 0 110.86818718185532 101.94938819353411 0 0 0 0 135.04925943384524 50.332125247748991 0 50.332125247748991 74.284095222355973 0 0 0 0 117.7569228617956 46.176742782176007 0 46.176742782176007 148.33938494464383 0 0 0 0 74.392843285665435 82.048809732190421 0 82.048809732190421 176.54915119746875 0 0 0 0 1.2830977718703895 0.68920735548399392 0 0.68920735548399392 1.8835475388908947 0 0 0 0 15.106258440242073 1.8500854475933011 0 1.8500854475933011 166.75464810252015 0 0 0 0 44.85329671033719 134.60656903334529 0 134.60656903334529 48.354555718615302 0 0 0 0 9.3141739269440222 21.080350092572189 0 21.080350092572189 150.17385198589182 0 0 0 0 114.5786423971349 165.34562784151058 0 165.34562784151058 227.27627588006726 0 0 0 0 47.741323034573725 89.386786751376349 0 89.386786751376349 252.25335787884615 0 0 0 0 13.425663728009113 16.976459702622378 0 16.976459702622378 153.76335304840904 0 0 0 0 7.8662430288369478 -45.974236542648214 0 -45.974236542648214 46.235815323816496 0 0 0 0 32.765844140555714 49.604971080256291 0 49.604971080256291 -76.115920744676259 0 0 0 0 -48.861386500392655 -60.627581279535661 0 -60.627581279535661 -45.768773667045025 0 0 0 0 -4.1612384036716321 6.1388363012956688 0 6.1388363012956688 39.065225685553742 0 0 0 0 5.0180985714531241 -2.590039622699237 0 -2.590039622699237 8.2272981554958733 0 0 0 0 -102.66484742120582 52.358737065986134 0 52.358737065986134 -1.0223084460012615 0 0 0 0 -107.94647565206799 -34.609372497770437 0 -34.609372497770437 39.647561796969967 0 0 0 0 -40.55918155031577 0.60001963147806237 0 0.60001963147806237 30.087918125303986 0 0 0 0 -17.135367708585363 -43.414205205994222 0 -43.414205205994222 23.047659526724601 0 0 0 0 10.170653303727249 -9.0221303506477852 0 -9.0221303506477852 44.612822939860052 0 0 0 0 13.039205051975387 -18.841108911045012 0 -18.841108911045012 77.863605229675159 0 0 0 0 62.036498187128473 26.866078504102916 0 26.866078504102916 42.565915207225771 0 0 0 0 32.239538860676475 11.915353912198043 0 11.915353912198043 -27.94964657073433 0 0 0 0 36.228667127638801 42.405241685468354 0 42.405241685468354 94.29363412456587 0 0 0 0 43.581826048634184 94.408911935161086 0 94.408911935161086 67.301091112138238 0 0 0 0 35.873612670896364 88.747464862688503 0 88.747464862688503 94.305185317818541 0 0 0 0 53.709365499414616 101.46815468874411 0 101.46815468874411 80.641001302850782 0 0 0 0 39.37479833614907 73.605638282591826 0 73.605638282591826 200.38246063119914 0 0 0 0 66.543323410959601 93.159623003184606 0 93.159623003184606 147.30674015745171 0 0 0 0 41.940485735831771 37.804584215333307 0 37.804584215333307 138.75036358081888 0 0 0 0 26.64669253180773 -1.7717094924519188 0 -1.7717094924519188 106.00433648539547 0 0 0 0 54.467828568783034 35.224301474578169 0 35.224301474578169 97.552216393924027 0 0 0 0 50.772573053899123 5.4173689628405555 0 5.4173689628405555 114.21468885178911 0 0 0 0 42.215620646513798 27.980505269231799 0 27.980505269231799 123.32839704316575 0 0 0 0 26.73338828812166 15.659377825293632 0 15.659377825293632 186.72712277132086 0 0 0 0 42.336158503955176 39.621536227619799 0 39.621536227619799 169.14548414076853 0 0 0 0 40.522630758580817 17.204436814987275 0 17.204436814987275 164.42996468676574 0 0 0 0 26.057865162988492 11.374676096544135 0 11.374676096544135 164.51244123171637 0 0 0 0 38.09758727144208 -20.789638307542191 0 -20.789638307542191 -5.8734603346747463 0 0 0 0 -19.281851663729526 58.13241777928215 0 58.13241777928215 147.02941654136521 0 0 0 0 -0.42096349756339624 0.30387246701473103 0 0.30387246701473103 2.0271290733956278 0 0 0 0 190.58300458105987 -44.276444618422829 0 -44.276444618422829 24.406729736554553 0 0 0 0 63.356387813404581 8.3701394949639507 0 8.3701394949639507 4.0806980332599778 0 0 0 0 98.430691234308597 -55.806393892078631 0 -55.806393892078631 -11.049870917660883 0 0 0 0 64.493190068684044 -92.516748989557527 0 -92.516748989557527 232.32478103289031 0 0 0 0 65.79057108039683 67.744935761078523 0 67.744935761078523 199.87825859230361 0 0 0 0 0.64418993992376272 -26.900387644222064 0 -26.900387644222064 227.63974582501396 0 0 0 0 14.517049616390068 33.159694457375736 0 33.159694457375736 152.68020091860672 0 0 0 0 32.089749109285549 -11.147243096296734 0 -11.147243096296734 221.34495411400167 0 0 0 0 66.809891811818943 5.2500063753395807 0 5.2500063753395807 190.50422155794331 0 0 0 0 45.101116540969088 29.801307358855411 0 29.801307358855411 162.74488439491688 0 0 0 0 49.472012078281296 10.054963467289781 0 10.054963467289781 144.52163161741555 0 0 0 0 43.092644031315558 51.125221972244617 0 51.125221972244617 148.04408251954646 0 0 0 0 38.108263760264435 28.265552371831291 0 28.265552371831291 123.28035321972129 0 0 0 0 13.725362160284931 -6.7909358161487035 0 -6.7909358161487035 108.36737697936405 0 0 0 0 23.666274193529603 -19.044242867330468 0 -19.044242867330468 50.014332660386572 0 0 0 0 27.943146197070291 11.801010093364312 0 11.801010093364312 88.202792133284674 0 0 0 0 25.744228951303739 -12.185943935204705 0 -12.185943935204705 117.38163839867775 0 0 0 0 41.853427493031177 -15.130130885383551 0 -15.130130885383551 13.696398353182303 0 0 0 0 21.348507489752365 -25.138445151604174 0 -25.138445151604174 -14.779879986446758 0 0 0 0 12.012326639085586 -22.581858974765055 0 -22.581858974765055 13.431414991017505 0 0 0 0 31.200497347473629 -10.2077427004333 0 -10.2077427004333 -34.307076627010247 0 0 0 0 35.937136037319306 -30.461703194276197 0 -30.461703194276197 -52.909385667895549 0 0 0 0 15.822868921315603 -26.219172715747845 0 -26.219172715747845 48.433496692465269 0 0 0 0 34.338274564660651 -5.5388058313110378 0 -5.5388058313110378 -29.60335068430868 0 0 0 0 -4.2386550075134437 26.219830453963368 0 26.219830453963368 -49.490204353231547 0 0 0 0 22.633131581103953 -16.422113758486375 0 -16.422113758486375 23.979527416415465 0 0 0 0 15.557281584743532 -8.6048052682825329 0 -8.6048052682825329 1.2821005803844487 0 0 0 0 -7.4483953851352025 1.3913290682291546 0 1.3913290682291546 19.99396922425629 0 0 0 0 -65.863743850934952 10.81367748448065 0 10.81367748448065 41.040976615906402 0 0 0 0 5.0928415278312968 -16.272209089049284 0 -16.272209089049284 19.22180655664506 0 0 0 0 8.4830696371736849 -8.7256880173936224 0 -8.7256880173936224 34.389777156917262 0 0 0 0 10.128467202832407 -10.181389088504844 0 -10.181389088504844 5.1104801023658117 0 0 0 0 10.792895215045974 -32.116057299197564 0 -32.116057299197564 43.109614862652961 0 0 0 0 9.0176668385855194 -18.667312820689709 0 -18.667312820689709 27.465519998394029 0 0 0 0 14.47763868410766 -31.987309966845714 0 -31.987309966845714 40.030310823920445 0 0 0 0 16.445032340950245 -23.38438088495819 0 -23.38438088495819 5.4882997882260298 0 0 0 0 4.6769833868031494 -4.9898685487471717 0 -4.9898685487471717 0.82412942428788938 0 0 0 0 39.536391962049947 -13.951923049668039 0 -13.951923049668039 -16.480126272850612 0 0 0 0 -12.351979604929511 -41.825405730269267 0 -41.825405730269267 17.616767811199679 0 0 0 0 31.740435365652502 -1.7927181901868607 0 -1.7927181901868607 -30.130890389627893 0 0 0 0 28.955132938290262 -37.492058975614782 0 -37.492058975614782 -14.479431695253879 0 0 0 0 25.930215067038489 -47.474938948120325 0 -47.474938948120325 -22.653290153873968 0 0 0 0 10.139069743154323 -31.329321473200253 0 -31.329321473200253 42.323754180550168 0 0 0 0 0.32812581805228547 -18.508847777469782 0 -18.508847777469782 70.193084228823864 0 0 0 0 50.951566759236812 -39.675458047469874 0 -39.675458047469874 -2.5240357927541481 0 0 0 0 10.329263309455161 -22.337199907720205 0 -22.337199907720205 7.1292161229297539 0 0 0 0 10.88643972259888 -12.058322051052528 0 -12.058322051052528 114.90520278848999 0 0 0 0 5.6010024824558657 -2.5773353959387606 0 -2.5773353959387606 -7.6283274782553292 0 0 0 0 9.1928110041108084 0.59437825266650179 0 0.59437825266650179 45.930303841785644 0 0 0 0 -10.574830687651229 -16.506379306505551 0 -16.506379306505551 45.986562270486552 0 0 0 0 0.042706119556321198 -0.14433236044325071 0 -0.14433236044325071 6.6949263126490965 0 0 0 0 -27.886520892230692 -3.4397780793569837 0 -3.4397780793569837 49.721932836604537 0 0 0 0 -32.104776651340217 -14.826387176613935 0 -14.826387176613935 45.651029127378351 0 0 0 0 5.0974760719323307 -20.233772501798125 0 -20.233772501798125 28.841806933200402 0 0 0 0 -21.800113107228299 -1.9449672567552625 0 -1.9449672567552625 41.597247039055219 0 0 0 0 15.554109304082886 -72.734336280729622 0 -72.734336280729622 16.781353225050225 0 0 0 0 22.306795732222781 -41.589032078394666 0 -41.589032078394666 -30.304590117891372 0 0 0 0 -6.0156119933571972 -75.207484930782812 0 -75.207484930782812 17.350059989505098 0 0 0 0 -16.842788733063571 -55.031848521372012 0 -55.031848521372012 -20.203586988034658 0 0 0 0 42.832274650407271 -62.906264235200069 0 -62.906264235200069 -15.168830945298396 0 0 0 0 -15.234343504249928 -51.72051234525162 0 -51.72051234525162 -16.541079078742769 0 0 0 0 -15.833273031809767 -78.003648999292636 0 -78.003648999292636 -12.151197230472462 0 0 0 0 -43.441621345440012 -10.432121183657728 0 -10.432121183657728 16.423407595317258 0 0 0 0 -44.889085256231738 -5.646498037956917 0 -5.646498037956917 34.900994015493779 0 0 0 0 -53.945067633025815 8.0238061267518788 0 8.0238061267518788 49.76593620418862 0 0 0 0 -57.612131072938723 -4.4623577848942659 0 -4.4623577848942659 39.776499570121814 0 0 0 0 -52.240180689141653 -14.019290714921226 0 -14.019290714921226 56.47865128673584 0 0 0 0 -58.158083742238148 -7.2951205198287425 0 -7.2951205198287425 49.202178707746498 0 0 0 0 -53.898844136476555 -17.403131730279711 0 -17.403131730279711 40.127938096935395 0 0 0 0 -36.201582088707255 -18.681010469910689 0 -18.681010469910689 45.611308092444233 0 0 0 0 -52.459124815265568 -14.904976903701026 0 -14.904976903701026 54.679917559700698 0 0 0 0 -13.006544065939124 -15.530718589759999 0 -15.530718589759999 50.270014793029986 0 0 0 0 -81.70288848847099 -41.74939660650125 0 -41.74939660650125 69.847293559934769 0 0 0 0 -91.301418647619357 1.880489662529726 0 1.880489662529726 60.180468959064456 0 0 0 0 -83.259440934052918 2.2659868436294346 0 2.2659868436294346 49.908368072588928 0 0 0 0 -78.599163171418468 -6.5717662451133947 0 -6.5717662451133947 65.734228820136195 0 0 0 0 -70.769219013853132 13.52833474964882 0 13.52833474964882 58.01893481535808 0 0 0 0 -93.991618073774589 11.629720704699139 0 11.629720704699139 57.987938026873962 0 0 0 0 -59.960231275081412 36.378937549854527 0 36.378937549854527 54.829510607989505 0 0 0 0 -59.291699614595814 34.642724946282215 0 34.642724946282215 57.607565967060509 0 0 0 0 -50.670270881561464 21.306692809145261 0 21.306692809145261 37.438018517641467 0 0 0 0 -98.326818616177661 -41.129570765471726 0 -41.129570765471726 75.638562460735557 0 0 0 0 -80.987094384364809 49.802283830757005 0 49.802283830757005 103.8366285636439 0 0 0 0 -108.61992502435379 8.392320775299595 0 8.392320775299595 66.283047028664441 0 0 0 0 -101.26725682588608 8.8074570550124918 0 8.8074570550124918 32.509750797777087 0 0 0 0 -176.6525111922856 -21.142494304971478 0 -21.142494304971478 55.23426737551199 0 0 0 0 -181.64483130968324 -91.431411461671814 0 -91.431411461671814 2.4416243865434808 0 0 0 0 -138.82390555593247 -13.91467310072585 0 -13.91467310072585 55.390371766596218 0 0 0 0 -110.78408861232538 -11.744412342883152 0 -11.744412342883152 41.613805286047864 0 0 0 0 -96.132881972482664 -25.143006891457844 0 -25.143006891457844 -9.6008489189116517 0 0 0 0 -61.406144088307087 38.447834297991903 0 38.447834297991903 63.463108604599256 0 0 0 0 -0.27819089073340919 -7.2149361483636048 0 -7.2149361483636048 34.584966327270251 0 0 0 0 -1.2196809069431849 2.8419438934992058 0 2.8419438934992058 2.2273228721100793 0 0 0 0 63.432695115473507 20.654362778153882 0 20.654362778153882 -27.712984421777946 0 0 0 0 -108.844143687013 -7.7017932865601324 0 -7.7017932865601324 6.1520888433806249 0 0 0 0 -222.55669446157543 -207.30850787951931 0 -207.30850787951931 -37.115677296824288 0 0 0 0 17.724122615788019 -77.660244592960225 0 -77.660244592960225 72.941126390744103 0 0 0 0 -0.16222357789501984 -45.307711440524145 0 -45.307711440524145 14.751461844629375 0 0 0 0 -13.248562433732786 -78.514845390242044 0 -78.514845390242044 23.310357540976838 0 0 0 0 -59.926602120688585 -48.526999680987501 0 -48.526999680987501 16.449546149589878 0 0 0 0 -65.300580986289333 -79.994820286578033 0 -79.994820286578033 17.199687800573884 0 0 0 0 0.37540057491984835 -6.4164651813792872 0 -6.4164651813792872 -1.1894059207097456 0 0 0 0 0.9919762546183577 -12.310480604974032 0 -12.310480604974032 35.290811438059066 0 0 0 0 -68.098372705901966 -37.545251813535288 0 -37.545251813535288 11.179012222101846 0 0 0 0 -59.855493657408715 -60.220318935465912 0 -60.220318935465912 73.14832252125052 0 0 0 0 -30.277022426601434 -23.261046311206883 0 -23.261046311206883 42.172876739881758 0 0 0 0 -135.35336587933853 -50.584511491523699 0 -50.584511491523699 64.969268573477166 0 0 0 0 -75.076617141207407 -77.839594754303107 0 -77.839594754303107 45.306879367490183 0 0 0 0 -19.676462538771602 -55.659508972439653 0 -55.659508972439653 130.35906107108167 0 0 0 0 43.068426614400323 -27.05975001297702 0 -27.05975001297702 60.290782188888443 0 0 0 0 31.353496805897066 95.906977909737179 0 95.906977909737179 176.56730362849453 0 0 0 0 24.039432089025013 50.562839073965733 0 50.562839073965733 106.15615994871678 0 0 0 0 26.242350975797308 27.863657723830329 0 27.863657723830329 180.37982945389376 0 0 0 0 -34.674987774938472 125.28092531843504 0 125.28092531843504 235.40854472027513 0 0 0 0 9.1244422275149191 92.632717521684754 0 92.632717521684754 229.42038676753145 0 0 0 0 108.85541962984007 155.0958262178392 0 155.0958262178392 80.950002190683335 0 0 0 0 -36.274934770082609 -1.4546263205993455 0 -1.4546263205993455 73.83164594797563 0 0 0 0 41.36524855037942 103.98124112738878 0 103.98124112738878 112.20520764668618 0 0 0 0 -31.137784319394541 6.2184089388974826 0 6.2184089388974826 112.89857753021352 0 0 0 0 -32.104885979616029 27.901676393441448 0 27.901676393441448 12.555712796256557 0 0 0 0 -110.59035478643546 -57.949092985669267 0 -57.949092985669267 94.501190196868265 0 0 0 0 -60.627078740794786 9.3160149942705175 0 9.3160149942705175 141.64259050132205 0 0 0 0 -135.67786768654491 24.127057792113192 0 24.127057792113192 112.5239029756558 0 0 0 0 0.3502410018752653 -3.0748941546647224 0 -3.0748941546647224 24.063629019379931 0 0 0 0 1.7365408212386457 -0.23884835389678472 0 -0.23884835389678472 -2.5967819032631638 0 0 0 0 60.076375829937021 106.17502676592483 0 106.17502676592483 91.108180130337132 0 0 0 0 -36.212785782649057 -140.61247325982185 0 -140.61247325982185 150.30501010908483 0 0 0 0 -40.801407045558975 -39.410726244649254 0 -39.410726244649254 60.709509826665453 0 0 0 0 0.56820654401562054 -1.8789676197770744 0 -1.8789676197770744 8.6725083532608664 0 0 0 0 247.85354203798551 372.34136287300089 0 372.34136287300089 395.42422175968386 0 0 0 0 187.992002639156 -280.27036400315774 0 -280.27036400315774 202.68052375524712 0 0 0 0 -149.67690555720219 -177.2412309632673 0 -177.2412309632673 621.44473284070409 0 0 0 0 -139.02561255512703 -107.31865461437542 0 -107.31865461437542 352.11295448541205 0 0 0 0 -224.40935143247737 69.075736115632026 0 69.075736115632026 633.96976691485906 0 0 0 0 -244.26304246112153 163.66886218109903 0 163.66886218109903 372.72343281041685 0 0 0 0 1.0274990244177431 48.129982000375449 0 48.129982000375449 19.286072002511979 0 0 0 0 -41.464487667044182 -311.26434949417126 0 -311.26434949417126 492.03085620573984 0 0 0 0 458.41223067903519 365.01125025373494 0 365.01125025373494 -224.59067527345178 0 0 0 0 66.726838071132988 -35.762384758796543 0 -35.762384758796543 -204.30938528313345 0 0 0 0 -47.679330486554136 11.905588426958275 0 11.905588426958275 283.20535108536933 0 0 0 0 -57.517553257655209 14.330193018871796 0 14.330193018871796 284.24788050079951 0 0 0 0 11.185412554850245 74.902696575383743 0 74.902696575383743 325.77003226923989 0 0 0 0 -6.2935559589443528 74.379831362801269 0 74.379831362801269 326.11823771867057 0 0 0 0 -20.15891906086631 198.47566380343051 0 198.47566380343051 447.55827724805567 0 0 0 0 -105.83796541883748 179.19797112353626 0 179.19797112353626 796.11387642990303 0 0 0 0 -153.05049987553866 45.184834059880814 0 45.184834059880814 415.96135764676728 0 0 0 0 -16.230411149881547 7.3225856374483556 0 7.3225856374483556 143.25153839768609 0 0 0 0 -22.497110352108542 36.722463650666725 0 36.722463650666725 52.712669267787859 0 0 0 0 1.9402277972731099 18.485048221904435 0 18.485048221904435 72.327817300320021 0 0 0 0 -17.98903054809125 52.780282202336821 0 52.780282202336821 216.77376733814344 0 0 0 0 -4.8057740472269685 -6.4104572112154017 0 -6.4104572112154017 17.771746964414149 0 0 0 0 38.470116609423883 -90.556374611096317 0 -90.556374611096317 205.80672836893064 0 0 0 0 -1.1603040749387219 36.365533666383271 0 36.365533666383271 276.50016363573377 0 0 0 0 -5.2720953921518614 25.946035031132226 0 25.946035031132226 2.5242544358640089 0 0 0 0 -46.754933497464663 50.970908370727557 0 50.970908370727557 353.0540527952835 0 0 0 0 59.641447953036732 1.7861504602333298 0 1.7861504602333298 191.03435899937176 0 0 0 0 45.701366633358703 -32.239310615201248 0 -32.239310615201248 215.94248794735176 0 0 0 0 16.622136065017912 21.258117399731418 0 21.258117399731418 183.52266639221489 0 0 0 0 31.312900383094529 7.8636613564012805 0 7.8636613564012805 191.03793079695606 0 0 0 0 -30.447304239687583 -1.6579278326316853 0 -1.6579278326316853 228.45320001241635 0 0 0 0 -6.440243161187027 -4.2343402592814527 0 -4.2343402592814527 187.2275339698208 0 0 0 0 -6.2766730440125684 -1.2213513051901828 0 -1.2213513051901828 160.8610285212053 0 0 0 0 1.6027789940380899 -18.923425138214952 0 -18.923425138214952 181.21211176068755 0 0 0 0 -1.9975156115688151 -8.8388504240137991 0 -8.8388504240137991 209.25402335217223 0 0 0 0 -1.3975345062935958 -23.291552722439519 0 -23.291552722439519 200.31754000669753 0 0 0 0 -32.644201023853384 -7.1576485043915454 0 -7.1576485043915454 193.24389287742088 0 0 0 0 -34.944683882209802 24.158022744200935 0 24.158022744200935 225.6342287393054 0 0 0 0 -10.835726881373791 1.6231853983598441 0 1.6231853983598441 43.248511006021843 0 0 0 0 -17.295277954021344 19.559464997733812 0 19.559464997733812 94.767736587079526 0 0 0 0 -17.079221604390092 32.255158304302412 0 32.255158304302412 54.212319925624335 0 0 0 0 -11.098948604236284 7.2747683932175278 0 7.2747683932175278 185.56237609164964 0 0 0 0 -17.588513659142336 -17.468672973802313 0 -17.468672973802313 155.21660517442069 0 0 0 0 -14.041391719150482 18.824601600354185 0 18.824601600354185 85.644209601277907 0 0 0 0 -17.426824519779018 26.985988579892478 0 26.985988579892478 88.57816285296667 0 0 0 0 -5.5237277754811673 30.383254234702104 0 30.383254234702104 23.194807660049548 0 0 0 0 -3.2468321425580484 59.918691176090817 0 59.918691176090817 154.89331710541774 0 0 0 0 -12.981193900349709 28.468117358041923 0 28.468117358041923 20.733194773642026 0 0 0 0 -22.879398318523162 53.368869309910956 0 53.368869309910956 29.745549495323075 0 0 0 0 -175.67180235906289 -79.835371187400597 0 -79.835371187400597 -4.8312358609837247 0 0 0 0 -17.072066066450521 34.624951787674235 0 34.624951787674235 28.166946367988189 0 0 0 0 -41.008855331519953 9.6881154775946925 0 9.6881154775946925 222.23541686837416 0 0 0 0 -21.152519893572805 5.7697965212546549 0 5.7697965212546549 32.863349532868753 0 0 0 0 -23.293248137793853 4.6721530919967336 0 4.6721530919967336 174.50383900656743 0 0 0 0 -272.8761877994848 -17.662932446390187 0 -17.662932446390187 592.17096889196364 0 0 0 0 -0.69526022563050915 4.249986807059873 0 4.249986807059873 -14.795007868845378 0 0 0 0 64.090715705112871 174.61209852456705 0 174.61209852456705 -2.9434517515510379 0 0 0 0 683.1587353201503 524.8165382639163 0 524.8165382639163 672.40240484097944 0 0 0 0 -14.567699429660468 42.942576145361237 0 42.942576145361237 27.719694890554916 0 0 0 0 -116.68491805788472 129.96268249288187 0 129.96268249288187 80.735561634273836 0 0 0 0 -140.02584128475155 -50.803766068715049 0 -50.803766068715049 229.57250284014299 0 0 0 0 -66.500665975789161 -3.9966519185072684 0 -3.9966519185072684 222.77871909218311 0 0 0 0 -31.402246133853623 -7.8157331415204681 0 -7.8157331415204681 191.77789578860393 0 0 0 0 -16.901602404748701 11.601083597124671 0 11.601083597124671 184.32898132037917 0 0 0 0 -30.567170589089983 -14.202976490407309 0 -14.202976490407309 162.55462098996213 0 0 0 0 -54.520035433523731 -52.413743794522816 0 -52.413743794522816 148.68034796548454 0 0 0 0 18.688997098725849 -6.4469423106311297 0 -6.4469423106311297 118.88773520759423 0 0 0 0 0.33505207630332734 0.97194546111859381 0 0.97194546111859381 120.48552841272613 0 0 0 0 -62.944831611756854 -85.462128590479551 0 -85.462128590479551 236.98357413049052 0 0 0 0 16.316244724300304 -66.122954319169366 0 -66.122954319169366 145.43427375257215 0 0 0 0 16.334513733806034 -49.975077805524052 0 -49.975077805524052 31.259723074342219 0 0 0 0 2.3058341415171526 -111.53723265791268 0 -111.53723265791268 44.911717516362842 0 0 0 0 56.349692856777438 -78.269493459571095 0 -78.269493459571095 35.418060843730927 0 0 0 0 5.2248605781369406 -33.804863558732904 0 -33.804863558732904 64.824028706840181 0 0 0 0 108.59081577581765 -19.444443283329747 0 -19.444443283329747 66.281526906372619 0 0 0 0 33.843266736385885 44.219289209591807 0 44.219289209591807 78.673888880788581 0 0 0 0 -15.73538285360064 -3.2802025179371412 0 -3.2802025179371412 85.068166266959452 0 0 0 0 -26.101408962127607 -23.131127356304205 0 -23.131127356304205 78.858446690501296 0 0 0 0 -41.221748435265908 8.5354254471967579 0 8.5354254471967579 101.10026469076547 0 0 0 0 -0.39693819175954559 13.298998137121089 0 13.298998137121089 100.3857556874791 0 0 0 0 -3.1676632886192237 5.8785517100950528 0 5.8785517100950528 126.10228578078704 0 0 0 0 -23.679312709113219 -2.8467439626183477 0 -2.8467439626183477 126.38373414136004 0 0 0 0 -24.710232586051461 -10.458034025286906 0 -10.458034025286906 160.2290532955376 0 0 0 0 -5.8603930300023421 6.9694367836673337 0 6.9694367836673337 150.91159503847302 0 0 0 0 -15.645086937046528 -5.6387164311715878 0 -5.6387164311715878 164.01295239753381 0 0 0 0 -2.8644991999097744 -20.999638233250238 0 -20.999638233250238 106.04512563048043 0 0 0 0 -48.969200528849797 -17.911275750004279 0 -17.911275750004279 155.76896666697303 0 0 0 0 -32.127890017662139 7.1464178150799853 0 7.1464178150799853 120.16741557687783 0 0 0 0 1.8957523014052171 -18.55250509476884 0 -18.55250509476884 85.157929406741005 0 0 0 0 69.485721400145849 -61.756078942180466 0 -61.756078942180466 93.925263613960851 0 0 0 0 -14.382644480720046 -28.119341086783152 0 -28.119341086783152 88.345228446417423 0 0 0 0 -172.87416469883647 -16.654353668513068 0 -16.654353668513068 106.827862955819 0 0 0 0 -21.290514685786093 80.585734146518007 0 80.585734146518007 1.8811189040279714 0 0 0 0 -117.73211992551114 -206.25643474751996 0 -206.25643474751996 364.40106207842473 0 0 0 0 38.119118012840772 -243.44134868687252 0 -243.44134868687252 -73.009159142697172 0 0 0 0 -2.0456589966345522 -10.305427473101435 0 -10.305427473101435 66.519049113368482 0 0 0 0 -25.730149554946365 7.493181091747374 0 7.493181091747374 81.312539275915697 0 0 0 0 11.161968518142203 -148.43697800482187 0 -148.43697800482187 226.16906173228199 0 0 0 0 45.413990846710476 26.027624109528006 0 26.027624109528006 63.011326994765113 0 0 0 0 4.1942220231749161 41.44492547166692 0 41.44492547166692 97.926047243419816 0 0 0 0 -138.12947749470175 -40.955679777383921 0 -40.955679777383921 103.02468820193462 0 0 0 0 27.714897898147683 -147.91516294516987 0 -147.91516294516987 130.67738166070194 0 0 0 0 -77.547385933454507 17.372367907202715 0 17.372367907202715 226.73688396847683 0 0 0 0 204.96696311354617 -58.712231583005632 0 -58.712231583005632 37.668012826674385 0 0 0 0 38.088017583362443 -17.351219181549823 0 -17.351219181549823 78.269601251624408 0 0 0 0 113.11537799202688 80.586710420902818 0 80.586710420902818 205.83106961261319 0 0 0 0 -0.13218917268548847 -1.6789958542788057 0 -1.6789958542788057 2.8254425469548607 0 0 0 0 102.18148030862994 -121.61298922183596 0 -121.61298922183596 152.20046939494205 0 0 0 0 25.486479322465129 -161.37476491466441 0 -161.37476491466441 169.42257656198171 0 0 0 0 116.42443991797381 57.395864166293904 0 57.395864166293904 27.090965643263189 0 0 0 0 13.950519852472553 104.53641473110838 0 104.53641473110838 141.20138258755469 0 0 0 0 -24.292196388434604 37.428131750275497 0 37.428131750275497 55.128225239139283 0 0 0 0 -9.5501057672718161 35.400792759512115 0 35.400792759512115 42.173392639682788 0 0 0 0 -2.8252237804028937 9.0416872253153997 0 9.0416872253153997 10.577677521869191 0 0 0 0 -18.688209227541392 9.106141077070788 0 9.106141077070788 20.451860130781824 0 0 0 0 1.1359534332818839 16.038834057286294 0 16.038834057286294 21.766711158663384 0 0 0 0 2.3323914821321523 4.6620995900448179 0 4.6620995900448179 13.939603406495735 0 0 0 0 -7.189494786251089 10.706012729780923 0 10.706012729780923 -3.6153255652952794 0 0 0 0 -0.14151043181853118 -2.8749472216463561 0 -2.8749472216463561 7.5589788534474849 0 0 0 0 30.237397050758773 5.2471540596507111 0 5.2471540596507111 -21.60192541091601 0 0 0 0 131.29125836379717 -122.09365413456544 0 -122.09365413456544 -52.872051346843364 0 0 0 0 -70.911537136963943 -66.834718132497073 0 -66.834718132497073 9.314657219183573 0 0 0 0 3.7125604475521605 -2.3680328050794515 0 -2.3680328050794515 1.3425262143429677 0 0 0 0 -3.4084988384020303 -6.7973041473260638 0 -6.7973041473260638 7.9286627885155951 0 0 0 0 -18.784084881239323 -8.4039986301286262 0 -8.4039986301286262 10.364038686686399 0 0 0 0 -6.4806257679501869 -1.6068972037210187 0 -1.6068972037210187 13.480042361894448 0 0 0 0 -26.962346141377566 2.4689806585956831 0 2.4689806585956831 26.36391017051028 0 0 0 0 -19.991522645640543 8.1423057102874736 0 8.1423057102874736 24.220394689626119 0 0 0 0 17.454692541925397 2.8641069576660811 0 2.8641069576660811 60.862620157756282 0 0 0 0 10.11889110163429 9.9599819007144106 0 9.9599819007144106 57.2664135394607 0 0 0 0 4.5856580226269053 -7.4456061728875156 0 -7.4456061728875156 19.449144532167523 0 0 0 0 7.4273115839641832 8.7882253684638272 0 8.7882253684638272 58.466013359595308 0 0 0 0 7.9608966827518088 6.5998892532902573 0 6.5998892532902573 56.511878106048243 0 0 0 0 -300.22287979826797 166.40268180595376 0 166.40268180595376 -30.725455318315653 0 0 0 0 2.9486431264692285 -1.4936557423119936 0 -1.4936557423119936 -1.7786256475317259 0 0 0 0 9.3890469893030968 -30.173191220750596 0 -30.173191220750596 232.61055710327037 0 0 0 0 10.484955164965868 7.9211755988944788 0 7.9211755988944788 55.774949637465852 0 0 0 0 5.5847525962288032 -7.8826564041760534 0 -7.8826564041760534 17.832850795245534 0 0 0 0 9.7769934474090405 25.999895359848324 0 25.999895359848324 72.029697062143896 0 0 0 0 22.416174861146828 7.1859208683122233 0 7.1859208683122233 44.347368294880653 0 0 0 0 -3.7054700384665669 -4.1383202324514059 0 -4.1383202324514059 40.789414823576536 0 0 0 0 7.6433934633460012 1.6053204643208119 0 1.6053204643208119 61.145289207604947 0 0 0 0 -2.9626060608479481 -2.1840637630906166 0 -2.1840637630906166 29.104820897289368 0 0 0 0 -15.456276443186653 -7.6920390467086577 0 -7.6920390467086577 21.299420709397282 0 0 0 0 16.293157818929103 25.011832273313757 0 25.011832273313757 50.16368614699968 0 0 0 0 -209.87554366698168 -35.231452948919468 0 -35.231452948919468 -6.4428601878462359 0 0 0 0 20.01268554894159 2.1912246498386594 0 2.1912246498386594 26.401529557029789 0 0 0 0 15.16194104904298 0.67740172344838356 0 0.67740172344838356 63.535572317128754 0 0 0 0 4.3368028940603836 -14.084642347001136 0 -14.084642347001136 41.191598133686057 0 0 0 0 5.2129774934564921 1.4629666087821533 0 1.4629666087821533 44.92147370762541 0 0 0 0 -1.8314258097345988 -11.084670710026916 0 -11.084670710026916 33.654286827065484 0 0 0 0 -9.448185627436942 -13.545519744917868 0 -13.545519744917868 46.41721939983222 0 0 0 0 -10.315309176628034 -17.780213655699384 0 -17.780213655699384 26.091523640061155 0 0 0 0 1.0776304924970956 -8.9039279702211633 0 -8.9039279702211633 24.871165436842482 0 0 0 0 0.11243724706147784 -1.1035461851009369 0 -1.1035461851009369 28.606900717150126 0 0 0 0 -16.48337303584276 15.857204954720146 0 15.857204954720146 122.12320387131331 0 0 0 0 -23.228061079328199 -6.8804130999487825 0 -6.8804130999487825 9.8517761958155461 0 0 0 0 -23.211339961512195 -6.9895919395701185 0 -6.9895919395701185 7.0530854442331474 0 0 0 0 0.24771646530015623 5.1572313081057217 0 5.1572313081057217 3.8248973403473983 0 0 0 0 -1.1313959642044553 -1.4134098626252936 0 -1.4134098626252936 6.8657446870611238 0 0 0 0 -2.9467401858584026 -2.5577861125040044 0 -2.5577861125040044 10.916258785531681 0 0 0 0 -3.8102948858019041 -5.8983041284038009 0 -5.8983041284038009 30.754339767518928 0 0 0 0 6.1012391294052009 22.359393109450139 0 22.359393109450139 32.190623363021587 0 0 0 0 -3.4518307393179999 10.05399902027516 0 10.05399902027516 40.516355907345144 0 0 0 0 -9.6149250300414906 -15.031540277764634 0 -15.031540277764634 10.447940040190588 0 0 0 0 -11.084173930735915 -5.0723258211064604 0 -5.0723258211064604 17.923217872470559 0 0 0 0 28.316165927673865 7.362958039258956 0 7.362958039258956 53.641546017021028 0 0 0 0 -0.47762517832421381 -1.5502840279081234 0 -1.5502840279081234 34.695327574168175 0 0 0 0 20.517976011356041 -2.3409194145369838 0 -2.3409194145369838 40.343400522460797 0 0 0 0 -1.7887850563884058 -0.56011279621452559 0 -0.56011279621452559 23.425222635865794 0 0 0 0 -16.672830719059675 -24.372848085538863 0 -24.372848085538863 95.270250064066204 0 0 0 0 1.8185994829916368 2.7598222261795922 0 2.7598222261795922 29.880325453916633 0 0 0 0 0.75912825092101421 0.51347338074848281 0 0.51347338074848281 29.536686022264078 0 0 0 0 11.482250656894394 -4.6256545870637638 0 -4.6256545870637638 50.482981809127523 0 0 0 0 1.8132825527645764 10.128837377360469 0 10.128837377360469 5.371159285914473 0 0 0 0 1.4321546615747138 294.7257718740268 0 294.7257718740268 58.939736191903648 0 0 0 0 43.045264422119089 -41.816027288263285 0 -41.816027288263285 66.42070200672606 0 0 0 0 1.3017375663372093 0.4661949854846128 0 0.4661949854846128 3.9916106413035237 0 0 0 0 -125.99993491123041 -2.2648093703883205 0 -2.2648093703883205 69.566564513750563 0 0 0 0 45.061782889773895 80.392540203573844 0 80.392540203573844 46.910227413965913 0 0 0 0 -29.35695481063226 22.681739956444289 0 22.681739956444289 22.459083809379081 0 0 0 0 -163.18570268529788 95.265581389367981 0 95.265581389367981 -3.4117107767015113 0 0 0 0 -1.9395736242971164 1.943650682025627 0 1.943650682025627 6.8656601317286743 0 0 0 0 -0.65729257794525164 -0.11479507551061463 0 -0.11479507551061463 67.381592654225599 0 0 0 0 -86.475755778232724 45.553583149859151 0 45.553583149859151 96.155806621314696 0 0 0 0 -2.350807903580062 16.967140490832719 0 16.967140490832719 117.02118514792346 0 0 0 0 4.4130440728722533 -5.6532848003726031 0 -5.6532848003726031 16.098800788990047 0 0 0 0 -1.1697482174257257 7.6860315990719457 0 7.6860315990719457 41.04769909740925 0 0 0 0 4.232385742076378 -8.0577884445133883 0 -8.0577884445133883 22.884467091095807 0 0 0 0 14.201984371042272 4.0465488449763143 0 4.0465488449763143 34.355553510140453 0 0 0 0 38.508439452701168 16.479114784646299 0 16.479114784646299 -12.044052371536964 0 0 0 0 -48.970281294931283 82.279437228942697 0 82.279437228942697 87.630225997076195 0 0 0 0 -68.880404597697293 -118.31414450305783 0 -118.31414450305783 40.449246735421184 0 0 0 0 119.14547092532439 169.52175114657348 0 169.52175114657348 215.51313979916449 0 0 0 0 1.6035635727802759 -1.9188961233838526 0 -1.9188961233838526 -0.3164014575611418 0 0 0 0 -6.8659312695942845 -15.288594844097531 0 -15.288594844097531 47.13597915754417 0 0 0 0 -35.985301561271626 -10.233874269322769 0 -10.233874269322769 101.79761567925334 0 0 0 0 -43.027863643717865 -8.2266886079132746 0 -8.2266886079132746 103.09231684275619 0 0 0 0 -1.7436158226112051 -5.6992197108920131 0 -5.6992197108920131 57.832169716937685 0 0 0 0 -4.8581793405143863 9.7881464495832908 0 9.7881464495832908 28.873245854296631 0 0 0 0 -5.1936932097451063 19.51559008224649 0 19.51559008224649 83.906119810113523 0 0 0 0 20.632218526370707 -17.657262940779219 0 -17.657262940779219 14.619668593250708 0 0 0 0 25.329276275702796 65.126867812714863 0 65.126867812714863 145.8349903812159 0 0 0 0 -10.549071145953349 -4.7145976352121579 0 -4.7145976352121579 157.67440903619467 0 0 0 0 1.7985875952410613 0.50473373655856335 0 0.50473373655856335 0.30839799501638865 0 0 0 0 -2.1049633457914751 2.8304543111789826 0 2.8304543111789826 90.26792836104778 0 0 0 0 -24.799406212103349 2.3247200733067075 0 2.3247200733067075 76.850493401519998 0 0 0 0 -27.34656604151678 0.50207189092043336 0 0.50207189092043336 95.087109461574073 0 0 0 0 8.6155545913534297 -17.042545960135158 0 -17.042545960135158 67.592893047794405 0 0 0 0 -25.35801475840708 -4.4081756829107235 0 -4.4081756829107235 80.617280048760222 0 0 0 0 12.799231162527576 13.873077393553558 0 13.873077393553558 55.098119429072085 0 0 0 0 32.310701679582053 -4.9660907804177441 0 -4.9660907804177441 70.756784857529055 0 0 0 0 -2.5435628612158325 -12.832926089319244 0 -12.832926089319244 52.554915297571213 0 0 0 0 -5.7160898017609725 -23.354763395720511 0 -23.354763395720511 32.8245075510753 0 0 0 0 -3.6761191672321729 -20.374233074586755 0 -20.374233074586755 -21.04018681251614 0 0 0 0 -35.639213939710316 17.714106099694163 0 17.714106099694163 33.87395246752385 0 0 0 0 -11.736612340340798 11.043601333292827 0 11.043601333292827 30.498161469020488 0 0 0 0 -88.156936534051965 -83.057154872546107 0 -83.057154872546107 114.72534169063874 0 0 0 0 85.668052881450421 -5.9583999006645172 0 -5.9583999006645172 84.963055957239703 0 0 0 0 -46.056931239338155 -1.3081870185324078 0 -1.3081870185324078 89.252601687632705 0 0 0 0 -2.9296500974667223 -5.3832745265619453 0 -5.3832745265619453 46.929364118438286 0 0 0 0 2.5480486749226205 -4.5860691175219692 0 -4.5860691175219692 39.567299880650992 0 0 0 0 -90.503273128329056 23.711519312457312 0 23.711519312457312 111.95815723172018 0 0 0 0 -62.635715994531893 -8.1113040270647616 0 -8.1113040270647616 25.47132372255146 0 0 0 0 -47.47369976166533 44.294560903288584 0 44.294560903288584 62.85909153206012 0 0 0 0 87.223789746985972 52.196889775912609 0 52.196889775912609 -353.87717212777352 0 0 0 0 247.11134371435128 -74.247961263305569 0 -74.247961263305569 -73.15884256317986 0 0 0 0 1.0089711292268557 -2.3588471647252032 0 -2.3588471647252032 6.6951408223351265 0 0 0 0 -43.583988425067218 14.410252257501497 0 14.410252257501497 49.117752696776279 0 0 0 0 -48.576870541472999 28.600546214632871 0 28.600546214632871 35.07802004081384 0 0 0 0 -32.104970048287157 15.491219488366488 0 15.491219488366488 19.871679393313002 0 0 0 0 -32.08695541374982 -2.3140794386404195 0 -2.3140794386404195 55.856317015121931 0 0 0 0 -16.159170731056292 -17.248229647684411 0 -17.248229647684411 40.00703226568362 0 0 0 0 2.8535889883517909 -8.0765112307282845 0 -8.0765112307282845 20.154228285229308 0 0 0 0 -2.7411917878797532 -1.5357918908918755 0 -1.5357918908918755 57.602093908022255 0 0 0 0 -16.683667666268889 -3.7930726256225782 0 -3.7930726256225782 24.858832187247458 0 0 0 0 -28.880236476160007 -30.203372317069224 0 -30.203372317069224 34.669100353897647 0 0 0 0 -30.269543946461454 -42.792358232214497 0 -42.792358232214497 21.358554414832724 0 0 0 0 85.666972484445196 51.701642260587377 0 51.701642260587377 -31.841913927786663 0 0 0 0 90.239597863281233 -3.1261035877641916 0 -3.1261035877641916 245.31347194217233 0 0 0 0 2.2147435107581259 -21.143716370658694 0 -21.143716370658694 11.748707676127196 0 0 0 0 -0.80588780454288478 -1.6750835603796137 0 -1.6750835603796137 70.166461156321802 0 0 0 0 -200.70405188386576 -4.6834306995733641 0 -4.6834306995733641 194.99707519621552 0 0 0 0 7.611350098188268 -18.854030520323079 0 -18.854030520323079 22.714705451155908 0 0 0 0 -66.729277223587587 37.896975293432206 0 37.896975293432206 62.37960247151932 0 0 0 0 26.415605571902006 -47.900171074577884 0 -47.900171074577884 81.062446943589748 0 0 0 0 118.65783253186828 -23.008085454224783 0 -23.008085454224783 80.625035630146158 0 0 0 0 -23.478035457117585 -62.782392256394814 0 -62.782392256394814 184.96680922435235 0 0 0 0 49.224982902435841 -37.75634271970921 0 -37.75634271970921 82.442118108289833 0 0 0 0 21.322664348007493 -49.89360072537238 0 -49.89360072537238 93.846365246168716 0 0 0 0 12.32804531911188 -40.367802181952356 0 -40.367802181952356 101.57830275502965 0 0 0 0 11.020371143317703 -28.636611185972697 0 -28.636611185972697 80.40550366678508 0 0 0 0 -303.80230620263228 -145.88969207959235 0 -145.88969207959235 156.62647196054331 0 0 0 0 -99.968755417357897 -65.770222831929459 0 -65.770222831929459 156.73481748976337 0 0 0 0 -0.04553094706074079 0.43454988309535558 0 0.43454988309535558 70.08416361788295 0 0 0 0 35.965305209312646 -60.736583460589827 0 -60.736583460589827 -19.825646465744285 0 0 0 0 -2.6421712357067086 -9.1443155881532761 0 -9.1443155881532761 13.118739768210098 0 0 0 0 -23.40468729303393 7.6544043712992789 0 7.6544043712992789 58.024057443672064 0 0 0 0 6.4294522060981762 -14.862384727937751 0 -14.862384727937751 50.401139690056425 0 0 0 0 24.000995920294827 -24.28693810400182 0 -24.28693810400182 57.462797748195953 0 0 0 0 -12.278636576045983 -15.487997695820013 0 -15.487997695820013 83.841653085575672 0 0 0 0 4.9907714067239795 -17.584813419489365 0 -17.584813419489365 57.339784228262943 0 0 0 0 13.342886978113711 -18.120707751238115 0 -18.120707751238115 56.8481463722228 0 0 0 0 6.6250317473886753 -10.964133853827661 0 -10.964133853827661 63.360109727872441 0 0 0 0 -1.1695971931749196 0.61338761428365274 0 0.61338761428365274 49.5842849410827 0 0 0 0 -1.7396036377922428 -16.881066968032428 0 -16.881066968032428 59.319437649442989 0 0 0 0 -2.5180044047992851 -49.693815243730569 0 -49.693815243730569 46.818572070718801 0 0 0 0 -0.59375496689120943 -0.63996114001589888 0 -0.63996114001589888 24.334242529001884 0 0 0 0 -36.546145946304932 11.631645858321917 0 11.631645858321917 39.123324384630905 0 0 0 0 2.4155774666703831 -0.0078425832574771093 0 -0.0078425832574771093 56.892971721957849 0 0 0 0 -56.196812994377524 -15.30926318698573 0 -15.30926318698573 81.8549551705824 0 0 0 0 -51.37875673979579 -3.7637181443951704 0 -3.7637181443951704 74.219602592725096 0 0 0 0 -81.462665210880914 -56.293218512856583 0 -56.293218512856583 8.3541602815821534 0 0 0 0 -55.377538711017223 12.267866902830065 0 12.267866902830065 10.283694510955684 0 0 0 0 -50.492147798848237 -1.5639601165003114 0 -1.5639601165003114 57.041932272090662 0 0 0 0 -2.2745073732209775 -3.7293663445677492 0 -3.7293663445677492 63.817320511006777 0 0 0 0 16.154245396548049 20.053150689845552 0 20.053150689845552 29.99688094663361 0 0 0 0 -33.166460361508143 -6.7522782786777498 0 -6.7522782786777498 617.83955206739483 0 0 0 0 58.021623502103466 -539.86781342243103 0 -539.86781342243103 13.862982727083363 0 0 0 0 -5.4394722726837461 -17.609991900942273 0 -17.609991900942273 44.183367114368778 0 0 0 0 -116.6635046788233 940.76007082886781 0 940.76007082886781 300.76447766274941 0 0 0 0 -19.982372805104262 138.9211206048185 0 138.9211206048185 -41.648908698307423 0 0 0 0 45.254738510337347 16.229581515046448 0 16.229581515046448 -56.002893157321523 0 0 0 0 -18.610929807416596 11.587681335994375 0 11.587681335994375 -42.821468485450168 0 0 0 0 15.734437613092325 25.862940983830413 0 25.862940983830413 -55.531741234443871 0 0 0 0 -11.598631828049975 40.887608155626367 0 40.887608155626367 -50.653836953478276 0 0 0 0 -11.336117839577557 11.918141642265837 0 11.918141642265837 36.392543863749793 0 0 0 0 19.623647713524406 -14.404563045186478 0 -14.404563045186478 54.947764596054185 0 0 0 0 17.057376148607545 -14.113796577270477 0 -14.113796577270477 55.638144399234989 0 0 0 0 21.491475015662846 -12.931164434614175 0 -12.931164434614175 55.911402165211257 0 0 0 0 13.060242374174351 5.4797130915612797 0 5.4797130915612797 42.926026500712396 0 0 0 0 17.891087764638087 -17.700631506710124 0 -17.700631506710124 46.489468343878571 0 0 0 0 26.564904179323605 -4.1211625854539307 0 -4.1211625854539307 63.965179855527822 0 0 0 0 25.001803541514846 -30.799406842908866 0 -30.799406842908866 68.059732688928307 0 0 0 0 38.084805965292617 -22.661731467855134 0 -22.661731467855134 60.25400390921277 0 0 0 0 23.527750565638371 -17.704916106738892 0 -17.704916106738892 114.73718937797457 0 0 0 0 24.761479529918205 -19.76065378586236 0 -19.76065378586236 75.274569759505539 0 0 0 0 56.415820957481174 -11.844890510554251 0 -11.844890510554251 74.552648327543238 0 0 0 0 23.836342145051958 5.2886882197972227 0 5.2886882197972227 191.1527558814123 0 0 0 0 4.0319915679398264 -34.781683231920397 0 -34.781683231920397 113.27366857079028 0 0 0 0 14.889902377516364 -61.982580884205163 0 -61.982580884205163 85.115236802206709 0 0 0 0 19.849236267775268 -36.630520593918845 0 -36.630520593918845 102.88386004126369 0 0 0 0 8.4233795870945869 -55.10861018603282 0 -55.10861018603282 162.38619124025718 0 0 0 0 92.498605800870791 -98.44497330622653 0 -98.44497330622653 14.046923743353091 0 0 0 0 1.8444753241706167 12.211852904794796 0 12.211852904794796 34.990091912328353 0 0 0 0 -7.7157548151869833 7.1102700833903327 0 7.1102700833903327 43.833195827606687 0 0 0 0 39.361540613486795 -23.154423528975713 0 -23.154423528975713 40.926259432333609 0 0 0 0 -11.319960072124559 0.98327161884481029 0 0.98327161884481029 65.629192006668745 0 0 0 0 -14.489849594432524 5.7628776446633552 0 5.7628776446633552 31.751557699900445 0 0 0 0 -37.951412095794694 -20.882311387902519 0 -20.882311387902519 42.060678247385908 0 0 0 0 -4.5908711415303518 -3.9802343693407138 0 -3.9802343693407138 15.218641305439824 0 0 0 0 5.1886476110355488 -22.309499089478322 0 -22.309499089478322 51.317585309312562 0 0 0 0 -44.087731546542273 124.34226103539913 0 124.34226103539913 -50.11594853294082 0 0 0 0 -5.6090023167567136 0.23183182214629738 0 0.23183182214629738 10.161872407637873 0 0 0 0 -91.371917732707516 -64.612918801187334 0 -64.612918801187334 91.885509713021747 0 0 0 0 -104.58796804068697 79.29224859659405 0 79.29224859659405 172.47407572214433 0 0 0 0 -36.355801768221454 -9.7289041605995408 0 -9.7289041605995408 110.02021747717663 0 0 0 0 62.134150023627626 -182.5679605547557 0 -182.5679605547557 246.23790466695573 0 0 0 0 -37.894427747514101 -1.9869691367339328 0 -1.9869691367339328 333.8107798481542 0 0 0 0 112.47341672344555 96.016508677417733 0 96.016508677417733 198.00963703190428 0 0 0 0 3.3539600992692193 -2.2542292340288679 0 -2.2542292340288679 -1.3977991258312557 0 0 0 0 25.289765582015207 -117.14311072047894 0 -117.14311072047894 258.40474490970882 0 0 0 0 -33.331078621715506 29.312089789242236 0 29.312089789242236 291.24930250416583 0 0 0 0 150.21604992478547 -102.48598229042909 0 -102.48598229042909 54.795447585202055 0 0 0 0 -90.3347528882598 -60.882598767254422 0 -60.882598767254422 29.685018959025911 0 0 0 0 51.207967822686442 -6.2095126949789119 0 -6.2095126949789119 5.9211371709898231 0 0 0 0 51.291544096062353 -105.77567022671428 0 -105.77567022671428 81.536554621499818 0 0 0 0 33.983239541040348 -67.723852600458486 0 -67.723852600458486 23.610707971674856 0 0 0 0 3.9125100563214801 -70.750980782770966 0 -70.750980782770966 96.069013196411106 0 0 0 0 4.8913617753182734 -73.908618742751059 0 -73.908618742751059 97.445993096276652 0 0 0 0 3.4451837099295517 -73.223326389848808 0 -73.223326389848808 129.85124413120138 0 0 0 0 -34.392605075203335 -49.533272473563557 0 -49.533272473563557 173.18884803921901 0 0 0 0 0.70589268045046083 -52.404639008873346 0 -52.404639008873346 99.311803292283003 0 0 0 0 16.39213892255907 -14.33938467734697 0 -14.33938467734697 185.71530846669702 0 0 0 0 -17.470588659090026 17.659403621961246 0 17.659403621961246 157.53976626586518 0 0 0 0 16.372734255349542 31.872305967743159 0 31.872305967743159 163.29698934512635 0 0 0 0 0.4963968718951568 1.2192915152435759 0 1.2192915152435759 -1.737102747011555 0 0 0 0 -52.130060331624918 -105.96141187307876 0 -105.96141187307876 -89.098552807819942 0 0 0 0 18.262562630049814 66.255678664208972 0 66.255678664208972 160.52852620721069 0 0 0 0 55.537623813604569 15.620971291456954 0 15.620971291456954 100.5759180441803 0 0 0 0 24.279480138680697 77.599917861927679 0 77.599917861927679 114.68331152575411 0 0 0 0 -90.300591092773857 -50.752411964866951 0 -50.752411964866951 191.11653711747203 0 0 0 0 192.77082124034723 8.3067887475845055 0 8.3067887475845055 80.489775200464464 0 0 0 0 -0.35567728134725485 -21.142862913471618 0 -21.142862913471618 85.37663611768221 0 0 0 0 -1.5410687854599536 2.7616670565678163 0 2.7616670565678163 -1.3763445586967009 0 0 0 0 -44.327214096127875 -39.487799822771194 0 -39.487799822771194 -22.553014655637526 0 0 0 0 -10.077797850447837 -6.2047375292295328 0 -6.2047375292295328 55.143809769600921 0 0 0 0 1.4600510769268635 -1.1785350439267681 0 -1.1785350439267681 -0.071079166444690145 0 0 0 0 -55.123992469241841 -23.535000535708605 0 -23.535000535708605 -11.914893165994727 0 0 0 0 -39.97522809909151 -23.201490376592119 0 -23.201490376592119 -48.76528580662125 0 0 0 0 -47.563821356188328 -42.308547382392135 0 -42.308547382392135 -21.285100763263472 0 0 0 0 -47.054342297547464 -29.319264504039893 0 -29.319264504039893 28.20131471318382 0 0 0 0 -49.579906785585536 -10.531820660867197 0 -10.531820660867197 42.165488095932233 0 0 0 0 -48.154073649278217 -31.36330129054204 0 -31.36330129054204 -7.1045283179773833 0 0 0 0 -54.046512512301888 -22.061914243498904 0 -22.061914243498904 21.90463179395374 0 0 0 0 -33.059423999429498 -24.138636746651173 0 -24.138636746651173 -19.548914323902864 0 0 0 0 -49.335896319313093 -19.993453012206373 0 -19.993453012206373 20.779720939121034 0 0 0 0 -49.183932877244473 -15.880651155082887 0 -15.880651155082887 19.602269989314664 0 0 0 0 7.5730335255866521 -43.019693595631907 0 -43.019693595631907 30.222475966409547 0 0 0 0 21.978219094316955 -38.096761430908373 0 -38.096761430908373 20.562255286000436 0 0 0 0 22.881578181767225 -28.962912683580726 0 -28.962912683580726 37.95054827509739 0 0 0 0 22.020038443111844 -37.040398970773822 0 -37.040398970773822 31.758567194654461 0 0 0 0 18.1396000315317 -35.696357621049174 0 -35.696357621049174 32.546350442804396 0 0 0 0 -2.573188981164094 -20.797058800217201 0 -20.797058800217201 -8.770008972949654 0 0 0 0 -54.273805707772794 -29.961564183096471 0 -29.961564183096471 27.637732487775793 0 0 0 0 -7.0144346914469224 -12.144188846805264 0 -12.144188846805264 32.629239730020345 0 0 0 0 -33.521563585647982 -9.0542392576571729 0 -9.0542392576571729 22.703421878519293 0 0 0 0 -14.783289749457708 -28.260174773477047 0 -28.260174773477047 40.983851684242836 0 0 0 0 21.440603253380687 -40.752835161525581 0 -40.752835161525581 60.781242027747794 0 0 0 0 35.308187349919535 -22.036892808471748 0 -22.036892808471748 29.504602582877851 0 0 0 0 51.315262846805126 -32.052261197921325 0 -32.052261197921325 43.382690806291066 0 0 0 0 17.94520075577293 -20.969579091526157 0 -20.969579091526157 40.865720557296299 0 0 0 0 40.883125300662414 -4.9871575219567603 0 -4.9871575219567603 46.321769648646296 0 0 0 0 16.001240493592377 -18.466495589185797 0 -18.466495589185797 49.873666315812443 0 0 0 0 26.746112945991626 -13.767595790028281 0 -13.767595790028281 43.884536276834297 0 0 0 0 11.853922116843933 -20.017696472918033 0 -20.017696472918033 49.99091134579794 0 0 0 0 19.627110151111083 -33.361848526562426 0 -33.361848526562426 71.360708737498499 0 0 0 0 1.4429795810501673 5.1635248061720631 0 5.1635248061720631 84.714801782871291 0 0 0 0 6.1116772189943731 2.3976551023661159 0 2.3976551023661159 51.84987419738809 0 0 0 0 7.7043491909807926 -7.7601724495179951 0 -7.7601724495179951 49.93081349448039 0 0 0 0 9.955858581344728 -18.580682445968705 0 -18.580682445968705 66.959482849204505 0 0 0 0 3.2280815244153018 -18.563747959629382 0 -18.563747959629382 46.154310658268514 0 0 0 0 12.67912086220349 -30.265105610510545 0 -30.265105610510545 38.465122068268101 0 0 0 0 6.5768503444978705 -10.058172206961899 0 -10.058172206961899 37.625513961982506 0 0 0 0 15.97288268911052 -17.502537082389608 0 -17.502537082389608 43.521548325647018 0 0 0 0 -7.0805514000840049 -18.300747312207022 0 -18.300747312207022 50.25579306639338 0 0 0 0 11.838216738799929 -20.667730002794997 0 -20.667730002794997 29.188153824332403 0 0 0 0 -12.351775656044197 -10.631729829096003 0 -10.631729829096003 66.968552018064656 0 0 0 0 4.110843568732145 -9.9141317524753365 0 -9.9141317524753365 34.902584874332135 0 0 0 0 -3.2174417322386439 -1.9460656160002401 0 -1.9460656160002401 33.056184755432056 0 0 0 0 -15.057744269844534 -19.083374022515272 0 -19.083374022515272 62.463968356474652 0 0 0 0 -14.611453977479187 -17.947430785045071 0 -17.947430785045071 48.713098502310459 0 0 0 0 -29.429146681055499 3.611056929694314 0 3.611056929694314 29.211800874276378 0 0 0 0 -25.044520939533413 -14.616827008194377 0 -14.616827008194377 68.007487334631151 0 0 0 0 -16.535385703477118 -18.599301049071983 0 -18.599301049071983 69.828932634001831 0 0 0 0 -14.679803639678539 -10.288718635165424 0 -10.288718635165424 71.662642861600034 0 0 0 0 -6.1732598153857907 -19.48224976462734 0 -19.48224976462734 81.483106393243361 0 0 0 0 5.7194885976705336 -7.2448625028337119 0 -7.2448625028337119 67.591379402481834 0 0 0 0 -1.9576487830618632 -20.975686692592554 0 -20.975686692592554 70.998880514609894 0 0 0 0 -4.4287573321744276 -12.781766399813932 0 -12.781766399813932 103.57566385818063 0 0 0 0 1.1498061057312299 -9.5425295572745199 0 -9.5425295572745199 12.865462922506111 0 0 0 0 31.790571163624918 -104.13137031507085 0 -104.13137031507085 69.884194131554978 0 0 0 0 -16.744717984940898 0.76115258174895928 0 0.76115258174895928 38.456302682439627 0 0 0 0 -2.7408660775980582 -0.98715718906596095 0 -0.98715718906596095 37.797678033726058 0 0 0 0 13.999531649751134 6.6985953182920639 0 6.6985953182920639 55.594495628676668 0 0 0 0 -7.8024873063902085 -4.6438614253927426 0 -4.6438614253927426 16.330931183217331 0 0 0 0 -4.4242638272689874 -4.852569680839224 0 -4.852569680839224 66.723414303458412 0 0 0 0 -10.308348508694962 0.80828121137164999 0 0.80828121137164999 66.354093584395741 0 0 0 0 -13.841242600158353 -5.3493365403228381 0 -5.3493365403228381 67.890341957827331 0 0 0 0 -13.562796676831567 -1.9705808185899514 0 -1.9705808185899514 95.403451641406718 0 0 0 0 -0.5798051890359357 -3.2827485110546899 0 -3.2827485110546899 39.649742424780555 0 0 0 0 -4.4556965120734731 5.6473066004200518 0 5.6473066004200518 46.366576169115433 0 0 0 0 -4.672888767231143 -11.232880845989712 0 -11.232880845989712 38.547797661631193 0 0 0 0 -11.209161411345974 1.9357880012266833 0 1.9357880012266833 41.938508368344628 0 0 0 0 -11.089386779398865 3.7129457674673176 0 3.7129457674673176 49.990913812327562 0 0 0 0 -15.59261811822455 -7.707728102085639 0 -7.707728102085639 38.439382594071503 0 0 0 0 -11.653833349723982 -0.59487341526255477 0 -0.59487341526255477 44.728569994585996 0 0 0 0 -44.726355686007082 -36.413850170805745 0 -36.413850170805745 168.34522804323569 0 0 0 0 -37.154955677159705 37.590848840269246 0 37.590848840269246 76.762272290778128 0 0 0 0 -22.874805228997502 -20.236813121122395 0 -20.236813121122395 45.488769010878059 0 0 0 0 -18.117796354314123 -44.927156595384076 0 -44.927156595384076 70.649068339771475 0 0 0 0 23.374136746269869 23.160504971154296 0 23.160504971154296 122.118750490401 0 0 0 0 -30.867865345381688 -61.76179677865548 0 -61.76179677865548 109.15913187499609 0 0 0 0 -14.439884940677985 -30.38241292907378 0 -30.38241292907378 126.47738100521747 0 0 0 0 18.080592417121807 -30.841510328125878 0 -30.841510328125878 80.082011904575666 0 0 0 0 46.169601615505826 15.115070368354282 0 15.115070368354282 97.529471575879143 0 0 0 0 35.065135998255982 -10.611641671506732 0 -10.611641671506732 55.012577800720464 0 0 0 0 28.625631314930729 -23.827188578645291 0 -23.827188578645291 41.196634059215285 0 0 0 0 1.5697900972754724 -22.230311615327082 0 -22.230311615327082 53.0883358110259 0 0 0 0 16.395567315292283 -33.921026461921429 0 -33.921026461921429 62.123626035310735 0 0 0 0 0.16884094031661334 -33.44911948779918 0 -33.44911948779918 60.464403093719739 0 0 0 0 6.055627420640576 -22.501939535923157 0 -22.501939535923157 75.693534734371497 0 0 0 0 -20.391443996856651 -32.116045018097793 0 -32.116045018097793 67.062983566298499 0 0 0 0 -19.626290088967068 -17.609565336182186 0 -17.609565336182186 56.63499150055577 0 0 0 0 -36.729371039693888 -23.986330028492375 0 -23.986330028492375 56.197693614420132 0 0 0 0 -21.102473120270588 -27.469154306541895 0 -27.469154306541895 63.503623446071288 0 0 0 0 -13.662399742688194 -21.585874028722174 0 -21.585874028722174 67.58955504806363 0 0 0 0 -13.788528855857294 -21.268092856178555 0 -21.268092856178555 67.469976804435646 0 0 0 0 -13.678776028900302 -12.737389233396243 0 -12.737389233396243 76.547770260025572 0 0 0 0 1.9234136196969303 -17.936584102095367 0 -17.936584102095367 63.037310902873287 0 0 0 0 -5.2165727624557121 -8.2614582113274082 0 -8.2614582113274082 54.888185262185289 0 0 0 0 0.5457195187511843 -4.2223874390401761 0 -4.2223874390401761 41.839148199866031 0 0 0 0 10.63964767095149 -11.485260222805664 0 -11.485260222805664 46.772180861305969 0 0 0 0 3.2840167670515665 8.4835883237311123 0 8.4835883237311123 7.282460175728076 0 0 0 0 9.8199586645679915 -13.722992139681537 0 -13.722992139681537 46.734255199371546 0 0 0 0 81.485527609876954 32.656360998185846 0 32.656360998185846 4.6492780707521888 0 0 0 0 18.843947453705823 -18.841997236508178 0 -18.841997236508178 49.505919408213231 0 0 0 0 16.373861288707189 -12.312269175522488 0 -12.312269175522488 36.586843926270376 0 0 0 0 3.351948894669575 8.1000068024555958 0 8.1000068024555958 7.4324687185707603 0 0 0 0 1.9029157108699071 2.1820129838408491 0 2.1820129838408491 2.2381150306278528 0 0 0 0 97.816823331941237 49.288302600948555 0 49.288302600948555 1.3122660021181218 0 0 0 0 -35.501659721072429 -269.96742134211308 0 -269.96742134211308 34.907257937647046 0 0 0 0 74.117955707383317 123.32967520970851 0 123.32967520970851 97.338134537276346 0 0 0 0 2.8720274434831481 56.070859289950022 0 56.070859289950022 37.331875271498575 0 0 0 0 -59.383285651043025 99.193826392598567 0 99.193826392598567 217.58380897684401 0 0 0 0 -218.08219913676021 -47.460140682567726 0 -47.460140682567726 197.59639276790222 0 0 0 0 380.33902700063663 282.7491720833932 0 282.7491720833932 134.46347048087591 0 0 0 0 30.228178930115973 -1.4069971088028979 0 -1.4069971088028979 29.375890382056241 0 0 0 0 34.016000343249289 -8.6771459918345499 0 -8.6771459918345499 13.658996088139247 0 0 0 0 38.787227437018828 11.23678796535205 0 11.23678796535205 -5.0949920653511072 0 0 0 0 37.929522866250977 13.466594948127749 0 13.466594948127749 27.418785988658783 0 0 0 0 29.961509573292005 43.097555589334661 0 43.097555589334661 38.127043045664323 0 0 0 0 60.35818810335104 33.795445449417457 0 33.795445449417457 8.7917336134269135 0 0 0 0 34.356377783356038 -1.3281105593559914 0 -1.3281105593559914 -22.351205324641342 0 0 0 0 -40.707967207060392 4.9493644855974708 0 4.9493644855974708 4.982741378575156 0 0 0 0 15.39190566169782 -0.82271203889831668 0 -0.82271203889831668 0.95111605913552921 0 0 0 0 28.414997203669373 6.0670888003660366 0 6.0670888003660366 0.5456179583852645 0 0 0 0 24.928479088172026 -40.089737142840022 0 -40.089737142840022 75.736969285597297 0 0 0 0 4.7190048292141142 5.2365279767056307 0 5.2365279767056307 10.064182665641027 0 0 0 0 -38.063164125731248 51.159894344764666 0 51.159894344764666 -5.6184242572635412 0 0 0 0 -5.7305940192736671 45.49631529400358 0 45.49631529400358 -29.968009531163261 0 0 0 0 28.464293236867888 10.484181685576914 0 10.484181685576914 -13.283549730127561 0 0 0 0 -29.533202469836397 36.159621136765054 0 36.159621136765054 -5.2182332582524396 0 0 0 0 -23.896587847582396 -10.761170278954523 0 -10.761170278954523 97.82670220172804 0 0 0 0 -8.4921480405757848 16.433948119173692 0 16.433948119173692 48.541042009128432 0 0 0 0 0.75506095186741007 6.1808317013773291 0 6.1808317013773291 15.351758101159191 0 0 0 0 9.2423147952366662 -4.4352673465009502 0 -4.4352673465009502 46.126117393287132 0 0 0 0 1.3273492413321009 -0.86970398368839597 0 -0.86970398368839597 21.924012377078313 0 0 0 0 -0.99244511530055679 -1.6435235792358718 0 -1.6435235792358718 37.516005532278768 0 0 0 0 -3.3915204277066096 0.49154146312866942 0 0.49154146312866942 30.954941408563172 0 0 0 0 -0.1499534643482292 0.31445400945752056 0 0.31445400945752056 2.8620283669362294 0 0 0 0 1.2236696611188247 8.8769567601448855 0 8.8769567601448855 41.737970111395299 0 0 0 0 16.414198926386234 134.36444515755284 0 134.36444515755284 -64.356968955517004 0 0 0 0 -113.73970198243933 140.63537937372166 0 140.63537937372166 -32.5849136547331 0 0 0 0 209.02096062993041 -42.60568187777244 0 -42.60568187777244 47.325921040071989 0 0 0 0 -833.86002698438369 485.89600059604709 0 485.89600059604709 929.28650152336922 0 0 0 0 -12.920612387789536 -9.1961083884815267 0 -9.1961083884815267 19.943908938335454 0 0 0 0 -6.0085221994617291 -1.8453614118584447 0 -1.8453614118584447 84.413480454287054 0 0 0 0 -148.03100332513131 -141.90207752390234 0 -141.90207752390234 -4.9812495613805368 0 0 0 0 120.64666167591349 65.431446280766977 0 65.431446280766977 -52.455222815842717 0 0 0 0 121.53444912903217 -108.5900584624753 0 -108.5900584624753 103.21570800905465 0 0 0 0 77.005473613538015 -127.21342865912084 0 -127.21342865912084 248.10065525877872 0 0 0 0 76.15900640212476 -152.66769391210255 0 -152.66769391210255 390.28861629293533 0 0 0 0 41.370041768060673 -69.075789638951392 0 -69.075789638951392 151.83522447256837 0 0 0 0 33.925877178806331 -44.475156663451344 0 -44.475156663451344 170.43050681949535 0 0 0 0 27.183885298471068 -38.319285748701077 0 -38.319285748701077 125.39089395452174 0 0 0 0 67.698762244634054 -26.448149146119249 0 -26.448149146119249 22.00363348373503 0 0 0 0 47.044935702217117 -72.270244570392606 0 -72.270244570392606 87.193623296334408 0 0 0 0 51.675934980585794 -40.050356020528852 0 -40.050356020528852 14.064340205281042 0 0 0 0 40.555537144728078 7.0648993130744202 0 7.0648993130744202 -28.502192975152866 0 0 0 0 42.267263739197006 -33.802688783631311 0 -33.802688783631311 19.971156271105428 0 0 0 0 13.394308727180032 35.049870439092047 0 35.049870439092047 -60.958266765679582 0 0 0 0 -8.7667215482069878 15.983701031436794 0 15.983701031436794 -24.579584949708078 0 0 0 0 14.542180686552456 27.11727974236419 0 27.11727974236419 -36.478271085652523 0 0 0 0 -107.08565333049046 64.693654633592814 0 64.693654633592814 -7.8434200353513006 0 0 0 0 -71.404770183569781 117.48128824683954 0 117.48128824683954 -101.26137267041486 0 0 0 0 -18.515703656979895 4.2527259168127785 0 4.2527259168127785 -37.947969315719092 0 0 0 0 -4.4278231671887625 8.9728628889570246 0 8.9728628889570246 -53.677743119478691 0 0 0 0 24.639327464472444 1.0818509442869981 0 1.0818509442869981 6.295850422771764 0 0 0 0 3.6604917601252964 31.277831912673719 0 31.277831912673719 -27.922177904169075 0 0 0 0 43.259376881898788 5.2417967577057425 0 5.2417967577057425 -30.252387361073488 0 0 0 0 26.899850904134837 10.832173065922689 0 10.832173065922689 -10.994898472257773 0 0 0 0 32.563113240198618 -22.040586329407233 0 -22.040586329407233 15.969754973095405 0 0 0 0 27.090154816303311 -10.045625358648977 0 -10.045625358648977 40.491067536931951 0 0 0 0 36.455033627117245 -36.867981399444034 0 -36.867981399444034 51.930097422824474 0 0 0 0 26.213437410496226 -32.507464511603757 0 -32.507464511603757 89.407686725768144 0 0 0 0 39.972617265693771 -22.737592938690796 0 -22.737592938690796 40.628542713442584 0 0 0 0 28.500865497523705 -50.003121076243133 0 -50.003121076243133 98.03343359217979 0 0 0 0 -1.3150111716713582 -10.771682043858164 0 -10.771682043858164 235.04174835587037 0 0 0 0 13.195365767513067 -17.48373239798093 0 -17.48373239798093 154.1636277159123 0 0 0 0 -1.2036670440356829 -12.273996087904379 0 -12.273996087904379 152.32535997981904 0 0 0 0 14.296470838174116 -24.186250288710198 0 -24.186250288710198 113.73869828888564 0 0 0 0 13.219688792912166 9.7053362270016805 0 9.7053362270016805 132.93121489298937 0 0 0 0 23.059642258498542 -21.654664651966186 0 -21.654664651966186 76.693212534897611 0 0 0 0 23.614966243531853 -11.949758699782251 0 -11.949758699782251 94.976876450695272 0 0 0 0 32.859348968287122 3.6563831170606136 0 3.6563831170606136 96.362347680238599 0 0 0 0 27.012235983923347 -7.6046324194903718 0 -7.6046324194903718 62.856759253765631 0 0 0 0 36.597118969958501 -22.472470472364876 0 -22.472470472364876 38.376707647017611 0 0 0 0 -7.0790685464421585 11.682168197989085 0 11.682168197989085 39.509209974043188 0 0 0 0 -2.590618823089835 0.69654365278105246 0 0.69654365278105246 7.0256951706564053 0 0 0 0 -5.9302758033605869 11.177953359980165 0 11.177953359980165 34.697404837730573 0 0 0 0 -10.595248713598746 -6.415767451175924 0 -6.415767451175924 5.8374280375433472 0 0 0 0 -9.3901000825808296 -9.8113258727134962 0 -9.8113258727134962 63.282665208320395 0 0 0 0 -18.435372336688033 -20.099437254590157 0 -20.099437254590157 44.583752750493659 0 0 0 0 -1.1672893366947781 -1.65148607225278 0 -1.65148607225278 7.6548497863742 0 0 0 0 -50.112989538328975 -26.350865431924831 0 -26.350865431924831 38.44998207950448 0 0 0 0 -20.531590304095062 -7.2543787760405394 0 -7.2543787760405394 18.829628906114522 0 0 0 0 -32.109191114913983 -5.1070793942180899 0 -5.1070793942180899 43.85940459313133 0 0 0 0 -17.054508848309574 9.9005262094500779 0 9.9005262094500779 35.388873245198006 0 0 0 0 -11.288706012411222 -9.0661772746451845 0 -9.0661772746451845 15.644875464813232 0 0 0 0 -10.14764896350016 -2.8675805477596441 0 -2.8675805477596441 60.333283252148249 0 0 0 0 -19.096711512196087 -0.26275296319259667 0 -0.26275296319259667 29.049016488127329 0 0 0 0 -36.615171641032248 38.015271642740117 0 38.015271642740117 -49.152623061778286 0 0 0 0 -10.270859773929317 -3.8762480836530813 0 -3.8762480836530813 52.210494010258117 0 0 0 0 -14.075804384633557 -8.1304660751120537 0 -8.1304660751120537 49.076391593382141 0 0 0 0 -11.233009980018778 4.6471197434839269 0 4.6471197434839269 65.891112392891955 0 0 0 0 -4.9118948053634313 -4.7529506200407923 0 -4.7529506200407923 58.366801661381032 0 0 0 0 -7.4765865531253439 15.605732316471403 0 15.605732316471403 62.98165122044702 0 0 0 0 -2.4589612510777785 1.7212317538451378 0 1.7212317538451378 0.69294615174506191 0 0 0 0 -15.652780620729573 -6.9886204733265913 0 -6.9886204733265913 50.129639985432732 0 0 0 0 -23.041329995761771 -20.120494219227112 0 -20.120494219227112 70.319389586276884 0 0 0 0 -1.6147772455178711 -27.642418054107111 0 -27.642418054107111 35.092720717206248 0 0 0 0 -5.962640507980085 4.9569371014273997 0 4.9569371014273997 25.84498906977197 0 0 0 0 -7.5199815845840021 -0.17644106720035779 0 -0.17644106720035779 32.496553088378278 0 0 0 0 -8.0721080869629986 -1.3146840185872861 0 -1.3146840185872861 34.114090836315881 0 0 0 0 -4.5994616025018331 -4.1058319402654888 0 -4.1058319402654888 61.116837465720891 0 0 0 0 -9.4140509211211061 -1.5718467092049764 0 -1.5718467092049764 19.82322671184447 0 0 0 0 -8.7632833264711962 -0.96447171949876065 0 -0.96447171949876065 34.070099996191857 0 0 0 0 -10.473379706450487 -17.909437202433764 0 -17.909437202433764 33.768905499244283 0 0 0 0 -4.4084185647730605 -3.7178193001113797 0 -3.7178193001113797 36.108540955420438 0 0 0 0 -5.4349059346250792 -6.3258346566789214 0 -6.3258346566789214 13.720950335886918 0 0 0 0 -9.4133753914155971 -4.8620707277831485 0 -4.8620707277831485 13.790115367382413 0 0 0 0 -8.6064536758249233 2.379820527141419 0 2.379820527141419 5.2625747382553527 0 0 0 0 -7.33393350113829 -3.1970470350715914 0 -3.1970470350715914 13.537484227497771 0 0 0 0 -2.5987115750531302 -1.5639281492040027 0 -1.5639281492040027 32.744223809448158 0 0 0 0 -12.349163185976527 -5.3798290805778848 0 -5.3798290805778848 21.828318661583381 0 0 0 0 -8.7666016086648142 -4.3047992119063565 0 -4.3047992119063565 36.031083697173017 0 0 0 0 5.3640141102540611 2.7846982632745494 0 2.7846982632745494 23.992999325197161 0 0 0 0 3.8389363892983965 -26.343299133587607 0 -26.343299133587607 30.531565704121022 0 0 0 0 -0.95993879390450498 -6.7446821692408996 0 -6.7446821692408996 17.43743390336688 0 0 0 0 -8.7476145895034279 9.2757179367799836 0 9.2757179367799836 29.430151062369987 0 0 0 0 -30.860552033646854 -7.6605170843013184 0 -7.6605170843013184 55.709955891798018 0 0 0 0 -37.154633412140583 -21.027546708304726 0 -21.027546708304726 43.760072075907374 0 0 0 0 -12.291407924969008 -39.963796345849914 0 -39.963796345849914 48.06785073998617 0 0 0 0 1.3444788836069284 -3.4463384747056232 0 -3.4463384747056232 8.7349412333781373 0 0 0 0 135.9493310980929 -36.208580536997033 0 -36.208580536997033 -62.442947363548228 0 0 0 0 -91.463845973437401 -5.4133244679469499 0 -5.4133244679469499 65.107556549835863 0 0 0 0 -65.004161086740623 -55.336080269098602 0 -55.336080269098602 44.099857784818596 0 0 0 0 27.584530964741361 3.9634423580992006 0 3.9634423580992006 -32.652988102730887 0 0 0 0 -8.259008895328634 -18.552884262644511 0 -18.552884262644511 20.264159760612529 0 0 0 0 -28.566532209520574 5.9131488194689155 0 5.9131488194689155 7.2588787612367014 0 0 0 0 4.3992078342442271 -5.4182084961186696 0 -5.4182084961186696 5.1369115133837226 0 0 0 0 -57.52250296720149 -11.450005725992014 0 -11.450005725992014 29.866032489619101 0 0 0 0 -54.819283741869185 -56.855070068018904 0 -56.855070068018904 -13.572014967841369 0 0 0 0 -12.973405373167253 -15.930114101468007 0 -15.930114101468007 -1.6352524573667324 0 0 0 0 -14.456349260419756 15.638515837395971 0 15.638515837395971 32.619693608205125 0 0 0 0 41.026075183591786 -17.458634662978511 0 -17.458634662978511 -31.717780681959994 0 0 0 0 -37.853377602855289 6.5769848454456223 0 6.5769848454456223 7.9591900610175799 0 0 0 0 -39.748804190907862 -91.540884986889068 0 -91.540884986889068 -72.787583699846437 0 0 0 0 182.50402199094773 4.0491108721616911 0 4.0491108721616911 -159.7211893447311 0 0 0 0 74.297571937703935 -221.50339964516115 0 -221.50339964516115 569.99218690241833 0 0 0 0 521.49091008479684 307.69826448074309 0 307.69826448074309 332.22439037292497 0 0 0 0 52.671875747881302 -19.186247778652614 0 -19.186247778652614 -11.380531992632314 0 0 0 0 2.8978954305677771 -5.0227711606976335 0 -5.0227711606976335 7.175360387889981 0 0 0 0 -189.46025165268446 -268.42341502595536 0 -268.42341502595536 65.672669859010057 0 0 0 0 -77.301892474869305 -68.190093359307866 0 -68.190093359307866 -27.841431985340932 0 0 0 0 -72.209044798907144 4.4371570957864606 0 4.4371570957864606 67.458338963111601 0 0 0 0 -41.216902020549298 -127.97067932870505 0 -127.97067932870505 57.050987186070415 0 0 0 0 -28.162366991668705 -12.637315011605097 0 -12.637315011605097 102.77390471228864 0 0 0 0 0.85318696917748671 -1.8400113788164703 0 -1.8400113788164703 2.0457112412345566 0 0 0 0 484.83320475758046 -67.658786664429954 0 -67.658786664429954 -87.037726422568085 0 0 0 0 60.271236625375991 -291.63619624651619 0 -291.63619624651619 161.89635937673302 0 0 0 0 36.130691043274965 14.94118433519543 0 14.94118433519543 -97.527995491476759 0 0 0 0 -232.20113209670231 50.897775463428388 0 50.897775463428388 456.42188639169035 0 0 0 0 1.3333884221524475 -2.2211259841538897 0 -2.2211259841538897 3.5476373064279585 0 0 0 0 -91.812437234820891 45.916313194240502 0 45.916313194240502 449.83330468950589 0 0 0 0 277.39828594615688 -231.67018057696987 0 -231.67018057696987 104.31757692006431 0 0 0 0 280.6871921962055 -209.29719765972777 0 -209.29719765972777 254.19476486020721 0 0 0 0 -125.7348380792846 -103.60768079459376 0 -103.60768079459376 282.60233219564907 0 0 0 0 484.82504678829923 -105.751784821412 0 -105.751784821412 259.70927828936692 0 0 0 0 102.91674063335483 26.099586397958774 0 26.099586397958774 223.97881861345741 0 0 0 0 159.76373748203036 203.40196576203198 0 203.40196576203198 305.30640110432432 0 0 0 0 -109.14930060996942 107.71208807686344 0 107.71208807686344 315.17437803625216 0 0 0 0 151.34114930539579 -15.783575069579456 0 -15.783575069579456 232.24395977721724 0 0 0 0 36.005904179302547 -73.598900100627361 0 -73.598900100627361 496.7947784528933 0 0 0 0 77.132526935712903 20.240502571428806 0 20.240502571428806 341.67442790909445 0 0 0 0 148.83918153068953 72.409102128069208 0 72.409102128069208 -69.467910297171329 0 0 0 0 97.172752713701954 54.827243849150364 0 54.827243849150364 184.09578996995697 0 0 0 0 96.174347220832942 437.19315348911732 0 437.19315348911732 -151.22296226972503 0 0 0 0 252.6980900581415 -61.466368633396087 0 -61.466368633396087 102.17931995138497 0 0 0 0 0.12881587257232763 0.78993583239057585 0 0.78993583239057585 7.9624095640718195 0 0 0 0 70.799856883633652 441.82434373262367 0 441.82434373262367 272.21004217827976 0 0 0 0 271.10811410625797 -126.66093136770724 0 -126.66093136770724 -872.39820974568283 0 0 0 0 -175.93918130574818 179.41500266480853 0 179.41500266480853 406.44343565389863 0 0 0 0 -89.060790182490862 257.52978774370968 0 257.52978774370968 717.30937249038834 0 0 0 0 -98.118151041331359 166.04796580222865 0 166.04796580222865 387.0501649721009 0 0 0 0 72.593471993058074 69.454953401549574 0 69.454953401549574 114.97080851464489 0 0 0 0 38.634857690232138 20.697687071902692 0 20.697687071902692 97.879862727058935 0 0 0 0 13.534421531142925 5.7691647440224187 0 5.7691647440224187 114.36288297495048 0 0 0 0 45.222424824567952 32.958583494426421 0 32.958583494426421 118.94905484360061 0 0 0 0 22.599139295628447 47.726778212450881 0 47.726778212450881 130.28686773205118 0 0 0 0 2.2201040255808948 11.027192557728995 0 11.027192557728995 183.26616293468396 0 0 0 0 1.896496983785255 55.234884161531227 0 55.234884161531227 190.69630558716017 0 0 0 0 6.4328205252031694 55.331447496071632 0 55.331447496071632 161.7020240106358 0 0 0 0 22.599794591093087 95.00548716141202 0 95.00548716141202 142.75814784506656 0 0 0 0 32.437695568689378 58.230521800494898 0 58.230521800494898 83.106515891107847 0 0 0 0 29.351323256074465 55.982404055233928 0 55.982404055233928 123.84592005640297 0 0 0 0 30.839989860987771 72.926765578507911 0 72.926765578507911 132.81633860143484 0 0 0 0 9.7332531121001011 36.204261510807555 0 36.204261510807555 118.97661222976603 0 0 0 0 -86.866382276793047 -420.21666725599425 0 -420.21666725599425 -250.0331256159443 0 0 0 0 34.89934067780996 39.179547576706682 0 39.179547576706682 74.300488255888922 0 0 0 0 51.417761808483192 -27.095692308168509 0 -27.095692308168509 -96.916876846386003 0 0 0 0 11.414036541031237 -3.0328318601095816 0 -3.0328318601095816 13.705958298422047 0 0 0 0 114.14799644124287 105.65037468128139 0 105.65037468128139 34.327280538680498 0 0 0 0 52.334012802617508 116.21569989444106 0 116.21569989444106 121.04269184671284 0 0 0 0 50.813166805748779 92.136579442754282 0 92.136579442754282 136.25132330751512 0 0 0 0 44.033087615538534 62.436367786314804 0 62.436367786314804 46.931156809048844 0 0 0 0 0.45467138083512459 0.18064398364497691 0 0.18064398364497691 10.345811737617424 0 0 0 0 119.48364702606978 132.42273056398153 0 132.42273056398153 168.14611795674136 0 0 0 0 23.893036856077742 84.286942596998415 0 84.286942596998415 175.10547953996866 0 0 0 0 32.282104289792755 108.22141030029888 0 108.22141030029888 204.78808714757906 0 0 0 0 32.803077115828273 101.32132148594974 0 101.32132148594974 250.70872042799601 0 0 0 0 -3.3502398507516773 63.416084097058047 0 63.416084097058047 239.04456661711447 0 0 0 0 -3.4220654402124637 62.121676177892368 0 62.121676177892368 249.22889122561901 0 0 0 0 7.7942232229652291 91.887107008791645 0 91.887107008791645 318.95510895611369 0 0 0 0 -8.65134382791598 0.54285782047554676 0 0.54285782047554676 299.03463488686248 0 0 0 0 -6.583618499833392 -4.5890919571102131 0 -4.5890919571102131 228.22820124149439 0 0 0 0 44.470578848983678 127.44833377246505 0 127.44833377246505 407.56044166762149 0 0 0 0 4.6765861709072851 -24.970252202023403 0 -24.970252202023403 520.29747578359093 0 0 0 0 0.72749199018653599 13.325839841083507 0 13.325839841083507 316.45394298765314 0 0 0 0 37.982957053704013 94.785734282137128 0 94.785734282137128 245.3875478732225 0 0 0 0 89.580723327441547 144.19759099717976 0 144.19759099717976 282.13911918411031 0 0 0 0 88.426041876376985 131.87836754000455 0 131.87836754000455 162.91498115533614 0 0 0 0 -393.16484270765505 -289.15308733649726 0 -289.15308733649726 71.58821181703388 0 0 0 0 396.52749022397984 -716.22895893047098 0 -716.22895893047098 -525.71576224541059 0 0 0 0 -5.2500429231693815 -7.3314607779359164 0 -7.3314607779359164 83.495305315710695 0 0 0 0 -31.608272624198442 -160.20544891354393 0 -160.20544891354393 -57.552842275079456 0 0 0 0 -15.987766598991016 -42.398612024568138 0 -42.398612024568138 -20.832961760494072 0 0 0 0 10.95429355112492 -159.40066382550867 0 -159.40066382550867 -78.280252476699388 0 0 0 0 -638.09311084156525 150.47954720393318 0 150.47954720393318 432.98235750891035 0 0 0 0 -534.08166430150686 -230.54975628069951 0 -230.54975628069951 167.41154954102603 0 0 0 0 -262.076122050962 40.782448157628096 0 40.782448157628096 78.105921894715721 0 0 0 0 -150.26950191653816 9.9442681865839404 0 9.9442681865839404 67.16671761685393 0 0 0 0 -140.15551136545656 -73.003838208377601 0 -73.003838208377601 181.00645462830289 0 0 0 0 -100.39292615284455 131.06695519021014 0 131.06695519021014 149.99248131842614 0 0 0 0 -35.740164561963638 63.248089432952838 0 63.248089432952838 207.58734362286486 0 0 0 0 -29.619752473638528 191.47829444582385 0 191.47829444582385 189.99726001113595 0 0 0 0 -308.50054848786817 66.236907162430725 0 66.236907162430725 172.32132908715721 0 0 0 0 -382.73159265965955 -200.3003520194361 0 -200.3003520194361 348.20294335216749 0 0 0 0 -6.3386988045207673 -18.056752566476931 0 -18.056752566476931 5.6420077196899143 0 0 0 0 -8.4262831988849172 -3.6991728922594191 0 -3.6991728922594191 104.94235747007477 0 0 0 0 -627.66984926524788 -54.949983252481616 0 -54.949983252481616 174.29531860214774 0 0 0 0 -247.10063812623105 -76.745262123768953 0 -76.745262123768953 -54.801340757818252 0 0 0 0 -4.467631510303498 -18.939285473066949 0 -18.939285473066949 26.839341944390782 0 0 0 0 -72.235235655559336 -57.642745432152878 0 -57.642745432152878 56.98106032267242 0 0 0 0 -8.6950915438802223 1.5202294820339226 0 1.5202294820339226 76.671922569744027 0 0 0 0 -55.937275321312427 -9.8101158276022034 0 -9.8101158276022034 101.0439713257947 0 0 0 0 8.1504823383620533 -3.8147258985954977 0 -3.8147258985954977 78.785399847991357 0 0 0 0 -13.741677622264888 6.8552587636077078 0 6.8552587636077078 93.415419974837278 0 0 0 0 -61.526892039294125 -20.137849035101681 0 -20.137849035101681 117.2571185595516 0 0 0 0 86.449672589948477 -31.045347580464295 0 -31.045347580464295 108.03312609118802 0 0 0 0 -17.387214051205319 34.974824572254875 0 34.974824572254875 66.234807890243246 0 0 0 0 8.2083686591918781 29.413577693125681 0 29.413577693125681 173.28914993290527 0 0 0 0 12.532685065003534 79.895076251828868 0 79.895076251828868 100.4879834553285 0 0 0 0 -81.031067636802618 84.431301635362615 0 84.431301635362615 124.21340769979361 0 0 0 0 88.091779522469437 85.795921058867862 0 85.795921058867862 72.708304423722439 0 0 0 0 -8.7829308669927286 9.3111249357434644 0 9.3111249357434644 93.052991516524344 0 0 0 0 -162.93511988259547 -8.8385898484430072 0 -8.8385898484430072 119.53608417810028 0 0 0 0 -324.91681060635096 -346.30546763737948 0 -346.30546763737948 901.60724012411811 0 0 0 0 -6.4860856190052392 -9.572375784574902 0 -9.572375784574902 114.28372257779014 0 0 0 0 108.19977610675073 -246.22809412212882 0 -246.22809412212882 -170.30773889184491 0 0 0 0 -80.157041200358094 -96.448968154019894 0 -96.448968154019894 72.937626171034935 0 0 0 0 -274.05870049208988 33.617081921773206 0 33.617081921773206 560.80772751733093 0 0 0 0 -33.000331690664552 -243.89352687231076 0 -243.89352687231076 461.47297891312337 0 0 0 0 -284.37081306247643 162.14324798694088 0 162.14324798694088 309.80045580131991 0 0 0 0 -0.98659671396144311 1.6856352547392994 0 1.6856352547392994 4.9900625691013403 0 0 0 0 -251.58231417229172 136.6649004663559 0 136.6649004663559 -809.87815507489722 0 0 0 0 -220.09006240073086 183.99070023382228 0 183.99070023382228 22.277109782044135 0 0 0 0 -142.42445544413749 147.77534885793284 0 147.77534885793284 -67.588636782060803 0 0 0 0 -189.16204194600709 92.353694515466486 0 92.353694515466486 49.977324057988881 0 0 0 0 -196.69090956614082 94.998047594277523 0 94.998047594277523 293.08834965186543 0 0 0 0 -229.91325091993383 183.9150885021154 0 183.9150885021154 280.15038536448264 0 0 0 0 -70.650639807102152 133.46938351335484 0 133.46938351335484 198.50482442514112 0 0 0 0 -61.448712049657047 100.1043284846528 0 100.1043284846528 99.697304672899918 0 0 0 0 -181.16729107604101 161.28144295683478 0 161.28144295683478 193.06457998094993 0 0 0 0 -54.868370353343892 104.94843922539712 0 104.94843922539712 187.10382137211855 0 0 0 0 19.239153697436109 96.907559996328928 0 96.907559996328928 185.68516506195374 0 0 0 0 -39.549272004059731 3.6811187874591269 0 3.6811187874591269 284.30551213339186 0 0 0 0 -189.62318497539809 88.33086769368856 0 88.33086769368856 276.59814044918312 0 0 0 0 -42.335255868629559 35.941465451472141 0 35.941465451472141 126.60573946841032 0 0 0 0 33.956515478212054 66.552720317335115 0 66.552720317335115 128.8124877647133 0 0 0 0 14.461077008878078 27.217874009780644 0 27.217874009780644 55.195128180268512 0 0 0 0 56.837418097453565 86.293863113471161 0 86.293863113471161 89.852928423650155 0 0 0 0 44.163346979808011 57.666984298572061 0 57.666984298572061 107.18395278763273 0 0 0 0 43.868850526851205 81.692880459832963 0 81.692880459832963 104.72262470500573 0 0 0 0 33.645799293832397 67.441942889967322 0 67.441942889967322 168.85753573987313 0 0 0 0 37.49686287262216 82.809996059437253 0 82.809996059437253 124.10549046682354 0 0 0 0 44.324866261182351 71.718601757030228 0 71.718601757030228 113.00222361010674 0 0 0 0 0.63324912668781508 55.055567892377439 0 55.055567892377439 256.48667870119607 0 0 0 0 5.2267429788930713 160.86398024100708 0 160.86398024100708 133.71835611840652 0 0 0 0 61.941570207339282 64.05404524980986 0 64.05404524980986 -49.480418666098558 0 0 0 0 26.751540909653841 7.4714453879314533 0 7.4714453879314533 85.78762375623819 0 0 0 0 -47.806022628681148 111.83898765427512 0 111.83898765427512 -156.48496840425014 0 0 0 0 19.242123584966976 -20.730520023922509 0 -20.730520023922509 19.843388518565916 0 0 0 0 -327.14577310070729 -101.84634955165347 0 -101.84634955165347 2.063249939448724 0 0 0 0 -7.1444228545819071 -9.4184234010985826 0 -9.4184234010985826 119.65975436049295 0 0 0 0 -291.00416975907251 24.381996806514508 0 24.381996806514508 23.397568550681171 0 0 0 0 -81.744845036801962 -77.904657286268048 0 -77.904657286268048 -182.0742211375109 0 0 0 0 44.233287808658588 96.902657614602504 0 96.902657614602504 -83.230858569664633 0 0 0 0 -39.518192921048922 586.17167680136481 0 586.17167680136481 134.81395982092181 0 0 0 0 -29.981520227899182 -260.47658413481258 0 -260.47658413481258 43.355890536595325 0 0 0 0 -52.553623057117875 34.683413576509338 0 34.683413576509338 115.88747566814709 0 0 0 0 -372.88237849255722 -72.226657820840046 0 -72.226657820840046 272.24148720387893 0 0 0 0 133.1659599515404 146.53563777347881 0 146.53563777347881 208.74676688384716 0 0 0 0 92.412346492221587 112.75447588994575 0 112.75447588994575 164.86087775219676 0 0 0 0 103.92466537689609 47.76500417626221 0 47.76500417626221 46.340760436789424 0 0 0 0 1.0464150064252313 -2.6428823304535527 0 -2.6428823304535527 7.5681882767718491 0 0 0 0 -157.24555003635123 13.390237555659041 0 13.390237555659041 -307.78666636769776 0 0 0 0 169.86570740240381 302.32191021504877 0 302.32191021504877 572.97220258096877 0 0 0 0 -177.67309782980541 -768.74846205377253 0 -768.74846205377253 -33.406652077770559 0 0 0 0 26.470122142275216 -206.2433046098613 0 -206.2433046098613 40.113432252524944 0 0 0 0 -194.37325749851811 -283.85318185312281 0 -283.85318185312281 940.20665091535557 0 0 0 0 49.064438047912674 -122.47023803578304 0 -122.47023803578304 345.35735722890968 0 0 0 0 35.924597511783418 43.818287381884147 0 43.818287381884147 446.66939212685247 0 0 0 0 36.328410774152857 53.117465079295073 0 53.117465079295073 239.93698093084095 0 0 0 0 111.51103354051068 -25.454830904696792 0 -25.454830904696792 271.40120155471959 0 0 0 0 85.707822493047772 -73.553706988452177 0 -73.553706988452177 182.37340694916929 0 0 0 0 73.582468192602278 18.419627918388869 0 18.419627918388869 225.43092376696495 0 0 0 0 63.603055606312182 56.607982547549909 0 56.607982547549909 198.54466505654878 0 0 0 0 113.00507144312758 24.998192887411278 0 24.998192887411278 198.34093519268936 0 0 0 0 157.52960836410762 108.98794263456512 0 108.98794263456512 147.74108277374035 0 0 0 0 90.760747933611697 67.048984776829457 0 67.048984776829457 172.99492084865051 0 0 0 0 139.78868604325351 23.240450914552639 0 23.240450914552639 201.15747195213044 0 0 0 0 86.440912797424062 68.217888108720217 0 68.217888108720217 178.13266495705466 0 0 0 0 41.132422833551004 150.0057472057415 0 150.0057472057415 150.91565502021786 0 0 0 0 22.645418082997139 79.029889845111029 0 79.029889845111029 156.34537812789858 0 0 0 0 71.514264928381863 94.591810920439457 0 94.591810920439457 157.11897817690988 0 0 0 0 57.228300081231367 90.607193874701352 0 90.607193874701352 119.24322598944855 0 0 0 0 65.782767159852426 48.722885160121223 0 48.722885160121223 221.36267582294386 0 0 0 0 67.540721693841249 76.253310776148282 0 76.253310776148282 157.10088727665425 0 0 0 0 53.936397875071236 77.019835920869809 0 77.019835920869809 158.31014497247452 0 0 0 0 40.042840347283544 52.919516437043058 0 52.919516437043058 76.755556418342167 0 0 0 0 70.933399849498642 87.788834443174892 0 87.788834443174892 105.61685132593266 0 0 0 0 65.119362394823924 52.118654210604745 0 52.118654210604745 75.783709406394337 0 0 0 0 41.937911995386173 74.958719224141532 0 74.958719224141532 100.07311535313056 0 0 0 0 52.851676620408824 81.705124399602937 0 81.705124399602937 95.687170617755328 0 0 0 0 42.912215277564769 78.49338329251259 0 78.49338329251259 111.11110427502717 0 0 0 0 44.445387565698752 71.482689607182692 0 71.482689607182692 116.10300018164344 0 0 0 0 42.246377319788849 62.526779806558807 0 62.526779806558807 80.153785910450097 0 0 0 0 57.350182827263041 52.906718298558189 0 52.906718298558189 45.156747094431921 0 0 0 0 22.954808960569181 9.5447245923969604 0 9.5447245923969604 36.366849006008124 0 0 0 0 29.209911367620492 52.996083578203979 0 52.996083578203979 95.036715013244248 0 0 0 0 15.167279352460866 6.8146018615771027 0 6.8146018615771027 68.966910210998321 0 0 0 0 44.379322544297366 63.346623859861211 0 63.346623859861211 71.726575791533833 0 0 0 0 1.6471423368741303 -6.963082559702805 0 -6.963082559702805 22.055022036193563 0 0 0 0 -231.67129881032253 -135.17605732557968 0 -135.17605732557968 93.356141507094435 0 0 0 0 -360.35052231090214 -320.18696353629184 0 -320.18696353629184 95.066492484496848 0 0 0 0 -99.748020567738109 -272.62685551287541 0 -272.62685551287541 -59.123494914556431 0 0 0 0 -0.52333811410417463 -1.2016404911737606 0 -1.2016404911737606 4.3326174483475626 0 0 0 0 -183.40293787458381 64.666413349343202 0 64.666413349343202 325.72007412086896 0 0 0 0 440.09957507755757 -286.04320682846537 0 -286.04320682846537 94.064581054564769 0 0 0 0 121.92425323669931 -7.312598795084341 0 -7.312598795084341 50.866031889934675 0 0 0 0 107.55922260069178 117.47319883070122 0 117.47319883070122 -35.52514847616294 0 0 0 0 89.622341850765224 132.88576072985688 0 132.88576072985688 205.42442863835458 0 0 0 0 75.8661446353766 37.329347180770128 0 37.329347180770128 59.594212674957816 0 0 0 0 33.426555806616307 -56.276382977401227 0 -56.276382977401227 -54.133899029777922 0 0 0 0 -45.231432412159108 -201.00467009783279 0 -201.00467009783279 -68.507899494774392 0 0 0 0 -1.2770038608229597 -1.2894198843662128 0 -1.2894198843662128 11.7900190317241 0 0 0 0 -164.45026048342652 29.802191925070929 0 29.802191925070929 95.730864456458221 0 0 0 0 2.4298775489626223 -54.954789126386459 0 -54.954789126386459 6.210055569299584 0 0 0 0 160.14275378630191 22.51838766342189 0 22.51838766342189 32.699882949102175 0 0 0 0 0.32481619719084165 -52.728133263308337 0 -52.728133263308337 261.22924056353077 0 0 0 0 -43.788228076065366 -61.488728320134214 0 -61.488728320134214 110.11086179654376 0 0 0 0 -430.25108450015023 129.35215094153182 0 129.35215094153182 1325.3523101663377 0 0 0 0 -1.0467332747321565 0.10327537538844567 0 0.10327537538844567 15.709109719048627 0 0 0 0 78.153479007942224 -126.27847808768274 0 -126.27847808768274 82.72688630189441 0 0 0 0 -21.377949761468017 -100.52034023395936 0 -100.52034023395936 112.50170049853841 0 0 0 0 2.41836369688491 -1.8378054509572905 0 -1.8378054509572905 -2.3488056894558795 0 0 0 0 45.124214161826785 212.39081551865638 0 212.39081551865638 436.74336203611892 0 0 0 0 -5.6076488731405334 -192.70880865047729 0 -192.70880865047729 -39.516351510359527 0 0 0 0 -15.85081315262596 -181.02572135827722 0 -181.02572135827722 133.58287740671949 0 0 0 0 173.29738981704077 -69.708519654161137 0 -69.708519654161137 89.488973998475558 0 0 0 0 -39.885968573409173 25.312174870237868 0 25.312174870237868 93.596454750961129 0 0 0 0 -12.654486772357359 -76.091987920130123 0 -76.091987920130123 353.68061837252844 0 0 0 0 -53.179356272125688 -95.63391631330569 0 -95.63391631330569 54.326649742906739 0 0 0 0 15.279659515329058 37.230222884620161 0 37.230222884620161 78.535016450412513 0 0 0 0 66.213974403144221 -1.7771063906275231 0 -1.7771063906275231 87.093538425632971 0 0 0 0 111.39655460185395 28.218911451596796 0 28.218911451596796 16.353427491201728 0 0 0 0 103.10083545392808 79.52673732267067 0 79.52673732267067 21.61603618800109 0 0 0 0 24.960739413451051 54.925312079389187 0 54.925312079389187 186.26646908788825 0 0 0 0 -102.1371850298533 35.13780649868022 0 35.13780649868022 99.349682842625043 0 0 0 0 -241.45606471042811 -76.894656468473841 0 -76.894656468473841 134.61665971264119 0 0 0 0 -3.6769596173335231 -17.524742974866967 0 -17.524742974866967 66.697282852437638 0 0 0 0 -711.15802271307598 -21.602125400221666 0 -21.602125400221666 493.45611304587874 0 0 0 0 -1.9063713846979642 -13.147631016716209 0 -13.147631016716209 117.71241068772215 0 0 0 0 90.559187894556999 -113.0084973533726 0 -113.0084973533726 18.00910924919117 0 0 0 0 665.27411302519999 374.72830434024854 0 374.72830434024854 9.834883266752513 0 0 0 0 -25.809244145224739 -221.50224352659916 0 -221.50224352659916 251.55383580472881 0 0 0 0 0.14733243013752273 0.47830171063081428 0 0.47830171063081428 10.715062330359757 0 0 0 0 153.46596277226035 -649.77512569353348 0 -649.77512569353348 122.04380294389603 0 0 0 0 -187.85516450313526 575.94585450065188 0 575.94585450065188 546.0452115485914 0 0 0 0 -9.8110169296564891 -127.649975169762 0 -127.649975169762 238.27203044277849 0 0 0 0 -1.6349257250403753 -116.97227114124235 0 -116.97227114124235 252.02103184396037 0 0 0 0 -27.099618164009371 -114.47001551340509 0 -114.47001551340509 283.92434686155957 0 0 0 0 62.053101001007235 -130.53913245137846 0 -130.53913245137846 44.267705398693579 0 0 0 0 -9.1258652688893562 -93.397029656039194 0 -93.397029656039194 271.18668283118041 0 0 0 0 228.1756908381285 217.65125112528222 0 217.65125112528222 357.70277422267191 0 0 0 0 -57.503716169843756 -50.752127783445758 0 -50.752127783445758 608.11249271829911 0 0 0 0 8.3016462399000375 -84.410034238176195 0 -84.410034238176195 263.16939970613566 0 0 0 0 109.24452991236592 30.152568380688024 0 30.152568380688024 91.110197568375952 0 0 0 0 110.35929320276176 19.411877524934084 0 19.411877524934084 69.011223321336729 0 0 0 0 107.61532569476003 -19.767053445795682 0 -19.767053445795682 14.354961486496904 0 0 0 0 131.38457845205266 18.360062048659529 0 18.360062048659529 65.405608191174906 0 0 0 0 50.179954561075647 -68.707690616030959 0 -68.707690616030959 94.533463092740931 0 0 0 0 7.835340281368449 15.563210812252372 0 15.563210812252372 20.758250743784032 0 0 0 0 -50.268655328973182 177.09143001189295 0 177.09143001189295 -88.714827565750966 0 0 0 0 103.00502963888283 4.2867662554456274 0 4.2867662554456274 81.904144228226869 0 0 0 0 -0.88211918236161058 -16.766243860043105 0 -16.766243860043105 126.50414492792649 0 0 0 0 -237.97544716044058 -91.600229302339358 0 -91.600229302339358 248.35725473696948 0 0 0 0 -565.1314410335076 -402.18798827868068 0 -402.18798827868068 278.40654989021459 0 0 0 0 494.85114390010949 -8.3939093436620169 0 -8.3939093436620169 -31.844320236759813 0 0 0 0 -18.516113938764647 -100.56272994490246 0 -100.56272994490246 41.898694788472312 0 0 0 0 -99.380023279343959 17.909945554820297 0 17.909945554820297 -35.279737226439465 0 0 0 0 14.194071408013372 -113.84053256428604 0 -113.84053256428604 -118.41238469910604 0 0 0 0 149.53944606907226 -64.313062964566598 0 -64.313062964566598 -75.995421042731323 0 0 0 0 35.2958846908532 -119.32927826247578 0 -119.32927826247578 -14.632454011260052 0 0 0 0 15.192872145524234 -92.281695303332526 0 -92.281695303332526 33.268694370230151 0 0 0 0 58.574581501615754 -4.9046945918893812 0 -4.9046945918893812 77.731266936814791 0 0 0 0 -85.082601058440105 77.300544180230645 0 77.300544180230645 234.51173859596929 0 0 0 0 -78.464376403619099 -26.414696436002487 0 -26.414696436002487 102.38261453504492 0 0 0 0 4.2006793239767415 1.850657372539942 0 1.850657372539942 22.523712302609241 0 0 0 0 -49.200577263643027 -54.011814043113191 0 -54.011814043113191 105.86098371246771 0 0 0 0 3.2422854821625777 -20.347811276563405 0 -20.347811276563405 122.04824787217298 0 0 0 0 -88.50162481917323 -148.81546289205926 0 -148.81546289205926 38.138302948018463 0 0 0 0 -24.626910433534931 -132.13277631387791 0 -132.13277631387791 56.955832194507821 0 0 0 0 71.252947984669845 19.461397104025309 0 19.461397104025309 136.54956398072682 0 0 0 0 63.925770253470887 -78.14759000864899 0 -78.14759000864899 78.801933191025455 0 0 0 0 4.9805218625261327 -0.67647800314982298 0 -0.67647800314982298 49.153350209087243 0 0 0 0 -20.448611495876321 -2.3576516922057635 0 -2.3576516922057635 80.379656992157834 0 0 0 0 -37.144322689727687 -3.8960100384175576 0 -3.8960100384175576 68.818620917912995 0 0 0 0 -8.9264330220170081 -10.465859919782876 0 -10.465859919782876 84.771393384344492 0 0 0 0 -13.867836180299491 -4.5973423090867982 0 -4.5973423090867982 77.07193533669215 0 0 0 0 21.221549379511998 -54.522847663720313 0 -54.522847663720313 -58.003465453541139 0 0 0 0 3.5258278290433633 5.5106331010968992 0 5.5106331010968992 108.39627985608722 0 0 0 0 -8.7457694732966669 -25.459870646694139 0 -25.459870646694139 90.830644155642716 0 0 0 0 -2.2855174803528904 -12.653731209454834 0 -12.653731209454834 66.040714833486192 0 0 0 0 -6.7524207274254877 -2.5224767299828272 0 -2.5224767299828272 71.35505776138416 0 0 0 0 -16.64735951105331 0.6269359468303719 0 0.6269359468303719 86.391712182181436 0 0 0 0 -72.17395943738029 -5.0105186310447607 0 -5.0105186310447607 111.87615764174552 0 0 0 0 5.2387664114630752 1.1779078471386129 0 1.1779078471386129 111.28371400368633 0 0 0 0 1.323558968364523 50.884877476783004 0 50.884877476783004 -123.6466965923255 0 0 0 0 -192.28932523316325 77.843286990038905 0 77.843286990038905 300.1986991161175 0 0 0 0 -14.888137112313416 149.8857235418709 0 149.8857235418709 132.57453838493529 0 0 0 0 2.369431379338323 0.0032258545704522135 0 0.0032258545704522135 0.28006848112110916 0 0 0 0 -19.548547428186794 135.8403901055608 0 135.8403901055608 176.95517785544871 0 0 0 0 110.68710016121258 106.46476899498157 0 106.46476899498157 57.739849186636093 0 0 0 0 -9.7855437331472785 114.61061444635925 0 114.61061444635925 57.199929397320375 0 0 0 0 -157.52546289662496 -66.461614075276884 0 -66.461614075276884 36.103479575234815 0 0 0 0 15.025690115711768 156.23713072437386 0 156.23713072437386 234.0349395852827 0 0 0 0 38.040253243849293 -114.57124646314514 0 -114.57124646314514 55.738604642076098 0 0 0 0 8.0740033415462733 10.859726796217913 0 10.859726796217913 36.393864978166832 0 0 0 0 -267.20158040757997 -77.234305390802547 0 -77.234305390802547 242.73579210354364 0 0 0 0 -73.768008126571658 -48.055417374882381 0 -48.055417374882381 -20.839629357797094 0 0 0 0 -7.648903971654363 -26.873105819015109 0 -26.873105819015109 -45.249264133217366 0 0 0 0 -1.4279057645266584 -12.986781577981194 0 -12.986781577981194 1.6985128957934847 0 0 0 0 -183.01123695806268 -34.060554068274087 0 -34.060554068274087 66.789137776140706 0 0 0 0 -3.2197985627214578 3.3104524061068616 0 3.3104524061068616 12.669935793925056 0 0 0 0 -86.824485079471742 69.103571955783991 0 69.103571955783991 26.581700743823603 0 0 0 0 -287.33498338948084 -146.21052390815021 0 -146.21052390815021 -15.749647647146048 0 0 0 0 -310.18377989366911 107.97767848781609 0 107.97767848781609 134.32798696491955 0 0 0 0 12.987964748321247 16.781977188566088 0 16.781977188566088 -70.52112360368119 0 0 0 0 -61.142634054125665 64.818524703739968 0 64.818524703739968 83.572831581661376 0 0 0 0 -79.798237040170079 173.5505442056874 0 173.5505442056874 135.42189706842328 0 0 0 0 401.19271959893172 -430.0342255824055 0 -430.0342255824055 346.98933848143497 0 0 0 0 -56.090078630736116 94.208288493936379 0 94.208288493936379 251.23515972225869 0 0 0 0 98.421692722578882 22.752419640582957 0 22.752419640582957 144.9400569739264 0 0 0 0 45.073507640627213 -119.05931306183629 0 -119.05931306183629 248.62549763597417 0 0 0 0 2.7123955910888071 -201.63412991260975 0 -201.63412991260975 681.36451739109907 0 0 0 0 80.540310170239536 192.5903429161699 0 192.5903429161699 148.38564514501559 0 0 0 0 111.47327214005963 -208.61074870609627 0 -208.61074870609627 129.33484732875877 0 0 0 0 -195.81998082449445 -140.1105533441596 0 -140.1105533441596 148.06333847043425 0 0 0 0 346.40534446589413 -118.41032429858979 0 -118.41032429858979 62.133162570142304 0 0 0 0 37.982285658317778 -69.846630715128413 0 -69.846630715128413 189.41074440470766 0 0 0 0 -104.71021873354402 -196.62441621688231 0 -196.62441621688231 130.31361364502118 0 0 0 0 -201.43226680986481 45.525250659075482 0 45.525250659075482 101.72327586440224 0 0 0 0 -2.2946746443443939 0.96998663616088088 0 0.96998663616088088 61.58540166038344 0 0 0 0 -129.78698124458151 -51.780596547630921 0 -51.780596547630921 144.33048171793052 0 0 0 0 0.19254309873643716 -7.6955671394381682 0 -7.6955671394381682 55.586919876943327 0 0 0 0 -16.750327544442371 -68.542383296887238 0 -68.542383296887238 92.409566059730423 0 0 0 0 35.835505104467302 -7.5122296370536787 0 -7.5122296370536787 75.597010017016146 0 0 0 0 -219.38544333396021 20.057211648132579 0 20.057211648132579 48.178254096943419 0 0 0 0 0.25341893028880946 3.504382548656146 0 3.504382548656146 10.091058098917841 0 0 0 0 -41.558536335860481 -4.3277814470256999 0 -4.3277814470256999 43.922147724173556 0 0 0 0 -2.7952619324607522 13.764400174908776 0 13.764400174908776 54.675340555547898 0 0 0 0 14.164197542517286 5.6547320162990218 0 5.6547320162990218 60.750703181337485 0 0 0 0 9.7133079115419605 -0.2487142420714008 0 -0.2487142420714008 58.47794426094697 0 0 0 0 1.2402989032846135 -0.60324196298632415 0 -0.60324196298632415 58.755773596389162 0 0 0 0 -34.804055236303611 -18.337979092626483 0 -18.337979092626483 53.074591061826709 0 0 0 0 -15.42588263516609 14.267055180763691 0 14.267055180763691 44.039620986990485 0 0 0 0 6.0563648397828729 -3.0282403315868578 0 -3.0282403315868578 87.221532674091577 0 0 0 0 15.299938442543919 -22.127448885680622 0 -22.127448885680622 72.163881533888343 0 0 0 0 10.343469019949225 9.6357796858555957 0 9.6357796858555957 76.729329083877019 0 0 0 0 -0.59985094894706559 -12.5164796605017 0 -12.5164796605017 59.480753067866765 0 0 0 0 8.638179402930291 -4.8967921962121181 0 -4.8967921962121181 69.356028035790587 0 0 0 0 -128.34558352967724 127.59536120164739 0 127.59536120164739 84.784066493382852 0 0 0 0 12.270756696162152 -4.9272802867326391 0 -4.9272802867326391 57.787055216440422 0 0 0 0 -7.6560429260657354 16.824776116548566 0 16.824776116548566 39.690002716804429 0 0 0 0 -75.30197678541299 8.9523113448176446 0 8.9523113448176446 88.883243111004333 0 0 0 0 -54.489508998983126 33.118429010960881 0 33.118429010960881 50.886805291691417 0 0 0 0 54.337400732308424 79.646298639369888 0 79.646298639369888 68.118316536994826 0 0 0 0 128.91691107865961 -11.820216074673226 0 -11.820216074673226 124.41569724293367 0 0 0 0 74.767879399619687 157.13999041632269 0 157.13999041632269 137.62204873605151 0 0 0 0 -87.286989209707144 -1.8731512605863827 0 -1.8731512605863827 333.25207265762583 0 0 0 0 -10.10734522254694 -91.743122045501877 0 -91.743122045501877 235.01468006918367 0 0 0 0 -24.631988142442083 -121.18944959563123 0 -121.18944959563123 644.86614633942281 0 0 0 0 313.97448789967831 -309.70555340713099 0 -309.70555340713099 248.28485512503903 0 0 0 0 45.199620618335757 -76.825988213344317 0 -76.825988213344317 65.149616472153866 0 0 0 0 48.772707352543534 -182.5976932810122 0 -182.5976932810122 116.60494866235967 0 0 0 0 -56.155499694853916 -53.760860651296753 0 -53.760860651296753 205.94002722939695 0 0 0 0 -64.399295130723885 -74.891742849451475 0 -74.891742849451475 152.18851126082518 0 0 0 0 -83.558293571039485 1.6687915898328356 0 1.6687915898328356 39.644967589203588 0 0 0 0 -96.454987305194891 38.761090644891738 0 38.761090644891738 154.0538014393569 0 0 0 0 4.7569170056895018 -3.408386816008715 0 -3.408386816008715 17.436457499687094 0 0 0 0 6.9505001002727482 -1.969340181653024 0 -1.969340181653024 6.0329144195275148 0 0 0 0 -67.784699447026696 -53.012194047798403 0 -53.012194047798403 -19.030230431788368 0 0 0 0 -64.526594513982786 -89.22483369881229 0 -89.22483369881229 -50.715531141031533 0 0 0 0 -0.37927019800834971 -1.7068632836364088 0 -1.7068632836364088 2.8369796447584008 0 0 0 0 -34.16057790521495 3.0392272395256441 0 3.0392272395256441 11.103488675667904 0 0 0 0 -22.995932944010235 -45.591897388410871 0 -45.591897388410871 -47.618756423675222 0 0 0 0 3.8231111990952016 -6.8320443647339886 0 -6.8320443647339886 9.5573359172477126 0 0 0 0 -9.3690587647855779 -3.2635841691808309 0 -3.2635841691808309 20.460859390441328 0 0 0 0 -4.1691738319988216 1.8113657339839619 0 1.8113657339839619 13.491672987521781 0 0 0 0 -1.4297360648978863 -0.93970776678179391 0 -0.93970776678179391 18.404774617876683 0 0 0 0 -0.12407934559293191 -14.419706593056617 0 -14.419706593056617 4.4714585489709862 0 0 0 0 -2.7834192673211016 1.1016765975692095 0 1.1016765975692095 3.4178718557226944 0 0 0 0 12.585680404189361 -13.206279566242301 0 -13.206279566242301 15.430187759822729 0 0 0 0 10.361806238740201 -2.989279846799036 0 -2.989279846799036 11.683035482143168 0 0 0 0 -12.716426447332537 13.482463941581955 0 13.482463941581955 12.313452539994614 0 0 0 0 -3.2309367526514947 -0.79839551575854983 0 -0.79839551575854983 12.740896633935051 0 0 0 0 -0.59987367940692593 -8.0880174698977498 0 -8.0880174698977498 12.474052672609105 0 0 0 0 28.446155368944517 19.967864001035196 0 19.967864001035196 -35.471645706958952 0 0 0 0 -78.525814882194368 80.054369684636185 0 80.054369684636185 22.9050780349462 0 0 0 0 3.5513104401625242 -9.3325057926776935 0 -9.3325057926776935 -32.938865457203065 0 0 0 0 -2.5449720490161063 -3.3090614766343833 0 -3.3090614766343833 12.768285909696431 0 0 0 0 -135.17640719035853 79.441509494987258 0 79.441509494987258 111.33296415965015 0 0 0 0 56.45774105570348 -230.89927664728748 0 -230.89927664728748 314.88863258493075 0 0 0 0 69.381024588400408 114.69626527372384 0 114.69626527372384 189.30365434508712 0 0 0 0 -39.66934186084768 -44.248396241717273 0 -44.248396241717273 24.276608126194333 0 0 0 0 280.95363236616754 -170.666744412767 0 -170.666744412767 -85.933707473057439 0 0 0 0 -102.63926373510935 -125.84046116095851 0 -125.84046116095851 17.247766362910625 0 0 0 0 7.1547384278578647 7.184584163420368 0 7.184584163420368 174.34900718881909 0 0 0 0 4.2293420895105447 -6.87826869142026 0 -6.87826869142026 9.6430122828401181 0 0 0 0 3.1876975143754862 78.237410849127627 0 78.237410849127627 169.22805396082549 0 0 0 0 -27.023563830136482 122.37131747986132 0 122.37131747986132 105.78191505544237 0 0 0 0 0.98297864357527498 -2.3411717590022221 0 -2.3411717590022221 2.4299795907537032 0 0 0 0 -3.3606670129806844 0.43009961500501959 0 0.43009961500501959 10.423464280589542 0 0 0 0 -91.401369592469308 -84.563657858276201 0 -84.563657858276201 25.627233597071609 0 0 0 0 1.655029392568417 -3.4228400505884906 0 -3.4228400505884906 7.7989066958405147 0 0 0 0 -67.210659981823952 20.305451939802879 0 20.305451939802879 238.32500943164632 0 0 0 0 0.28696367604308848 -89.472021331966971 0 -89.472021331966971 -0.12803336362776463 0 0 0 0 0.0098963333670582399 -15.546522808643203 0 -15.546522808643203 -13.286061019578483 0 0 0 0 0.055739644641007252 -0.45352664032903078 0 -0.45352664032903078 1.3023613029059504 0 0 0 0 13.930948080956988 180.33500383446108 0 180.33500383446108 216.67399665537232 0 0 0 0 -3.6594071126529535 21.635349519943702 0 21.635349519943702 58.818751482947846 0 0 0 0 5.3402508612599604 -40.869199843749811 0 -40.869199843749811 74.394771483526711 0 0 0 0 2.7128205652192516 -22.348771185824262 0 -22.348771185824262 0.010868838377064094 0 0 0 0 0.56787004165018584 -1.507416681533897 0 -1.507416681533897 2.3896272688426734 0 0 0 0 4.793344503467722 -34.121760864982207 0 -34.121760864982207 184.51828766870312 0 0 0 0 -8.622066174792252 59.909784722658515 0 59.909784722658515 105.10009305481071 0 0 0 0 0.0079646845718775953 -18.193714480672497 0 -18.193714480672497 100.64542657575294 0 0 0 0 -23.557344118566526 3.3828222211523098 0 3.3828222211523098 184.53394004586153 0 0 0 0 18.533319528155381 2.3324416415343876 0 2.3324416415343876 182.87847362716093 0 0 0 0 18.98075088575208 1.2255306725710398 0 1.2255306725710398 161.61398154139169 0 0 0 0 -0.053754865532510819 -21.84914977711324 0 -21.84914977711324 227.13525896573265 0 0 0 0 172.52182156242671 -160.91687071899469 0 -160.91687071899469 190.09479898959398 0 0 0 0 0.042573681759238327 0.21773591962288918 0 0.21773591962288918 4.2451687576705126 0 0 0 0 -54.489457313866012 -25.399828170826368 0 -25.399828170826368 494.18725650522538 0 0 0 0 78.500351262951597 157.96164532790499 0 157.96164532790499 52.09110125566076 0 0 0 0 66.539904519468749 103.43253755423211 0 103.43253755423211 319.33564455103215 0 0 0 0 64.566258543567159 -11.500235874467762 0 -11.500235874467762 165.09929167664814 0 0 0 0 193.41341374425335 -129.16333178871355 0 -129.16333178871355 209.35914250204223 0 0 0 0 315.10903550035209 3.1129791769635631 0 3.1129791769635631 -267.96014454774559 0 0 0 0 -0.44741033212204201 0.056132487906189965 0 0.056132487906189965 8.6818933206131987 0 0 0 0 85.732866132695136 -313.32649528970796 0 -313.32649528970796 164.03863310613815 0 0 0 0 75.757372263815597 -294.2850924543709 0 -294.2850924543709 293.28157003680826 0 0 0 0 -52.133693475693264 251.01434029903248 0 251.01434029903248 477.01758648743271 0 0 0 0 99.049260010325895 -307.39553538004111 0 -307.39553538004111 12.879285351518774 0 0 0 0 3.9705096317480297 -19.541659968250315 0 -19.541659968250315 209.29047370247224 0 0 0 0 0.56690920819719803 -0.98349575804226674 0 -0.98349575804226674 1.1758872699625726 0 0 0 0 -92.423884493037576 83.996031725939247 0 83.996031725939247 155.4683258460409 0 0 0 0 110.26358015870767 207.66064966088743 0 207.66064966088743 64.821349090372678 0 0 0 0 98.453297805594957 -17.91744425779325 0 -17.91744425779325 -103.79671183243045 0 0 0 0 106.57129236378745 244.97620212245647 0 244.97620212245647 311.98291400782182 0 0 0 0 412.90970748641456 -234.86386729128981 0 -234.86386729128981 -279.36086161647108 0 0 0 0 82.353869017270625 -17.027841699042256 0 -17.027841699042256 469.51431582521764 0 0 0 0 2.8762520817812161 -2.5035465316947807 0 -2.5035465316947807 2.4463673776108408 0 0 0 0 406.11387554100429 -109.79578453655995 0 -109.79578453655995 -164.40707172953989 0 0 0 0 243.68998710440167 -284.87371397660172 0 -284.87371397660172 -170.0403598183475 0 0 0 0 10.499181975623742 -8.3682932721058023 0 -8.3682932721058023 -2.2184192045024247 0 0 0 0 10.880298187207131 -44.958001813785813 0 -44.958001813785813 10.770763322325365 0 0 0 0 -37.163029288208691 -41.481280134605186 0 -41.481280134605186 66.443389828462387 0 0 0 0 19.605090126380674 30.503280055439973 0 30.503280055439973 130.35203076992184 0 0 0 0 15.980738456571999 -71.524111807078953 0 -71.524111807078953 82.933074227679754 0 0 0 0 -18.518925205014057 90.717404803493991 0 90.717404803493991 114.81197184258781 0 0 0 0 0.10638114384321273 0.19743574764899563 0 0.19743574764899563 -0.33156823089666432 0 0 0 0 6.9055018113196525 -37.737324417634227 0 -37.737324417634227 -1.8649941340263467 0 0 0 0 12.162858602691017 -50.803859982945141 0 -50.803859982945141 -17.318050468631554 0 0 0 0 9.7366608755587549 -19.069930387260683 0 -19.069930387260683 -19.97941369542059 0 0 0 0 8.0626234213265207 -21.196353088627802 0 -21.196353088627802 27.345480857373332 0 0 0 0 101.8240185809758 -54.748890229508106 0 -54.748890229508106 36.994794554932014 0 0 0 0 -9.874594720016546 -89.91613552729541 0 -89.91613552729541 231.71518603211734 0 0 0 0 -17.762335638007698 -126.03096616056428 0 -126.03096616056428 -85.374537317984505 0 0 0 0 -69.23959789781793 -90.119821853713802 0 -90.119821853713802 80.325926159319351 0 0 0 0 -3.4533663739327949 -52.259277943958296 0 -52.259277943958296 37.189937838280457 0 0 0 0 -31.023017957401862 -30.077230824714206 0 -30.077230824714206 117.66916613007197 0 0 0 0 -49.952114323595652 14.766055778454756 0 14.766055778454756 183.8979104149621 0 0 0 0 -41.579847660538235 8.1009529148286674 0 8.1009529148286674 189.15623200662958 0 0 0 0 -63.426745674361825 48.565046859504946 0 48.565046859504946 245.56504592551209 0 0 0 0 -31.361664325912017 41.906529049274468 0 41.906529049274468 229.75037704138958 0 0 0 0 -46.827385420060637 -36.034925239662698 0 -36.034925239662698 108.53914031121531 0 0 0 0 -10.71045463407745 -3.3129832127815462 0 -3.3129832127815462 108.9819797037344 0 0 0 0 -49.900434340116135 6.4943831462078379 0 6.4943831462078379 183.98405392130371 0 0 0 0 -56.323469235050652 -17.027482187862915 0 -17.027482187862915 133.96554481826024 0 0 0 0 -77.941868406127924 -7.5253725584334461 0 -7.5253725584334461 208.40658259998645 0 0 0 0 -78.137937246532147 -12.017839003470726 0 -12.017839003470726 132.88739461164369 0 0 0 0 -59.517696944062209 36.296054209873546 0 36.296054209873546 46.266720113591873 0 0 0 0 -80.929837318690261 -97.839267675910378 0 -97.839267675910378 80.480125158837836 0 0 0 0 -9.9403058415637133 -14.916869780157867 0 -14.916869780157867 39.898526963792392 0 0 0 0 -19.232106504876811 -60.082248703402001 0 -60.082248703402001 -78.684867556963582 0 0 0 0 -52.805758732470622 -6.9829511518910294 0 -6.9829511518910294 90.965645048195256 0 0 0 0 -0.57974605689701431 -0.048584913974138999 0 -0.048584913974138999 0.4691993162212782 0 0 0 0 -74.689205482151465 -7.193875975033734 0 -7.193875975033734 10.671621009953924 0 0 0 0 -0.68502767259254504 -0.2723196853185641 0 -0.2723196853185641 3.0891795212505215 0 0 0 0 -0.67446711005378202 -0.01434281273090221 0 -0.01434281273090221 2.0115867641446243 0 0 0 0 9.4627803787369658 42.949480913035586 0 42.949480913035586 91.182352709234692 0 0 0 0 10.136813575638456 34.8135158109435 0 34.8135158109435 85.263864071952412 0 0 0 0 74.466350607976892 56.023684372292337 0 56.023684372292337 -90.913920047314605 0 0 0 0 -74.532375732364017 -11.383124337393383 0 -11.383124337393383 64.214810859615682 0 0 0 0 -32.589881993371108 -85.055132264218173 0 -85.055132264218173 -36.835237302235328 0 0 0 0 45.655299871379157 108.88238669258135 0 108.88238669258135 199.34151888184715 0 0 0 0 0.97632896251206525 -0.24429934176453116 0 -0.24429934176453116 -0.5578863589997809 0 0 0 0 8.589421605222924 36.717196680074267 0 36.717196680074267 92.30583806370305 0 0 0 0 4.0677370169923961 42.075310936495953 0 42.075310936495953 98.895445991627639 0 0 0 0 -17.610436521454176 27.041482674008876 0 27.041482674008876 91.047084133009776 0 0 0 0 -16.306499714192455 -22.97629172422603 0 -22.97629172422603 99.984883318451466 0 0 0 0 -32.694656753258641 31.545726203410595 0 31.545726203410595 127.87515858534243 0 0 0 0 -19.312580879286543 -56.565416827204899 0 -56.565416827204899 132.74645860217743 0 0 0 0 -2.9748732242562141 14.021715318058341 0 14.021715318058341 126.24068542156601 0 0 0 0 5.3052798393832745 -8.3306814662428224 0 -8.3306814662428224 163.83182700700854 0 0 0 0 4.12748424653455 10.208940212309244 0 10.208940212309244 147.54583930543595 0 0 0 0 -28.364316370994743 29.377060835780867 0 29.377060835780867 256.88207743924431 0 0 0 0 238.25205806937379 -321.34937006388282 0 -321.34937006388282 -4.3128521458856994 0 0 0 0 -6.9912349205436612 59.534623409956112 0 59.534623409956112 116.11960973445093 0 0 0 0 -0.46654857732048916 -0.97531894945265662 0 -0.97531894945265662 4.8076880753002342 0 0 0 0 53.310930647180498 -120.16518356034794 0 -120.16518356034794 209.65316686094047 0 0 0 0 179.74634697045957 -55.605428267092066 0 -55.605428267092066 5.3807509093894623 0 0 0 0 25.701844744473362 -6.4935777615610277 0 -6.4935777615610277 -17.200323196215322 0 0 0 0 28.685582408272239 1.4763702064010431 0 1.4763702064010431 -0.90086450454418809 0 0 0 0 62.94440240686049 -29.62266866369464 0 -29.62266866369464 -19.382702896327828 0 0 0 0 14.525759371528238 -69.571315502435027 0 -69.571315502435027 44.749516600561947 0 0 0 0 -16.491894919008928 -60.776083890026712 0 -60.776083890026712 53.086916181462584 0 0 0 0 29.570674506267324 -57.599629852145881 0 -57.599629852145881 45.997982590510219 0 0 0 0 -16.616219281369922 -20.643818272073986 0 -20.643818272073986 53.215966698535908 0 0 0 0 1.7189589345077083 -12.383834884314211 0 -12.383834884314211 58.01819730865833 0 0 0 0 -95.716366677447468 -72.202054481396772 0 -72.202054481396772 75.660573474946432 0 0 0 0 -55.906115755293285 -34.101963256718591 0 -34.101963256718591 38.518170255290897 0 0 0 0 -14.745809772324037 -20.181699775228481 0 -20.181699775228481 49.508496096445015 0 0 0 0 0.61507470390354246 -16.399076056646649 0 -16.399076056646649 50.331056892222989 0 0 0 0 -40.676098705547247 -63.852377195791632 0 -63.852377195791632 44.501423570775842 0 0 0 0 -7.2829427932974795 -13.863252883063979 0 -13.863252883063979 52.976615070916068 0 0 0 0 -1.0809238855439034 -0.80934697559355584 0 -0.80934697559355584 5.8459175110415345 0 0 0 0 -2.9732834493658586 -17.529273901845357 0 -17.529273901845357 40.604859112603549 0 0 0 0 -47.275111786724665 -40.5304248068569 0 -40.5304248068569 23.523813367995899 0 0 0 0 -32.36321622082869 -32.847500765652512 0 -32.847500765652512 22.603565809200518 0 0 0 0 -59.758080263677584 -31.831068091356428 0 -31.831068091356428 36.582378194201738 0 0 0 0 -24.188734620140167 -9.1826049025257817 0 -9.1826049025257817 40.675404885580065 0 0 0 0 -21.814042598558444 -13.097416649499792 0 -13.097416649499792 46.503560126730008 0 0 0 0 -37.15674273631339 -22.170587509666802 0 -22.170587509666802 35.673763387268991 0 0 0 0 -18.02035700196484 7.1092988724994939 0 7.1092988724994939 17.32568235474173 0 0 0 0 -68.275138666615931 -5.6901305331339245 0 -5.6901305331339245 34.001505144638941 0 0 0 0 -51.814582928614982 16.682077760793618 0 16.682077760793618 16.564374736590253 0 0 0 0 1.1061515404671809 -9.3682118210272165 0 -9.3682118210272165 51.370984093585321 0 0 0 0 -2.223020170433756 -16.437981324354041 0 -16.437981324354041 37.210870290145976 0 0 0 0 -7.7663405676557886 -3.5306738623476122 0 -3.5306738623476122 35.464168525964851 0 0 0 0 -3.0173238575093819 -13.050072544687282 0 -13.050072544687282 53.414220446225954 0 0 0 0 2.996034293696539 -17.674710425751982 0 -17.674710425751982 23.584544336627005 0 0 0 0 23.384183492511511 -52.32256388796668 0 -52.32256388796668 25.189176693595073 0 0 0 0 6.0943950954706452 -24.453467898754752 0 -24.453467898754752 56.150531643987051 0 0 0 0 5.6007586189023186 -26.953521645456931 0 -26.953521645456931 52.058428912205272 0 0 0 0 -16.470588850368358 -24.00222158172528 0 -24.00222158172528 58.426881605351809 0 0 0 0 -7.2641700724225302 -59.946889590100909 0 -59.946889590100909 107.37779101617343 0 0 0 0 35.090011314657204 -77.228813885842101 0 -77.228813885842101 64.155196215346223 0 0 0 0 -10.416225745442262 -45.91260931337456 0 -45.91260931337456 81.404549856291851 0 0 0 0 1.3810921906444733 -5.0260898617118244 0 -5.0260898617118244 -3.9574074374640134 0 0 0 0 -55.55288211370862 -8.1572374256138573 0 -8.1572374256138573 88.118410432984092 0 0 0 0 7.0089069429468509 -13.446199668011104 0 -13.446199668011104 49.111589985113824 0 0 0 0 -15.345678675980707 18.004199915831123 0 18.004199915831123 8.9987564625917003 0 0 0 0 -50.028176621239254 -119.96685510170209 0 -119.96685510170209 84.229875504577649 0 0 0 0 -0.60597735902234717 -13.922109658975202 0 -13.922109658975202 54.225203372418633 0 0 0 0 46.572722047340903 -21.248702930628497 0 -21.248702930628497 -71.174316146745696 0 0 0 0 -4.3662822146914095 -13.303793125755156 0 -13.303793125755156 59.535030450861086 0 0 0 0 -4.3710963471038911 -10.585575210867624 0 -10.585575210867624 57.221479345724219 0 0 0 0 47.812869930960915 -56.713112756428018 0 -56.713112756428018 32.248935311508831 0 0 0 0 -1.8524365852893965 2.9322662293413018 0 2.9322662293413018 7.220398172354237 0 0 0 0 8.3589114100229835 -47.256000386201777 0 -47.256000386201777 115.87020394558203 0 0 0 0 1.0221495864029997 -19.888467107939078 0 -19.888467107939078 53.379866929542828 0 0 0 0 30.538730576600756 -23.805528777578729 0 -23.805528777578729 -4.3101593597348256 0 0 0 0 2.1784069057202942 1.5278867123488453 0 1.5278867123488453 74.419157385636936 0 0 0 0 -13.042275842948129 -26.928573907800455 0 -26.928573907800455 40.158934057602892 0 0 0 0 6.0935156324367199 122.81129892050376 0 122.81129892050376 -20.92374394836952 0 0 0 0 -5.7046379654466257 4.4390828964183555 0 4.4390828964183555 15.389104315150746 0 0 0 0 30.888962469374292 -29.550568007565744 0 -29.550568007565744 24.292652359217755 0 0 0 0 -8.1227997814385162 -18.618627877702238 0 -18.618627877702238 43.704780488973483 0 0 0 0 -6.8342381234710956 -24.605776354535919 0 -24.605776354535919 55.50589385870262 0 0 0 0 3.0824808324532569 -44.225433638159302 0 -44.225433638159302 94.32210204699004 0 0 0 0 -12.903947172238531 -32.195143478038517 0 -32.195143478038517 60.859735929647286 0 0 0 0 -96.624980899071488 -30.28675457942154 0 -30.28675457942154 89.277284889220027 0 0 0 0 2.4556163136885072 -14.547630412361563 0 -14.547630412361563 60.431465296367321 0 0 0 0 -51.367644108933746 -37.873340631464089 0 -37.873340631464089 31.8854521448593 0 0 0 0 -55.211041383017346 -11.835367124949698 0 -11.835367124949698 107.6451729856999 0 0 0 0 -51.536210193248735 3.8394878334183886 0 3.8394878334183886 102.06774116655288 0 0 0 0 -15.226523388010719 22.77135479656863 0 22.77135479656863 86.508154071780154 0 0 0 0 -42.200562924367659 6.1498259167783544 0 6.1498259167783544 89.807220960741688 0 0 0 0 -28.803503308873587 -12.163261364119535 0 -12.163261364119535 60.154408082220471 0 0 0 0 -22.626561648696967 -5.1269413619949091 0 -5.1269413619949091 96.225534306446207 0 0 0 0 137.30343822991563 -47.871150994833442 0 -47.871150994833442 -236.08253546453489 0 0 0 0 -10.522339754049973 5.3541092483806665 0 5.3541092483806665 16.506411907706628 0 0 0 0 -8.3623042789613464 23.487429520799196 0 23.487429520799196 80.528556299861521 0 0 0 0 -8.7583707311855115 6.2562695542641507 0 6.2562695542641507 0.99259272935547571 0 0 0 0 -22.85611371871633 23.000038335522561 0 23.000038335522561 89.261287713277852 0 0 0 0 -230.00041484042276 -250.19904593357933 0 -250.19904593357933 337.1974883998555 0 0 0 0 -9.9767810003072555 318.14778997843678 0 318.14778997843678 -154.46699134260962 0 0 0 0 3.8879655029721181 -6.7055046049933367 0 -6.7055046049933367 9.0308033321174435 0 0 0 0 -27.951319943878389 20.019745503326703 0 20.019745503326703 21.894857807041262 0 0 0 0 182.76922031061332 -466.20297373815083 0 -466.20297373815083 412.54893460895983 0 0 0 0 103.83461557711644 320.12973891634465 0 320.12973891634465 401.95506189633443 0 0 0 0 3.1976750320061438 -2.7724148904012367 0 -2.7724148904012367 2.1339030740566329 0 0 0 0 -93.251854087220352 -166.53663522426268 0 -166.53663522426268 -208.77701778335904 0 0 0 0 4.4610841903695624 -3.702171300791008 0 -3.702171300791008 1.9285110921445039 0 0 0 0 106.82030436071318 31.742418199122767 0 31.742418199122767 -320.74617308836605 0 0 0 0 143.76634691857066 -16.054642252202029 0 -16.054642252202029 0.59853569815459196 0 0 0 0 0.097434691002460383 0.14097407557596853 0 0.14097407557596853 0.19435796122860438 0 0 0 0 -126.82177990170544 19.026469115378859 0 19.026469115378859 168.02085776161402 0 0 0 0 -1.7979030911631071 5.0543679893671651 0 5.0543679893671651 72.879258080811269 0 0 0 0 -16.986711953428653 8.6195494154599146 0 8.6195494154599146 73.111564226215705 0 0 0 0 -7.974837850555395 2.0051073033648592 0 2.0051073033648592 80.444013864935528 0 0 0 0 -12.580262704780857 20.557313026681868 0 20.557313026681868 52.602535334816864 0 0 0 0 118.46450888618929 33.11085231133643 0 33.11085231133643 43.194204890896799 0 0 0 0 -82.232146906115304 101.00148150198947 0 101.00148150198947 181.87105170085852 0 0 0 0 19.283744038538771 141.09070508296281 0 141.09070508296281 151.78092838154407 0 0 0 0 -213.67091982541183 -107.24786901319749 0 -107.24786901319749 235.63076078976155 0 0 0 0 -5.4010510662196793 -4.0620404509925478 0 -4.0620404509925478 65.748620927279376 0 0 0 0 -0.93325201478467079 6.7725406071294856 0 6.7725406071294856 73.778982064308366 0 0 0 0 -3.1715001261809448 7.6370548926897754 0 7.6370548926897754 86.424868556045112 0 0 0 0 3.6978917705460326 1.7653958135209962 0 1.7653958135209962 18.889772517033315 0 0 0 0 -1.5430796909349738 -11.148046934991726 0 -11.148046934991726 73.081699754009605 0 0 0 0 7.8823058102880168 -21.407052616224973 0 -21.407052616224973 55.19162707751093 0 0 0 0 1.9190362994015686 -14.668347837930924 0 -14.668347837930924 50.431931825005449 0 0 0 0 1.5434912290772598 -14.067608468486455 0 -14.067608468486455 64.188389676780901 0 0 0 0 -1.1785124254110997 -24.0255389373051 0 -24.0255389373051 32.837352926668245 0 0 0 0 0.0056036064447653189 -4.0657943647966022 0 -4.0657943647966022 40.695267923118081 0 0 0 0 6.9227332974319324 -16.7341407769527 0 -16.7341407769527 35.459855416236678 0 0 0 0 4.2404422274021272 -17.807786411096458 0 -17.807786411096458 22.036742355747265 0 0 0 0 -10.793453408249206 4.0369307433720678 0 4.0369307433720678 31.552188765857863 0 0 0 0 5.5621996887043679 -27.438670865885797 0 -27.438670865885797 34.391222936334088 0 0 0 0 -1.8732831487585384 -12.927731449276607 0 -12.927731449276607 25.012568867855435 0 0 0 0 -6.3821666153089041 -18.428707190618297 0 -18.428707190618297 -22.015817133062228 0 0 0 0 -38.290482656183485 44.174454061743745 0 44.174454061743745 13.730356391388341 0 0 0 0 34.995304708372714 -17.249140709551284 0 -17.249140709551284 23.454878425291099 0 0 0 0 1.3639867895071802 -5.4374359240900958 0 -5.4374359240900958 71.247845962105202 0 0 0 0 0.27952730866964348 -2.1558668004769714 0 -2.1558668004769714 14.950535212798396 0 0 0 0 4.3588942858254995 -8.7622794123963104 0 -8.7622794123963104 42.357292694767239 0 0 0 0 -0.65981744664203479 -10.954254840909911 0 -10.954254840909911 39.533400008352857 0 0 0 0 -7.4310635800539124 -0.44946045882193175 0 -0.44946045882193175 11.385143150998672 0 0 0 0 -15.017685570399863 -13.829019653381692 0 -13.829019653381692 59.857649417681387 0 0 0 0 -1.2155373733112356 7.1983309027273208 0 7.1983309027273208 73.13812237795446 0 0 0 0 -1.2668952090588164 7.6735611019175849 0 7.6735611019175849 75.312659123439516 0 0 0 0 1.1447537650361177 1.9954528914386174 0 1.9954528914386174 45.119887708852275 0 0 0 0 -6.0957162563385321 -0.44951063088352328 0 -0.44951063088352328 45.65140421606003 0 0 0 0 -1.7034898584435272 18.309955361532047 0 18.309955361532047 53.273956228984389 0 0 0 0 -24.21871076731577 -28.595785290694039 0 -28.595785290694039 103.93544661335181 0 0 0 0 -7.8755983595826748 15.274790888934398 0 15.274790888934398 14.991759593842914 0 0 0 0 -10.226080507642109 23.78393339399554 0 23.78393339399554 143.05927840343793 0 0 0 0 4.4880565898844225 35.675135184235842 0 35.675135184235842 68.719607848324813 0 0 0 0 -1.9559062951279884 5.0686055367114022 0 5.0686055367114022 77.874346027165302 0 0 0 0 -3.5674002786990462 29.574080846989773 0 29.574080846989773 34.611942949116923 0 0 0 0 26.963667645756232 -1.4959318311630341 0 -1.4959318311630341 132.88835727496189 0 0 0 0 4.151688283774547 23.956530848870898 0 23.956530848870898 136.30163170598962 0 0 0 0 3.0029670998480924 39.018762147970847 0 39.018762147970847 108.28072377934041 0 0 0 0 10.788920194656612 30.945581692954875 0 30.945581692954875 57.229075429302611 0 0 0 0 -6.6237911287025781 4.3480604124852107 0 4.3480604124852107 123.460256701459 0 0 0 0 -9.553750909993596 18.195277586019074 0 18.195277586019074 133.60921152118681 0 0 0 0 -0.029937712563945063 13.650544635607901 0 13.650544635607901 24.470925478603533 0 0 0 0 -5.2788849249834584 9.7582191082228746 0 9.7582191082228746 47.498783413240744 0 0 0 0 0.19245852311436629 5.4929663170075571 0 5.4929663170075571 9.2154220104894051 0 0 0 0 -0.44973241419064003 1.998356949029457 0 1.998356949029457 5.4847908244779546 0 0 0 0 26.464283914011332 -0.93242021719470358 0 -0.93242021719470358 24.023489365055866 0 0 0 0 -6.0172100925219638 -24.380498898797669 0 -24.380498898797669 -81.949587574970792 0 0 0 0 -79.980102701525766 -121.50634770508259 0 -121.50634770508259 -42.923833714230568 0 0 0 0 -41.753743694084733 -32.03365859780024 0 -32.03365859780024 51.885771817018394 0 0 0 0 -2.6100765656401563 -3.1707886545518704 0 -3.1707886545518704 -1.4445026982575655 0 0 0 0 -11.698967610669115 -30.624757175843115 0 -30.624757175843115 1.89100830013831 0 0 0 0 -5.9478245525173721 -6.4256933592860719 0 -6.4256933592860719 28.125986143025443 0 0 0 0 -7.4518445642207496 -16.931479287828552 0 -16.931479287828552 23.999269427295076 0 0 0 0 -13.609573143266744 -3.0146877275037696 0 -3.0146877275037696 47.123939308425179 0 0 0 0 -16.054748308413309 -17.581372048320191 0 -17.581372048320191 27.945369707296777 0 0 0 0 -34.447377842459332 4.0592656656754116 0 4.0592656656754116 51.673726816545241 0 0 0 0 -115.10001202508647 -13.867023536984561 0 -13.867023536984561 86.424360018485459 0 0 0 0 -40.733662276393716 -30.854471505517722 0 -30.854471505517722 40.809907487702731 0 0 0 0 -8.5378375872360266 46.645547477499349 0 46.645547477499349 104.64136696569767 0 0 0 0 7.3100667786369513 16.546780342538113 0 16.546780342538113 51.970231151899497 0 0 0 0 3.1961238561038954 24.616505909016269 0 24.616505909016269 36.836964090587571 0 0 0 0 24.880027924316892 15.807099935751467 0 15.807099935751467 38.13312869658148 0 0 0 0 11.800607758773822 3.5402274972184387 0 3.5402274972184387 50.320111557855853 0 0 0 0 24.856212939620946 -9.7324899662798998 0 -9.7324899662798998 52.251557291980134 0 0 0 0 15.204768703752507 -2.3229701103045954 0 -2.3229701103045954 46.848696413999278 0 0 0 0 31.946415415518914 -1.7559926964531769 0 -1.7559926964531769 27.058326112929763 0 0 0 0 2.4322314741713882 -13.917448947380763 0 -13.917448947380763 56.942185689047619 0 0 0 0 8.2652548811934139 -17.243903444028547 0 -17.243903444028547 57.871075697243214 0 0 0 0 -8.3539447745449706 8.4165363664578763 0 8.4165363664578763 50.651387875761429 0 0 0 0 -10.231081694678 -11.62584940229226 0 -11.62584940229226 60.227575913755572 0 0 0 0 -21.467466903433149 6.1289201027975651 0 6.1289201027975651 43.060088999303844 0 0 0 0 -19.655336433584523 -11.630471573385876 0 -11.630471573385876 81.176360761746764 0 0 0 0 -45.200463274529966 -23.339368833105254 0 -23.339368833105254 78.162505508997128 0 0 0 0 1.3118718128955242 -8.9652572855246291 0 -8.9652572855246291 26.953563276683383 0 0 0 0 131.45371979515221 -163.49605702099507 0 -163.49605702099507 259.40341486071702 0 0 0 0 0.043246818874712822 -11.728869287300654 0 -11.728869287300654 37.803910689948509 0 0 0 0 -73.070721222049315 13.706934292084043 0 13.706934292084043 148.76616311584075 0 0 0 0 -13.171171955329555 -80.341418855488882 0 -80.341418855488882 165.01512662575806 0 0 0 0 51.476768645390621 -94.674898899676919 0 -94.674898899676919 78.451770329818828 0 0 0 0 20.332119972005785 -58.568395853013499 0 -58.568395853013499 59.191987413869356 0 0 0 0 13.272384878156231 -47.774644121247547 0 -47.774644121247547 50.25539796036901 0 0 0 0 16.307999265025728 -35.521905809677264 0 -35.521905809677264 52.114597347291237 0 0 0 0 17.792013557504106 -17.87592202702217 0 -17.87592202702217 11.075466975351446 0 0 0 0 43.429456775941844 -50.500361616708688 0 -50.500361616708688 33.182568650750909 0 0 0 0 -10.542349237657618 -28.862937875503121 0 -28.862937875503121 63.966295446603908 0 0 0 0 2.257694265905684 -46.788626384077361 0 -46.788626384077361 84.419519880510052 0 0 0 0 14.006977948085478 -29.572780357011652 0 -29.572780357011652 62.493449044039153 0 0 0 0 13.651367051586817 -27.893442941953253 0 -27.893442941953253 59.593789507343899 0 0 0 0 14.345599478694339 -23.207284946123764 0 -23.207284946123764 65.953579757202533 0 0 0 0 12.624539522583973 -32.146612634373014 0 -32.146612634373014 57.981374881695956 0 0 0 0 16.166755754287578 -23.334974362747744 0 -23.334974362747744 53.185429891913373 0 0 0 0 22.306450079572187 -29.555928858873813 0 -29.555928858873813 40.312770394681138 0 0 0 0 13.845342119745851 -26.105556529211754 0 -26.105556529211754 55.38063567536301 0 0 0 0 4.7329623881773841 -19.686103056643333 0 -19.686103056643333 54.478445340188046 0 0 0 0 4.5915854574759578 -21.165885784197599 0 -21.165885784197599 52.811132748574892 0 0 0 0 13.190561015094318 -17.02294718316989 0 -17.02294718316989 59.816918388052727 0 0 0 0 3.7158367121928393 -21.132037964620395 0 -21.132037964620395 62.711803113881615 0 0 0 0 16.562796655819284 -12.926271585973154 0 -12.926271585973154 77.351652675715741 0 0 0 0 22.552371013699712 -22.301479783018294 0 -22.301479783018294 64.319267886370653 0 0 0 0 13.16277827219858 -20.194310243774453 0 -20.194310243774453 69.571662479327642 0 0 0 0 20.14315213560883 -17.198309606553266 0 -17.198309606553266 80.955250443410478 0 0 0 0 23.833252762180791 -10.635978045456795 0 -10.635978045456795 86.343198669244885 0 0 0 0 33.605868221809033 -11.29525622883375 0 -11.29525622883375 70.12091092128685 0 0 0 0 30.207280402459617 -15.350646148859596 0 -15.350646148859596 51.29733017180115 0 0 0 0 17.801943987213917 -18.316529049014207 0 -18.316529049014207 68.020479834614889 0 0 0 0 19.570483610969802 -15.711114807065314 0 -15.711114807065314 57.729842583605205 0 0 0 0 32.378794365478939 -14.516138787083037 0 -14.516138787083037 101.88480025117315 0 0 0 0 40.223623749218405 2.3060853784299979 0 2.3060853784299979 107.4834555579364 0 0 0 0 117.39242807430946 29.018744950088148 0 29.018744950088148 97.252626552686706 0 0 0 0 54.04817362400388 9.2136698038157192 0 9.2136698038157192 94.867890813133272 0 0 0 0 31.136180691814161 -6.6244385621830588 0 -6.6244385621830588 83.249682859283894 0 0 0 0 39.281031280391744 -16.14100308426714 0 -16.14100308426714 94.108322261352441 0 0 0 0 24.576848613169275 -19.325668492958357 0 -19.325668492958357 82.388112184300553 0 0 0 0 10.552692912202019 -7.8845418975906796 0 -7.8845418975906796 84.181058319707518 0 0 0 0 8.7441894524209829 -13.422586773707735 0 -13.422586773707735 71.19734112774313 0 0 0 0 4.6550539092500003 -11.540235285865492 0 -11.540235285865492 71.251654534949921 0 0 0 0 8.0058108949422149 -0.24618618204112863 0 -0.24618618204112863 80.775471363311226 0 0 0 0 3.1363255201886204 -2.4109926404271391 0 -2.4109926404271391 85.632994869323738 0 0 0 0 16.9889018709044 -4.8228026520591811 0 -4.8228026520591811 97.148700200017629 0 0 0 0 7.830964429422238 0.92721435343992198 0 0.92721435343992198 103.1864221805663 0 0 0 0 15.681424219653152 -10.239557132583286 0 -10.239557132583286 83.306182083390013 0 0 0 0 8.1258577523322657 11.220085947429425 0 11.220085947429425 89.93414007469255 0 0 0 0 12.538385298443927 16.182554893202905 0 16.182554893202905 94.815707528025087 0 0 0 0 5.7171446258357719 2.5704565432861273 0 2.5704565432861273 87.115505269073765 0 0 0 0 14.20403651563322 11.420758921894958 0 11.420758921894958 78.705475241615204 0 0 0 0 31.365290693749557 25.640338553715992 0 25.640338553715992 48.672420715010958 0 0 0 0 16.847086255483646 8.3892719956711517 0 8.3892719956711517 71.963618370238692 0 0 0 0 36.709088450772811 12.903280819946303 0 12.903280819946303 65.371162241324782 0 0 0 0 22.772860066688935 36.37995064988354 0 36.37995064988354 76.448447723963909 0 0 0 0 25.214107278219558 27.576049371224144 0 27.576049371224144 51.543131094520504 0 0 0 0 25.143447310977876 47.433840346544457 0 47.433840346544457 93.441674245470494 0 0 0 0 7.7385827273314192 4.6893769947623696 0 4.6893769947623696 133.01264857720525 0 0 0 0 23.097317591721691 39.437293150855567 0 39.437293150855567 181.49234968102246 0 0 0 0 82.952179088559888 -32.007254299289343 0 -32.007254299289343 123.3926341076658 0 0 0 0 -0.50954269668918428 -0.24784656543000949 0 -0.24784656543000949 2.1869306009473917 0 0 0 0 127.44152806158718 26.571312666652375 0 26.571312666652375 -1.9831598919531643 0 0 0 0 90.598156243333761 81.828335027717912 0 81.828335027717912 -2.9581862533887033 0 0 0 0 149.82530090628961 152.56130615170696 0 152.56130615170696 80.712269518146059 0 0 0 0 116.84393611060352 -125.31154906900383 0 -125.31154906900383 -43.873614146737964 0 0 0 0 5.1511347738650102 9.264066608488065 0 9.264066608488065 48.589264427376293 0 0 0 0 -0.21120813703259222 -1.1733422353385237 0 -1.1733422353385237 3.874614274055034 0 0 0 0 -29.396746179523007 151.7309005934876 0 151.7309005934876 141.57943956334202 0 0 0 0 9.9739297790254682 67.4959702576366 0 67.4959702576366 175.78812715498498 0 0 0 0 261.97887014533808 345.80550536376541 0 345.80550536376541 440.72952263821935 0 0 0 0 39.758841818026667 -192.4472953728764 0 -192.4472953728764 544.46106212464838 0 0 0 0 379.76625037288386 -223.16063056359417 0 -223.16063056359417 474.0762190096284 0 0 0 0 -160.81383430528581 156.99221865213622 0 156.99221865213622 674.46193938658325 0 0 0 0 183.4411327465773 228.12799951175839 0 228.12799951175839 79.735288412688533 0 0 0 0 508.09897678181346 -269.63939919792574 0 -269.63939919792574 165.22350133962755 0 0 0 0 0.82782019682730779 1.4753714961546578 0 1.4753714961546578 5.7290259439953957 0 0 0 0 77.132373199636277 -43.917079079663381 0 -43.917079079663381 118.96219895971444 0 0 0 0 57.808948945025563 58.65370852990236 0 58.65370852990236 104.44131138348712 0 0 0 0 140.48548687046798 54.078530756887631 0 54.078530756887631 103.57540774430709 0 0 0 0 -140.42798324798815 191.4493665552809 0 191.4493665552809 348.08761116108508 0 0 0 0 -57.29593818178148 -1.2302872660220601 0 -1.2302872660220601 455.61756919489926 0 0 0 0 34.899599484785654 98.11361286763713 0 98.11361286763713 353.00411595938203 0 0 0 0 26.238398716637789 53.175308207310081 0 53.175308207310081 139.38248720460979 0 0 0 0 65.600164893756528 -73.534531275792688 0 -73.534531275792688 178.79608035938872 0 0 0 0 56.434647902905454 -34.866320795095817 0 -34.866320795095817 75.26936919525906 0 0 0 0 41.066838345062024 0.60996690305910306 0 0.60996690305910306 61.161177937909088 0 0 0 0 -0.7950877949673022 -0.38308608940442923 0 -0.38308608940442923 2.9795742542396795 0 0 0 0 83.311241712197472 -39.862149546258479 0 -39.862149546258479 22.727781827277795 0 0 0 0 25.68644101809565 43.025151466790703 0 43.025151466790703 30.009623260993976 0 0 0 0 45.30963416384202 1.7892853573521279 0 1.7892853573521279 60.845238859095844 0 0 0 0 51.083526800342156 14.197063817940943 0 14.197063817940943 51.770066966302693 0 0 0 0 33.67363349236075 7.1995498511387268 0 7.1995498511387268 58.388824750334607 0 0 0 0 17.577760929174929 -1.4263679578307347 0 -1.4263679578307347 60.326605923954048 0 0 0 0 18.49365417952913 -5.0315831948028062 0 -5.0315831948028062 72.035810354769637 0 0 0 0 10.804228298738053 14.652828718346427 0 14.652828718346427 103.19583250129654 0 0 0 0 6.3252988405506585 13.502678996155737 0 13.502678996155737 110.82957801535667 0 0 0 0 41.86666263717143 -18.508986463930341 0 -18.508986463930341 79.373109646207013 0 0 0 0 12.256866966601592 10.174708079484844 0 10.174708079484844 108.43026840173115 0 0 0 0 13.87824590846958 -4.6315500189120939 0 -4.6315500189120939 220.65676528118638 0 0 0 0 7.4989181755518075 9.4421187403313525 0 9.4421187403313525 117.11194449599134 0 0 0 0 3.1922331411142295 61.014620024012402 0 61.014620024012402 130.95609628491911 0 0 0 0 -0.44422644741871409 58.633438605698757 0 58.633438605698757 133.04767173576693 0 0 0 0 15.813851586016881 53.180859167907329 0 53.180859167907329 130.00022290353081 0 0 0 0 -4.1017899463849972 53.008725554471312 0 53.008725554471312 133.4087517374137 0 0 0 0 15.828424918231121 54.191708949663735 0 54.191708949663735 145.82695534020604 0 0 0 0 26.853347830050552 54.29658793467388 0 54.29658793467388 -17.186980423080968 0 0 0 0 0.22332337114630718 62.054013884659071 0 62.054013884659071 77.890718716083938 0 0 0 0 31.434456251783558 115.48571297818125 0 115.48571297818125 155.2921316405118 0 0 0 0 -3.6957400343271729 32.674758354041842 0 32.674758354041842 99.325893664175965 0 0 0 0 1.4112310441423688 27.515731667770524 0 27.515731667770524 52.325976343061484 0 0 0 0 -39.29929424412785 -4.6567865586803237 0 -4.6567865586803237 28.884500028369075 0 0 0 0 -36.16538306619077 8.6832424878084566 0 8.6832424878084566 55.091775829616608 0 0 0 0 -11.394376852542337 -3.9155746110163818 0 -3.9155746110163818 53.499023609867436 0 0 0 0 -3.0976730653346749 16.050731858376821 0 16.050731858376821 73.430856291539385 0 0 0 0 6.6076893965691283 13.406972868871435 0 13.406972868871435 71.59354215215717 0 0 0 0 5.584869471021193 -12.107318340153142 0 -12.107318340153142 65.107472921115914 0 0 0 0 -11.587517311913189 2.6507335915430303 0 2.6507335915430303 55.516098197098472 0 0 0 0 -20.872582749501817 -13.371081236633472 0 -13.371081236633472 56.044198461866472 0 0 0 0 -24.731470761584205 -15.052783245866522 0 -15.052783245866522 36.824364379666804 0 0 0 0 -20.04017552972482 -0.38708374511588772 0 -0.38708374511588772 47.717289301435812 0 0 0 0 -29.949114088210081 5.8818366426639841 0 5.8818366426639841 45.011969213759585 0 0 0 0 14.409520185239671 -18.452450818909711 0 -18.452450818909711 41.044611032644752 0 0 0 0 8.3819286919033402 -24.872191293652577 0 -24.872191293652577 61.585125782330579 0 0 0 0 11.181754321511107 -20.607272994631785 0 -20.607272994631785 50.308559769320709 0 0 0 0 3.0793940725279754 -15.010883817216381 0 -15.010883817216381 51.370923769471119 0 0 0 0 5.8943394447387618 -9.8200673999199353 0 -9.8200673999199353 59.050553325447254 0 0 0 0 16.562023554708048 -14.302134955869406 0 -14.302134955869406 57.599704413703876 0 0 0 0 12.031847849126279 -14.418085591540148 0 -14.418085591540148 61.403611338278097 0 0 0 0 36.916801154868153 -3.57099360578286 0 -3.57099360578286 61.374993635181454 0 0 0 0 17.551998562184963 -5.9524218516962719 0 -5.9524218516962719 65.860185202571301 0 0 0 0 20.954912731271406 -2.023441058600838 0 -2.023441058600838 69.995696771933581 0 0 0 0 2.6092023933615565 -9.7723580053061596 0 -9.7723580053061596 72.453299261607754 0 0 0 0 4.8765040749650552 -14.003558191587217 0 -14.003558191587217 79.794084091729019 0 0 0 0 1.7314678587927119 -23.696231679474295 0 -23.696231679474295 66.66559468880223 0 0 0 0 11.39957711196098 -17.336605634051011 0 -17.336605634051011 70.38223397967522 0 0 0 0 6.1083164401206886 -35.628652773317299 0 -35.628652773317299 88.118134563119384 0 0 0 0 -11.543971457682119 -13.686048261068208 0 -13.686048261068208 82.474704625245067 0 0 0 0 -10.554997955525323 -14.937295690484461 0 -14.937295690484461 83.780342041427502 0 0 0 0 -17.620444683336245 -22.417169217471383 0 -22.417169217471383 95.355776117750793 0 0 0 0 -22.998755898006493 -16.409428852974088 0 -16.409428852974088 89.854744351432601 0 0 0 0 -4.718957362511901 -5.5922685995756183 0 -5.5922685995756183 82.202095256281609 0 0 0 0 9.2388688135304164 -3.2053622652729246 0 -3.2053622652729246 78.944287385020289 0 0 0 0 -3.1762374588006423 -6.2694824137652176 0 -6.2694824137652176 77.834612011691206 0 0 0 0 1.8885875222857749 -7.7091521943802945 0 -7.7091521943802945 75.874800919031259 0 0 0 0 -1.5376547959467644 -3.6336612701343256 0 -3.6336612701343256 71.040421642188448 0 0 0 0 -10.613932312430734 -8.8198267331608804 0 -8.8198267331608804 77.023948133180966 0 0 0 0 -5.8811336927124103 -3.8399377051100601 0 -3.8399377051100601 53.567822346172761 0 0 0 0 -4.3546219964518968 -9.6435325413331157 0 -9.6435325413331157 71.044638756092212 0 0 0 0 4.58674758457461 -13.56575084154224 0 -13.56575084154224 56.204212040363927 0 0 0 0 -18.424310246163259 -15.544165889234137 0 -15.544165889234137 88.632227137553855 0 0 0 0 -24.242252154142989 9.9835151120496448 0 9.9835151120496448 76.844956992019434 0 0 0 0 -12.785552248147724 -3.1987459128358751 0 -3.1987459128358751 68.894354886593646 0 0 0 0 -24.808747809380293 -7.5144675967312651 0 -7.5144675967312651 82.879756039645144 0 0 0 0 -15.659760704245855 -7.3860148931416916 0 -7.3860148931416916 67.797605871954147 0 0 0 0 -14.753777759739933 0.38147523528459715 0 0.38147523528459715 51.096514401302557 0 0 0 0 -22.695618295622353 -13.854104394893511 0 -13.854104394893511 48.328276202897541 0 0 0 0 -7.4096949954146112 -6.2902828251681058 0 -6.2902828251681058 32.346098454159801 0 0 0 0 -29.853014053276638 -39.309218009417236 0 -39.309218009417236 -10.989301374560455 0 0 0 0 -7.195825791801326 0.66655560049548512 0 0.66655560049548512 27.127014880636125 0 0 0 0 -8.62360171354619 -18.674483290731189 0 -18.674483290731189 34.433007733872273 0 0 0 0 55.684324699563149 -70.56398689935304 0 -70.56398689935304 -16.904770873094094 0 0 0 0 -5.3449246829000003 16.929679228485838 0 16.929679228485838 106.88885223030229 0 0 0 0 -0.3758304859159054 -3.2441581952077598 0 -3.2441581952077598 -2.8747934644105158 0 0 0 0 30.154462934904217 -18.367207032785927 0 -18.367207032785927 37.955894546423224 0 0 0 0 -4.5648626658091409 -12.787415384142122 0 -12.787415384142122 57.460561691812018 0 0 0 0 -100.52300842579461 -37.128717065526871 0 -37.128717065526871 134.16882335619448 0 0 0 0 26.613450601343573 -64.441115813066517 0 -64.441115813066517 96.520727973329485 0 0 0 0 8.2225681354266271 -32.998898741832818 0 -32.998898741832818 56.727412413274578 0 0 0 0 -17.627622513744427 -34.596941168034391 0 -34.596941168034391 140.6989570144724 0 0 0 0 3.9483915961773164 -3.0186912700955872 0 -3.0186912700955872 51.637191980407806 0 0 0 0 -7.3472467756000697 7.1327682184492005 0 7.1327682184492005 78.555024875164236 0 0 0 0 -2.835504050898928 -14.102178742854022 0 -14.102178742854022 7.2650381423684394 0 0 0 0 -16.155407043411287 -5.4877139517702744 0 -5.4877139517702744 65.324084366933675 0 0 0 0 -2.7246778254989756 -12.768871548022929 0 -12.768871548022929 22.191700230745681 0 0 0 0 -9.2054855745668647 -53.74006240408562 0 -53.74006240408562 24.547980119241402 0 0 0 0 -15.687728068241427 -35.406195109559121 0 -35.406195109559121 9.1463287087681238 0 0 0 0 -0.95651701528845479 -19.818514593323926 0 -19.818514593323926 -20.769073830888374 0 0 0 0 24.960470442415954 -44.392324503623968 0 -44.392324503623968 -36.019919357888284 0 0 0 0 4.830835394184362 10.38209559205643 0 10.38209559205643 -28.183924152574036 0 0 0 0 13.794047857975499 -7.5901241637748171 0 -7.5901241637748171 -35.972870370853343 0 0 0 0 -9.0283064371470516 3.0645639689610107 0 3.0645639689610107 -9.3575045287871035 0 0 0 0 -8.8447096339518794 -18.131209588318598 0 -18.131209588318598 -33.573717806917557 0 0 0 0 -3.6438178459398278 -13.060897554048978 0 -13.060897554048978 12.47627583124553 0 0 0 0 -2.5964109805964313 8.7288135741400765 0 8.7288135741400765 80.117090276180534 0 0 0 0 -5.1265838696235733 -19.946201694372576 0 -19.946201694372576 -32.708094953966793 0 0 0 0 0.012062277874960947 0.0029114960131835232 0 0.0029114960131835232 -0.03243982168081061 0 0 0 0 8.6512106776085602 0.63535164602581062 0 0.63535164602581062 56.314155199150264 0 0 0 0 -7.9335347609244309 -0.2398308025476581 0 -0.2398308025476581 57.102912047739665 0 0 0 0 5.0736165763937606 -4.1769956867210567 0 -4.1769956867210567 61.234515849552281 0 0 0 0 -1.3135674529787593 -4.8812030789704295 0 -4.8812030789704295 61.210010234484798 0 0 0 0 7.5029884809000578 -1.0663585011498071 0 -1.0663585011498071 36.962662202015053 0 0 0 0 -3.7430363793223478 2.0435653337481199 0 2.0435653337481199 37.154982835271539 0 0 0 0 -23.823952797095899 -5.5020635253968067 0 -5.5020635253968067 42.6938278925536 0 0 0 0 -1.9604235769550087 -3.2890511371060711 0 -3.2890511371060711 41.715326158075186 0 0 0 0 -4.5621582265597063 -2.504537189633993 0 -2.504537189633993 52.432063298163598 0 0 0 0 -72.179221402589974 -22.685344261004502 0 -22.685344261004502 53.983931668350124 0 0 0 0 -26.079453096003363 -9.3486379030582611 0 -9.3486379030582611 56.685507426132972 0 0 0 0 -38.108164093961022 1.9199965451989556 0 1.9199965451989556 51.072845484915888 0 0 0 0 -47.784005104312655 -13.775389335793079 0 -13.775389335793079 41.202460131928092 0 0 0 0 -5.4448231330880494 -0.41086242618487034 0 -0.41086242618487034 40.85869630351911 0 0 0 0 -21.596641889670536 -1.6689620218348864 0 -1.6689620218348864 32.232136326929322 0 0 0 0 -34.648338796055214 8.2562523466967832 0 8.2562523466967832 46.306409083830658 0 0 0 0 -6.4567697749136626 6.9953990070728906 0 6.9953990070728906 32.768953604007379 0 0 0 0 -36.145330614101113 9.5412963010603562 0 9.5412963010603562 47.149378032612731 0 0 0 0 -34.461964753160828 9.0191010091948556 0 9.0191010091948556 45.070606808112643 0 0 0 0 -35.717825194420584 8.109319388269796 0 8.109319388269796 49.15051661198595 0 0 0 0 -60.542563698388221 30.033653142392723 0 30.033653142392723 42.115481585981797 0 0 0 0 -21.842450652768093 1.1823503888663254 0 1.1823503888663254 53.294001175789163 0 0 0 0 -0.56898579086509926 -42.825359558199125 0 -42.825359558199125 15.718837759748567 0 0 0 0 1.5149269361339739 1.6331027271534069 0 1.6331027271534069 41.961774210245579 0 0 0 0 3.0906511745441421 6.232926362047948 0 6.232926362047948 14.740813652215877 0 0 0 0 5.0351906353121194 -28.422243645585695 0 -28.422243645585695 49.435885678234627 0 0 0 0 -8.5441704710137856 9.039353840824333 0 9.039353840824333 41.273709067208983 0 0 0 0 -100.75781591769555 -71.241019107284956 0 -71.241019107284956 4.3410867109778337 0 0 0 0 15.797576595430655 12.168973774678307 0 12.168973774678307 80.304417305233073 0 0 0 0 47.758091529158264 -2.5313591675585485 0 -2.5313591675585485 32.558496339712292 0 0 0 0 29.945072811548016 27.1899388375532 0 27.1899388375532 74.27253386981829 0 0 0 0 21.387978850306354 -2.3101325774769066 0 -2.3101325774769066 37.788256716128672 0 0 0 0 -9.7514383813149834 9.1485206708093756 0 9.1485206708093756 67.581165618961677 0 0 0 0 20.900376521486123 2.9139875956752803 0 2.9139875956752803 64.774804422042507 0 0 0 0 -3.4155423267477545 15.958578955534904 0 15.958578955534904 53.287551011431788 0 0 0 0 -1.5532792333715406 8.1258037891966524 0 8.1258037891966524 60.045199059546576 0 0 0 0 -75.120145319352559 -171.67419962220811 0 -171.67419962220811 -3.6249521054414799 0 0 0 0 -3.2169879459236483 -5.9882917509929072 0 -5.9882917509929072 54.59878503903542 0 0 0 0 -174.12840261272004 -132.78391135535276 0 -132.78391135535276 43.70328527194215 0 0 0 0 -105.35265633808331 -31.728310060043441 0 -31.728310060043441 -71.190148086636327 0 0 0 0 -4.091377143734757 2.9417311902235355 0 2.9417311902235355 10.316065503641894 0 0 0 0 5.4258457012121379 11.85234255402554 0 11.85234255402554 16.082472132820953 0 0 0 0 6.1316016281502925 2.2904004935226112 0 2.2904004935226112 56.511297855555313 0 0 0 0 1.6218291032901107 -2.4435696970540448 0 -2.4435696970540448 53.808014883223223 0 0 0 0 12.611569461932959 -6.0584916066545702 0 -6.0584916066545702 51.895197216283123 0 0 0 0 -3.3331381708108339 -12.339773590694335 0 -12.339773590694335 49.43095878630993 0 0 0 0 -3.0478345495557733 -1.0695962986865197 0 -1.0695962986865197 55.616043864976746 0 0 0 0 -8.9930433050588672 4.2495046454292265 0 4.2495046454292265 33.229115228379243 0 0 0 0 -2.8679160591759683 2.2336899778056249 0 2.2336899778056249 31.804044622505899 0 0 0 0 -5.1875832856556849 8.9840229355197607 0 8.9840229355197607 28.351196621954102 0 0 0 0 -11.910529613874814 14.576128504038934 0 14.576128504038934 56.683292127127061 0 0 0 0 11.823070193157946 -9.9668967983598122 0 -9.9668967983598122 41.997171427981812 0 0 0 0 14.85163657933299 -5.8318685243830259 0 -5.8318685243830259 46.358873012053664 0 0 0 0 -6.3349710494198916 -5.5368059081520187 0 -5.5368059081520187 71.896437670719024 0 0 0 0 10.464566123514459 -2.0697701441422396 0 -2.0697701441422396 43.343227043471416 0 0 0 0 0.61023644851796899 1.3706889111399789 0 1.3706889111399789 7.1352585500408239 0 0 0 0 -2.2598095347233622 7.8591134897521329 0 7.8591134897521329 14.414169268182476 0 0 0 0 7.82191359021175 -4.6626205717639095 0 -4.6626205717639095 52.139251072789193 0 0 0 0 20.917394315249794 6.9476227573832148 0 6.9476227573832148 -5.9467958433378953 0 0 0 0 8.1131534675603234 -4.8709477249867632 0 -4.8709477249867632 47.354253459630854 0 0 0 0 2.260869914942794 10.986620330426348 0 10.986620330426348 7.0751615888897277 0 0 0 0 8.3788925072913116 -11.130269666127788 0 -11.130269666127788 54.205714696683572 0 0 0 0 12.601646567875605 34.87940586530749 0 34.87940586530749 21.809526066470426 0 0 0 0 -3.0780512225499024 -13.319107310904656 0 -13.319107310904656 30.55417624173424 0 0 0 0 -1.4346898122942093 -9.607883517674054 0 -9.607883517674054 -26.802589334969525 0 0 0 0 -3.7402222024022649 -26.206644053505443 0 -26.206644053505443 145.94352461773087 0 0 0 0 29.53464486889186 55.227678008188377 0 55.227678008188377 91.214421541924821 0 0 0 0 1.8992622045180565 1.1570219265522041 0 1.1570219265522041 -2.8859581189528569 0 0 0 0 23.061405647523316 -2.0616502850243705 0 -2.0616502850243705 64.041461388580501 0 0 0 0 12.831417361156696 -12.850292521241499 0 -12.850292521241499 54.880144171300344 0 0 0 0 0.00086866871366688748 0.10486383134411881 0 0.10486383134411881 30.971864871840808 0 0 0 0 -2.4344723456842177 0.89483211496553849 0 0.89483211496553849 31.972075069061248 0 0 0 0 -0.67516521380821481 1.5156803906102141 0 1.5156803906102141 28.403414369371603 0 0 0 0 -0.9147225817693424 -1.2668670759326268 0 -1.2668670759326268 32.09807712602418 0 0 0 0 59.078397803723192 47.857145118294284 0 47.857145118294284 -39.58388207416283 0 0 0 0 -94.521368823210366 -4.7176013725438679 0 -4.7176013725438679 152.85766089840763 0 0 0 0 -0.53342045297004481 -0.55332727724903918 0 -0.55332727724903918 30.49940445783966 0 0 0 0 -30.579006977844074 -35.424636486859526 0 -35.424636486859526 6.3674146422672493 0 0 0 0 77.1866494654316 -5.1047855572905974 0 -5.1047855572905974 -20.354925285180798 0 0 0 0 3.1465496953090568 4.4817993397591636 0 4.4817993397591636 36.010291554983269 0 0 0 0 -1.7545631220146332 -0.46901860330399359 0 -0.46901860330399359 33.819438475387869 0 0 0 0 0.00036550315549329498 0.36718480444687884 0 0.36718480444687884 43.159171323386545 0 0 0 0 -0.80564342514775933 7.0971662479013276 0 7.0971662479013276 12.930799685770751 0 0 0 0 0.3692639049534705 0.95043219276703894 0 0.95043219276703894 49.673419758917589 0 0 0 0 -0.22940232487985668 -0.20324531247479172 0 -0.20324531247479172 26.418633254099404 0 0 0 0 -0.42553619451900659 -5.9392831112181135 0 -5.9392831112181135 37.830013990822465 0 0 0 0 0.74898830897353685 -2.5745703390621379 0 -2.5745703390621379 26.914672986234791 0 0 0 0 6.6982369670999589 -14.476555846405972 0 -14.476555846405972 36.136255151217483 0 0 0 0 0.42858975261170029 -7.6447038199194139 0 -7.6447038199194139 9.7231188417036662 0 0 0 0 -1.2558150607962091 15.782588872796623 0 15.782588872796623 103.67678487584635 0 0 0 0 0.18223126974013487 0.016504023363552278 0 0.016504023363552278 -0.022361389538929188 0 0 0 0 0.030702438105253874 -22.601059103086932 0 -22.601059103086932 60.783299645932857 0 0 0 0 -0.72344817373833292 1.6378662566567073 0 1.6378662566567073 24.550210918168887 0 0 0 0 -0.0064347937597051029 -0.7204580964462366 0 -0.7204580964462366 18.818525762260833 0 0 0 0 -12.046064175390867 6.4113797989193699 0 6.4113797989193699 53.959764532715781 0 0 0 0 0.23514914224625075 1.0875490911726899 0 1.0875490911726899 7.3903696736006737 0 0 0 0 -0.1083540519260997 -0.61490747611242114 0 -0.61490747611242114 29.119947531500657 0 0 0 0 -16.941668555000788 -18.257401910035696 0 -18.257401910035696 52.527989541908028 0 0 0 0 3.7064285759993432 1.9971604188449419 0 1.9971604188449419 38.221002772057545 0 0 0 0 -3.9908624655693075 4.8311831478149543 0 4.8311831478149543 50.720610909716925 0 0 0 0 3.0004923840685933 -2.1080965383152943 0 -2.1080965383152943 28.271064202912385 0 0 0 0 2.1212569071117287 -13.452281459110964 0 -13.452281459110964 33.995942872184969 0 0 0 0 27.218244111572176 1.3307555073442927 0 1.3307555073442927 17.814864642758039 0 0 0 0 12.713777076967745 -16.667873470512859 0 -16.667873470512859 48.490835376054747 0 0 0 0 -5.6581244595738944 8.3407306832993697 0 8.3407306832993697 34.341740814081618 0 0 0 0 1.2073391990969782 2.8366167936565034 0 2.8366167936565034 61.406986914036679 0 0 0 0 -2.2078203584362655 12.891288040729705 0 12.891288040729705 25.229421929136151 0 0 0 0 9.0913700795529166 5.2231369859655388 0 5.2231369859655388 62.011410553954192 0 0 0 0 -0.1884092027649921 -3.9613509978795705 0 -3.9613509978795705 32.891197528854775 0 0 0 0 -7.6425692498069395 -3.8442881964074331 0 -3.8442881964074331 24.250930808171688 0 0 0 0 -5.7391961844869002 -3.6738378930167528 0 -3.6738378930167528 29.95299690709362 0 0 0 0 -6.220764788760107 -8.165317366423551 0 -8.165317366423551 31.883891849589418 0 0 0 0 -4.6041516138534746 -5.4112908568113198 0 -5.4112908568113198 36.038736772548873 0 0 0 0 -4.4475368736160306 -3.3699728093379235 0 -3.3699728093379235 24.411628078232752 0 0 0 0 -3.7881349444555248 0.93994768436621712 0 0.93994768436621712 20.660017381608483 0 0 0 0 -2.4663175168955505 1.3634477650724648 0 1.3634477650724648 21.190998772274241 0 0 0 0 -1.2110433963088747 -2.6486984506878244 0 -2.6486984506878244 22.190102118119682 0 0 0 0 -6.806117072342829 -1.0222631373908371 0 -1.0222631373908371 29.445792158701806 0 0 0 0 2.9996432917400639 -12.822461981450488 0 -12.822461981450488 16.943525093287462 0 0 0 0 -2.1416676000289603 -5.3703758924461766 0 -5.3703758924461766 13.044407776435207 0 0 0 0 37.343397722688678 -20.450248474386171 0 -20.450248474386171 18.53414569153756 0 0 0 0 -0.26923926402070547 3.7911384046990122 0 3.7911384046990122 1.7100316822283048 0 0 0 0 -22.723366299846361 -2.9699593136610929 0 -2.9699593136610929 36.015169182697718 0 0 0 0 -2.6675177416143185 -2.4315831806928117 0 -2.4315831806928117 13.966590958751397 0 0 0 0 -3.101586543304002 -25.123104247569927 0 -25.123104247569927 15.958946425115869 0 0 0 0 -1.68511963581277 -13.190435883861198 0 -13.190435883861198 11.131598288865689 0 0 0 0 1.4942686639081673 -8.6415328182526991 0 -8.6415328182526991 3.5426943191746574 0 0 0 0 2.7580465804635423 -16.530522569187724 0 -16.530522569187724 7.3514120498439297 0 0 0 0 -0.54353341524256393 -2.4883492909721099 0 -2.4883492909721099 5.3792119032586925 0 0 0 0 -19.09154483565203 28.43058065025798 0 28.43058065025798 -19.029789795662509 0 0 0 0 13.970022017704366 -18.859566738505237 0 -18.859566738505237 25.729663804871961 0 0 0 0 -15.663002971259317 -23.601810706753895 0 -23.601810706753895 65.834674782498041 0 0 0 0 2.8908347971781723 -1.7784876464738772 0 -1.7784876464738772 48.718729187356075 0 0 0 0 27.832761338451405 3.4650929601266398 0 3.4650929601266398 -6.3063538566566422 0 0 0 0 1.3739377621491191 -2.6033861380783492 0 -2.6033861380783492 22.525272257873439 0 0 0 0 -2.3538690197077328 4.3229334861213431 0 4.3229334861213431 17.538359246946186 0 0 0 0 1.5099215922303157 -1.6293873269169126 0 -1.6293873269169126 20.480341646540182 0 0 0 0 0.020523756452914238 -1.1821052026280086 0 -1.1821052026280086 23.236191810909077 0 0 0 0 -0.11573247244083262 -2.0263414102591923 0 -2.0263414102591923 25.47329697002715 0 0 0 0 1.4269634130364439 -3.1054587891339906 0 -3.1054587891339906 27.242550942712114 0 0 0 0 4.0974486496262017 -0.11979226092989848 0 -0.11979226092989848 25.929080547459307 0 0 0 0 -0.2668119287678743 60.439029679670057 0 60.439029679670057 33.899696381442482 0 0 0 0 -73.243281689619465 17.83835104800346 0 17.83835104800346 64.839064336687443 0 0 0 0 -69.444224302977148 9.3053470785753234 0 9.3053470785753234 21.077583039470483 0 0 0 0 -299.83600695569316 -63.259676161607786 0 -63.259676161607786 61.701622611764833 0 0 0 0 186.25985606270251 42.225610034402052 0 42.225610034402052 36.924426247756855 0 0 0 0 46.96342148275744 -169.0278875533113 0 -169.0278875533113 -41.242763564165216 0 0 0 0 0.82097297251244283 -8.9907317497120331 0 -8.9907317497120331 43.913654204035709 0 0 0 0 -80.467450199602581 -128.60829098169779 0 -128.60829098169779 -41.814133458356082 0 0 0 0 -174.26093752048911 -53.697224982235639 0 -53.697224982235639 63.646390007110313 0 0 0 0 -134.88029935599846 9.3831738610024331 0 9.3831738610024331 64.283271518856054 0 0 0 0 -77.399715938848203 21.80250941099257 0 21.80250941099257 113.71524884270912 0 0 0 0 -89.39258608976877 -6.441928565283888 0 -6.441928565283888 37.63363007636508 0 0 0 0 -84.935749949299293 -19.598776633687521 0 -19.598776633687521 63.528106959856814 0 0 0 0 -174.00176296505691 -51.533612742045079 0 -51.533612742045079 41.262248159153387 0 0 0 0 -142.82012804323506 -9.154404750309368 0 -9.154404750309368 67.998686307575554 0 0 0 0 -136.13942286846282 -103.25466983334627 0 -103.25466983334627 25.818829970259685 0 0 0 0 -3.996788638407669 -1.1728303293918714 0 -1.1728303293918714 11.846984098167013 0 0 0 0 2.096508952582071 -12.884881346496705 0 -12.884881346496705 41.058768679367688 0 0 0 0 8.8022328593785915 -10.978911193327804 0 -10.978911193327804 39.946060453861719 0 0 0 0 -110.33385317897003 -46.848503416698804 0 -46.848503416698804 54.627555168728577 0 0 0 0 -88.130314719719308 -8.441738428955432 0 -8.441738428955432 62.389409149589483 0 0 0 0 -101.41026203680406 -4.3642676132367342 0 -4.3642676132367342 83.636704367760103 0 0 0 0 -69.814935699492594 1.0449922247207724 0 1.0449922247207724 69.183146107432549 0 0 0 0 -86.67382951728365 -32.108497172350326 0 -32.108497172350326 30.758149563451298 0 0 0 0 -55.791076196231018 -0.63112488277693046 0 -0.63112488277693046 61.747575273053371 0 0 0 0 -96.06104067561904 13.44605334624066 0 13.44605334624066 96.23059185607417 0 0 0 0 -79.624578837033027 20.711505834406125 0 20.711505834406125 97.975767688199994 0 0 0 0 -57.49784868319216 18.916746742572286 0 18.916746742572286 83.506437769610784 0 0 0 0 -66.861865860800663 35.425263309472939 0 35.425263309472939 118.71633986019879 0 0 0 0 0.0040652811675403813 136.49939852887837 0 136.49939852887837 167.54139454022516 0 0 0 0 -22.371448176846428 32.780750530604564 0 32.780750530604564 134.35916740178072 0 0 0 0 -20.548911969915093 44.564385236437374 0 44.564385236437374 95.838691017226665 0 0 0 0 -49.591046419696475 -17.767459121379943 0 -17.767459121379943 61.975747037322435 0 0 0 0 -16.902443524720965 62.671971286449661 0 62.671971286449661 89.76245186511369 0 0 0 0 32.303164622648332 9.9820169380982406 0 9.9820169380982406 125.8127620629748 0 0 0 0 40.752255737352677 132.52447001141263 0 132.52447001141263 221.74716737031849 0 0 0 0 -0.014225711239279668 0.47338685980926698 0 0.47338685980926698 1.2198274231355981 0 0 0 0 263.77832583814325 187.08931173335804 0 187.08931173335804 98.696878332964843 0 0 0 0 -17.617358938895574 -3.7436371695548587 0 -3.7436371695548587 1.1165237433742732 0 0 0 0 117.36392351428563 52.935773956312914 0 52.935773956312914 51.66382992585568 0 0 0 0 -26.227361616202032 80.208004324347712 0 80.208004324347712 157.66711945412681 0 0 0 0 59.845162009279747 114.19499088942393 0 114.19499088942393 112.46440588231781 0 0 0 0 117.86200433794154 80.236488994220394 0 80.236488994220394 55.923051560530439 0 0 0 0 -5.3040866422714714 64.911406307015568 0 64.911406307015568 81.87743760984813 0 0 0 0 76.972088680961889 52.810641776333796 0 52.810641776333796 29.253537226861226 0 0 0 0 40.39543440573415 63.314758122502099 0 63.314758122502099 55.409879282640759 0 0 0 0 80.79962432055811 77.77028222871013 0 77.77028222871013 59.163375034695491 0 0 0 0 39.559286520989204 57.066348462249152 0 57.066348462249152 51.458026600274025 0 0 0 0 13.357073554158589 53.876848589243309 0 53.876848589243309 52.840449400013313 0 0 0 0 -9.7550856467077658 5.0912589312720229 0 5.0912589312720229 9.9141293433203828 0 0 0 0 76.193229071840534 52.782991577936627 0 52.782991577936627 37.66884831864445 0 0 0 0 -0.16940619874918642 0.099170752808795726 0 0.099170752808795726 3.1460056987994562 0 0 0 0 83.836278785060415 41.98659887406393 0 41.98659887406393 48.239191313958145 0 0 0 0 -0.064292672060571085 1.9417423408522154 0 1.9417423408522154 4.6772702643138473 0 0 0 0 47.627662629304332 32.027113969845232 0 32.027113969845232 14.776658274990041 0 0 0 0 14.49558356474293 19.074158510709822 0 19.074158510709822 20.209535768703063 0 0 0 0 15.675919629962436 15.622235646376794 0 15.622235646376794 9.4628939029498724 0 0 0 0 1.8182870710582528 12.997273018717692 0 12.997273018717692 5.0514741488243926 0 0 0 0 -0.50431152732550977 4.5767328738365904 0 4.5767328738365904 17.330658761929953 0 0 0 0 0.4228232120533108 2.2029693343645889 0 2.2029693343645889 5.9213155805194333 0 0 0 0 -0.029011690396655444 0.63134559659809497 0 0.63134559659809497 6.783816814862929 0 0 0 0 8.0518273119901664 19.679546730589209 0 19.679546730589209 55.542923083572532 0 0 0 0 15.797707866247492 -12.216272166740964 0 -12.216272166740964 114.7100742951734 0 0 0 0 -0.059996115860112553 3.1963366092096237 0 3.1963366092096237 6.0300882151413813 0 0 0 0 5.5489638826498435 27.695977667171974 0 27.695977667171974 34.335897985863085 0 0 0 0 3.8402601158489915 31.097521403706196 0 31.097521403706196 44.898005878916592 0 0 0 0 3.5442381787689792 13.327015642456104 0 13.327015642456104 3.0705419402907408 0 0 0 0 0.28334913372674464 37.593607545772102 0 37.593607545772102 42.330307811702369 0 0 0 0 10.388560084531264 49.292401817452628 0 49.292401817452628 52.542816999164643 0 0 0 0 -7.4629540409071069 30.168834812662681 0 30.168834812662681 58.1437139188929 0 0 0 0 -1.0726642058772597 36.39911724859121 0 36.39911724859121 62.699171296058921 0 0 0 0 -11.195384710641406 25.105623395844304 0 25.105623395844304 72.014777687669266 0 0 0 0 -21.885937634225684 35.751288257772103 0 35.751288257772103 62.850887480813981 0 0 0 0 -54.734060117251374 16.738165772025241 0 16.738165772025241 70.418717236043449 0 0 0 0 -10.53763550050175 47.877702821861021 0 47.877702821861021 68.566189023462357 0 0 0 0 -34.858549560664699 45.395963833929272 0 45.395963833929272 79.081953338638414 0 0 0 0 -2.9178665730782427 52.410203628300223 0 52.410203628300223 70.437854334661097 0 0 0 0 -2.1825539103356846 70.167578977852827 0 70.167578977852827 80.427667576499516 0 0 0 0 -6.4632452648523042 64.567571377556305 0 64.567571377556305 89.654675082565518 0 0 0 0 -41.796262297497123 35.97229514324863 0 35.97229514324863 83.494631741254125 0 0 0 0 -47.631104200030656 44.301161329040042 0 44.301161329040042 105.47205982395099 0 0 0 0 -12.76643532861948 54.77020163355337 0 54.77020163355337 98.916123612820229 0 0 0 0 -26.704717582279102 -21.055360977319651 0 -21.055360977319651 56.494140850641998 0 0 0 0 -37.57336235352011 46.3564405238576 0 46.3564405238576 81.539856276474893 0 0 0 0 -55.458692123653805 31.216190438935882 0 31.216190438935882 85.223836843913887 0 0 0 0 -52.888209120469014 12.813089194707572 0 12.813089194707572 61.186925702313602 0 0 0 0 -36.836080628668583 30.434882571920753 0 30.434882571920753 69.3997711877455 0 0 0 0 -75.668399278515807 5.4167208686776576 0 5.4167208686776576 77.502449545572745 0 0 0 0 -76.926919484466936 10.720834273193759 0 10.720834273193759 56.674543125438504 0 0 0 0 -0.647855811159332 0.62797837108649901 0 0.62797837108649901 15.004432746440678 0 0 0 0 15.104549932725284 1.7967731027150649 0 1.7967731027150649 6.8270434439343077 0 0 0 0 11.772085642226102 -12.920441138812748 0 -12.920441138812748 40.511133001473354 0 0 0 0 15.375639927507791 7.2591013331402792 0 7.2591013331402792 41.755906953148951 0 0 0 0 -1.6259265454278875 5.642330004433461 0 5.642330004433461 54.098901437595487 0 0 0 0 -20.094840626801158 10.571724541365256 0 10.571724541365256 54.994772387726698 0 0 0 0 17.152304870414355 8.0809703379491111 0 8.0809703379491111 40.167456439186935 0 0 0 0 -2.037583342715926 -3.0084923762846856 0 -3.0084923762846856 39.315152466861207 0 0 0 0 6.4931945740626134 18.473240441548114 0 18.473240441548114 57.22003839620811 0 0 0 0 16.685269470896969 27.079004652983713 0 27.079004652983713 60.220080622180831 0 0 0 0 -1.4162498356259432 4.0500140195820933 0 4.0500140195820933 42.441700197931539 0 0 0 0 7.8673845567450371 9.6280459319750662 0 9.6280459319750662 41.861254642779386 0 0 0 0 10.654657857131951 13.111540500496631 0 13.111540500496631 42.672371037566336 0 0 0 0 -1.1893058391410061 5.0019950815922343 0 5.0019950815922343 58.451650593545764 0 0 0 0 -251.71495391062808 -2.6681725564376393 0 -2.6681725564376393 274.63271576081752 0 0 0 0 163.84114204258003 -96.31269727696781 0 -96.31269727696781 -51.821550319778908 0 0 0 0 -3.725821957646076 2.9481803788221441 0 2.9481803788221441 54.819045538693899 0 0 0 0 -10.616195818804954 -9.1903522210159281 0 -9.1903522210159281 61.394837580766762 0 0 0 0 -2.2636027686479565 8.3211613965686411 0 8.3211613965686411 71.462499949149787 0 0 0 0 7.7951674546508682 15.792045574526156 0 15.792045574526156 19.06990699450435 0 0 0 0 4.1959049518198981 18.236492112682754 0 18.236492112682754 64.94267739271163 0 0 0 0 22.50939281033061 -12.802173234173097 0 -12.802173234173097 44.566989005892538 0 0 0 0 -8.3931079828062138 -4.4644373285336769 0 -4.4644373285336769 71.048181143443799 0 0 0 0 3.2861237302133226 3.0399345242941109 0 3.0399345242941109 2.3067504318093768 0 0 0 0 35.301213492341049 -7.9312603266880615 0 -7.9312603266880615 137.95587942655402 0 0 0 0 -1.8219337993547242 -174.32354764595948 0 -174.32354764595948 420.38540223204473 0 0 0 0 -86.268448948597324 73.767931299073098 0 73.767931299073098 216.34617689936204 0 0 0 0 96.097981500934111 122.97604654221504 0 122.97604654221504 155.33377356411802 0 0 0 0 3.1771043762501794 4.5649047589461844 0 4.5649047589461844 -2.2129822200861611 0 0 0 0 11.178299688296919 21.985301788356111 0 21.985301788356111 30.312173379247412 0 0 0 0 100.0917669275309 93.641258929197647 0 93.641258929197647 -2.1213068259276042 0 0 0 0 4.6303566250389849 154.29245034313863 0 154.29245034313863 -162.52213938452041 0 0 0 0 -91.378121400658074 -12.982621187129553 0 -12.982621187129553 261.90858368127374 0 0 0 0 -39.626486401014972 104.55443376678159 0 104.55443376678159 99.293488412338775 0 0 0 0 7.1054355171372148 14.027228661864562 0 14.027228661864562 17.795836859486087 0 0 0 0 7.1810324652251438 14.663839831329824 0 14.663839831329824 3.1226677169979666 0 0 0 0 6.0889839215432051 9.9825626780481969 0 9.9825626780481969 11.271744745528011 0 0 0 0 4.5480599495936076 11.61799888346286 0 11.61799888346286 17.512685984576819 0 0 0 0 19.8661515779213 15.256377405621606 0 15.256377405621606 31.673102856890182 0 0 0 0 13.591673770051784 1.8562971558858408 0 1.8562971558858408 26.22609812239898 0 0 0 0 6.1977379822441563 7.8544175600722923 0 7.8544175600722923 16.70287535491255 0 0 0 0 12.932610668307431 1.971245127247613 0 1.971245127247613 1.2657016308008977 0 0 0 0 10.520012939799017 10.103377155057387 0 10.103377155057387 17.025608999130782 0 0 0 0 16.226944745763149 3.463909538822918 0 3.463909538822918 22.688321626810648 0 0 0 0 32.137430426636797 -7.5212036475568311 0 -7.5212036475568311 21.282332991675503 0 0 0 0 27.671899511842241 -4.5117620102209912 0 -4.5117620102209912 19.360692620488408 0 0 0 0 68.281850406331387 -23.13267163674027 0 -23.13267163674027 3.0096850569389062 0 0 0 0 33.283949395749914 -11.543415493411885 0 -11.543415493411885 18.106228042019211 0 0 0 0 33.319428195452247 -20.783175949734868 0 -20.783175949734868 30.333373287137874 0 0 0 0 15.332554518299276 -11.443210152545362 0 -11.443210152545362 28.315699775266694 0 0 0 0 15.310353310215532 -12.845620749656518 0 -12.845620749656518 39.327733183396049 0 0 0 0 13.599827386029574 -11.542404410956806 0 -11.542404410956806 39.807250743222539 0 0 0 0 4.4341421588273846 -8.333693423323318 0 -8.333693423323318 41.414099231035209 0 0 0 0 9.381512970294807 -10.869531037787965 0 -10.869531037787965 39.798472764377948 0 0 0 0 9.0559397996767075 -10.829593349932111 0 -10.829593349932111 39.910408912621278 0 0 0 0 6.760790864611181 -12.130931012630754 0 -12.130931012630754 40.040790835190819 0 0 0 0 9.0449489808656836 -10.978661754270433 0 -10.978661754270433 39.829875093084411 0 0 0 0 1.2678972174498835 -2.3037754836172724 0 -2.3037754836172724 6.2735110047129865 0 0 0 0 10.042103144931332 -14.871312758053591 0 -14.871312758053591 38.933475895275478 0 0 0 0 4.6229690455268155 -15.769649233574455 0 -15.769649233574455 39.397889151596246 0 0 0 0 13.761587181668233 -25.0577383707423 0 -25.0577383707423 39.864348967246769 0 0 0 0 182.25585224670431 -13.658273217348324 0 -13.658273217348324 -116.35122763743857 0 0 0 0 8.3483177308796712 -5.2428477650064451 0 -5.2428477650064451 -116.73069546961051 0 0 0 0 67.750675852551012 86.383608133834059 0 86.383608133834059 -2.8719500540100853 0 0 0 0 5.1528374987065035 -56.303866715843469 0 -56.303866715843469 229.02079428698198 0 0 0 0 4.3181872386342475 3.6465879207426326 0 3.6465879207426326 1.5412189489098296 0 0 0 0 377.28108903004079 -3.501054290572938 0 -3.501054290572938 26.581681532521543 0 0 0 0 22.753887982652117 -93.52293341251152 0 -93.52293341251152 78.395268738284358 0 0 0 0 204.43343299619391 -36.209177543540136 0 -36.209177543540136 -0.30804990426440781 0 0 0 0 -7.7413882394650955 1.1521216943947366 0 1.1521216943947366 32.355883963449742 0 0 0 0 -60.57020484173438 46.942289771257492 0 46.942289771257492 28.920423338189721 0 0 0 0 -5.703413760895728 45.445147963910131 0 45.445147963910131 4.0251455912075471 0 0 0 0 -4.5708145519945447 40.749464820255525 0 40.749464820255525 21.278215546721185 0 0 0 0 50.181259243053546 58.844306269369554 0 58.844306269369554 10.640240867513057 0 0 0 0 159.99705022506942 105.27539333863388 0 105.27539333863388 33.290476662346919 0 0 0 0 586.22058629425123 480.64084493463452 0 480.64084493463452 341.25005099495684 0 0 0 0 -60.829126965916828 78.418177321582334 0 78.418177321582334 149.03983978219912 0 0 0 0 2.8466445151433337 4.3748308291526712 0 4.3748308291526712 0.0014381243993284443 0 0 0 0 -123.73274909420991 -42.53497884736862 0 -42.53497884736862 54.789363259078527 0 0 0 0 36.866839574508731 186.65969370100356 0 186.65969370100356 987.84810703281255 0 0 0 0 1.9535376365908992 3.5633389887546514 0 3.5633389887546514 5.9900462151793477 0 0 0 0 555.00219607397867 995.07498624146683 0 995.07498624146683 720.01832491926689 0 0 0 0 782.04929693976464 876.92826793967106 0 876.92826793967106 850.48657980164444 0 0 0 0 483.18060610023895 -12.347772574859846 0 -12.347772574859846 931.79577971484741 0 0 0 0 1561.6693106212103 644.66049251061122 0 644.66049251061122 256.29029629495926 0 0 0 0 89.684232465211608 1.2802517936361255 0 1.2802517936361255 235.17235142969002 0 0 0 0 -248.85543456899995 395.80664045063895 0 395.80664045063895 608.57159815016348 0 0 0 0 283.39271809491652 372.91671838701586 0 372.91671838701586 297.66614663073415 0 0 0 0 80.211541860296165 416.69228524147911 0 416.69228524147911 385.74380265535729 0 0 0 0 952.57714585129088 352.81781311579107 0 352.81781311579107 120.24497769017034 0 0 0 0 326.26786196365288 587.32894298545216 0 587.32894298545216 698.71704000222962 0 0 0 0 578.8049244704489 377.53995547218801 0 377.53995547218801 129.47823637305191 0 0 0 0 3.4026009891937683 3.6898727258414681 0 3.6898727258414681 -4.7869377518550493 0 0 0 0 553.68709517244667 320.48775967591246 0 320.48775967591246 166.16716687187727 0 0 0 0 345.42334069914727 393.84492099275303 0 393.84492099275303 232.94044846401448 0 0 0 0 -1.1446588596519742 3.4382528477608787 0 3.4382528477608787 -6.8820374293203201 0 0 0 0 64.807730934313781 85.697994913424736 0 85.697994913424736 22.765667373125325 0 0 0 0 -20.501027548628372 20.512952075107023 0 20.512952075107023 47.742520941879775 0 0 0 0 50.328286665966516 28.500858752839122 0 28.500858752839122 -1.1456668970276951 0 0 0 0 -35.093503260264697 42.401722244889243 0 42.401722244889243 4.4093311512442597 0 0 0 0 -19.479426714875444 19.791185548543581 0 19.791185548543581 41.432353391108336 0 0 0 0 4.7765924666401114 15.292356759886214 0 15.292356759886214 29.271609128633656 0 0 0 0 -10.686257025067192 28.233412103791125 0 28.233412103791125 30.072926316730445 0 0 0 0 -1.7467492313945634 4.8375868410163889 0 4.8375868410163889 8.8421102478936575 0 0 0 0 30.823365428173929 49.867586326588935 0 49.867586326588935 28.521856441249838 0 0 0 0 4.2077005657654629 13.104397321377093 0 13.104397321377093 21.292177043510037 0 0 0 0 -20.010911696217249 18.311732200665574 0 18.311732200665574 16.09839200656279 0 0 0 0 41.063678415094159 28.715452301541518 0 28.715452301541518 9.3478852138941875 0 0 0 0 102.63936317842831 24.809358732283727 0 24.809358732283727 -4.4393740081141004 0 0 0 0 41.247867651839215 28.516383308473451 0 28.516383308473451 3.6807946660119342 0 0 0 0 48.028060392495036 31.961219038057607 0 31.961219038057607 7.2380224070511758 0 0 0 0 12.313222357815022 10.826139694818124 0 10.826139694818124 10.978895089785439 0 0 0 0 16.795530570218261 23.669274896696152 0 23.669274896696152 33.550253184163012 0 0 0 0 5.1127011448255288 1.0670110457506894 0 1.0670110457506894 -2.5997642862299699 0 0 0 0 10.26690292360405 13.417574146126299 0 13.417574146126299 15.567942543464596 0 0 0 0 8.6357478862196331 13.460786276875297 0 13.460786276875297 18.879323072385887 0 0 0 0 -23.220420228966304 27.597788123966893 0 27.597788123966893 17.012801456919988 0 0 0 0 5.7877984148028343 11.416552993018293 0 11.416552993018293 15.717925154695934 0 0 0 0 -19.942585302891985 68.197150075915488 0 68.197150075915488 13.31703137945442 0 0 0 0 -72.330383297625758 7.0430816088737629 0 7.0430816088737629 43.2257233960554 0 0 0 0 -50.419428346558789 72.295852247415496 0 72.295852247415496 12.982865414262051 0 0 0 0 -30.462254425514516 31.260235045183435 0 31.260235045183435 -23.00297350094479 0 0 0 0 -48.76697990598268 100.89350829973409 0 100.89350829973409 -111.78466992315953 0 0 0 0 -1.7640601987123254 0.85634956756290137 0 0.85634956756290137 2.9856750583983711 0 0 0 0 -123.26808888786218 163.76604276652506 0 163.76604276652506 -164.74109821082675 0 0 0 0 7.2975975029721667 15.207094096294895 0 15.207094096294895 14.858567675881204 0 0 0 0 10.27796031573947 11.226801767248645 0 11.226801767248645 9.2120917317065789 0 0 0 0 8.2425741206861858 -32.23348721711227 0 -32.23348721711227 -284.5708155316679 0 0 0 0 3.4536491540394429 3.6669845397828915 0 3.6669845397828915 -3.0541481124811583 0 0 0 0 224.55132910689645 48.946748594142264 0 48.946748594142264 -324.3461229437562 0 0 0 0 3.4859118730655609 314.26480911255203 0 314.26480911255203 384.42861368559534 0 0 0 0 351.03904969990072 -130.92236392712221 0 -130.92236392712221 81.868568148092891 0 0 0 0 -210.06798932406127 5.2527737830750993 0 5.2527737830750993 49.258117495104671 0 0 0 0 -20.695249988879368 -68.593096623257225 0 -68.593096623257225 128.43151085035061 0 0 0 0 32.555966944598367 -66.935598171876336 0 -66.935598171876336 -227.43180254543222 0 0 0 0 -66.640362250181624 56.773723111178697 0 56.773723111178697 157.00053830251272 0 0 0 0 -33.432700542279235 24.442330541791307 0 24.442330541791307 124.59459296506247 0 0 0 0 -42.956061639487416 144.67478975759877 0 144.67478975759877 476.92130793855176 0 0 0 0 38.033775784426325 143.04674682870245 0 143.04674682870245 45.343808411529608 0 0 0 0 44.173434501013162 82.281454387633858 0 82.281454387633858 126.83608803318566 0 0 0 0 36.186430576253997 60.851403144533833 0 60.851403144533833 90.792169553569693 0 0 0 0 13.963245950828195 25.828735309201875 0 25.828735309201875 55.083399569426547 0 0 0 0 -12.481994879440208 45.102675147041737 0 45.102675147041737 117.07708125123827 0 0 0 0 -1.8695924085368461 62.569198370249069 0 62.569198370249069 128.8883720007434 0 0 0 0 39.942869548201088 19.627106120664394 0 19.627106120664394 56.563798390108786 0 0 0 0 60.688763973802907 22.205246443834767 0 22.205246443834767 5.6749560054886388 0 0 0 0 91.6583537221386 48.276308331203836 0 48.276308331203836 -5.3522866343191708 0 0 0 0 -2.1897487936053928 4.1171027387018171 0 4.1171027387018171 -5.2650933452227093 0 0 0 0 32.918328204234513 -7.924344261893566 0 -7.924344261893566 -50.992582665334339 0 0 0 0 43.671187222603635 19.239101711620606 0 19.239101711620606 11.393856791153667 0 0 0 0 34.975815840483847 42.239192352120881 0 42.239192352120881 -45.055101130252297 0 0 0 0 281.1083641697212 255.36473461552305 0 255.36473461552305 163.03643783182451 0 0 0 0 19.481847770281377 77.012533509117929 0 77.012533509117929 128.88769437303563 0 0 0 0 59.246835470210435 30.746523159121352 0 30.746523159121352 40.553671622474212 0 0 0 0 -2.5435484854713661 3.3751696435667924 0 3.3751696435667924 -2.726136742964826 0 0 0 0 177.80256532863285 185.17816998516901 0 185.17816998516901 117.40434396293131 0 0 0 0 14.784715220910698 21.348192605899385 0 21.348192605899385 66.983971794974423 0 0 0 0 -2.081760704896209 1.9043782482003166 0 1.9043782482003166 0.26954770303751729 0 0 0 0 94.486002387714137 61.692744833118923 0 61.692744833118923 27.47847840947361 0 0 0 0 -156.55020889204025 128.2371139658062 0 128.2371139658062 74.0832764449151 0 0 0 0 216.27104487333827 -170.66488730330275 0 -170.66488730330275 1.8544449293403886 0 0 0 0 2.6000450684703074 6.5581527072867019 0 6.5581527072867019 15.797506616761751 0 0 0 0 -25.328254239528633 61.802984337817179 0 61.802984337817179 -35.033170463357237 0 0 0 0 20.8978537294646 166.3717628659906 0 166.3717628659906 91.684731642519182 0 0 0 0 -63.020473470914396 99.857788501503819 0 99.857788501503819 107.90826211767853 0 0 0 0 -133.24844898609444 2.8700318612536648 0 2.8700318612536648 1.0226942878143745 0 0 0 0 -5.7499492053812595 -4.9043636959594465 0 -4.9043636959594465 36.535436723911971 0 0 0 0 -205.03508677046921 34.766819431093609 0 34.766819431093609 121.07388849002018 0 0 0 0 -166.94737374715828 15.689493312662307 0 15.689493312662307 88.350070712709567 0 0 0 0 -15.518632900314628 108.20365598474382 0 108.20365598474382 136.74854247528128 0 0 0 0 -166.92827938832124 9.7284160900380812 0 9.7284160900380812 127.11972508349209 0 0 0 0 -174.57420734434237 15.688199211799656 0 15.688199211799656 71.219402562346659 0 0 0 0 -198.483690348305 21.680313004908385 0 21.680313004908385 179.29461694804559 0 0 0 0 -5.1627353258193409 -1.6001752488261758 0 -1.6001752488261758 97.790335770623642 0 0 0 0 -252.25738488672187 -20.653093399694626 0 -20.653093399694626 151.73264887993719 0 0 0 0 -61.706895035800471 -145.51535364373558 0 -145.51535364373558 42.055818138629547 0 0 0 0 -5.5012088181384211 -11.542315278987957 0 -11.542315278987957 109.50137128598493 0 0 0 0 -221.02829018358671 6.6719305805017939 0 6.6719305805017939 206.19562178729393 0 0 0 0 -364.87195567072172 -220.27810087315902 0 -220.27810087315902 179.77137212806701 0 0 0 0 -59.472800749321493 -31.707618372801335 0 -31.707618372801335 269.26197946311731 0 0 0 0 -51.113296572897681 -161.92703498722858 0 -161.92703498722858 -101.56395536023774 0 0 0 0 -266.09866919937247 4.6842168163675524 0 4.6842168163675524 81.792661559753469 0 0 0 0 -416.02003532279701 -105.5776214370344 0 -105.5776214370344 172.28035293886205 0 0 0 0 13.553020651919041 143.20656061260524 0 143.20656061260524 141.68535576015711 0 0 0 0 302.06815595164863 234.50896931064017 0 234.50896931064017 160.18202929201652 0 0 0 0 16.91119544076912 128.45372497384233 0 128.45372497384233 201.89401170098063 0 0 0 0 -153.40896095629432 187.29117687806865 0 187.29117687806865 320.59376758208236 0 0 0 0 -291.21234334354159 8.9348298433396849 0 8.9348298433396849 240.50593629634386 0 0 0 0 -124.46398606834839 116.26195689267843 0 116.26195689267843 220.46456683780707 0 0 0 0 -475.16634989586612 -73.045588982306072 0 -73.045588982306072 268.32559222360396 0 0 0 0 -405.6612755142383 -111.01223100228162 0 -111.01223100228162 199.07681352552027 0 0 0 0 -310.59375403248305 223.71348283132102 0 223.71348283132102 408.53041789693089 0 0 0 0 47.319832801599105 192.38418523048767 0 192.38418523048767 226.13707659198553 0 0 0 0 -857.86518519463402 192.42296161379636 0 192.42296161379636 315.27161466141843 0 0 0 0 -328.75577183471705 35.443558849334295 0 35.443558849334295 275.46670264231216 0 0 0 0 -726.82631380277007 -345.47881572370534 0 -345.47881572370534 115.62856609927439 0 0 0 0 -164.42299730136756 179.40606353592739 0 179.40606353592739 194.48045364434074 0 0 0 0 19.570840224158474 224.8664323620178 0 224.8664323620178 100.69215097683627 0 0 0 0 169.14849170138811 215.02626608017044 0 215.02626608017044 234.10991127369198 0 0 0 0 155.45037728541979 119.55897464169902 0 119.55897464169902 73.599383819819195 0 0 0 0 0.57485064401430508 -0.60037249428593498 0 -0.60037249428593498 0.53984899656279595 0 0 0 0 473.86700756659047 -17.833094458179403 0 -17.833094458179403 162.76612087604735 0 0 0 0 -235.36219913926413 55.201060103888267 0 55.201060103888267 532.60751409910154 0 0 0 0 102.69511540694907 -51.105447522066243 0 -51.105447522066243 -114.21091551043264 0 0 0 0 -346.25154695719402 -245.22510430389775 0 -245.22510430389775 227.42232866834092 0 0 0 0 -494.68819698857112 -213.25810946478305 0 -213.25810946478305 156.24052470932293 0 0 0 0 -4.5771579505247786 -13.4327899936041 0 -13.4327899936041 118.07455946449838 0 0 0 0 0.4045891839232354 5.6245156496879645 0 5.6245156496879645 36.395095770749322 0 0 0 0 10.967485020100469 9.6293835458347985 0 9.6293835458347985 64.923195093724644 0 0 0 0 -7.7809912693346632 -1.9936809101636754 0 -1.9936809101636754 64.095386094224523 0 0 0 0 1.2307273668050165 14.011454018913355 0 14.011454018913355 59.385043375428296 0 0 0 0 1.79036857230858 4.081730871432228 0 4.081730871432228 57.681501278639189 0 0 0 0 -2.6697984197688767 -4.1444246734532584 0 -4.1444246734532584 34.548613612822066 0 0 0 0 10.683698033743685 5.8613590944436282 0 5.8613590944436282 -13.709863536183548 0 0 0 0 -3.4146237094879357 9.4833083241533984 0 9.4833083241533984 17.375262091172644 0 0 0 0 8.160769956013155 50.81702716111613 0 50.81702716111613 5.6894139870346407 0 0 0 0 -84.709328549064139 -72.506336300393741 0 -72.506336300393741 158.12003593338886 0 0 0 0 182.68482665044485 -6.0724242279611644 0 -6.0724242279611644 -76.085460042233535 0 0 0 0 89.67304851009294 72.229349908819131 0 72.229349908819131 144.08097187601379 0 0 0 0 111.34063783001648 126.20534517398482 0 126.20534517398482 -49.316426426215912 0 0 0 0 -5.9995435395986858 -12.25773012151403 0 -12.25773012151403 120.76436042113795 0 0 0 0 -217.38900860912531 17.708154365697737 0 17.708154365697737 199.08936157448625 0 0 0 0 -29.043028163221152 58.659306774668948 0 58.659306774668948 174.08483994968992 0 0 0 0 -2.4292718766034813 3.6753983596309681 0 3.6753983596309681 12.202894385331149 0 0 0 0 0.096859968922672124 133.60180737910923 0 133.60180737910923 158.04465318439179 0 0 0 0 -8.8655103329173404 -7.3782311702701406 0 -7.3782311702701406 26.689386177186961 0 0 0 0 -228.63780597669415 -299.61671187413594 0 -299.61671187413594 -212.5639059823734 0 0 0 0 -282.82527489578615 52.358714291956858 0 52.358714291956858 -394.94656103471061 0 0 0 0 -535.31495184976256 -522.10163516592002 0 -522.10163516592002 -292.88910390945966 0 0 0 0 -596.83944138700872 -256.99581457768727 0 -256.99581457768727 204.74495475193544 0 0 0 0 -1236.0258334447776 -335.58174809585762 0 -335.58174809585762 205.4264211718546 0 0 0 0 -635.46535144264089 -299.79054289750638 0 -299.79054289750638 205.24571432556149 0 0 0 0 -811.98021662676592 -131.09398437411437 0 -131.09398437411437 148.0164281281177 0 0 0 0 -1016.0395761125155 275.92447996289047 0 275.92447996289047 14.030690081781358 0 0 0 0 -276.23771038441919 96.435947060097533 0 96.435947060097533 32.808743668247189 0 0 0 0 -9.5672094417450353 -7.7162421941084176 0 -7.7162421941084176 58.178581098181894 0 0 0 0 -3.8538442414473346 -3.7654968071489634 0 -3.7654968071489634 60.924694717636044 0 0 0 0 2.9480155794358325 5.5736316861384694 0 5.5736316861384694 85.957266552235524 0 0 0 0 -6.1796204816646423 -7.0131760873191524 0 -7.0131760873191524 39.661766515986528 0 0 0 0 4.4348316100840748 -4.865848558198195 0 -4.865848558198195 39.163377868651878 0 0 0 0 -606.42777145566015 -164.08888288510934 0 -164.08888288510934 153.27716704366685 0 0 0 0 0.25555501616393705 -9.3298221273923758 0 -9.3298221273923758 37.355802671950499 0 0 0 0 0.83074409765360357 -8.0336305724018757 0 -8.0336305724018757 44.940395241874171 0 0 0 0 -600.50445209746863 -252.5037808373927 0 -252.5037808373927 -55.181462207125151 0 0 0 0 -600.53826467465262 -267.86807001265151 0 -267.86807001265151 148.40734450594755 0 0 0 0 -280.83397086170226 5.6251835299990489 0 5.6251835299990489 172.50760483060731 0 0 0 0 1.5733086406522228 -16.279223638066192 0 -16.279223638066192 67.948390159245179 0 0 0 0 -326.85850348706208 -298.89689418096532 0 -298.89689418096532 -20.629444893158507 0 0 0 0 -689.20901873360594 -458.65916465165537 0 -458.65916465165537 -29.396097971737618 0 0 0 0 -3.1612941497018294 7.271529183902615 0 7.271529183902615 11.994193779474671 0 0 0 0 -625.04568190530711 -274.36718251593811 0 -274.36718251593811 51.217719276552089 0 0 0 0 -237.99632388228429 -282.91941072356713 0 -282.91941072356713 -38.212472473853268 0 0 0 0 17.265989632479432 -16.657546451511735 0 -16.657546451511735 71.629938097208651 0 0 0 0 26.467473188686427 -6.7650391266870429 0 -6.7650391266870429 63.249816698415088 0 0 0 0 2.4453924559320512 -3.2521552706020884 0 -3.2521552706020884 54.87851679463347 0 0 0 0 -1.5643388745511402 2.4984020007905201 0 2.4984020007905201 64.160160812505637 0 0 0 0 -2.5397536907507856 1.6084297555535159 0 1.6084297555535159 58.252223176852567 0 0 0 0 -2.0906842304794893 1.6666831329041543 0 1.6666831329041543 56.202851904759882 0 0 0 0 -2.3320711782344006 -5.2477763657952892 0 -5.2477763657952892 55.867135577638692 0 0 0 0 -0.50653631251634579 -4.8097482831362868 0 -4.8097482831362868 71.250844724698254 0 0 0 0 0.39400760950735503 1.4412539337577073 0 1.4412539337577073 66.063751838039025 0 0 0 0 -34.317939631264153 -11.477053908765811 0 -11.477053908765811 4.8589698394498555 0 0 0 0 -20.323133421188231 -65.559629828237576 0 -65.559629828237576 144.58503241336439 0 0 0 0 2.2299840419045722 -10.646081608952954 0 -10.646081608952954 61.499891430972639 0 0 0 0 -6.7468041872472071 -22.107373963089628 0 -22.107373963089628 39.660688757303717 0 0 0 0 2.1892105639318515 -11.060177317503985 0 -11.060177317503985 71.314592834401992 0 0 0 0 36.400758460175894 31.421130077891576 0 31.421130077891576 60.803606648940331 0 0 0 0 -35.212942272373766 30.025719117715198 0 30.025719117715198 86.206534262746572 0 0 0 0 17.323290797299251 -63.994856817151231 0 -63.994856817151231 209.63611870604655 0 0 0 0 -71.324079581465412 10.168400854898209 0 10.168400854898209 152.16020414532613 0 0 0 0 -41.272049989094739 116.38794956012862 0 116.38794956012862 -50.129793151776539 0 0 0 0 -243.5062871385453 241.55449310372933 0 241.55449310372933 -82.954937953356421 0 0 0 0 22.266807893464296 23.965182967838047 0 23.965182967838047 10.637833942537245 0 0 0 0 -316.61837418034156 175.58351603468327 0 175.58351603468327 86.01938065214199 0 0 0 0 -148.69540773684821 54.311825633489207 0 54.311825633489207 166.1672715425957 0 0 0 0 14.855623243493028 73.717263582093437 0 73.717263582093437 -18.793030646425905 0 0 0 0 20.195180411522188 16.623736105691933 0 16.623736105691933 112.37775515134126 0 0 0 0 -239.00421865658163 -253.52869278562321 0 -253.52869278562321 3499.4002707400759 0 0 0 0 -153.65765815591018 -266.35702286420747 0 -266.35702286420747 3125.0998069497 0 0 0 0 239.47702419119173 1866.4431451798882 0 1866.4431451798882 2312.57247009405 0 0 0 0 -272.29376047993532 875.01291644970479 0 875.01291644970479 3495.4804136978928 0 0 0 0 -254.5673312432026 358.82725661945733 0 358.82725661945733 2290.2640756128312 0 0 0 0 85.649042675611994 427.59487015668128 0 427.59487015668128 2215.4931069094673 0 0 0 0 19.400101449470736 30.327927154724875 0 30.327927154724875 17.878556474199371 0 0 0 0 18.19076104598291 -6.0052632812962514 0 -6.0052632812962514 32.970005308575971 0 0 0 0 95.897636929676196 333.68793229016592 0 333.68793229016592 1885.5397018928397 0 0 0 0 -0.31993382021149097 8.4889545596507219 0 8.4889545596507219 9.6409617157396781 0 0 0 0 1288.6024959869376 266.1811706495937 0 266.1811706495937 65.589015798410401 0 0 0 0 3.1304507986272654 -11.419878563520548 0 -11.419878563520548 55.211014186285468 0 0 0 0 -137.41736617546144 -180.4950713273065 0 -180.4950713273065 -68.327454250305891 0 0 0 0 20.411914946141678 -4.382771344975481 0 -4.382771344975481 49.506801182766139 0 0 0 0 -2.0783373820183613 -21.111568439572828 0 -21.111568439572828 45.895834616022071 0 0 0 0 17.179913163909077 -14.648723954676825 0 -14.648723954676825 53.059132806076377 0 0 0 0 13.306730820923349 -2.7906206003935949 0 -2.7906206003935949 63.509745665876835 0 0 0 0 -153.72879272916271 -232.41630518038437 0 -232.41630518038437 1.669516276804643 0 0 0 0 -393.6940390677064 -263.99033659384077 0 -263.99033659384077 -0.89055648205976468 0 0 0 0 -44.811890288244058 -407.82348736656422 0 -407.82348736656422 -67.07346492720535 0 0 0 0 -153.99321032430271 -301.68405547252041 0 -301.68405547252041 -162.27020916016772 0 0 0 0 -10.539736283973753 -317.99358827208198 0 -317.99358827208198 -124.48469977887362 0 0 0 0 176.3675744551206 -450.25804879041198 0 -450.25804879041198 -35.847370877090725 0 0 0 0 106.91395894928621 -148.49357945065367 0 -148.49357945065367 -789.11272982672381 0 0 0 0 295.2825050869198 -529.41189400568692 0 -529.41189400568692 -307.40189896772063 0 0 0 0 1.8022877597901525 0.042116049373476017 0 0.042116049373476017 -0.024056806064940872 0 0 0 0 -89.549653609566576 -158.54804080563554 0 -158.54804080563554 -161.76996323757339 0 0 0 0 53.099344330955773 -244.9676545252878 0 -244.9676545252878 -146.82826461976947 0 0 0 0 1589.2135010052077 -509.45862313059115 0 -509.45862313059115 196.00488502280223 0 0 0 0 2.199916185526865 -3.9810556766140337 0 -3.9810556766140337 14.156735090861773 0 0 0 0 474.73899104929143 -1069.5532653833034 0 -1069.5532653833034 972.55317944320268 0 0 0 0 -250.2436403608433 -1133.194770043785 0 -1133.194770043785 3492.7215686671698 0 0 0 0 688.00150417040629 -1639.2450266424166 0 -1639.2450266424166 2132.4784760914772 0 0 0 0 798.70847513162687 1595.4347098173639 0 1595.4347098173639 1139.3567057269393 0 0 0 0 5.3823395208757328 -7.0687900595135602 0 -7.0687900595135602 24.2552643061384 0 0 0 0 -981.50752272889781 213.404637698226 0 213.404637698226 3499.5379657334488 0 0 0 0 230.52995494060912 -298.55631728146182 0 -298.55631728146182 1697.7363936576439 0 0 0 0 -656.00043105564259 -527.03091287350253 0 -527.03091287350253 2483.5765612579853 0 0 0 0 -525.8118278062758 -451.58519282140333 0 -451.58519282140333 1865.8669847606943 0 0 0 0 316.12894533855888 -1101.465316857204 0 -1101.465316857204 1709.5641869261672 0 0 0 0 142.95352306296229 -594.18944163072956 0 -594.18944163072956 243.92343820828683 0 0 0 0 -505.09753131907848 -752.80929617745096 0 -752.80929617745096 727.81252631664393 0 0 0 0 -22.36224237472743 136.8198006894454 0 136.8198006894454 695.75907657798962 0 0 0 0 -1104.2268749759096 396.39721210391872 0 396.39721210391872 1927.2746359335652 0 0 0 0 -5.6036688372347898 -4.1359061614267887 0 -4.1359061614267887 -2.9464817193558588 0 0 0 0 -561.54170977118429 38.787845614406251 0 38.787845614406251 77.912362761519034 0 0 0 0 2.4096639259146286 -186.53751995247512 0 -186.53751995247512 161.89143655075895 0 0 0 0 283.01690500208952 -703.8548306341836 0 -703.8548306341836 103.73981393342547 0 0 0 0 -412.8115781133103 -621.03793436324031 0 -621.03793436324031 413.23854844963353 0 0 0 0 70.319118870125749 -508.32724197626521 0 -508.32724197626521 -49.962543937872397 0 0 0 0 181.76834786407488 -409.9642572130615 0 -409.9642572130615 15.957388830451237 0 0 0 0 320.8124813451368 -277.51801360543323 0 -277.51801360543323 24.609742934364476 0 0 0 0 31.986520724724073 -256.64503486300737 0 -256.64503486300737 37.284902169412817 0 0 0 0 175.69430820781417 -331.39164670701575 0 -331.39164670701575 122.43846257249243 0 0 0 0 344.66400397629707 -297.78384180997818 0 -297.78384180997818 121.85945296922 0 0 0 0 421.51306232222259 -507.07291187423107 0 -507.07291187423107 556.92525751783978 0 0 0 0 290.30046353186481 -135.05785477928293 0 -135.05785477928293 610.31308908699702 0 0 0 0 182.32385630264503 -187.0812229582807 0 -187.0812229582807 447.74097469744447 0 0 0 0 245.66575085332701 -280.26041767333118 0 -280.26041767333118 553.1787441042834 0 0 0 0 154.21196505089773 -360.46764949822682 0 -360.46764949822682 144.1549796450563 0 0 0 0 255.10146759825034 -444.96073748458002 0 -444.96073748458002 202.59071754046454 0 0 0 0 233.49870312732617 -424.87613422453069 0 -424.87613422453069 18.426222003356088 0 0 0 0 -46.389155730606944 -411.49833567796304 0 -411.49833567796304 152.84193875205528 0 0 0 0 154.25401665324364 -342.60794774124406 0 -342.60794774124406 -13.410332763407496 0 0 0 0 -236.82315098667368 -361.93032140568539 0 -361.93032140568539 20.070975781949528 0 0 0 0 -74.791687597760301 -339.79351696917001 0 -339.79351696917001 -24.296984475469799 0 0 0 0 -312.16198682986158 -351.99006829994141 0 -351.99006829994141 131.39465121082321 0 0 0 0 -387.39910536393973 -349.60754060674662 0 -349.60754060674662 159.32212790343328 0 0 0 0 -247.84146442426982 -249.655276404701 0 -249.655276404701 84.4450899014264 0 0 0 0 -128.17738779629235 -398.48358969585752 0 -398.48358969585752 213.23097794514615 0 0 0 0 113.83791060903198 -357.39933683929121 0 -357.39933683929121 287.80648944689892 0 0 0 0 28.221615248668968 -238.00548176937446 0 -238.00548176937446 121.48045841922067 0 0 0 0 111.7042771578507 -39.975191040758546 0 -39.975191040758546 404.05088470040937 0 0 0 0 51.688273379330155 -287.12325616681665 0 -287.12325616681665 203.06034568755422 0 0 0 0 213.62038721266129 -50.87835102713143 0 -50.87835102713143 346.88060799110826 0 0 0 0 -233.35488344301393 -386.99489437047305 0 -386.99489437047305 114.3215512274619 0 0 0 0 -141.86581619714161 -173.69008102658699 0 -173.69008102658699 199.94312137009774 0 0 0 0 6.5772101979509898 -6.0407167972443858 0 -6.0407167972443858 303.88795240248146 0 0 0 0 -404.19297870835862 -174.53522916106158 0 -174.53522916106158 150.43549244588758 0 0 0 0 -54.354531816235067 -280.82251060358976 0 -280.82251060358976 40.514988526963862 0 0 0 0 -289.0961643483447 167.60172283899624 0 167.60172283899624 218.78994467513985 0 0 0 0 198.57908575882556 328.04598346182865 0 328.04598346182865 525.92818264980451 0 0 0 0 416.76136470764732 252.24271631634292 0 252.24271631634292 511.65049936321157 0 0 0 0 268.3387028598313 -124.95068407481449 0 -124.95068407481449 285.18713293470501 0 0 0 0 364.9164636378448 318.78044433002651 0 318.78044433002651 429.47132151555343 0 0 0 0 1120.2919455718518 502.95093289007491 0 502.95093289007491 469.83345519955037 0 0 0 0 416.00751106934183 518.71177924869335 0 518.71177924869335 910.51060903130565 0 0 0 0 -13.310266586769103 753.80628895245172 0 753.80628895245172 808.57384442370676 0 0 0 0 -10.760754899252067 543.20801790734788 0 543.20801790734788 1104.4237870707439 0 0 0 0 192.29077596787852 177.99555408844026 0 177.99555408844026 1115.0514690156026 0 0 0 0 319.18546259577738 394.96782594893193 0 394.96782594893193 1458.1236754262209 0 0 0 0 283.29893700099501 -438.94974892556638 0 -438.94974892556638 1463.9032271882024 0 0 0 0 203.38117965600384 245.26163804746466 0 245.26163804746466 685.88382315676427 0 0 0 0 204.5327990358843 106.85819484403328 0 106.85819484403328 848.13764093603095 0 0 0 0 -362.59834753660425 115.51294499434152 0 115.51294499434152 1853.9983661396909 0 0 0 0 2.3256449170022915 2.2691885326124606 0 2.2691885326124606 2.7237898752051706 0 0 0 0 648.68109816606216 545.77149131283659 0 545.77149131283659 905.13064872081304 0 0 0 0 21.448812371068925 -271.7257015172363 0 -271.7257015172363 522.17933014538721 0 0 0 0 58.91655059696177 -453.27972175692594 0 -453.27972175692594 1266.5885439918929 0 0 0 0 -241.85154518043828 104.00851423514541 0 104.00851423514541 738.94848172135971 0 0 0 0 52.589087123563331 245.61454963526921 0 245.61454963526921 668.83480719978979 0 0 0 0 -22.646917773128962 570.32050326660101 0 570.32050326660101 1352.1603946121031 0 0 0 0 -243.65383838828166 39.810100932329078 0 39.810100932329078 1373.7355017382797 0 0 0 0 -355.01036324422694 152.07806820879341 0 152.07806820879341 1275.4125753759508 0 0 0 0 -436.86848738674917 50.423731793049228 0 50.423731793049228 1181.8839698579686 0 0 0 0 -409.69649814092907 114.71946881515942 0 114.71946881515942 1253.0735467329068 0 0 0 0 -690.12293124862026 83.393902447234723 0 83.393902447234723 1442.4387421246338 0 0 0 0 -547.47968844736261 -714.31656493408718 0 -714.31656493408718 513.70805909535557 0 0 0 0 -166.02067248081789 869.83252639440616 0 869.83252639440616 2437.279388955154 0 0 0 0 -531.62343596425671 -950.22659106336505 0 -950.22659106336505 2045.8746229623503 0 0 0 0 -480.11652345054392 -522.36211596042449 0 -522.36211596042449 -161.37564331176691 0 0 0 0 -764.82332084902328 74.359638741889285 0 74.359638741889285 568.9271988052933 0 0 0 0 -5.9088239119823047 -3.242401812088346 0 -3.242401812088346 -3.3041233323304482 0 0 0 0 45.746272914985184 -8.7754883293600869 0 -8.7754883293600869 -85.270573165904352 0 0 0 0 34.819679171524058 -123.52456251956755 0 -123.52456251956755 73.932719691405509 0 0 0 0 101.51266675343072 245.89307489421481 0 245.89307489421481 238.21271662182698 0 0 0 0 209.82331061050581 597.21001054011867 0 597.21001054011867 1056.3390624936001 0 0 0 0 2.0630034578863463 -2.6131489457269144 0 -2.6131489457269144 16.337136429806208 0 0 0 0 817.19062627797348 -509.63149377840818 0 -509.63149377840818 460.88424119035335 0 0 0 0 602.17369025694597 -140.23774520451479 0 -140.23774520451479 -27.319423680222826 0 0 0 0 170.46178742148004 -7.7947203475196147 0 -7.7947203475196147 -5.0946621484927164 0 0 0 0 43.696935419843157 -69.88585954199516 0 -69.88585954199516 76.609366029173543 0 0 0 0 -72.667702748102101 -69.417525098384431 0 -69.417525098384431 49.08897091927065 0 0 0 0 -4.4122599171858194 -9.1209293622719283 0 -9.1209293622719283 42.474428555995644 0 0 0 0 179.57725286330958 168.70396912500291 0 168.70396912500291 -102.74575089855352 0 0 0 0 -17.155287494378108 -15.430129071875257 0 -15.430129071875257 2.8429319808223283 0 0 0 0 -410.21683128199675 -97.121529838979768 0 -97.121529838979768 260.9262800140641 0 0 0 0 -9.1710147956401258 -10.58405788918283 0 -10.58405788918283 43.660311492385347 0 0 0 0 318.74962419255644 136.78157059945079 0 136.78157059945079 76.356284575464088 0 0 0 0 -69.790368185688294 -101.65375967401633 0 -101.65375967401633 -12.239802726959169 0 0 0 0 -37.825346048590745 -12.987641069688834 0 -12.987641069688834 38.723212388867978 0 0 0 0 -18.757199904156554 -17.637719295123773 0 -17.637719295123773 6.4845573517553987 0 0 0 0 161.46571296679144 -187.49306835642892 0 -187.49306835642892 19.299676796144922 0 0 0 0 -385.9630160938575 -107.7170361386452 0 -107.7170361386452 1737.8052983491507 0 0 0 0 -396.74563423463064 -281.00332217873074 0 -281.00332217873074 2128.2215378475375 0 0 0 0 243.61432469522424 465.97264529675158 0 465.97264529675158 468.82468463190162 0 0 0 0 -33.893261240642403 -900.75105027962491 0 -900.75105027962491 2852.1179709873832 0 0 0 0 853.45946134438009 -1156.4725076418472 0 -1156.4725076418472 683.70204845032276 0 0 0 0 0.16360041909359135 -2.0176078596831744 0 -2.0176078596831744 17.612199983861444 0 0 0 0 122.15274898512553 925.97725465938856 0 925.97725465938856 2264.8966397480981 0 0 0 0 5.6693093553679308 7.0715922853366067 0 7.0715922853366067 9.9329592687050337 0 0 0 0 -257.22755143016241 -2260.5333344975661 0 -2260.5333344975661 2893.832381989545 0 0 0 0 42.111962352600955 -623.2551612965508 0 -623.2551612965508 2701.1846708970188 0 0 0 0 982.96349940876087 451.8483573984704 0 451.8483573984704 2905.8104513509898 0 0 0 0 334.76427444452736 -1110.7807677070377 0 -1110.7807677070377 3499.0210098541133 0 0 0 0 29.764418696372559 -933.89431420755864 0 -933.89431420755864 1391.3252890505246 0 0 0 0 5.955821495113967 2.0750170968705532 0 2.0750170968705532 7.0205043659409228 0 0 0 0 -144.78554633006684 -650.29356011385244 0 -650.29356011385244 2002.0580942128145 0 0 0 0 -725.07779679607211 -456.01118817216775 0 -456.01118817216775 4013.4165318740706 0 0 0 0 -720.44715158878626 -504.44519017610583 0 -504.44519017610583 1975.4160288022977 0 0 0 0 -1149.3627016570354 993.62651970089973 0 993.62651970089973 3490.3073845782637 0 0 0 0 -840.55897861423011 717.1712197392626 0 717.1712197392626 1170.7620636521897 0 0 0 0 -420.18463018141824 -393.0331743712668 0 -393.0331743712668 3501.1328318746723 0 0 0 0 145.85707802780161 -301.86390875886718 0 -301.86390875886718 1021.0852270322794 0 0 0 0 0.49866021366004465 3.4308230030064237 0 3.4308230030064237 5.4336980929741969 0 0 0 0 -96.063195645340812 -637.43339077546989 0 -637.43339077546989 2841.0345844524854 0 0 0 0 328.29484389277127 407.73444604906399 0 407.73444604906399 415.21950261307938 0 0 0 0 -100.75488004738145 -518.2667029284421 0 -518.2667029284421 184.27230531848909 0 0 0 0 -378.79810148369438 -314.45198097709363 0 -314.45198097709363 564.2085134842855 0 0 0 0 59.415323624930579 82.410028030368267 0 82.410028030368267 361.20315440863669 0 0 0 0 413.18347352727835 -544.94046298220474 0 -544.94046298220474 548.19556087476667 0 0 0 0 290.72414857585392 -118.80273249859601 0 -118.80273249859601 -69.690194507871638 0 0 0 0 -348.90677945750326 -114.81327754318772 0 -114.81327754318772 -48.552392589539522 0 0 0 0 -371.37961102119493 -302.51353196553828 0 -302.51353196553828 30.693180425965693 0 0 0 0 0.75109429207548495 80.308248267985618 0 80.308248267985618 908.85641898852191 0 0 0 0 -739.3153100324771 -154.60566210303659 0 -154.60566210303659 -178.98677377539934 0 0 0 0 -559.70337650694432 -523.03348098877541 0 -523.03348098877541 79.584857687703334 0 0 0 0 95.414074472541103 265.9503671898201 0 265.9503671898201 30.643601063733513 0 0 0 0 -179.20784741683281 -185.93175582783078 0 -185.93175582783078 410.70847830937419 0 0 0 0 -2.1742664549238166 1.8239394988921305 0 1.8239394988921305 4.1142855612087601 0 0 0 0 -130.44244586716965 222.68130849077079 0 222.68130849077079 -319.8483867184259 0 0 0 0 -2.1594169123485636 -6.4063088750307458 0 -6.4063088750307458 41.337894511798993 0 0 0 0 -948.57282667069103 -785.12919076301841 0 -785.12919076301841 112.64469793783792 0 0 0 0 -1452.3736527896899 -314.2735387422108 0 -314.2735387422108 342.83390709992091 0 0 0 0 -377.60712398743772 -216.78901036739262 0 -216.78901036739262 51.415796411707561 0 0 0 0 -164.64813804827378 -409.4032841622502 0 -409.4032841622502 -272.89391639287351 0 0 0 0 -748.03147969716235 1411.0749740544088 0 1411.0749740544088 1446.6211598585978 0 0 0 0 25.667796167203598 -1441.5739948117589 0 -1441.5739948117589 3087.1971764073242 0 0 0 0 496.57603042078193 291.75615990204824 0 291.75615990204824 -393.69549108599313 0 0 0 0 913.10409902543586 -1314.9381443689781 0 -1314.9381443689781 1779.4033886977559 0 0 0 0 -0.67586067022349172 -1.0549527795561531 0 -1.0549527795561531 21.712277102120595 0 0 0 0 179.76328560799482 -412.69596734386869 0 -412.69596734386869 2230.4166187689552 0 0 0 0 -127.48325099569556 -1049.1306850652327 0 -1049.1306850652327 3490.478431349376 0 0 0 0 0.78021513204577986 -0.98705220845658914 0 -0.98705220845658914 1.7163083489928681 0 0 0 0 111.13720770285785 -173.81323481267464 0 -173.81323481267464 2125.175500358062 0 0 0 0 125.26407213481029 -42.810676223205519 0 -42.810676223205519 -181.93263712534099 0 0 0 0 246.00842625928004 497.86840302839755 0 497.86840302839755 1603.5516257677518 0 0 0 0 455.32940943556383 -228.6421133191634 0 -228.6421133191634 698.11089404625818 0 0 0 0 0.09580389170575998 -10.947351917592712 0 -10.947351917592712 33.849284978435151 0 0 0 0 2.8864279649687887 -82.189441260681633 0 -82.189441260681633 393.71184579009423 0 0 0 0 0.62060326198691129 -4.5816058466588636 0 -4.5816058466588636 -2.1520257846420918 0 0 0 0 36.119524775106129 293.39557650516508 0 293.39557650516508 397.29893650491476 0 0 0 0 -524.06608782465446 -297.22457341022528 0 -297.22457341022528 -135.06765099543554 0 0 0 0 -170.8416049344487 -557.58597161943908 0 -557.58597161943908 -324.52406467458059 0 0 0 0 -277.93051844664296 -153.95175996705802 0 -153.95175996705802 -205.72751496992714 0 0 0 0 -225.36914247722871 -521.06519989870139 0 -521.06519989870139 49.016949805343756 0 0 0 0 1.1657310343573508 -3.8086274559552606 0 -3.8086274559552606 12.617930858639227 0 0 0 0 651.87592783820253 1405.0636386824335 0 1405.0636386824335 2281.1308427661425 0 0 0 0 383.39316532917155 45.560505817833473 0 45.560505817833473 2411.6691219859131 0 0 0 0 -288.79056920536368 666.05081193680235 0 666.05081193680235 3005.4365634877322 0 0 0 0 -282.89415017173474 1004.8887805930717 0 1004.8887805930717 2551.2478415171108 0 0 0 0 -640.66636309231649 844.10731707743253 0 844.10731707743253 2541.1766870270221 0 0 0 0 360.16760500578528 951.84303777893365 0 951.84303777893365 963.475761888345 0 0 0 0 -0.37365865568471435 -1.7980582565581216 0 -1.7980582565581216 17.553450963509704 0 0 0 0 360.79679521974049 1177.7699234591419 0 1177.7699234591419 2094.4655636498064 0 0 0 0 737.91822378755307 271.16506862179813 0 271.16506862179813 85.796392344782362 0 0 0 0 -70.197284229609863 371.76043443760318 0 371.76043443760318 1255.854749416234 0 0 0 0 863.31122427456307 663.7290224381286 0 663.7290224381286 1345.7642498021451 0 0 0 0 -188.46147034884399 -146.64312211239667 0 -146.64312211239667 238.71284948335961 0 0 0 0 0.17212577518687178 -7.6655361494182728 0 -7.6655361494182728 37.312519402918383 0 0 0 0 -271.59222511654241 -520.03585779228524 0 -520.03585779228524 702.45915320653148 0 0 0 0 -115.98635454579967 115.49238867706663 0 115.49238867706663 181.10726861283183 0 0 0 0 100.31943231754803 -55.072295126386962 0 -55.072295126386962 33.938352413665598 0 0 0 0 1.3699671153827275 -4.2681173071147773 0 -4.2681173071147773 11.251813104449823 0 0 0 0 -48.845682501004461 -54.500449301233402 0 -54.500449301233402 17.10116643190122 0 0 0 0 57.377377124342729 -15.105518896845751 0 -15.105518896845751 4.1354928423770616 0 0 0 0 0.47218173999833168 0.73068220352056557 0 0.73068220352056557 -0.46195012726469997 0 0 0 0 36.108956057149612 -10.873729241120145 0 -10.873729241120145 -7.0992662552489492 0 0 0 0 20.493206440461449 4.1756056347730919 0 4.1756056347730919 0.47937436369403486 0 0 0 0 3.7475811997086645 -0.75489720076673272 0 -0.75489720076673272 1.3177816965904796 0 0 0 0 96.029099732067792 14.119269738272124 0 14.119269738272124 52.798188827582635 0 0 0 0 16.192428077050579 -24.820266682315378 0 -24.820266682315378 1.5039630458709041 0 0 0 0 97.179850072961756 -4.7939069425779053 0 -4.7939069425779053 -57.97103981352484 0 0 0 0 -1.2950001551187511 1.5022536921450431 0 1.5022536921450431 7.794525582137581 0 0 0 0 40.567494567897057 52.461037826047686 0 52.461037826047686 47.391696607329322 0 0 0 0 3.2222455929344314 -3.8324572223953117 0 -3.8324572223953117 17.3885611525942 0 0 0 0 -3.6596369291878545 -8.2865147657457783 0 -8.2865147657457783 37.448698738651728 0 0 0 0 6.7483554344524919 3.6003957895991334 0 3.6003957895991334 34.128445786041993 0 0 0 0 32.757889288801152 -24.72109420122797 0 -24.72109420122797 46.583534068156041 0 0 0 0 53.355303891317917 -41.769479685140823 0 -41.769479685140823 55.68643007830542 0 0 0 0 46.643408151930714 -21.935613054238274 0 -21.935613054238274 29.70057140310746 0 0 0 0 79.238218249417855 -40.933734143527545 0 -40.933734143527545 51.11993188762699 0 0 0 0 15.786975959647179 -74.691594166054074 0 -74.691594166054074 105.77883458034557 0 0 0 0 -11.323665658025234 -22.461970787853716 0 -22.461970787853716 115.55775833050575 0 0 0 0 63.650512299791103 -51.029033853641522 0 -51.029033853641522 48.872038676744523 0 0 0 0 69.326639760565286 -48.94569672952457 0 -48.94569672952457 39.325589465584926 0 0 0 0 58.099333800606473 -50.093985810982304 0 -50.093985810982304 62.504379645626614 0 0 0 0 100.19060242888276 -90.8277251494128 0 -90.8277251494128 60.876157053965642 0 0 0 0 81.672898825995617 -68.468127462742814 0 -68.468127462742814 35.259958880675185 0 0 0 0 -99.263698076315862 -123.14445933510251 0 -123.14445933510251 265.53670122389485 0 0 0 0 82.310813633618636 -137.49165126164553 0 -137.49165126164553 128.29686336329632 0 0 0 0 -70.914379986561244 -150.15999176845946 0 -150.15999176845946 282.99812244612986 0 0 0 0 -425.35027254580785 -147.59114152745042 0 -147.59114152745042 422.62597604520306 0 0 0 0 538.76626541022961 -224.03223494339363 0 -224.03223494339363 68.177117112165433 0 0 0 0 -28.958710432490633 -404.45847335150506 0 -404.45847335150506 517.36212319451079 0 0 0 0 0.70993625824347451 -1.4334500445472713 0 -1.4334500445472713 4.3472139146569262 0 0 0 0 53.212351560073898 -200.69431541975791 0 -200.69431541975791 514.5914412391603 0 0 0 0 -60.149822890917221 75.668380524119584 0 75.668380524119584 281.05682973573857 0 0 0 0 79.54982517049848 -53.681731230394689 0 -53.681731230394689 -24.651193542741566 0 0 0 0 93.694266508676364 44.016858547603078 0 44.016858547603078 30.777156556565387 0 0 0 0 89.809484728492635 -54.831270282208607 0 -54.831270282208607 211.56528600812362 0 0 0 0 127.07355807750412 -37.817757693308522 0 -37.817757693308522 218.99256434164909 0 0 0 0 107.46877896796605 -18.312137598259142 0 -18.312137598259142 40.093990032957663 0 0 0 0 24.602077886902634 -69.225631143905957 0 -69.225631143905957 310.23970699447636 0 0 0 0 51.702214363426265 -55.116944645611511 0 -55.116944645611511 40.803468087583497 0 0 0 0 -14.378181541655294 127.94694180772967 0 127.94694180772967 -74.725973975183479 0 0 0 0 6.3191353951915517 -14.552855433948935 0 -14.552855433948935 63.047231032032869 0 0 0 0 0.82934788781349766 7.6133026082889614 0 7.6133026082889614 36.095375034291465 0 0 0 0 -23.430774309462208 -26.781452231767162 0 -26.781452231767162 242.19087967469022 0 0 0 0 13.555834020944985 76.181956927819556 0 76.181956927819556 -95.039080571867089 0 0 0 0 8.7945674689632387 13.377140138572498 0 13.377140138572498 16.573675616278464 0 0 0 0 4.1290264698209285 11.71967983523524 0 11.71967983523524 8.6077073469816696 0 0 0 0 3.3842338725557966 33.944629083981454 0 33.944629083981454 16.168344143296963 0 0 0 0 21.834594108297097 17.686569461067847 0 17.686569461067847 8.4271193195850174 0 0 0 0 0.64248875032353681 0.17135137977203385 0 0.17135137977203385 7.5433662071473009 0 0 0 0 3.2946351660754596 6.3108134961780005 0 6.3108134961780005 16.266139240872217 0 0 0 0 1.7315099605724793 3.6099941499183146 0 3.6099941499183146 10.003927725467884 0 0 0 0 36.340877678286347 -12.620899456544748 0 -12.620899456544748 32.102759864392283 0 0 0 0 8.4253765807938308 7.5977851278689368 0 7.5977851278689368 5.5239787218234335 0 0 0 0 20.168105202828883 9.1687416900531389 0 9.1687416900531389 -10.737793554241307 0 0 0 0 10.461019060118815 12.403247397017708 0 12.403247397017708 0.102285319010889 0 0 0 0 11.12791072039499 6.3142492301537541 0 6.3142492301537541 -0.61179929978898029 0 0 0 0 -1.9641158638842171 19.776815128878923 0 19.776815128878923 -12.131885611569487 0 0 0 0 10.706705199556705 9.6472251102579527 0 9.6472251102579527 8.5260599756532507 0 0 0 0 16.483127504326376 -10.906488817860918 0 -10.906488817860918 29.453958230752733 0 0 0 0 5.4628200206810611 13.068415770831656 0 13.068415770831656 21.865686419144133 0 0 0 0 54.492147136050335 46.118217109280522 0 46.118217109280522 -67.804397373998654 0 0 0 0 5.4280734271999691 1.4640445911927316 0 1.4640445911927316 -6.8545951870569155 0 0 0 0 -3.2284900128006484 30.355714021837002 0 30.355714021837002 -12.22077131865808 0 0 0 0 17.577379186910548 37.688493973025288 0 37.688493973025288 -19.626992899695097 0 0 0 0 29.752845839637303 32.011108686127045 0 32.011108686127045 -21.40450476271144 0 0 0 0 23.010876218136673 38.422151586991845 0 38.422151586991845 -15.849226671751239 0 0 0 0 29.569563948090945 8.7622696996368177 0 8.7622696996368177 -31.456696712324629 0 0 0 0 -2.9384129646568908 37.494401002270024 0 37.494401002270024 -4.3385148711931834 0 0 0 0 25.583319205503358 8.9719444364895935 0 8.9719444364895935 -18.501261628937755 0 0 0 0 2.1020244950757405 1.8041350923468755 0 1.8041350923468755 -2.0980539264237876 0 0 0 0 32.623584266406851 17.180377835905233 0 17.180377835905233 -18.063521173315166 0 0 0 0 13.324673542781966 16.990472842762301 0 16.990472842762301 -17.783711605448843 0 0 0 0 28.704155067877764 10.137833663152378 0 10.137833663152378 -30.026662751173717 0 0 0 0 -11.494564888203286 70.419911048787071 0 70.419911048787071 -26.333904336464002 0 0 0 0 138.30920649664023 -15.004247432769716 0 -15.004247432769716 -58.394171763293343 0 0 0 0 12.005103653167595 31.729534237265256 0 31.729534237265256 16.483234703044218 0 0 0 0 0.63139376486060428 -14.237216305288712 0 -14.237216305288712 46.479338586947051 0 0 0 0 8.5489213841062863 12.907292134663768 0 12.907292134663768 16.52238374508876 0 0 0 0 11.683615819261792 8.5891607547476294 0 8.5891607547476294 9.2187476015305911 0 0 0 0 14.578894414113165 3.3062690383976587 0 3.3062690383976587 17.866565790155846 0 0 0 0 10.090247043343956 13.806637836681773 0 13.806637836681773 14.274226592397005 0 0 0 0 14.778913303819536 73.276464204421927 0 73.276464204421927 -6.0203267105125633 0 0 0 0 11.573707722167455 13.51590001576551 0 13.51590001576551 30.681630345855638 0 0 0 0 7.4510105932346749 7.8394916122451193 0 7.8394916122451193 10.249067011140617 0 0 0 0 8.5234393561371071 11.465962641486982 0 11.465962641486982 13.494791794413857 0 0 0 0 9.2640886850119841 9.9505602347513218 0 9.9505602347513218 31.550834811975164 0 0 0 0 -3.3381276022581545 23.661246967146639 0 23.661246967146639 31.053410805518979 0 0 0 0 7.1625800020083261 8.2895211812985963 0 8.2895211812985963 31.895776610817848 0 0 0 0 -14.240587545300114 -2.5594670576381287 0 -2.5594670576381287 24.80992338185532 0 0 0 0 0.72243721225277113 11.716978967477189 0 11.716978967477189 45.950741774164271 0 0 0 0 -22.302949125492887 19.51878466378912 0 19.51878466378912 -2.6084489848381054 0 0 0 0 8.1599016592791855 17.625902013494557 0 17.625902013494557 18.300541746971838 0 0 0 0 -2.089416876238829 50.05861428213575 0 50.05861428213575 15.138187767855925 0 0 0 0 0.17238327823451982 65.019533649901859 0 65.019533649901859 58.766816627650314 0 0 0 0 -16.842606477659562 27.095746898674619 0 27.095746898674619 4.3464363362650014 0 0 0 0 -58.657204354895839 33.636079579349826 0 33.636079579349826 65.002938784540675 0 0 0 0 -24.139279972119766 14.982006683589589 0 14.982006683589589 1.5341002290274446 0 0 0 0 11.851979553852289 63.888582126581241 0 63.888582126581241 21.295014746101515 0 0 0 0 -3.3225766679326001 7.8525970411186794 0 7.8525970411186794 1.8324991994865485 0 0 0 0 -5.5000826344954419 -0.2179844334860741 0 -0.2179844334860741 53.469926982908341 0 0 0 0 -84.137789903179055 39.814111503485037 0 39.814111503485037 72.484315819772746 0 0 0 0 -61.254953974220371 49.984706209279466 0 49.984706209279466 59.627855728283976 0 0 0 0 3.6105545113643984 22.600575409805288 0 22.600575409805288 83.808563427874105 0 0 0 0 -7.2956896113309995 7.1869189370813729 0 7.1869189370813729 68.538679559442244 0 0 0 0 -7.8012261769949873 25.808465985562634 0 25.808465985562634 109.17955609014825 0 0 0 0 -7.2474814270753996 18.444540706707812 0 18.444540706707812 100.8230413157271 0 0 0 0 -12.20246180932687 27.37853662241892 0 27.37853662241892 -1.1028595249732707 0 0 0 0 -163.98618670294127 80.908523383112879 0 80.908523383112879 189.82671032040707 0 0 0 0 46.872344936338777 25.60164689861449 0 25.60164689861449 -33.706803683038629 0 0 0 0 58.47909385681487 54.361718332999772 0 54.361718332999772 -16.708014849256983 0 0 0 0 -24.269281266542748 41.244515016051082 0 41.244515016051082 55.34728881504634 0 0 0 0 2.0112286726857747 67.993651997396228 0 67.993651997396228 -0.62906081152141269 0 0 0 0 -22.063812115638768 57.578956994225678 0 57.578956994225678 82.742648045499664 0 0 0 0 -7.0753785070860431 -2.083070694635353 0 -2.083070694635353 170.49378672301827 0 0 0 0 -23.932232520948219 40.908567475841664 0 40.908567475841664 101.94064845103821 0 0 0 0 -37.532109776641505 21.645120404940144 0 21.645120404940144 43.444931425485265 0 0 0 0 -37.409793062701283 24.898486968293582 0 24.898486968293582 84.297250216200609 0 0 0 0 -52.936731488729947 30.50646307678835 0 30.50646307678835 53.445843624564077 0 0 0 0 12.670487020696783 -67.536375301402586 0 -67.536375301402586 156.02945647568049 0 0 0 0 -13.667385723992993 -56.293494855037352 0 -56.293494855037352 185.45377095180538 0 0 0 0 -11.730474094602187 51.382629353307038 0 51.382629353307038 85.362152992111078 0 0 0 0 3.7664660181540057 27.700097176993722 0 27.700097176993722 20.333127904588764 0 0 0 0 171.62181823381047 85.339349437629153 0 85.339349437629153 11.065241552909356 0 0 0 0 -164.82325855295585 -2.8522859642807816 0 -2.8522859642807816 85.624763521808745 0 0 0 0 0.30216437370200877 -0.33643610346616026 0 -0.33643610346616026 31.952389569999063 0 0 0 0 -37.571035943236893 163.07747312353058 0 163.07747312353058 66.516054005503975 0 0 0 0 -156.7119959135016 16.217807339966612 0 16.217807339966612 119.84479381962046 0 0 0 0 -51.558592913591838 -92.915044661873253 0 -92.915044661873253 71.382003114195413 0 0 0 0 -202.70713254068096 -87.97271246643777 0 -87.97271246643777 165.82787629611266 0 0 0 0 -3.7114047531986691 -7.2429605514881228 0 -7.2429605514881228 97.245109539696216 0 0 0 0 -48.407348081781663 -59.512049513814645 0 -59.512049513814645 245.4939023289844 0 0 0 0 36.707574746616501 -21.8422061326728 0 -21.8422061326728 119.43363968196354 0 0 0 0 7.4037465648252692 -50.271544838686168 0 -50.271544838686168 86.984185331961271 0 0 0 0 162.46123515217323 -82.37699304256148 0 -82.37699304256148 51.901687309102272 0 0 0 0 6.9440690874075699 -40.006979296066675 0 -40.006979296066675 -6.2723387819678464 0 0 0 0 -17.312821709991113 -5.4026763085612401 0 -5.4026763085612401 203.68287718108877 0 0 0 0 -1.5667643891172456 1.1910863940208518 0 1.1910863940208518 71.903802178314294 0 0 0 0 30.395116923347814 -5.1704602750658069 0 -5.1704602750658069 181.89680879398293 0 0 0 0 -35.20775752549298 -73.419769745226404 0 -73.419769745226404 53.122215258723372 0 0 0 0 3.8493465424980968 77.58229329467531 0 77.58229329467531 119.947272763623 0 0 0 0 0.26952467406785585 -0.54916055580614298 0 -0.54916055580614298 8.0382271495082094 0 0 0 0 -2.3621366545296496 15.316635750414662 0 15.316635750414662 44.785599045389972 0 0 0 0 -15.349084676548955 2.052233925956898 0 2.052233925956898 17.670493593657739 0 0 0 0 34.337356481058123 -84.161236838015611 0 -84.161236838015611 19.881361927342368 0 0 0 0 -20.629029669924194 -8.5622320997681527 0 -8.5622320997681527 26.203979930134665 0 0 0 0 -0.8292482345803851 -1.9074934748374304 0 -1.9074934748374304 4.971408595221952 0 0 0 0 1.9001005882660138 -9.2608092667105666 0 -9.2608092667105666 26.280122834519716 0 0 0 0 2.3775678569765599 0.68175797590772191 0 0.68175797590772191 7.8566892308810683 0 0 0 0 -0.6390080495393704 -8.4680717809060297 0 -8.4680717809060297 26.032735389399022 0 0 0 0 6.3096938173453054 4.1442153508596675 0 4.1442153508596675 34.214809451623296 0 0 0 0 -3.4181214055815117 -4.4097695734600943 0 -4.4097695734600943 21.255691211538249 0 0 0 0 -3.8617934528938349 -3.6143514135310397 0 -3.6143514135310397 25.934145539482415 0 0 0 0 -4.2820385711128246 -9.769186505539281 0 -9.769186505539281 15.274637303372305 0 0 0 0 -4.0922266652149766 0.7880599616300259 0 0.7880599616300259 40.181118189306233 0 0 0 0 13.039052508048371 -0.52479109287196479 0 -0.52479109287196479 29.734144366117107 0 0 0 0 -5.7516274018676086 13.007851598469642 0 13.007851598469642 27.744619659977616 0 0 0 0 8.7764399800018964 6.0904413931039016 0 6.0904413931039016 23.364460048236651 0 0 0 0 3.3317380704254322 4.3243826668552892 0 4.3243826668552892 20.9569429542248 0 0 0 0 46.249288348231858 6.8117335218544213 0 6.8117335218544213 -17.033271079390261 0 0 0 0 18.012748448633943 -89.084991551764688 0 -89.084991551764688 -73.238687808989198 0 0 0 0 12.553866058839617 11.936943191861872 0 11.936943191861872 17.540700478198865 0 0 0 0 14.69456422526423 7.5197219469224592 0 7.5197219469224592 36.404952157718526 0 0 0 0 14.749953227526156 9.8920383163332506 0 9.8920383163332506 7.8776546634890252 0 0 0 0 -5.773149217980972 11.840899954429915 0 11.840899954429915 16.943400936143007 0 0 0 0 12.467991993872239 12.725993905658706 0 12.725993905658706 19.494043900257612 0 0 0 0 2.9359059701124437 -0.010843892414179379 0 -0.010843892414179379 -2.5567626310380893 0 0 0 0 35.837204112027621 -42.844919562693576 0 -42.844919562693576 60.674819013158412 0 0 0 0 48.792306527572293 54.2914047805466 0 54.2914047805466 65.734176025634952 0 0 0 0 0.8861191357012066 0.70612836146644753 0 0.70612836146644753 -0.050800635396420768 0 0 0 0 15.787614082937125 21.649431546351479 0 21.649431546351479 44.250652219289634 0 0 0 0 25.48588293097373 -38.83316295878285 0 -38.83316295878285 87.565824459332362 0 0 0 0 5.9935099916751824 1.4814365159854788 0 1.4814365159854788 45.997780426154122 0 0 0 0 9.7725954868988083 -13.848869100369484 0 -13.848869100369484 26.250860045762238 0 0 0 0 -3.0923354694759837 -26.798371672968642 0 -26.798371672968642 -2.7411085890416871 0 0 0 0 101.64699276355793 18.995969718949709 0 18.995969718949709 14.397971254638833 0 0 0 0 126.43456009307772 10.853372811632653 0 10.853372811632653 -31.482430026068414 0 0 0 0 116.16315938778399 14.706883508475585 0 14.706883508475585 -32.450592906861857 0 0 0 0 48.980962783329716 60.277280860806968 0 60.277280860806968 3.8102841318104765 0 0 0 0 79.009797309502318 35.978805745819045 0 35.978805745819045 9.4729112835193519 0 0 0 0 220.60448419374723 10.833109155339116 0 10.833109155339116 -32.424448130392989 0 0 0 0 93.684509113318313 -44.070392031146184 0 -44.070392031146184 -36.976982011319706 0 0 0 0 205.18535458902892 -216.65219637741166 0 -216.65219637741166 205.81752137362128 0 0 0 0 -0.68650411075544304 -0.18593593729352698 0 -0.18593593729352698 3.0508535232072518 0 0 0 0 -111.95890781218532 29.555584820027434 0 29.555584820027434 337.62788053189433 0 0 0 0 21.345847277052087 -27.986931175949849 0 -27.986931175949849 424.28755268225723 0 0 0 0 169.10601934559941 159.23392164207326 0 159.23392164207326 175.88373522296388 0 0 0 0 -29.169913864017246 -58.194874607042948 0 -58.194874607042948 511.62480906131896 0 0 0 0 -222.66337157271391 53.788123524669572 0 53.788123524669572 97.597368249400461 0 0 0 0 -25.225618240788265 -91.30182109550833 0 -91.30182109550833 118.50148510029976 0 0 0 0 -47.717026449544761 121.185190690323 0 121.185190690323 155.05393616069205 0 0 0 0 -165.73642159600251 -16.030001249015186 0 -16.030001249015186 62.58735551933205 0 0 0 0 -126.39601779365 45.258258145104264 0 45.258258145104264 61.0145638017907 0 0 0 0 -249.10414073028869 12.066683641067357 0 12.066683641067357 62.73020501487008 0 0 0 0 -172.57772555380188 1.3315772894784459 0 1.3315772894784459 18.890201930309559 0 0 0 0 1.8369587279078894 -8.926717412193458 0 -8.926717412193458 33.600320859167496 0 0 0 0 -446.19465720876849 -144.40719484133115 0 -144.40719484133115 123.01388912577931 0 0 0 0 -41.192071231852282 -3.335104962468904 0 -3.335104962468904 66.265520391869359 0 0 0 0 15.37738811464024 14.182962177837908 0 14.182962177837908 44.083242419947055 0 0 0 0 39.387346246258431 35.17398443816046 0 35.17398443816046 129.70513613978255 0 0 0 0 39.278068476067006 39.183381907914736 0 39.183381907914736 76.251922255829413 0 0 0 0 11.561073079700805 3.0345087841815257 0 3.0345087841815257 103.51181526901928 0 0 0 0 41.469964543579522 31.684805677843542 0 31.684805677843542 123.06070796303902 0 0 0 0 52.133358286804622 -19.137611313549314 0 -19.137611313549314 158.48723874138523 0 0 0 0 29.017872173251874 -35.702316305043496 0 -35.702316305043496 146.88785793378338 0 0 0 0 18.118075656832161 -25.01681662080955 0 -25.01681662080955 121.53784621470186 0 0 0 0 41.895783773717028 9.5069014409364172 0 9.5069014409364172 90.408865906108986 0 0 0 0 81.227121905761692 -68.284812797151972 0 -68.284812797151972 46.462057491356973 0 0 0 0 5.6079118078244781 0.26557007768136209 0 0.26557007768136209 -0.013099554672493241 0 0 0 0 -3.2471128299188194 -48.158760542388336 0 -48.158760542388336 37.21586028745287 0 0 0 0 -29.338012063086801 -55.962753123612856 0 -55.962753123612856 56.618290701582737 0 0 0 0 1.174244376462376 -13.449083990755081 0 -13.449083990755081 38.820106234978667 0 0 0 0 19.784180083273441 -25.32317770561167 0 -25.32317770561167 53.888043992541498 0 0 0 0 -22.955924770733766 -43.095245389453339 0 -43.095245389453339 60.057573163849156 0 0 0 0 2.594286280972216 -14.289496462522386 0 -14.289496462522386 -4.6642939993900683 0 0 0 0 -5.5607172145487311 -46.103794424965599 0 -46.103794424965599 24.990827449895733 0 0 0 0 18.314142956718086 -26.518549747848738 0 -26.518549747848738 34.2561756780824 0 0 0 0 5.4090300817019852 -45.094365011147602 0 -45.094365011147602 25.062786931381197 0 0 0 0 1.7170706184242697 -2.389712104945489 0 -2.389712104945489 52.435035987950101 0 0 0 0 -21.727834594397791 -59.301440391654978 0 -59.301440391654978 31.0759788389405 0 0 0 0 1.7803678047421272 -63.305086216895234 0 -63.305086216895234 31.42347367698676 0 0 0 0 -142.7879192090686 -114.59930502460702 0 -114.59930502460702 16.528247897595065 0 0 0 0 52.397796114300832 -100.00863457644618 0 -100.00863457644618 -71.714935711876024 0 0 0 0 36.182298485594373 -59.439935107457586 0 -59.439935107457586 6.0565179513905605 0 0 0 0 141.91033806205223 53.061214268742333 0 53.061214268742333 28.712875454880304 0 0 0 0 -104.72547674057205 -50.234058916888898 0 -50.234058916888898 -27.379611214424585 0 0 0 0 107.83086884246188 -29.476594130297599 0 -29.476594130297599 -17.58681712725047 0 0 0 0 3.6765927298709538 -7.0385651466164116 0 -7.0385651466164116 6.0912720419810853 0 0 0 0 -176.62931057553351 -75.814319052298742 0 -75.814319052298742 84.131661034021818 0 0 0 0 -7.7475372787984043 -34.54683750148979 0 -34.54683750148979 -15.467445375077659 0 0 0 0 -143.22947543786398 76.200391867801955 0 76.200391867801955 39.269898420447134 0 0 0 0 -221.68502680607799 29.952094249715628 0 29.952094249715628 109.61447434519869 0 0 0 0 -68.243037797603051 39.200320965799619 0 39.200320965799619 57.199269355924116 0 0 0 0 -96.382779241491789 -40.236251305288533 0 -40.236251305288533 -37.558798296866371 0 0 0 0 -55.832492158285049 36.365090761588363 0 36.365090761588363 12.787676756433939 0 0 0 0 2.8855483555933006 -16.500912803567189 0 -16.500912803567189 2.7237832689606876 0 0 0 0 -256.46618461057915 -3.0525580583625924 0 -3.0525580583625924 50.40658258374242 0 0 0 0 -153.60790984153596 -24.061191168254936 0 -24.061191168254936 32.459592931922089 0 0 0 0 0.040493931781768744 -3.582520613405606 0 -3.582520613405606 7.6851293229456914 0 0 0 0 -272.68870037343959 39.332735679079633 0 39.332735679079633 10.887226001830641 0 0 0 0 -263.91319818652232 -24.373767456474525 0 -24.373767456474525 48.466049174057844 0 0 0 0 -7.3076856659979317 1.5506855327938069 0 1.5506855327938069 100.6276639948274 0 0 0 0 -37.367847147394514 81.286818162330746 0 81.286818162330746 64.460497937445325 0 0 0 0 -78.409341379263424 -142.91905329886504 0 -142.91905329886504 81.562794886343909 0 0 0 0 -7.5011081748968671 -8.4102467086879678 0 -8.4102467086879678 112.97689928536579 0 0 0 0 -344.19087015713194 -212.44209068235068 0 -212.44209068235068 181.29228248879372 0 0 0 0 3.7539138777574408 62.549520584980201 0 62.549520584980201 -24.91725903977931 0 0 0 0 -190.38181852395064 -189.32941572913478 0 -189.32941572913478 1000.2891379020584 0 0 0 0 33.642020570092086 -20.512819871474676 0 -20.512819871474676 0.71066962807162781 0 0 0 0 -147.18735907353323 -88.337445575507445 0 -88.337445575507445 790.19808581061625 0 0 0 0 44.298416112394818 -30.735613822474988 0 -30.735613822474988 -116.36950195173995 0 0 0 0 6.267518951232109 2.4335190106322742 0 2.4335190106322742 0.82379295060891167 0 0 0 0 12.114854623438532 79.352910260811768 0 79.352910260811768 -66.484905857654667 0 0 0 0 17.162595299044824 53.088639390087337 0 53.088639390087337 38.127077896679111 0 0 0 0 15.1857906985108 25.042764460973558 0 25.042764460973558 -17.700883987341513 0 0 0 0 12.06377855495225 16.986114113109579 0 16.986114113109579 34.808398331893841 0 0 0 0 84.350959525669282 -8.7988182699355093 0 -8.7988182699355093 198.16158773969801 0 0 0 0 45.008557570426831 30.697769539232468 0 30.697769539232468 192.84681190911215 0 0 0 0 46.951501245414192 17.449057886635273 0 17.449057886635273 154.85565963125555 0 0 0 0 12.924933210103518 17.180454351168009 0 17.180454351168009 31.835929644919815 0 0 0 0 29.862345549615611 -22.260092267402797 0 -22.260092267402797 199.49220729631634 0 0 0 0 15.616420518416085 8.7111224698660692 0 8.7111224698660692 8.9481967488896075 0 0 0 0 21.072882780257714 6.0208995054381376 0 6.0208995054381376 36.289646852201258 0 0 0 0 23.664962316779565 1.363015909511887 0 1.363015909511887 43.106341596212587 0 0 0 0 0.95398717585794657 12.008468658445054 0 12.008468658445054 50.14068076008698 0 0 0 0 1.6142364285576605 14.822933615460897 0 14.822933615460897 60.314190144956228 0 0 0 0 -4.2152959046488832 10.324523115712509 0 10.324523115712509 69.480319201154998 0 0 0 0 12.191089915548218 -1.4973263604697422 0 -1.4973263604697422 65.254634758755856 0 0 0 0 19.780183459187356 7.1409643936513021 0 7.1409643936513021 59.229286708476138 0 0 0 0 -128.8760632831013 -7.1213893949407066 0 -7.1213893949407066 117.9740792819648 0 0 0 0 -3.1566979060256433 -2.8903134762779912 0 -2.8903134762779912 70.041357454480192 0 0 0 0 -8.6666494015921263 4.5227540021439339 0 4.5227540021439339 24.085857846608597 0 0 0 0 -244.37621695081179 -315.24044860486538 0 -315.24044860486538 -346.97366241024429 0 0 0 0 4.877772737892883 -7.179248257940344 0 -7.179248257940344 56.231186680262908 0 0 0 0 -17.525002485112964 -10.846906132268487 0 -10.846906132268487 57.397391674079699 0 0 0 0 -23.476467392694758 7.09293868412351 0 7.09293868412351 73.175941134890309 0 0 0 0 -5.8609693818864343 7.7867318201570015 0 7.7867318201570015 73.144259628345026 0 0 0 0 -46.898535509040812 -1.8998468001955189 0 -1.8998468001955189 73.24921936323517 0 0 0 0 -43.134917008104708 29.239926124901785 0 29.239926124901785 90.655686787962622 0 0 0 0 -23.208263615024777 30.450763696444483 0 30.450763696444483 75.585832888857112 0 0 0 0 -17.046177386645738 27.078934185120488 0 27.078934185120488 71.548780297154735 0 0 0 0 -20.032255523361073 19.51271384118445 0 19.51271384118445 64.894146687176544 0 0 0 0 -3.915674744849639 28.932919109545765 0 28.932919109545765 39.674998836677332 0 0 0 0 -5.9795015100724527 34.350997007120895 0 34.350997007120895 61.24441060006211 0 0 0 0 -7.4427999006001357 39.506193794906721 0 39.506193794906721 43.10225450741018 0 0 0 0 -19.023465569613563 45.824258492113586 0 45.824258492113586 73.983430040214444 0 0 0 0 -19.305421585825457 44.571731259384251 0 44.571731259384251 66.585825933645538 0 0 0 0 16.627938209311196 15.071939153011044 0 15.071939153011044 82.666738719133718 0 0 0 0 57.460732774737608 -14.034424510087774 0 -14.034424510087774 75.027893905615201 0 0 0 0 -3.6652314431330595 -2.2703139239403338 0 -2.2703139239403338 33.698954123169102 0 0 0 0 28.451698420193225 18.874106307059265 0 18.874106307059265 51.90442322029412 0 0 0 0 -1.1310250714773247 5.6309565091723925 0 5.6309565091723925 117.11916514822224 0 0 0 0 193.68059196475178 146.46535589325504 0 146.46535589325504 27.210496422208962 0 0 0 0 185.73285168426173 104.41619383858051 0 104.41619383858051 -55.656469787638343 0 0 0 0 754.17850658758744 122.82546823420125 0 122.82546823420125 -682.04518421891044 0 0 0 0 379.32402798191652 581.97763887735346 0 581.97763887735346 494.67955217309645 0 0 0 0 889.69575674798534 547.00328491210894 0 547.00328491210894 -451.44373884232482 0 0 0 0 47.065735423444039 -108.82561901673034 0 -108.82561901673034 568.46398721935748 0 0 0 0 53.846436261818326 -123.94794847515004 0 -123.94794847515004 101.9236436302308 0 0 0 0 333.34377642246477 -225.07016621573166 0 -225.07016621573166 104.4407020417857 0 0 0 0 3.0270689819773002 5.5194680866817443 0 5.5194680866817443 6.8553457821797963 0 0 0 0 217.82771618774564 24.274513305075743 0 24.274513305075743 -38.80020495269855 0 0 0 0 156.94378384206038 30.786406435086974 0 30.786406435086974 -44.201011490285964 0 0 0 0 -44.575665389801088 76.866884265436966 0 76.866884265436966 91.559624047178659 0 0 0 0 42.362499272561081 22.102149135465879 0 22.102149135465879 48.551208769091318 0 0 0 0 44.657769771221638 42.940627538369881 0 42.940627538369881 63.1989532671505 0 0 0 0 -271.18568276925316 171.11967213674507 0 171.11967213674507 917.62958360330958 0 0 0 0 19.626464071043074 160.46582181049598 0 160.46582181049598 253.7038820752382 0 0 0 0 -148.61874090917243 -191.38285970311881 0 -191.38285970311881 -12.8384583561201 0 0 0 0 0.23927699656918167 -5.7858918376654316 0 -5.7858918376654316 7.187370257490258 0 0 0 0 63.48152103436496 130.76498113691196 0 130.76498113691196 172.24148227361275 0 0 0 0 33.767628348663493 -14.257667544727155 0 -14.257667544727155 18.965081452726736 0 0 0 0 -60.56936950092404 -22.0601878165362 0 -22.0601878165362 62.654431739305437 0 0 0 0 -96.027796746829836 12.057247251956142 0 12.057247251956142 87.120912617325303 0 0 0 0 -359.683717232817 -145.49817333182364 0 -145.49817333182364 409.45338823454949 0 0 0 0 -60.903058383963526 45.180995596529101 0 45.180995596529101 150.61169052081095 0 0 0 0 -0.87767386975908224 -9.0755406573073607 0 -9.0755406573073607 77.833945034188446 0 0 0 0 -2.7954256348927622 0.89797437186504681 0 0.89797437186504681 20.018084251412645 0 0 0 0 -171.43868240869506 -19.038513633769981 0 -19.038513633769981 6.782942859295872 0 0 0 0 -18.10404327796914 -5.5067865641931348 0 -5.5067865641931348 -39.906715738668936 0 0 0 0 -1.6131356452093528 -10.679910547648873 0 -10.679910547648873 94.783839923300349 0 0 0 0 -128.39811563800703 104.64128610627267 0 104.64128610627267 164.51647424424482 0 0 0 0 32.481912509374069 -357.21684942111642 0 -357.21684942111642 -235.14224451789778 0 0 0 0 -5.3808652963535613 6.7861097876389387 0 6.7861097876389387 19.64348337328985 0 0 0 0 175.1901145558262 66.161571828528395 0 66.161571828528395 -156.87368247777886 0 0 0 0 -86.267875477811458 269.41345834741696 0 269.41345834741696 396.24597428938796 0 0 0 0 82.074576944257842 362.92410073491919 0 362.92410073491919 872.7953873322549 0 0 0 0 98.422010929308271 -136.11637749697729 0 -136.11637749697729 535.46188511959917 0 0 0 0 -4.2375208052339612 6.548677306650589 0 6.548677306650589 23.992349310811321 0 0 0 0 -82.996868051140495 65.344106510674465 0 65.344106510674465 250.58920905326886 0 0 0 0 -485.70330628431617 -261.2650103339497 0 -261.2650103339497 490.64696934144376 0 0 0 0 -4.1309363536106529 -8.489390208347265 0 -8.489390208347265 101.18044973892293 0 0 0 0 -172.34113206084422 -269.31625486514531 0 -269.31625486514531 -2.1738418628965519 0 0 0 0 -60.730009933121892 -26.23607870863998 0 -26.23607870863998 7.7707148756089737 0 0 0 0 -193.17309844871124 -59.348920742766495 0 -59.348920742766495 172.66697953944822 0 0 0 0 -131.78451993728163 26.484021416788892 0 26.484021416788892 133.01654000587587 0 0 0 0 -73.982924420287418 -14.206431703758426 0 -14.206431703758426 144.20837283469336 0 0 0 0 202.24311909425143 196.63682530216647 0 196.63682530216647 244.60941591858136 0 0 0 0 -7.0350888616740459 103.27777055310435 0 103.27777055310435 212.08376855449751 0 0 0 0 75.108686438393661 41.249741772691777 0 41.249741772691777 241.01540020874609 0 0 0 0 13.845009399288301 62.68987983063198 0 62.68987983063198 245.91961373618688 0 0 0 0 -60.404384380514102 96.534238290772919 0 96.534238290772919 462.28043417079607 0 0 0 0 -111.73315968837528 -41.870198362834344 0 -41.870198362834344 227.63183354554712 0 0 0 0 -236.63763445997864 -90.814877885164606 0 -90.814877885164606 252.45328192022862 0 0 0 0 -25.139040903009004 -132.86145372048486 0 -132.86145372048486 52.803175979104708 0 0 0 0 -125.22739198963563 -0.74408018420217559 0 -0.74408018420217559 180.6467120568559 0 0 0 0 24.710288876807454 -16.480098455500411 0 -16.480098455500411 167.80972802330507 0 0 0 0 -106.82675611682703 -134.05022882937192 0 -134.05022882937192 230.83604668533371 0 0 0 0 53.445322987845543 -82.245845656620077 0 -82.245845656620077 313.72335955029121 0 0 0 0 86.923713904518763 53.433823816754739 0 53.433823816754739 333.98959533565176 0 0 0 0 63.56664667648306 -126.07510063887821 0 -126.07510063887821 265.66103649739671 0 0 0 0 14.826072747935086 -41.558390750680701 0 -41.558390750680701 135.38368250934582 0 0 0 0 163.39012853839426 -137.36586734322191 0 -137.36586734322191 119.6007354673784 0 0 0 0 285.79717066758161 -156.21785189594266 0 -156.21785189594266 553.41153523909452 0 0 0 0 107.84137767825877 -26.270613867728571 0 -26.270613867728571 -184.81106874742545 0 0 0 0 336.67309323352038 -145.03484995070903 0 -145.03484995070903 -475.46847910428187 0 0 0 0 1.1475600369898804 -2.7877503293207155 0 -2.7877503293207155 4.4212299977825751 0 0 0 0 106.66554856591847 270.94975259292551 0 270.94975259292551 590.37460524870403 0 0 0 0 -100.94699635817335 -28.638207825752033 0 -28.638207825752033 182.65490540657629 0 0 0 0 -123.81453911523545 -77.562954804915535 0 -77.562954804915535 249.90011247349685 0 0 0 0 -123.71396948148526 -56.140523547785051 0 -56.140523547785051 152.2557266320664 0 0 0 0 -55.79230002879865 -51.440307956632751 0 -51.440307956632751 172.71201754093272 0 0 0 0 -107.79685268668106 -22.404556288518506 0 -22.404556288518506 183.67842135872525 0 0 0 0 -103.01568010344408 -20.393662826545551 0 -20.393662826545551 152.45810730683661 0 0 0 0 -40.393047395623739 -4.0746668894335016 0 -4.0746668894335016 104.06427420600085 0 0 0 0 -52.461423853611223 2.0455876283631369 0 2.0455876283631369 105.77253153471975 0 0 0 0 -141.18584094265179 -10.039760183690305 0 -10.039760183690305 129.1659401808538 0 0 0 0 -140.6956091645111 0.084962058410383179 0 0.084962058410383179 203.91562129796876 0 0 0 0 -122.76884080830564 9.8129148508178332 0 9.8129148508178332 141.07769385199754 0 0 0 0 -95.615940969780468 -31.217082338833279 0 -31.217082338833279 105.63852523990954 0 0 0 0 -61.116272560411062 72.776645818457837 0 72.776645818457837 411.71041032521316 0 0 0 0 445.0182663622038 1.4920676542769797 0 1.4920676542769797 -51.935686573491694 0 0 0 0 1.1518650300504221 -1.636823324120309 0 -1.636823324120309 2.4944378811889152 0 0 0 0 -170.98566261885389 -35.440227350398345 0 -35.440227350398345 137.99026588014931 0 0 0 0 154.21326812170446 -134.3749804777508 0 -134.3749804777508 -76.897424163667893 0 0 0 0 142.20974309978851 -298.84253172774606 0 -298.84253172774606 300.96096275216405 0 0 0 0 18.821253451989605 160.37819027438491 0 160.37819027438491 533.53033940328578 0 0 0 0 208.94884593062761 -58.115591590693839 0 -58.115591590693839 321.18276911554722 0 0 0 0 -39.928308012034165 -217.27880766606268 0 -217.27880766606268 -272.72437541221916 0 0 0 0 0.29614231053026607 -0.53280322253764467 0 -0.53280322253764467 -3.1956979068539013 0 0 0 0 -124.29720452201934 -113.61429080954258 0 -113.61429080954258 107.64826512873333 0 0 0 0 -56.849540525231191 -56.318322304958201 0 -56.318322304958201 7.3745254242876399 0 0 0 0 -42.221234134779273 113.94415092825074 0 113.94415092825074 131.17946273625421 0 0 0 0 -26.765229890050023 -29.541476227550447 0 -29.541476227550447 55.232407084802617 0 0 0 0 -50.791113804762063 136.21291652852051 0 136.21291652852051 -156.28047644804337 0 0 0 0 -221.56935553312314 -31.336054393435916 0 -31.336054393435916 122.42665342773398 0 0 0 0 25.015189925526556 -132.90689872371149 0 -132.90689872371149 162.0589034126715 0 0 0 0 -13.624843742562888 144.67674172468026 0 144.67674172468026 172.4440248690953 0 0 0 0 89.861742044817447 -83.552513359982186 0 -83.552513359982186 366.11228234239388 0 0 0 0 -124.98146316867928 60.841374048208309 0 60.841374048208309 790.10346594404473 0 0 0 0 143.7859920570404 158.94610439880671 0 158.94610439880671 460.30738775285135 0 0 0 0 -107.55880983787665 16.316291807099333 0 16.316291807099333 707.93499079775393 0 0 0 0 -95.419536716691482 44.271880390264869 0 44.271880390264869 436.16018380126479 0 0 0 0 -63.821013077180339 -1.9878409381553865 0 -1.9878409381553865 234.7069419812733 0 0 0 0 -71.095055667123859 53.382723364326921 0 53.382723364326921 230.47588543484244 0 0 0 0 -47.557044187353881 -20.299896020902452 0 -20.299896020902452 125.54617069643973 0 0 0 0 -84.4560973057458 0.91832003509080096 0 0.91832003509080096 183.71225610550391 0 0 0 0 -137.65109484725167 -21.54779934769067 0 -21.54779934769067 196.47594919452786 0 0 0 0 -117.02625706533058 -3.5129865550807153 0 -3.5129865550807153 191.77970686854769 0 0 0 0 -251.54807879617013 138.49959415496323 0 138.49959415496323 214.76104211815255 0 0 0 0 -84.347639377395964 -123.84217063175174 0 -123.84217063175174 -66.181487201783966 0 0 0 0 -6.1698321913196708 -1.3184533198627655 0 -1.3184533198627655 -0.26376591650243064 0 0 0 0 -219.94970074571211 -188.57097181739937 0 -188.57097181739937 96.180495657194115 0 0 0 0 -19.828812941293563 7.0142409177278751 0 7.0142409177278751 55.399457112840537 0 0 0 0 25.54764364179573 -118.25475175525753 0 -118.25475175525753 264.65861512740594 0 0 0 0 -41.166603222779486 8.0359355214040988 0 8.0359355214040988 63.706840387847933 0 0 0 0 -17.219803394116358 -2.9211633837538429 0 -2.9211633837538429 1.0672925972298302 0 0 0 0 -11.142161835706588 12.757807947164565 0 12.757807947164565 44.218981248695854 0 0 0 0 122.45529640193581 -128.41368205479557 0 -128.41368205479557 130.74896425713087 0 0 0 0 -6.911809507649183 3.4437904935211883 0 3.4437904935211883 4.6767107361456066 0 0 0 0 -4.610201574756883 -2.9600562200770213 0 -2.9600562200770213 2.127485629123818 0 0 0 0 -17.586280308145433 26.739926175877372 0 26.739926175877372 41.289292249559367 0 0 0 0 -3.8421906499752367 30.720200577903597 0 30.720200577903597 33.757019170625426 0 0 0 0 -74.339801729830469 -7.1607766037632246 0 -7.1607766037632246 53.909601067696713 0 0 0 0 -32.871876792510648 39.146198142436333 0 39.146198142436333 44.972409505258838 0 0 0 0 -79.742463355598829 44.73891323616499 0 44.73891323616499 59.785900443319406 0 0 0 0 -57.673614070182339 22.418420033964139 0 22.418420033964139 42.947353514225142 0 0 0 0 -18.258359952588762 46.584471613965434 0 46.584471613965434 46.642902175986819 0 0 0 0 -23.920000422090197 18.025515411689412 0 18.025515411689412 45.768453531039199 0 0 0 0 -120.28582416205563 20.213056260382473 0 20.213056260382473 61.670417981167702 0 0 0 0 28.117642315960438 34.428242406345817 0 34.428242406345817 38.705744311097078 0 0 0 0 11.927252582525398 31.863256104708853 0 31.863256104708853 33.737776698966627 0 0 0 0 1.3290898155992181 23.850217482605331 0 23.850217482605331 37.219220868817501 0 0 0 0 -18.236443880293336 32.431562889953057 0 32.431562889953057 53.215407756993955 0 0 0 0 -20.454106479499387 30.207644887648712 0 30.207644887648712 83.039572567930009 0 0 0 0 4.8034724331319012 35.277912603716686 0 35.277912603716686 50.093385360716638 0 0 0 0 1.5300200122219394 34.779500874011319 0 34.779500874011319 96.924245897651417 0 0 0 0 -2.8259703665680718 29.942460475256667 0 29.942460475256667 94.828863601642297 0 0 0 0 194.24629364940483 -151.84007271906012 0 -151.84007271906012 -198.78660581977238 0 0 0 0 3.5521120243437228 0.19994768360679416 0 0.19994768360679416 -0.02589639675769817 0 0 0 0 -20.656957301551301 -13.787204947700957 0 -13.787204947700957 171.64904476691299 0 0 0 0 -0.71182749326908379 55.252910161982072 0 55.252910161982072 -74.444219960480041 0 0 0 0 -13.132348841389103 7.7674029936933948 0 7.7674029936933948 140.92813416289209 0 0 0 0 16.306274990480233 -35.301699252146136 0 -35.301699252146136 90.02784289077681 0 0 0 0 6.2612962179391616 8.4217548849283048 0 8.4217548849283048 61.25742284853186 0 0 0 0 -5.3390867235866608 -40.21729665465682 0 -40.21729665465682 133.29814896435846 0 0 0 0 -79.311937905804371 67.666509656504786 0 67.666509656504786 1.6060546517310286 0 0 0 0 -76.110379879383345 59.217785296241345 0 59.217785296241345 56.91253741114997 0 0 0 0 -1.6212509488259457 18.537254136965203 0 18.537254136965203 26.491273258176079 0 0 0 0 -79.71262813177691 63.873316275017714 0 63.873316275017714 1.2371731012899545 0 0 0 0 -80.986082254806206 69.750787128512457 0 69.750787128512457 7.9935829100700175 0 0 0 0 -79.952059075910938 63.44095216760843 0 63.44095216760843 7.7823791551563772 0 0 0 0 -147.60034025203959 76.642591576903214 0 76.642591576903214 67.22066183529023 0 0 0 0 -142.12054365940458 60.53227042798062 0 60.53227042798062 74.907490283099833 0 0 0 0 -159.9377120163233 101.44476057966858 0 101.44476057966858 25.401068595434481 0 0 0 0 -206.89948185243873 217.75494821711709 0 217.75494821711709 366.56690149354745 0 0 0 0 -248.76378502807142 -97.876381938460781 0 -97.876381938460781 170.47453845648124 0 0 0 0 -1.6643458788324486 -0.78207291511836274 0 -0.78207291511836274 1.6200928961401289 0 0 0 0 -241.8233741766945 28.328530837050607 0 28.328530837050607 102.88060811701871 0 0 0 0 -159.87033512328162 -16.038273815936918 0 -16.038273815936918 64.302989192035056 0 0 0 0 39.827901904865598 -77.904486362189346 0 -77.904486362189346 88.557901884220882 0 0 0 0 42.677335021218596 -74.494095074489451 0 -74.494095074489451 41.233038117210526 0 0 0 0 1.1758909608165862 2.5302554653162161 0 2.5302554653162161 -0.63081942767803412 0 0 0 0 16.397761901144008 -10.959175473290088 0 -10.959175473290088 53.897496740086353 0 0 0 0 -40.016636459626852 -72.99295358954987 0 -72.99295358954987 81.064456612170034 0 0 0 0 189.65792086673002 -30.557412541587837 0 -30.557412541587837 9.7924241304863244 0 0 0 0 82.437463128146192 13.997018222231418 0 13.997018222231418 -8.1249611532548442 0 0 0 0 85.898803635674426 -41.742431571424049 0 -41.742431571424049 4.9103889460675418 0 0 0 0 132.2195588630442 -73.910959909208032 0 -73.910959909208032 5.9493115425575525 0 0 0 0 -21.768543204911225 -89.396682323073037 0 -89.396682323073037 8.8757867764579714 0 0 0 0 -201.84474609165306 28.080899441292786 0 28.080899441292786 54.317221299592347 0 0 0 0 15.025906919419366 -65.226523737360594 0 -65.226523737360594 78.953776667971397 0 0 0 0 2.5775961805552536 -0.015045278569395748 0 -0.015045278569395748 -2.4370299263059394 0 0 0 0 9.201720952354151 -224.91225892727016 0 -224.91225892727016 156.92920377062183 0 0 0 0 -4.8210105144556374 -9.6989729340066404 0 -9.6989729340066404 16.889620655314502 0 0 0 0 -39.904427484693542 -40.539627500409551 0 -40.539627500409551 46.518300265855942 0 0 0 0 -45.423695776796023 -0.99601535180681822 0 -0.99601535180681822 22.57599849539838 0 0 0 0 6.2527282440844374 -22.82930865684466 0 -22.82930865684466 52.877763445067103 0 0 0 0 -51.783183159865189 -0.13370184457016876 0 -0.13370184457016876 66.864100847044028 0 0 0 0 -8.3965840971395664 7.9275516806228552 0 7.9275516806228552 39.533043757226551 0 0 0 0 -12.656156636438284 1.7074785735894018 0 1.7074785735894018 33.898490689258622 0 0 0 0 -3.3211367736909354 -3.8952010817969587 0 -3.8952010817969587 95.315893978528237 0 0 0 0 -182.9850582932923 82.657178045668843 0 82.657178045668843 158.87119757512119 0 0 0 0 -75.321428980169514 -75.677111316977971 0 -75.677111316977971 132.64712405878527 0 0 0 0 -1.2759919945672209 -1.9403810639341827 0 -1.9403810639341827 66.376514939740446 0 0 0 0 -18.398718863427387 -4.7629244890395945 0 -4.7629244890395945 47.895084203648793 0 0 0 0 -34.375224623880058 -6.7999750453018351 0 -6.7999750453018351 24.046393545926549 0 0 0 0 -14.215152025143057 -8.1160639682033349 0 -8.1160639682033349 75.039287993910136 0 0 0 0 26.52538135411379 86.043691829941054 0 86.043691829941054 71.004009860760561 0 0 0 0 -7.7756964542188882 14.654216576882035 0 14.654216576882035 17.040317630177636 0 0 0 0 204.13172169388884 29.205526037978416 0 29.205526037978416 8.1071222916193619 0 0 0 0 170.95691375708498 217.62838889891827 0 217.62838889891827 -113.54510092110286 0 0 0 0 -8.2001091444934993 2.4685790579474336 0 2.4685790579474336 6.3570886196890939 0 0 0 0 -7.8666637337173597 7.8746479540898235 0 7.8746479540898235 24.242389090584766 0 0 0 0 -12.528659368742458 2.3818144380706947 0 2.3818144380706947 8.7728681386433216 0 0 0 0 -3.1452802269527638 6.0980027936820989 0 6.0980027936820989 8.8270720403477299 0 0 0 0 -64.630433123307284 149.22528343939121 0 149.22528343939121 705.40563314923929 0 0 0 0 1.325982934884216 0.78045837151427122 0 0.78045837151427122 0.61027931444887429 0 0 0 0 -1.4691802317723304 0.13602601720975471 0 0.13602601720975471 2.4447430342163088 0 0 0 0 10.606151626496285 22.455906213630442 0 22.455906213630442 28.091041107945784 0 0 0 0 -18.604693499946734 -9.9326875773845131 0 -9.9326875773845131 31.012943865618581 0 0 0 0 4.2891873315570592 16.902350287523404 0 16.902350287523404 23.590277668743511 0 0 0 0 3.2309190292062215 12.54291437708155 0 12.54291437708155 32.696691101432165 0 0 0 0 35.953957964160395 18.070423711869353 0 18.070423711869353 30.778624628619582 0 0 0 0 -266.50664436329271 74.298522744480124 0 74.298522744480124 438.32123583272369 0 0 0 0 31.720946695221755 58.338807319201806 0 58.338807319201806 94.788022774875571 0 0 0 0 -1.6866049045490854 8.2170896396237367 0 8.2170896396237367 34.580412484887347 0 0 0 0 6.3971006316604839 15.371779540866036 0 15.371779540866036 23.933457396750363 0 0 0 0 -2.804775105144472 36.377055348940758 0 36.377055348940758 171.78401533559372 0 0 0 0 8.5124648373312084 -2.3799788226569945 0 -2.3799788226569945 39.763151444560208 0 0 0 0 4.4831121838378749 27.512220990445712 0 27.512220990445712 30.365218625722719 0 0 0 0 2.7467823607030368 4.6024484998706612 0 4.6024484998706612 22.59795924566788 0 0 0 0 30.114857314684741 2.6778912257868797 0 2.6778912257868797 32.131982747239817 0 0 0 0 8.3518200851849542 13.316401321619196 0 13.316401321619196 60.227301194279789 0 0 0 0 7.5558322590022726 8.5843417314026738 0 8.5843417314026738 38.369817403578054 0 0 0 0 -1.9827099366702896 -11.741650995594682 0 -11.741650995594682 69.011815797459349 0 0 0 0 -0.74652043437515303 -1.2519764739902541 0 -1.2519764739902541 8.6878934683371085 0 0 0 0 -6.0737299672582594 -22.644932702565711 0 -22.644932702565711 42.154693929725909 0 0 0 0 -7.5623509822214299 -4.486089062204627 0 -4.486089062204627 37.632808827369018 0 0 0 0 -5.180295181418443 -1.6527192860372075 0 -1.6527192860372075 21.874597413530012 0 0 0 0 -2.9677373757159646 4.8903569856939129 0 4.8903569856939129 22.08535251453857 0 0 0 0 -20.203558199197687 -2.3002018645347562 0 -2.3002018645347562 36.383209503723265 0 0 0 0 -13.98305804768097 -0.55308906912978273 0 -0.55308906912978273 20.122968839568784 0 0 0 0 -9.1792916939640659 -5.2583038954673569 0 -5.2583038954673569 35.482381784528258 0 0 0 0 -21.025690623817354 -10.181264391547302 0 -10.181264391547302 28.427225558407372 0 0 0 0 -11.896843383496522 12.699654185385612 0 12.699654185385612 50.398821539788656 0 0 0 0 -8.4592062763572358 -0.26571392630285118 0 -0.26571392630285118 28.208582320381538 0 0 0 0 -16.992464930956544 -25.447347918885498 0 -25.447347918885498 63.298813950626936 0 0 0 0 -27.11040804221517 -5.3559177430470299 0 -5.3559177430470299 67.873103979887674 0 0 0 0 -8.5611683422161917 -5.586526736376662 0 -5.586526736376662 32.121749801064155 0 0 0 0 -5.479976743837609 -6.1817644963622911 0 -6.1817644963622911 22.050666772978204 0 0 0 0 -11.731054681064052 -8.1425728313624859 0 -8.1425728313624859 41.841465768738999 0 0 0 0 -8.2034557255906826 -1.9000252626978664 0 -1.9000252626978664 26.104821344781868 0 0 0 0 -16.364101104874408 -26.164518731189219 0 -26.164518731189219 14.037446489841386 0 0 0 0 -0.74410430015115914 -0.77832387552276572 0 -0.77832387552276572 18.460297791367722 0 0 0 0 -11.941250505071366 -4.0200599070085445 0 -4.0200599070085445 37.976435599768593 0 0 0 0 -8.805724645331793 -2.02266183658503 0 -2.02266183658503 6.4588885680568637 0 0 0 0 -3.5105222473151612 -6.3370080007408731 0 -6.3370080007408731 19.615739257229322 0 0 0 0 -11.083827681320145 -11.24537860572309 0 -11.24537860572309 27.752360623446293 0 0 0 0 -1.3903400366990644 -0.77127125664714313 0 -0.77127125664714313 19.758210047635956 0 0 0 0 -2.7565331336619536 1.2336623133701679 0 1.2336623133701679 15.060613104573449 0 0 0 0 -10.813958991124309 -8.43470911831173 0 -8.43470911831173 35.593809492413129 0 0 0 0 -7.8053753081824206 -10.351482384743726 0 -10.351482384743726 13.129923687536831 0 0 0 0 -8.9626935419414622 -5.735050658830005 0 -5.735050658830005 37.461463081388501 0 0 0 0 -9.5316922499132524 -18.366710424564616 0 -18.366710424564616 40.539409913609688 0 0 0 0 -0.97505166842256585 1.9908803972502938 0 1.9908803972502938 69.344178043495049 0 0 0 0 -10.134907861382089 -49.362301961064077 0 -49.362301961064077 -8.572333020340011 0 0 0 0 0.098100631059423904 -4.0519046549961786 0 -4.0519046549961786 61.754800508013432 0 0 0 0 -10.04560884769791 6.4691928415625171 0 6.4691928415625171 34.42567364073463 0 0 0 0 -11.017560615204047 -4.4004921974810713 0 -4.4004921974810713 24.224356053244264 0 0 0 0 -8.950081071948496 -4.3844590340882235 0 -4.3844590340882235 13.508523377175223 0 0 0 0 -1.1880269286757539 -4.4782699721254176 0 -4.4782699721254176 70.051340723483008 0 0 0 0 -7.1499924948401485 -13.084184410781745 0 -13.084184410781745 64.75118815182941 0 0 0 0 -5.0943284594988292 7.5370242557991673 0 7.5370242557991673 15.591837159576968 0 0 0 0 -94.515107490491573 -35.135443814957398 0 -35.135443814957398 291.97992105028243 0 0 0 0 27.569891310809908 -163.59901284376247 0 -163.59901284376247 191.04852171975654 0 0 0 0 -89.342069836402516 -118.26273639129795 0 -118.26273639129795 185.82810928807885 0 0 0 0 31.744312654964233 -125.38738285163345 0 -125.38738285163345 132.24480684182345 0 0 0 0 0.64754685393359068 -52.087267998112111 0 -52.087267998112111 106.76993838339695 0 0 0 0 -0.36518180148414103 -48.287811475525814 0 -48.287811475525814 234.29152741894359 0 0 0 0 0.61868811673223334 0.42078134753165841 0 0.42078134753165841 0.18119804389984395 0 0 0 0 -3.2647455061669461 -13.730634967439983 0 -13.730634967439983 -11.537420308835863 0 0 0 0 -9.7528095779580326 -16.071125843560367 0 -16.071125843560367 47.128305911552161 0 0 0 0 70.805017414830218 -57.227406420039188 0 -57.227406420039188 67.392153896853415 0 0 0 0 48.067558756207291 2.5270882288896246 0 2.5270882288896246 24.482053980318597 0 0 0 0 1.3441360949272934 -1.3528916477574171 0 -1.3528916477574171 7.4340820430893046 0 0 0 0 33.910920928987252 -25.739574927130889 0 -25.739574927130889 13.861495304779964 0 0 0 0 -4.0565760597684939 3.4107169462998854 0 3.4107169462998854 5.4820560750378462 0 0 0 0 -11.039690244781013 -2.476453930066782 0 -2.476453930066782 7.8462936049618293 0 0 0 0 -2.6153609616985705 2.6027628274969175 0 2.6027628274969175 37.190992266791 0 0 0 0 0.84543721345879064 -7.8585572654847837 0 -7.8585572654847837 22.617731589324194 0 0 0 0 6.6433643344171287 42.981483663374092 0 42.981483663374092 25.33129903516965 0 0 0 0 5.7020811209002407 -7.2506316860582913 0 -7.2506316860582913 18.39050403316233 0 0 0 0 -0.10915070382907288 -1.6345407513217651 0 -1.6345407513217651 8.8031397208687849 0 0 0 0 5.985748953876703 0.61401505590087879 0 0.61401505590087879 16.166319168447259 0 0 0 0 23.337123513152619 -18.731929527049942 0 -18.731929527049942 11.513030837822953 0 0 0 0 2.3871026767239938 -2.250593775973492 0 -2.250593775973492 18.887358833689134 0 0 0 0 -74.214464237073116 2.1960538412895403 0 2.1960538412895403 94.692938474065159 0 0 0 0 -24.250769058663764 -37.941509841793959 0 -37.941509841793959 5.06783598203765 0 0 0 0 87.206405944283688 -73.149043658500887 0 -73.149043658500887 82.841603652836056 0 0 0 0 2.230181740332803 -5.1497893742746506 0 -5.1497893742746506 20.318890219439879 0 0 0 0 60.005560206516748 -101.03196165239206 0 -101.03196165239206 147.04296795128903 0 0 0 0 -55.654833530768883 -126.25421788153653 0 -126.25421788153653 216.86462748112172 0 0 0 0 104.91487099139522 -230.752758938841 0 -230.752758938841 -137.12906509954337 0 0 0 0 -18.905936518980525 273.01146988951768 0 273.01146988951768 974.95438213307352 0 0 0 0 230.19188762291969 297.91454749088371 0 297.91454749088371 292.17306530319547 0 0 0 0 11.83108073723643 -0.44417430575315819 0 -0.44417430575315819 3.2915779927632975 0 0 0 0 -28.740458940673932 -106.7116575344171 0 -106.7116575344171 -220.99247865142388 0 0 0 0 3.5067619167625566 -1.9109746556855463 0 -1.9109746556855463 0.23836248135893356 0 0 0 0 13.903417853072369 2.5349090100389731 0 2.5349090100389731 30.974281413178687 0 0 0 0 6.3461254657486279 8.0989124334555527 0 8.0989124334555527 31.722060756736028 0 0 0 0 10.956610330593321 2.9582567011711944 0 2.9582567011711944 32.505473706612975 0 0 0 0 11.978318722142426 2.9688460162125097 0 2.9688460162125097 6.1137230969643142 0 0 0 0 10.9056718729735 3.9135762346011802 0 3.9135762346011802 28.690766032403189 0 0 0 0 356.44061597750368 65.28648163566686 0 65.28648163566686 -414.42908028970851 0 0 0 0 -199.98918896588535 77.998853044773568 0 77.998853044773568 657.56488065815938 0 0 0 0 240.69730970017238 300.11475048840293 0 300.11475048840293 551.16837498182576 0 0 0 0 -79.476112930850974 665.1064573541089 0 665.1064573541089 1828.1324454357018 0 0 0 0 32.28878320281882 1190.8471881911846 0 1190.8471881911846 2705.50262902541 0 0 0 0 34.77334997224159 798.9413563925591 0 798.9413563925591 1678.9015510338868 0 0 0 0 161.91865780497062 1418.6836127263173 0 1418.6836127263173 2757.2461454096119 0 0 0 0 1450.4921720254667 2056.2147984903386 0 2056.2147984903386 1613.6169308959688 0 0 0 0 8.0553579895289431 1107.1654616074557 0 1107.1654616074557 3851.8679915365865 0 0 0 0 1765.6650707922447 1478.3053186175239 0 1478.3053186175239 3501.1082708561225 0 0 0 0 162.870222256023 485.65837800655027 0 485.65837800655027 1048.3752803235693 0 0 0 0 615.45773503915223 855.19148562142254 0 855.19148562142254 1010.6728070787212 0 0 0 0 25.939790569728757 219.27516202436709 0 219.27516202436709 364.35206884184299 0 0 0 0 1107.0247794560878 -326.90022332416083 0 -326.90022332416083 -178.40839764937118 0 0 0 0 0.40548648226823047 -0.58381655543782784 0 -0.58381655543782784 7.9184477684620447 0 0 0 0 474.87513676747039 546.34916197583516 0 546.34916197583516 389.95416970039241 0 0 0 0 12.340009895572452 8.128224217242078 0 8.128224217242078 6.205170334436076 0 0 0 0 1519.7452797429942 314.12977811991004 0 314.12977811991004 -441.94166451074852 0 0 0 0 498.96904509496972 785.50159211181017 0 785.50159211181017 -53.817177306576923 0 0 0 0 573.28347698426671 364.6612596310697 0 364.6612596310697 5070.210084930608 0 0 0 0 55.417887568902934 -586.78404055451756 0 -586.78404055451756 3501.0902697086235 0 0 0 0 -872.43981787453049 113.73213120590663 0 113.73213120590663 254.26124148237432 0 0 0 0 -443.01478130345822 -1471.459200354755 0 -1471.459200354755 110.53911434032671 0 0 0 0 -250.69382566082822 -141.91495779503248 0 -141.91495779503248 348.68219701632916 0 0 0 0 -306.46832372799577 725.62786119892371 0 725.62786119892371 2563.4978798735974 0 0 0 0 84.083847542067133 561.11081385153739 0 561.11081385153739 1494.4072666179272 0 0 0 0 94.545717986942634 400.21875308162566 0 400.21875308162566 1412.2395146005365 0 0 0 0 -100.57293078226132 167.8201619543961 0 167.8201619543961 2328.0757974440039 0 0 0 0 -157.96679430217182 385.15603786173142 0 385.15603786173142 -284.68973229782569 0 0 0 0 -288.78536506379112 250.38259384325283 0 250.38259384325283 195.55919766303487 0 0 0 0 -67.102332164155087 206.2329608509317 0 206.2329608509317 -452.29557773351553 0 0 0 0 -40.443498382119174 467.43471882785161 0 467.43471882785161 1526.7951524447499 0 0 0 0 -160.03739875714109 81.260214406662271 0 81.260214406662271 23.161333169608952 0 0 0 0 10.90462277070845 13.370617482911939 0 13.370617482911939 6.5849003012630369 0 0 0 0 -193.3696275792696 292.71156705333124 0 292.71156705333124 1443.4713614518942 0 0 0 0 0.2842185427324182 1.8705904220755016 0 1.8705904220755016 1.0642544261651317 0 0 0 0 -154.69338422114106 291.05891817920929 0 291.05891817920929 -195.83284740371164 0 0 0 0 9.6192835107169099 2.6238835527399793 0 2.6238835527399793 -2.4166518631549501 0 0 0 0 8.4428852919618294 23.491812396518071 0 23.491812396518071 -31.261829262395622 0 0 0 0 333.20199502880223 0.51362520423754177 0 0.51362520423754177 8.4590533823452461 0 0 0 0 2.0917323469350153 10.778786221490812 0 10.778786221490812 3.175408180841556 0 0 0 0 374.7120724155352 5.1968570432836714 0 5.1968570432836714 -404.06560908166648 0 0 0 0 -7.8621367621653917 25.064679422707741 0 25.064679422707741 11.652053739438998 0 0 0 0 1.5371707343219665 9.6721781401604261 0 9.6721781401604261 8.2804231291752597 0 0 0 0 25.314236673903622 -298.0287632906111 0 -298.0287632906111 591.02404955076781 0 0 0 0 6.8300911306454166 6.6019825465731934 0 6.6019825465731934 5.6455614368430389 0 0 0 0 -47.904908552254113 -17.718877966785158 0 -17.718877966785158 2020.9597026035408 0 0 0 0 402.81499407582885 900.25110536225111 0 900.25110536225111 1085.395309598287 0 0 0 0 368.04350268720304 570.00740107723959 0 570.00740107723959 2901.5905881664075 0 0 0 0 205.8595970901381 959.03513433630724 0 959.03513433630724 2227.2305906063366 0 0 0 0 -13.758202657886642 1038.3659762811512 0 1038.3659762811512 2789.4681577909287 0 0 0 0 -262.82718709673628 1243.5462964228809 0 1243.5462964228809 3499.3645009509819 0 0 0 0 -87.679906561670663 984.00718196824346 0 984.00718196824346 2829.0822078697129 0 0 0 0 -72.320451279248587 804.80544772589803 0 804.80544772589803 2922.6833167568766 0 0 0 0 -261.58596318687705 603.18891661445014 0 603.18891661445014 3499.6421373891135 0 0 0 0 -300.33360154618958 565.10682179538799 0 565.10682179538799 3066.9834207296044 0 0 0 0 -86.816345891677713 216.89540928094357 0 216.89540928094357 2711.397867287701 0 0 0 0 -186.63751328137064 358.2009137330565 0 358.2009137330565 3499.4192281782525 0 0 0 0 -224.05620198995533 511.52082006946148 0 511.52082006946148 3084.1214434410604 0 0 0 0 -221.20830948009552 87.633381507400372 0 87.633381507400372 2809.7277181849022 0 0 0 0 -176.12599055290519 -11.840925137543763 0 -11.840925137543763 2988.3721346723505 0 0 0 0 -483.57424732334175 -325.65236565436135 0 -325.65236565436135 3499.0725193831122 0 0 0 0 -26.435187314945978 -76.720946330060542 0 -76.720946330060542 2289.6807546174387 0 0 0 0 -150.50241990265857 -293.06447285518698 0 -293.06447285518698 2806.1663491358777 0 0 0 0 81.3907234064161 183.46361475914819 0 183.46361475914819 2839.9961667133575 0 0 0 0 175.06419612942386 -611.16643263716901 0 -611.16643263716901 3501.9562082758657 0 0 0 0 -1.3729470891941475 -5.3084414534149822 0 -5.3084414534149822 7.723599378063799 0 0 0 0 -510.94924003318249 -478.21416060206138 0 -478.21416060206138 3041.8808478825858 0 0 0 0 -26.043185319232649 -290.73900357624643 0 -290.73900357624643 3096.2148209147454 0 0 0 0 -540.15075414037119 -807.14027440384871 0 -807.14027440384871 2048.3577037487776 0 0 0 0 -128.08579525008827 -339.55123140548039 0 -339.55123140548039 2124.7832043675662 0 0 0 0 -150.66468018356795 -139.46946962286893 0 -139.46946962286893 2284.2612578120297 0 0 0 0 -130.85870319355274 -51.082464262553913 0 -51.082464262553913 1312.1263704266803 0 0 0 0 -328.65043051054329 -916.01335363950011 0 -916.01335363950011 -74.51764844056197 0 0 0 0 -512.80194662649183 41.203546104661655 0 41.203546104661655 1338.3290878420321 0 0 0 0 -285.39169098257344 290.82857795962809 0 290.82857795962809 1471.0360836202162 0 0 0 0 -382.490636108312 286.04994258174702 0 286.04994258174702 1682.5546246670638 0 0 0 0 -153.93688275326792 103.79275619251166 0 103.79275619251166 1687.7546238010073 0 0 0 0 -19.845215265989282 201.90992004709551 0 201.90992004709551 1749.1342510657178 0 0 0 0 -172.44624781310756 401.54162810244634 0 401.54162810244634 1061.2444289033101 0 0 0 0 -123.4449344407152 645.59275116582012 0 645.59275116582012 1627.234356838042 0 0 0 0 4.8682112332744598 4.9147506626406994 0 4.9147506626406994 4.6498120901878224 0 0 0 0 447.2861213862904 552.09365589188383 0 552.09365589188383 2571.2176503578175 0 0 0 0 -36.378860207599935 479.9106302774403 0 479.9106302774403 3750.6257791134158 0 0 0 0 326.62893983981371 200.0896205304125 0 200.0896205304125 1956.4837219338333 0 0 0 0 -18.466905121480409 147.01242536798782 0 147.01242536798782 2397.6193567582359 0 0 0 0 433.26954743209512 919.72269870416676 0 919.72269870416676 656.31400025493349 0 0 0 0 -76.914797776820365 455.17988147096003 0 455.17988147096003 1989.9036940033366 0 0 0 0 309.90634715835392 462.44376986957104 0 462.44376986957104 -655.91945542344365 0 0 0 0 48.065637311654847 168.81946894029966 0 168.81946894029966 392.8312879506484 0 0 0 0 32.132380679189623 100.1587906805853 0 100.1587906805853 186.91988826885489 0 0 0 0 -65.97236681927177 89.214327180885448 0 89.214327180885448 478.19498145237185 0 0 0 0 45.855869962760949 -18.116562286398221 0 -18.116562286398221 211.75215648908488 0 0 0 0 191.89827718344685 201.55833973904555 0 201.55833973904555 414.83431150131037 0 0 0 0 51.748173726185527 104.93756714687879 0 104.93756714687879 528.87274961117305 0 0 0 0 84.585385406706791 372.23435323127342 0 372.23435323127342 759.59579851354647 0 0 0 0 -90.289139018669403 235.85037058794023 0 235.85037058794023 995.91706492315416 0 0 0 0 94.663262473288995 80.174085185540775 0 80.174085185540775 448.70299406552294 0 0 0 0 79.468716047205135 52.199902028474753 0 52.199902028474753 536.25147954448221 0 0 0 0 82.152191562851044 225.1987932106922 0 225.1987932106922 245.95027378987106 0 0 0 0 158.82875930653901 -85.910933171838451 0 -85.910933171838451 72.209636264758956 0 0 0 0 0.35921206334967337 -1.0109344600620531 0 -1.0109344600620531 1.2271692820640254 0 0 0 0 148.86132037150085 -107.7009561243774 0 -107.7009561243774 503.846187863659 0 0 0 0 214.46929908269124 -185.40117606718832 0 -185.40117606718832 469.00594638200528 0 0 0 0 179.7694411007343 178.45766368303975 0 178.45766368303975 311.50266988732756 0 0 0 0 107.71852724337779 -13.677731199175923 0 -13.677731199175923 -133.45762879144422 0 0 0 0 -141.80353674515484 244.81120623105602 0 244.81120623105602 202.18499626925768 0 0 0 0 -0.64830557385523546 -1.3178846367032371 0 -1.3178846367032371 2.0544927984768897 0 0 0 0 16.571918354560239 -95.033197098091478 0 -95.033197098091478 589.17607058058934 0 0 0 0 124.74086645295392 -52.055968248996578 0 -52.055968248996578 577.90116411115082 0 0 0 0 113.74144597695204 99.665333035475669 0 99.665333035475669 776.77002592836857 0 0 0 0 -29.734087274640387 -148.89652072998069 0 -148.89652072998069 782.55519757609568 0 0 0 0 7.3124993680763692 10.758013163288684 0 10.758013163288684 19.477079309004608 0 0 0 0 -15.749370532735504 187.15311734861319 0 187.15311734861319 -5.5475269593971461 0 0 0 0 157.52593347080642 -201.79296457261216 0 -201.79296457261216 109.20481667949934 0 0 0 0 -38.207173960182388 -74.072172786874319 0 -74.072172786874319 273.06868360101362 0 0 0 0 72.435894589669033 -61.152351640560482 0 -61.152351640560482 266.15501128037613 0 0 0 0 90.349730444312399 -94.748018615760429 0 -94.748018615760429 221.81292900138033 0 0 0 0 98.109816972889803 -87.79386302441435 0 -87.79386302441435 286.03465416764175 0 0 0 0 61.602055702835628 -124.78241799360285 0 -124.78241799360285 525.07404887893063 0 0 0 0 45.184250732694863 -78.234572174184905 0 -78.234572174184905 571.50730029436454 0 0 0 0 99.060889021243838 -83.437592638476417 0 -83.437592638476417 571.97178829327027 0 0 0 0 31.257985468047167 -15.237511476362556 0 -15.237511476362556 865.36443338377103 0 0 0 0 33.285037719216234 -32.837443476257249 0 -32.837443476257249 764.30080686409747 0 0 0 0 -91.554748022863293 227.13933367137474 0 227.13933367137474 936.03948480603503 0 0 0 0 29.113735819214071 -85.933968705609914 0 -85.933968705609914 925.69912577154719 0 0 0 0 33.233137003036745 -131.95907629336034 0 -131.95907629336034 1248.3057355011806 0 0 0 0 231.37882426213628 -113.07789096737088 0 -113.07789096737088 855.28199925411036 0 0 0 0 75.053906665155864 7.1323673320716807 0 7.1323673320716807 790.51539339344163 0 0 0 0 133.14902612301444 -78.68515243598813 0 -78.68515243598813 880.7134719202113 0 0 0 0 26.989225524965832 211.95721539088936 0 211.95721539088936 767.6791698515608 0 0 0 0 56.147010719968875 50.0188817961116 0 50.0188817961116 759.48607666905627 0 0 0 0 331.98968144073251 67.852770243734994 0 67.852770243734994 760.23069086520195 0 0 0 0 277.84032906938535 160.85801018752818 0 160.85801018752818 647.00685051618166 0 0 0 0 559.93608559479401 -240.42565798885516 0 -240.42565798885516 585.23802716676255 0 0 0 0 276.39320658902352 -318.31153175073678 0 -318.31153175073678 1449.4326068753217 0 0 0 0 240.9376162024389 132.24578712567381 0 132.24578712567381 1652.7627064744061 0 0 0 0 16.106150761746449 79.554553785993448 0 79.554553785993448 1319.5277645869692 0 0 0 0 142.76035950728931 -61.506489838263178 0 -61.506489838263178 1474.0198056805748 0 0 0 0 -46.837024182815867 272.54158878258568 0 272.54158878258568 1863.7982066103559 0 0 0 0 -0.32122649938492742 -5.9918182103459898 0 -5.9918182103459898 5.8011751591914269 0 0 0 0 -159.88319677638219 -21.358395910688387 0 -21.358395910688387 3995.1195642885441 0 0 0 0 -333.43836530091016 -2104.9137432252105 0 -2104.9137432252105 -1250.0249562980921 0 0 0 0 -351.83238283881906 174.12540342007924 0 174.12540342007924 1269.8030561274218 0 0 0 0 -142.51112130684942 85.919948841974474 0 85.919948841974474 1213.4319907035988 0 0 0 0 -151.29768132837106 35.62664170584344 0 35.62664170584344 1213.8851609059238 0 0 0 0 -26.69310853246202 -29.348176317234902 0 -29.348176317234902 1244.2829015310836 0 0 0 0 -42.121956264847768 190.66885779490622 0 190.66885779490622 1216.3784527303305 0 0 0 0 -244.93080657174357 24.879613073973815 0 24.879613073973815 1371.7842024881111 0 0 0 0 -321.8683186230295 -33.960748553529342 0 -33.960748553529342 1061.8897255537013 0 0 0 0 -319.03936278331298 174.08303705937124 0 174.08303705937124 1102.3814045882445 0 0 0 0 -267.70040936603891 166.50916326282186 0 166.50916326282186 2703.6930541521524 0 0 0 0 -3.3734121192482167 -12.730140970975983 0 -12.730140970975983 14.486260069535104 0 0 0 0 -560.3621747582539 312.18323668063658 0 312.18323668063658 3260.7888062503775 0 0 0 0 -496.92913907109619 531.99128322794377 0 531.99128322794377 3498.3425253699388 0 0 0 0 82.828581321283735 982.42268643294028 0 982.42268643294028 4564.8756180697292 0 0 0 0 -57.090651606406198 501.65684257323664 0 501.65684257323664 2918.4080101861018 0 0 0 0 -829.87419639249117 -244.48429981300302 0 -244.48429981300302 1196.9007878631346 0 0 0 0 -890.18134751502134 -661.90452330590574 0 -661.90452330590574 1640.9062244776558 0 0 0 0 -2.8142388510572145 -13.716866193700678 0 -13.716866193700678 14.17908670546233 0 0 0 0 -930.96012554653396 -411.53631718605698 0 -411.53631718605698 1847.4956939355102 0 0 0 0 -1368.1247319541255 -506.1065525050978 0 -506.1065525050978 3499.7963790006465 0 0 0 0 -1069.718027058608 -1183.3889870554081 0 -1183.3889870554081 2203.3577523977574 0 0 0 0 -890.4566475078575 -765.37195369771212 0 -765.37195369771212 2272.592081721391 0 0 0 0 143.46291756409983 -2222.4316068062149 0 -2222.4316068062149 1594.6448928852196 0 0 0 0 496.17116524472607 -923.02630903308545 0 -923.02630903308545 923.73021083262574 0 0 0 0 1907.5429935639645 -1739.2545006405417 0 -1739.2545006405417 1305.7788076426805 0 0 0 0 -697.6024686607235 -1320.0353254730167 0 -1320.0353254730167 3650.6587962324188 0 0 0 0 454.88968357124526 -1551.2955448088014 0 -1551.2955448088014 3499.319496953105 0 0 0 0 1725.2184110480928 -421.72932392593702 0 -421.72932392593702 4122.7315168385448 0 0 0 0 3613.1677245390911 -2372.8482721298969 0 -2372.8482721298969 4008.4003443774018 0 0 0 0 377.32367812010625 -924.24493551407431 0 -924.24493551407431 3501.0657616961935 0 0 0 0 -302.29742921906796 -1306.0769735859808 0 -1306.0769735859808 3286.5479800169314 0 0 0 0 -9.5225277817982033 -314.52478793310183 0 -314.52478793310183 3589.6349602266191 0 0 0 0 221.99290308709357 -369.65249895147554 0 -369.65249895147554 658.46028399095485 0 0 0 0 477.64928192681907 622.58029019447531 0 622.58029019447531 342.08351901450692 0 0 0 0 -10.499030900170428 -3.1028559454324487 0 -3.1028559454324487 18.903139267218883 0 0 0 0 10.15844556434638 536.39176616846589 0 536.39176616846589 1288.0451987543984 0 0 0 0 2208.2188342449367 -2365.3708215031743 0 -2365.3708215031743 2528.5882405856009 0 0 0 0 -2.6349039532072975 -2.6462687366171149 0 -2.6462687366171149 27.406469548447156 0 0 0 0 17.718987382705734 -305.794356363936 0 -305.794356363936 456.2558011776382 0 0 0 0 102.55263438671469 228.10523515246177 0 228.10523515246177 219.41189009024129 0 0 0 0 283.35179687350001 -449.01104867353115 0 -449.01104867353115 271.62132314459086 0 0 0 0 -109.35838933634068 -160.81764175624448 0 -160.81764175624448 298.78258442312472 0 0 0 0 -8.5798233357502962 -9.7690357087764585 0 -9.7690357087764585 67.573462728688412 0 0 0 0 171.86820055602493 -267.96430160492946 0 -267.96430160492946 19.261565008208891 0 0 0 0 -357.67259260206913 -394.70153339926958 0 -394.70153339926958 -263.91348306833243 0 0 0 0 -772.52654566090814 -457.19499171578445 0 -457.19499171578445 164.84653337464806 0 0 0 0 -749.0473687336231 -274.89735454711808 0 -274.89735454711808 886.26333077494746 0 0 0 0 250.28687630899321 36.672519371969429 0 36.672519371969429 915.57180706565919 0 0 0 0 283.96012247775525 -1124.1261016287644 0 -1124.1261016287644 1270.6883711604642 0 0 0 0 168.91500507593992 -508.46726277487778 0 -508.46726277487778 -38.904823581188793 0 0 0 0 -148.22698988249374 -1640.184599627908 0 -1640.184599627908 1055.7308464625662 0 0 0 0 -741.08008494039268 -1731.1244349845329 0 -1731.1244349845329 1335.931809710587 0 0 0 0 -441.06550262794224 -801.74309404857422 0 -801.74309404857422 910.22151107992022 0 0 0 0 -5.7085060443087885 -9.9878809168100275 0 -9.9878809168100275 14.339027255282989 0 0 0 0 264.04513785604809 1157.2586295097271 0 1157.2586295097271 1780.0509744318115 0 0 0 0 1203.2383970035412 1565.6985047290073 0 1565.6985047290073 1517.0472116796154 0 0 0 0 337.87517917218526 1388.9661404444632 0 1388.9661404444632 2469.7084972717566 0 0 0 0 61.236711258049752 1537.711977604351 0 1537.711977604351 3499.6020025549951 0 0 0 0 1143.2004244416867 1759.1335896802066 0 1759.1335896802066 2628.9058262383151 0 0 0 0 1412.0757938096228 1292.7178634616553 0 1292.7178634616553 3391.2879921530621 0 0 0 0 2624.4209912904817 2143.2475992448271 0 2143.2475992448271 1457.9450733730118 0 0 0 0 1339.6492986987146 1155.437459783207 0 1155.437459783207 919.12201686554181 0 0 0 0 189.67551537627651 -159.2060631421682 0 -159.2060631421682 -150.08949132818566 0 0 0 0 641.58777028057227 -333.29991023049115 0 -333.29991023049115 -121.89825277094724 0 0 0 0 2.0142497530448753 -3.8150328679333434 0 -3.8150328679333434 18.84179371528441 0 0 0 0 2635.9759790862659 2721.3672528508446 0 2721.3672528508446 3456.8168140696762 0 0 0 0 2999.1514257323843 804.02760868599944 0 804.02760868599944 3502.0262339061328 0 0 0 0 1508.7456747781553 543.96443821535649 0 543.96443821535649 3471.2410753080221 0 0 0 0 1452.8401271254875 1786.6832768064983 0 1786.6832768064983 4934.2372917279499 0 0 0 0 8.2333530306856471 -675.36352727132726 0 -675.36352727132726 4195.5770646597721 0 0 0 0 -2.1472489284961149 4.0773668448633096 0 4.0773668448633096 7.5826119420893008 0 0 0 0 1287.8862993245366 1858.1073737512197 0 1858.1073737512197 2108.8681101110415 0 0 0 0 539.90444001979961 -573.33970407550623 0 -573.33970407550623 -31.99743187316335 0 0 0 0 556.22752272456728 -438.54249465902649 0 -438.54249465902649 -97.513540464947255 0 0 0 0 431.26422498758848 -527.28335873893411 0 -527.28335873893411 394.03081859258964 0 0 0 0 313.39192885413684 -211.69599362853114 0 -211.69599362853114 -278.23813357428571 0 0 0 0 3.5515849404060287 -4.5541855326067404 0 -4.5541855326067404 6.2956825487964103 0 0 0 0 341.37356808364098 325.94297336710588 0 325.94297336710588 296.86734385853924 0 0 0 0 324.18452080684733 -473.95942051396037 0 -473.95942051396037 56.5381554671294 0 0 0 0 148.2574127871344 227.2022855821815 0 227.2022855821815 547.5797082377394 0 0 0 0 226.50392782776703 169.96309526306595 0 169.96309526306595 85.447637882494746 0 0 0 0 190.93091382881585 184.77671487622501 0 184.77671487622501 137.22212271783133 0 0 0 0 55.904560688141373 22.565541232280793 0 22.565541232280793 110.25347183112535 0 0 0 0 -97.829936278080822 43.175933898724907 0 43.175933898724907 250.59521737558862 0 0 0 0 -256.59892534724395 -152.31214531281876 0 -152.31214531281876 278.32495968827789 0 0 0 0 33.753772863787617 -140.02323084945965 0 -140.02323084945965 699.82474798638395 0 0 0 0 41.442958424677727 -72.310607700032961 0 -72.310607700032961 101.5497764470565 0 0 0 0 1277.8866613222654 1004.927246965628 0 1004.927246965628 859.01953129091999 0 0 0 0 0.4320097369878324 -10.728360439622614 0 -10.728360439622614 52.017312393284953 0 0 0 0 -251.095201197797 -274.02015196828415 0 -274.02015196828415 63.466115175491723 0 0 0 0 1100.1996980359686 1022.8844127936391 0 1022.8844127936391 1097.83254143046 0 0 0 0 -241.43694125166894 59.995153605837913 0 59.995153605837913 -29.579753256809909 0 0 0 0 -0.9424965717988828 -9.4103401572781404 0 -9.4103401572781404 1.8490976657533196 0 0 0 0 -450.92823619156115 38.293086617071822 0 38.293086617071822 215.18083857064994 0 0 0 0 -0.44353288751525122 -1.5259343826419958 0 -1.5259343826419958 76.14879894203051 0 0 0 0 -123.01091868918911 -87.32962510661946 0 -87.32962510661946 98.565020309946703 0 0 0 0 -25.325474448919067 -136.84887888447793 0 -136.84887888447793 72.204875953610099 0 0 0 0 -408.34667206774611 -31.510113012574948 0 -31.510113012574948 239.94855817961798 0 0 0 0 -4.1864867299425441 115.65534333924916 0 115.65534333924916 70.119368408049922 0 0 0 0 44.789408545923266 254.605492656774 0 254.605492656774 664.88234598483541 0 0 0 0 -3.2019415180112696 5.2748375345467338 0 5.2748375345467338 8.181070661244803 0 0 0 0 673.85465525402469 438.81837446991995 0 438.81837446991995 192.91452682694944 0 0 0 0 299.50489721848055 479.74270443020396 0 479.74270443020396 614.58734414164792 0 0 0 0 840.86864635687016 1136.5317981771213 0 1136.5317981771213 290.1181340002513 0 0 0 0 739.32675689598318 785.14620448937058 0 785.14620448937058 630.38723902479251 0 0 0 0 635.41670312358428 1001.8950379232119 0 1001.8950379232119 929.54578682195279 0 0 0 0 1107.4103811693619 1083.7414949009667 0 1083.7414949009667 832.25824977009324 0 0 0 0 628.06010168581497 1146.0478625602191 0 1146.0478625602191 1443.0466956655455 0 0 0 0 513.30406153363401 928.40717005899205 0 928.40717005899205 1031.1424616142031 0 0 0 0 255.94850146191516 1172.4972855824353 0 1172.4972855824353 1778.7712254166618 0 0 0 0 37.844244125505497 -40.510349231768487 0 -40.510349231768487 42.085317441044026 0 0 0 0 -92.365053765841367 126.65161498714588 0 126.65161498714588 175.54749822821759 0 0 0 0 180.00856129698798 94.592741053841564 0 94.592741053841564 21.464541412948165 0 0 0 0 -96.999272352423304 -21.615186442650156 0 -21.615186442650156 117.79940599816837 0 0 0 0 -0.20384589239595796 7.5231940902555436 0 7.5231940902555436 85.334021774409848 0 0 0 0 -264.9543477360553 124.8470968238089 0 124.8470968238089 154.6949313967707 0 0 0 0 -327.20030507751062 173.53526006740503 0 173.53526006740503 252.93721455814011 0 0 0 0 266.56841209659501 251.86084030854317 0 251.86084030854317 0.90930128223408246 0 0 0 0 -63.662469666855714 354.85509942366753 0 354.85509942366753 190.79059983236948 0 0 0 0 71.032039489488625 -200.64759001584025 0 -200.64759001584025 -16.913277623625618 0 0 0 0 -3.6737863528337584 76.546506630136719 0 76.546506630136719 -2.1726083000935432 0 0 0 0 -43.002856952652564 115.23597759396671 0 115.23597759396671 52.552596661351799 0 0 0 0 -100.91591110105685 62.256344957925194 0 62.256344957925194 -52.465705437251017 0 0 0 0 -220.83619143818669 -105.6656661908346 0 -105.6656661908346 55.757714001807472 0 0 0 0 6.5793653319346959 -90.914098731396734 0 -90.914098731396734 71.567995692438672 0 0 0 0 -509.6913513695672 268.10619643940976 0 268.10619643940976 -97.612598202077891 0 0 0 0 -248.96895046709892 -220.24417606047899 0 -220.24417606047899 645.54166086465841 0 0 0 0 13.219071596845879 -257.63655936737041 0 -257.63655936737041 -453.1024933621336 0 0 0 0 5.9947281795704956 -11.791312294589858 0 -11.791312294589858 18.017987717792437 0 0 0 0 24.387031827903357 49.433970913491009 0 49.433970913491009 148.81699332327298 0 0 0 0 -494.76101199301138 -533.5071472002046 0 -533.5071472002046 -86.063783384661292 0 0 0 0 0.55282090189216859 -1.0811223031831823 0 -1.0811223031831823 2.1736001713474593 0 0 0 0 123.7087762276273 -306.10155043312227 0 -306.10155043312227 -59.915931867643621 0 0 0 0 -350.80793790445472 -109.70627910997996 0 -109.70627910997996 37.162275036393112 0 0 0 0 -177.51610322571685 -202.96243294223103 0 -202.96243294223103 160.26956041120661 0 0 0 0 3.4920038519794616 97.961323980224961 0 97.961323980224961 86.252658043782901 0 0 0 0 182.20184206546162 35.669422133404794 0 35.669422133404794 569.63343333378521 0 0 0 0 31.8462160341669 -156.31491623831346 0 -156.31491623831346 504.21494932685891 0 0 0 0 -73.102046201750454 18.003706382031055 0 18.003706382031055 -122.53900952812137 0 0 0 0 -0.4523903217204861 213.27192582465833 0 213.27192582465833 -357.84723858071243 0 0 0 0 -81.973333394015754 -19.447659406753473 0 -19.447659406753473 55.413378849999845 0 0 0 0 -466.0005965805376 242.66891787309532 0 242.66891787309532 -42.875330811099161 0 0 0 0 -59.922042852733284 224.85153373191855 0 224.85153373191855 -180.41946264395824 0 0 0 0 -690.3950880167348 -448.43691736082047 0 -448.43691736082047 461.75027244493106 0 0 0 0 6.9308079790974944 4.3790481009733737 0 4.3790481009733737 2.3539985779232162 0 0 0 0 -569.48316122912911 244.09570117001522 0 244.09570117001522 760.2498486898395 0 0 0 0 -338.04794475115318 -274.6083540943601 0 -274.6083540943601 1198.7725038937065 0 0 0 0 0.12761670800624403 1.3384604829509525 0 1.3384604829509525 10.01678858794844 0 0 0 0 -548.67992123093745 194.12142995098475 0 194.12142995098475 153.45949455671507 0 0 0 0 0.31651114100070066 -7.6747409678418261 0 -7.6747409678418261 92.737806029022281 0 0 0 0 1.6925944266618291 -5.2959861632369352 0 -5.2959861632369352 35.886231839314057 0 0 0 0 220.0068292720307 178.91115521236497 0 178.91115521236497 -204.92621649560169 0 0 0 0 -136.33148194096611 327.20749326426449 0 327.20749326426449 -75.887321938687819 0 0 0 0 706.44094508258149 -650.59154358496392 0 -650.59154358496392 -26.479807069960543 0 0 0 0 -280.59395545445659 751.35086951750804 0 751.35086951750804 -225.8320372242282 0 0 0 0 -38.530830049988708 29.284575600249809 0 29.284575600249809 46.895996171639126 0 0 0 0 1.4000906090660477 -13.096923252043201 0 -13.096923252043201 53.857164866765054 0 0 0 0 -1.1989228182615408 -9.9087904786353604 0 -9.9087904786353604 76.43825007976929 0 0 0 0 -763.53709338316276 541.31163063225847 0 541.31163063225847 41.135339261775471 0 0 0 0 -114.30559917161486 -159.10474115710068 0 -159.10474115710068 247.86711937010341 0 0 0 0 1.6204737577403492 -18.489655938882219 0 -18.489655938882219 4.7458766945971256 0 0 0 0 -70.61298564953745 -458.06044283899246 0 -458.06044283899246 323.30911815580839 0 0 0 0 1.6778451116884825 -2.2675071046308446 0 -2.2675071046308446 3.5254958944296391 0 0 0 0 -37.445607675694873 10.961579988303129 0 10.961579988303129 322.17108749939143 0 0 0 0 -230.41356676626373 78.897996598893769 0 78.897996598893769 27.110813791412511 0 0 0 0 65.269558394052638 -230.46937141175295 0 -230.46937141175295 449.72911278448009 0 0 0 0 357.18126717773453 -213.48770917015645 0 -213.48770917015645 -24.47306297821342 0 0 0 0 -119.95495167292643 80.811206447046061 0 80.811206447046061 55.445773921906948 0 0 0 0 3.3837130027169167 -80.137880639718787 0 -80.137880639718787 132.91757311674883 0 0 0 0 20.586255884335969 13.818713075092091 0 13.818713075092091 -794.77947449723251 0 0 0 0 -1652.283794955807 1313.1490409610078 0 1313.1490409610078 252.10325397586166 0 0 0 0 -989.21167627260581 191.12497230597728 0 191.12497230597728 2111.0093314270216 0 0 0 0 1352.2850247647691 80.994842232315932 0 80.994842232315932 292.53862789942104 0 0 0 0 407.55923010073229 299.08134971522941 0 299.08134971522941 777.78236049167572 0 0 0 0 -155.62832930309423 38.814339112217567 0 38.814339112217567 403.19057207502374 0 0 0 0 502.44872156209681 -41.32514983913461 0 -41.32514983913461 22.26573653802734 0 0 0 0 -422.08705391477406 -28.76908965520397 0 -28.76908965520397 481.02250956777425 0 0 0 0 84.155756437714558 -325.03185743470431 0 -325.03185743470431 175.21823962651433 0 0 0 0 -719.60217543873273 -751.38482532600574 0 -751.38482532600574 -134.79489033385744 0 0 0 0 -1769.7497156149043 -97.15491556535676 0 -97.15491556535676 492.80588955160965 0 0 0 0 413.49850997515159 -202.26922042694878 0 -202.26922042694878 -16.240747206981951 0 0 0 0 421.3296308943078 -258.74625399654747 0 -258.74625399654747 130.70008729195843 0 0 0 0 -3.9345223316529911 -7.8129101363369795 0 -7.8129101363369795 54.079820332414826 0 0 0 0 290.50295978491158 -285.26778353745487 0 -285.26778353745487 147.12753143517148 0 0 0 0 224.94958422500133 -136.15812264320357 0 -136.15812264320357 -191.1974284697244 0 0 0 0 151.31688525430764 -50.332062287799545 0 -50.332062287799545 326.16761085116934 0 0 0 0 418.42187921665118 -272.90640370838844 0 -272.90640370838844 117.2044507475939 0 0 0 0 423.78241422170777 -128.13005152676669 0 -128.13005152676669 224.48348906543953 0 0 0 0 597.98268316953045 -231.12623123160324 0 -231.12623123160324 280.30368405025206 0 0 0 0 1166.5199703919566 -1036.4916126032806 0 -1036.4916126032806 1027.8810099922921 0 0 0 0 -87.448218612633809 13.240800117880099 0 13.240800117880099 981.39992216633368 0 0 0 0 344.86096637162768 -365.60771748096954 0 -365.60771748096954 761.43833003282043 0 0 0 0 24.120822521716036 3.607022669540811 0 3.607022669540811 711.42745764834535 0 0 0 0 22.750235337986766 12.080008563580961 0 12.080008563580961 5.3070453589332409 0 0 0 0 55.751187467251839 140.72257571479213 0 140.72257571479213 -180.70051099303078 0 0 0 0 101.98538121095589 92.621201483732875 0 92.621201483732875 164.29727809582437 0 0 0 0 165.66214616360367 -71.627358385198022 0 -71.627358385198022 231.11723809893647 0 0 0 0 38.286618524900994 17.789436117432153 0 17.789436117432153 4.5874858671795797 0 0 0 0 -654.37652605772746 833.67278837170852 0 833.67278837170852 2372.7589556847888 0 0 0 0 8.2198070296119532 -4.7479823525090001 0 -4.7479823525090001 -13.313334006951781 0 0 0 0 -0.6206281877789479 -150.48961918650889 0 -150.48961918650889 19.924943215064559 0 0 0 0 6.6754887006800345 -182.79729214922372 0 -182.79729214922372 34.977219640904877 0 0 0 0 22.723687271152357 -173.91716209184756 0 -173.91716209184756 -7.3615658615262873 0 0 0 0 -2.1913502135337231 4.5503666990477063 0 4.5503666990477063 2.7711226866438645 0 0 0 0 -183.68000030468784 -66.117102688569503 0 -66.117102688569503 262.37232568272793 0 0 0 0 -233.81169499232419 -444.44612961969142 0 -444.44612961969142 -39.68303157860646 0 0 0 0 -254.37016348968109 -222.78545035764046 0 -222.78545035764046 975.57141574798152 0 0 0 0 378.16311828291509 311.19181158995889 0 311.19181158995889 -817.10859582598641 0 0 0 0 362.41473391151521 -1546.3544274421638 0 -1546.3544274421638 1472.2281562839489 0 0 0 0 2140.0203409501046 -789.31500663968473 0 -789.31500663968473 -915.88921241736625 0 0 0 0 -2.0395888489023655 -1.9287650698877332 0 -1.9287650698877332 22.979670327467392 0 0 0 0 -2537.3908963372137 971.01521645639809 0 971.01521645639809 1753.3261189545919 0 0 0 0 -1674.594460304892 -238.67699016696497 0 -238.67699016696497 1222.2181741443437 0 0 0 0 -818.6553082989285 -822.28742449336278 0 -822.28742449336278 1619.926030106581 0 0 0 0 -996.34913044633481 194.76643778146956 0 194.76643778146956 788.69032313179196 0 0 0 0 -1539.424473711425 365.17421548988568 0 365.17421548988568 922.37155116222675 0 0 0 0 -494.94402500707383 1362.8205225145252 0 1362.8205225145252 1618.0397238734204 0 0 0 0 1.4135363704902 6.1181300431103409 0 6.1181300431103409 15.385208614017415 0 0 0 0 14.121051250492656 -317.06514179605892 0 -317.06514179605892 865.12958416137553 0 0 0 0 626.78009457400822 272.07940170281131 0 272.07940170281131 151.16749111928675 0 0 0 0 208.34143383167975 634.29510770009529 0 634.29510770009529 1750.9745824363417 0 0 0 0 -181.59769042341173 123.13113318465977 0 123.13113318465977 -25.29815696580954 0 0 0 0 -0.18471441427442237 -3.2143800664666378 0 -3.2143800664666378 2.2597931190980169 0 0 0 0 50.990179509388327 -52.602148270333146 0 -52.602148270333146 26.168841699671816 0 0 0 0 -18.190141772364314 -24.815106451899965 0 -24.815106451899965 56.23580025634601 0 0 0 0 22.964888094568266 11.408769342509499 0 11.408769342509499 2.7576356675720466 0 0 0 0 24.678345254855913 13.591622733642907 0 13.591622733642907 5.1409490024243496 0 0 0 0 7.4909057486247548 33.386811126128976 0 33.386811126128976 9.7879236645039782 0 0 0 0 40.50189215338105 2.8108868399663152 0 2.8108868399663152 1.3605723461538446 0 0 0 0 4.0572817698565498 3.8206270976094503 0 3.8206270976094503 17.093275067541665 0 0 0 0 6.7863867258538448 32.484236144395084 0 32.484236144395084 22.580195508123325 0 0 0 0 6.6833858242489441 33.359681037214955 0 33.359681037214955 17.95873126560582 0 0 0 0 9.9904281749053325 24.208250365828029 0 24.208250365828029 19.457154553701912 0 0 0 0 9.9595874616361471 24.800962514247317 0 24.800962514247317 11.464545679304365 0 0 0 0 9.1521378798397564 25.724691047302258 0 25.724691047302258 10.49059248152389 0 0 0 0 7.2989463662846692 7.7148607096051993 0 7.7148607096051993 4.4736841848158093 0 0 0 0 1.9734057873793063 12.150905793256015 0 12.150905793256015 20.583468997076807 0 0 0 0 11.921036746847676 17.064103164239896 0 17.064103164239896 1.154494124667508 0 0 0 0 13.344775849770192 6.7315806164908087 0 6.7315806164908087 7.3988258133449536 0 0 0 0 3.2322917240835523 95.009217552634254 0 95.009217552634254 -110.43826397607222 0 0 0 0 3.3642223376703875 3.9079103593032176 0 3.9079103593032176 1.68752930199387 0 0 0 0 -44.511542469394044 48.884057555297886 0 48.884057555297886 -16.723599107858718 0 0 0 0 75.352786908888447 68.636401019369259 0 68.636401019369259 -65.278826516525214 0 0 0 0 -118.68994918291196 99.217760322117783 0 99.217760322117783 -30.091959331434737 0 0 0 0 0.23306383420276688 69.210165002401709 0 69.210165002401709 -5.4637515736300202 0 0 0 0 14.365184361938191 79.051071616684567 0 79.051071616684567 -8.2212624415445816 0 0 0 0 3.9769929164353925 90.084428708217615 0 90.084428708217615 -197.93265063394597 0 0 0 0 -69.002703874558392 44.778722923211376 0 44.778722923211376 -10.47242618686596 0 0 0 0 -24.115105902645155 24.419650008199483 0 24.419650008199483 123.22928910646738 0 0 0 0 2.4902548100782589 2.2433558717137867 0 2.2433558717137867 0.9957202908626086 0 0 0 0 20.69733320657906 80.428636220407725 0 80.428636220407725 -50.29824781315375 0 0 0 0 41.269332715971814 54.204173151059138 0 54.204173151059138 20.949089533200322 0 0 0 0 -33.368239539561273 30.628714670880186 0 30.628714670880186 13.628107647846491 0 0 0 0 -94.814019660542499 -18.977987321126079 0 -18.977987321126079 334.20494566898196 0 0 0 0 -26.727080336719155 202.82737379064815 0 202.82737379064815 14.154862364276596 0 0 0 0 -80.152958203602793 48.93121475384396 0 48.93121475384396 77.703978577348607 0 0 0 0 -132.94049858673566 13.787402745041618 0 13.787402745041618 54.544498662614387 0 0 0 0 -45.451580360660955 96.432017162707098 0 96.432017162707098 52.301196111870581 0 0 0 0 1.08946948545913 0.40230004113997886 0 0.40230004113997886 0.10701704868511719 0 0 0 0 -36.72157577768121 173.65559266130526 0 173.65559266130526 -255.51763349910902 0 0 0 0 -17.956671668156559 -79.130849904418938 0 -79.130849904418938 92.626098330539662 0 0 0 0 -0.079759971460193313 -7.2840971271916679 0 -7.2840971271916679 57.567557386158128 0 0 0 0 -26.200202075429161 -154.52897686514916 0 -154.52897686514916 -83.21929964949959 0 0 0 0 -29.253857183221953 -19.550816247951047 0 -19.550816247951047 -34.379666001997975 0 0 0 0 -71.264249645547352 43.460437423333588 0 43.460437423333588 -15.359324221136603 0 0 0 0 -11.862246353724004 -5.3764481161833828 0 -5.3764481161833828 63.307846418114877 0 0 0 0 -96.154668397133037 43.517888286388256 0 43.517888286388256 35.726079193999794 0 0 0 0 0.55188973289669874 -16.811608525779739 0 -16.811608525779739 54.246770987757571 0 0 0 0 -5.2773816516355936 15.891693766443041 0 15.891693766443041 46.195727323622123 0 0 0 0 0.58401238397164135 -8.5435378925356904 0 -8.5435378925356904 55.78403480391033 0 0 0 0 -22.332707854387536 -32.453900582374899 0 -32.453900582374899 67.98157701125092 0 0 0 0 3.2415092793396525 3.6564075156679792 0 3.6564075156679792 32.621009994517408 0 0 0 0 -35.733834486132764 25.997091862095317 0 25.997091862095317 40.892990473674217 0 0 0 0 7.1720486419185363 -26.426923602842862 0 -26.426923602842862 83.840435442702528 0 0 0 0 15.677531784509938 -0.92410146806543025 0 -0.92410146806543025 23.936931917502079 0 0 0 0 9.2263829888044597 -16.69275882137174 0 -16.69275882137174 58.837969522085587 0 0 0 0 0.065574805337093922 -6.7258919917909203 0 -6.7258919917909203 55.413418767870468 0 0 0 0 11.360711972980653 4.5939579879022858 0 4.5939579879022858 82.649506792268767 0 0 0 0 -1.3000689287327987 11.405435066420523 0 11.405435066420523 -126.54806587122789 0 0 0 0 -75.078810974770022 52.608188951308421 0 52.608188951308421 33.296800091829482 0 0 0 0 -17.353558462957153 52.46211548144197 0 52.46211548144197 -28.21278303189456 0 0 0 0 8.3418641962985021 28.924108581628388 0 28.924108581628388 31.960327624704362 0 0 0 0 3.5312131089478989 23.585634297294746 0 23.585634297294746 -0.5657563024313369 0 0 0 0 53.791451646538007 -158.7708815708711 0 -158.7708815708711 243.56286305831782 0 0 0 0 -17.444984137171105 -13.482850110246801 0 -13.482850110246801 155.95224459287419 0 0 0 0 -61.221757130230799 -23.996345989040492 0 -23.996345989040492 267.5602468168654 0 0 0 0 32.410373088668166 -30.573754931843723 0 -30.573754931843723 -41.831848528991515 0 0 0 0 8.4587252961552508 -9.0850725900188536 0 -9.0850725900188536 73.045251891318912 0 0 0 0 7.4866716479043474 18.969712159670046 0 18.969712159670046 7.2425472223620382 0 0 0 0 4.3697963043960044 72.951178952673217 0 72.951178952673217 -81.553706768325355 0 0 0 0 6.1070013336473004 22.933973883676632 0 22.933973883676632 0.38274341129134515 0 0 0 0 23.40974542859658 52.738716144202044 0 52.738716144202044 23.1177111146622 0 0 0 0 -12.445810176210898 -8.4213754513593813 0 -8.4213754513593813 138.1408212975748 0 0 0 0 -11.132239534764267 18.059594533857307 0 18.059594533857307 63.318613457999163 0 0 0 0 -62.661888081956022 -15.057730583170269 0 -15.057730583170269 217.45750016775492 0 0 0 0 -12.874318931561902 57.745936248698854 0 57.745936248698854 89.278946795122465 0 0 0 0 -17.7660858295867 60.308787261950783 0 60.308787261950783 241.56776237623853 0 0 0 0 12.290942929160337 79.526298424269044 0 79.526298424269044 79.997030016449571 0 0 0 0 18.312441384998237 141.07866610404744 0 141.07866610404744 231.14167317376268 0 0 0 0 26.797768394515515 8.9110286685272513 0 8.9110286685272513 -24.778356567614537 0 0 0 0 -4.1511583478659304 213.05472908981574 0 213.05472908981574 477.89170827560156 0 0 0 0 -31.597748111286819 82.909302513462535 0 82.909302513462535 299.00088878576935 0 0 0 0 -31.510654027550117 93.609074904068621 0 93.609074904068621 238.75907940151774 0 0 0 0 -86.977257621019248 51.505788490381065 0 51.505788490381065 261.7220871207137 0 0 0 0 -110.48848146491673 25.26148958662634 0 25.26148958662634 374.00119849756084 0 0 0 0 -86.622169268915968 60.943563397180696 0 60.943563397180696 408.04880474195306 0 0 0 0 -112.66423970679142 -1.933760045074564 0 -1.933760045074564 440.45831475362866 0 0 0 0 -111.57783225144988 5.8745845073932514 0 5.8745845073932514 373.22823099808375 0 0 0 0 7.6449405137118447 -173.93971111073733 0 -173.93971111073733 544.05545817567508 0 0 0 0 -89.664788348923139 45.39618917532971 0 45.39618917532971 394.56039349408275 0 0 0 0 2.5717437132025225 -131.74569217164571 0 -131.74569217164571 329.07827821550381 0 0 0 0 -71.547573142649071 -25.932271850954749 0 -25.932271850954749 642.47082344989394 0 0 0 0 -119.30723303767309 -63.844505361925258 0 -63.844505361925258 486.70008841100571 0 0 0 0 -121.35010645202419 -10.96666614689093 0 -10.96666614689093 264.83839247742071 0 0 0 0 -116.91176602893302 57.287320047928006 0 57.287320047928006 290.04452551376562 0 0 0 0 -62.298920506627212 168.77874068860638 0 168.77874068860638 258.51024848751331 0 0 0 0 -128.89200444466587 72.887035926993121 0 72.887035926993121 469.60073853713698 0 0 0 0 -63.669030966206435 191.31327958286954 0 191.31327958286954 -108.4232341954521 0 0 0 0 1.1185252408303441 2.2754380866703841 0 2.2754380866703841 4.5333932100233625 0 0 0 0 -73.740313975377831 -30.549750018699342 0 -30.549750018699342 725.70971244936572 0 0 0 0 97.958809650127478 -12.779442260539327 0 -12.779442260539327 212.71522296322473 0 0 0 0 294.16532669224034 -466.23150406767854 0 -466.23150406767854 662.03675516157045 0 0 0 0 85.076645063675642 -143.87865348805826 0 -143.87865348805826 330.46364529191851 0 0 0 0 27.929339687837455 -142.84290176459399 0 -142.84290176459399 386.13356606616435 0 0 0 0 13.246951924209498 -68.084417371526797 0 -68.084417371526797 239.84443032054696 0 0 0 0 -9.6637020406976717 -92.474935930798097 0 -92.474935930798097 291.20811692356801 0 0 0 0 14.008444571436485 -1.8467251017300441 0 -1.8467251017300441 202.71317496741904 0 0 0 0 -48.136786061524617 27.424881262550116 0 27.424881262550116 216.98132790964519 0 0 0 0 -42.438134412432191 4.2075598005358188 0 4.2075598005358188 267.25925477824876 0 0 0 0 -18.991886049610912 20.443926980977267 0 20.443926980977267 358.53242006724304 0 0 0 0 41.499164327766721 122.85169331207362 0 122.85169331207362 16.624497650645935 0 0 0 0 -4.8375760357766922 70.541443461601375 0 70.541443461601375 83.876124229458583 0 0 0 0 -17.556413828096083 90.474244561250089 0 90.474244561250089 95.096951176999028 0 0 0 0 23.420509135121506 7.6077450721479636 0 7.6077450721479636 -112.07673683879511 0 0 0 0 -36.634833207807333 20.188413877013659 0 20.188413877013659 183.09470073673128 0 0 0 0 -6.030029618886477 26.119584320201781 0 26.119584320201781 -0.48332950416394127 0 0 0 0 -34.809790405394779 5.6174174978104929 0 5.6174174978104929 179.18226658291042 0 0 0 0 122.08517830606763 150.82927450611987 0 150.82927450611987 221.4640505501884 0 0 0 0 -0.22850050808028755 24.777238013047359 0 24.777238013047359 -0.5769541375654319 0 0 0 0 110.19681206577479 -62.401135866059121 0 -62.401135866059121 -167.08375972316395 0 0 0 0 -49.453108006709954 106.72370965133996 0 106.72370965133996 261.50862672734002 0 0 0 0 -8.8239104273943667 -25.117580424426706 0 -25.117580424426706 81.454262278339229 0 0 0 0 -14.612521007347048 11.590987615093908 0 11.590987615093908 74.281881748607191 0 0 0 0 3.0272314715465569 -4.041815089454758 0 -4.041815089454758 67.293176124432648 0 0 0 0 -8.2313144702862893 9.1760398754223047 0 9.1760398754223047 23.763652295193836 0 0 0 0 -7.656372430420106 -7.54597889566503 0 -7.54597889566503 104.11490095790941 0 0 0 0 11.016302211372931 37.779751152251265 0 37.779751152251265 62.779080494704431 0 0 0 0 -72.040136387820212 79.144999572445158 0 79.144999572445158 66.240907269602758 0 0 0 0 -86.921716951508074 113.53163771492109 0 113.53163771492109 40.51754795506713 0 0 0 0 13.976424254607991 -1.3181198556776508 0 -1.3181198556776508 91.406168227369562 0 0 0 0 13.842162860913959 -10.28521400236059 0 -10.28521400236059 151.79209679220003 0 0 0 0 -16.184388595560115 8.8782002003361598 0 8.8782002003361598 120.76197087313784 0 0 0 0 -1.2841566850178197 -1.1918487199882293 0 -1.1918487199882293 28.063701643837295 0 0 0 0 -31.871388356681564 -25.346637756949349 0 -25.346637756949349 192.32258252012252 0 0 0 0 69.121499590288749 -62.254154447109613 0 -62.254154447109613 146.97954326945182 0 0 0 0 6.319065678262632 4.8933401863359904 0 4.8933401863359904 123.16115242301748 0 0 0 0 -27.907974304890558 39.154029617158812 0 39.154029617158812 92.679537423013244 0 0 0 0 87.05028125851095 -58.071926219887246 0 -58.071926219887246 116.62797326009604 0 0 0 0 0.82263375595448451 0.75701964812105871 0 0.75701964812105871 137.15874968609569 0 0 0 0 115.45268805897194 -49.793966717257717 0 -49.793966717257717 140.80666170106997 0 0 0 0 77.650977253744713 -135.78078501050913 0 -135.78078501050913 180.1050793174727 0 0 0 0 58.14682833775305 -54.979092316421884 0 -54.979092316421884 201.41675101018336 0 0 0 0 -62.6222926495102 -40.476036570908036 0 -40.476036570908036 103.82340097482665 0 0 0 0 -23.950698071483203 -4.5524560680205468 0 -4.5524560680205468 118.20219045987687 0 0 0 0 106.2250737643335 -163.37175162898347 0 -163.37175162898347 46.063196458599123 0 0 0 0 -43.358056805692286 5.0186219939005241 0 5.0186219939005241 117.21024186802242 0 0 0 0 -15.682673095786555 -10.528436488956899 0 -10.528436488956899 65.932909901995004 0 0 0 0 25.95463675467056 165.73798596701909 0 165.73798596701909 -16.212381780180294 0 0 0 0 -1.4790158456464333 -23.976868586347873 0 -23.976868586347873 78.874875850670378 0 0 0 0 -26.38381582528902 -16.399549011408453 0 -16.399549011408453 69.353698388920748 0 0 0 0 -28.664934129289961 -6.2442393523975426 0 -6.2442393523975426 134.64721672428897 0 0 0 0 -70.822707891946266 143.59352342467173 0 143.59352342467173 186.01071613097156 0 0 0 0 -15.86424969240668 5.8699456158588248 0 5.8699456158588248 27.263953310576767 0 0 0 0 -662.42412679507402 -1191.1026469187 0 -1191.1026469187 1205.7004094944186 0 0 0 0 7.4803782165183748 -113.96514818616197 0 -113.96514818616197 966.76105385480332 0 0 0 0 -213.11198667129293 -3.4535282042597828 0 -3.4535282042597828 1037.9948210770817 0 0 0 0 -16.566010478451972 29.388117371898261 0 29.388117371898261 956.29141066141165 0 0 0 0 4.4608859357717563 -6.464809106065541 0 -6.464809106065541 10.92294762001093 0 0 0 0 117.10886245607037 144.3436933671328 0 144.3436933671328 -97.822366044027149 0 0 0 0 -12.62465113856258 11.001994246683173 0 11.001994246683173 11.970338154696549 0 0 0 0 -499.59280885282169 -332.46493773393013 0 -332.46493773393013 824.27435294698444 0 0 0 0 286.22202998131536 148.89537045323777 0 148.89537045323777 -40.319394149984873 0 0 0 0 377.24539550463987 -367.4412406342235 0 -367.4412406342235 439.76130907594415 0 0 0 0 -22.139485909371615 -94.782945319049759 0 -94.782945319049759 482.63848588254768 0 0 0 0 -0.40441405405817932 -226.02946115067971 0 -226.02946115067971 1135.3111507521353 0 0 0 0 -171.580860471964 150.67179450205145 0 150.67179450205145 605.59680726491206 0 0 0 0 22.616003442878082 -206.12870259181727 0 -206.12870259181727 1236.2743234971895 0 0 0 0 0.15240154207784973 0.34653075905032882 0 0.34653075905032882 7.2339681151400299 0 0 0 0 22.377513294434721 349.97450022038902 0 349.97450022038902 906.55477436332148 0 0 0 0 -212.33978405352127 11.348664229393876 0 11.348664229393876 1278.1096252720235 0 0 0 0 -0.41767571794501457 1.1981087828122496 0 1.1981087828122496 4.8122793330661864 0 0 0 0 -31.627933633431439 18.376360723668768 0 18.376360723668768 970.22008801241645 0 0 0 0 219.75820586204236 -288.35224563376505 0 -288.35224563376505 711.0156410890304 0 0 0 0 368.4856762295899 422.69962311614654 0 422.69962311614654 155.41265974880662 0 0 0 0 52.038243769499331 417.59191391394779 0 417.59191391394779 1003.0582033493774 0 0 0 0 296.19506529353112 61.504206912995869 0 61.504206912995869 -165.05941242796507 0 0 0 0 154.57914362634347 249.31307255104548 0 249.31307255104548 276.11445039926002 0 0 0 0 44.177838337518551 169.31182237950998 0 169.31182237950998 338.4713668751574 0 0 0 0 96.302197611141082 7.4025079187422307 0 7.4025079187422307 -36.364878279819095 0 0 0 0 -32.811617041681529 10.497667586238094 0 10.497667586238094 39.533487022788904 0 0 0 0 52.189478789498935 69.374066839955049 0 69.374066839955049 68.024690295105756 0 0 0 0 85.302809635180438 82.175771329370946 0 82.175771329370946 49.349431487316906 0 0 0 0 63.827825592678664 -9.9060596541439736 0 -9.9060596541439736 -5.3409568609567941 0 0 0 0 -49.865169479140604 -95.077255818341655 0 -95.077255818341655 -40.673284714783222 0 0 0 0 27.787021449091299 -91.30762832421351 0 -91.30762832421351 -85.725269776924279 0 0 0 0 2.5038264799228314 -2.6863904163856072 0 -2.6863904163856072 9.0939942126541524 0 0 0 0 -9.0654061874045055 -19.304630807380818 0 -19.304630807380818 17.07288133982064 0 0 0 0 6.601471511768187 -17.633327448103064 0 -17.633327448103064 31.119362456302056 0 0 0 0 -420.12118398109033 -246.35872638808723 0 -246.35872638808723 173.93264138845552 0 0 0 0 4.0351902476351551 -10.800732022745688 0 -10.800732022745688 26.459170752438524 0 0 0 0 -400.69635413900778 -1.5096810117829591 0 -1.5096810117829591 -109.90988965517317 0 0 0 0 -346.48441110462045 -167.56273778076866 0 -167.56273778076866 263.37471159212873 0 0 0 0 6.8341972644236835 -18.161059950818846 0 -18.161059950818846 38.372751982916149 0 0 0 0 95.163212705202568 -7.5763008144258492 0 -7.5763008144258492 -52.21684435401221 0 0 0 0 21.609360953859095 -20.074551323366904 0 -20.074551323366904 43.126126314153225 0 0 0 0 11.162661359863165 -4.0895341274758579 0 -4.0895341274758579 14.899846011004243 0 0 0 0 51.746639366007003 -34.09608218124049 0 -34.09608218124049 -62.63687945962738 0 0 0 0 6.9630248577906286 -9.6542843246625125 0 -9.6542843246625125 36.427571903976059 0 0 0 0 -69.367336092797132 -70.814814617504453 0 -70.814814617504453 26.464089643930492 0 0 0 0 -212.2888438285957 -529.11650054646088 0 -529.11650054646088 -390.87569418558951 0 0 0 0 -62.193158838627028 69.82878121036083 0 69.82878121036083 -428.39534457887203 0 0 0 0 12.627876991509464 -21.073758002598215 0 -21.073758002598215 29.548376396001743 0 0 0 0 185.34582765519417 -115.65772247731002 0 -115.65772247731002 -224.90025809367944 0 0 0 0 209.78734725177856 -8.0742732819344383 0 -8.0742732819344383 24.804109113771119 0 0 0 0 -173.98568726413569 -300.12275353970108 0 -300.12275353970108 82.424915130570298 0 0 0 0 -19.132077662624496 -130.39051007680973 0 -130.39051007680973 254.72989354542369 0 0 0 0 180.22284669307874 -581.82055515560933 0 -581.82055515560933 -737.75995762487219 0 0 0 0 325.3282907811909 -276.11568342005921 0 -276.11568342005921 -947.67527557081485 0 0 0 0 -2.4187562136840679 -0.47212279435368032 0 -0.47212279435368032 9.5558431317448846 0 0 0 0 -112.13457565745375 68.593266311261686 0 68.593266311261686 -562.93889550562017 0 0 0 0 41.891187330194953 -206.65734477557999 0 -206.65734477557999 -360.33291629648011 0 0 0 0 353.96390585766494 -220.77409613927739 0 -220.77409613927739 -505.86986815644195 0 0 0 0 110.48885319288456 -355.02064080692799 0 -355.02064080692799 -42.746782612084644 0 0 0 0 191.47690994752202 -514.80520064133088 0 -514.80520064133088 59.91939486406045 0 0 0 0 160.99393016639738 -391.70043854840333 0 -391.70043854840333 -85.837734996515792 0 0 0 0 -315.01158284926061 -581.60416253261792 0 -581.60416253261792 -344.3719717030981 0 0 0 0 637.374862624667 -557.35635727350018 0 -557.35635727350018 -324.737172177498 0 0 0 0 44.547310159339304 -263.31450339448929 0 -263.31450339448929 -62.616571806196589 0 0 0 0 614.70280463969902 -154.46135990465154 0 -154.46135990465154 -59.930859304382466 0 0 0 0 1317.6390775923992 -330.898859904657 0 -330.898859904657 -66.177888122168952 0 0 0 0 470.38628616367714 -739.37182090629358 0 -739.37182090629358 236.26911211310653 0 0 0 0 0.51355909847086689 2.9425859271580705 0 2.9425859271580705 8.6557992755615487 0 0 0 0 7.5306680478500629 11.715480084142598 0 11.715480084142598 -3.6208679517465505 0 0 0 0 1.5762443809181832 -5.2205749661516165 0 -5.2205749661516165 67.77313828041224 0 0 0 0 2.9942118282923871 -14.638121359119609 0 -14.638121359119609 37.811638538121287 0 0 0 0 -566.5374162755071 -331.11264689243399 0 -331.11264689243399 -297.57458245515591 0 0 0 0 54.570121922519775 -71.547117280977545 0 -71.547117280977545 172.37399494890724 0 0 0 0 70.641494453371251 -96.71849342702626 0 -96.71849342702626 199.7063886526812 0 0 0 0 135.9384450214684 -167.00122477252444 0 -167.00122477252444 113.35597731523376 0 0 0 0 148.60778623138276 -231.61436446163862 0 -231.61436446163862 86.074397477743332 0 0 0 0 122.93442756271543 -343.91397696858621 0 -343.91397696858621 289.54106963840604 0 0 0 0 -33.194260802348253 -44.403897053634864 0 -44.403897053634864 400.12638858650462 0 0 0 0 16.499447207649609 374.51453868131648 0 374.51453868131648 432.07888323162479 0 0 0 0 -70.002629313163197 -248.76283716548642 0 -248.76283716548642 1103.8398002195754 0 0 0 0 -559.51599153892903 -458.00179027402964 0 -458.00179027402964 139.23969880120421 0 0 0 0 -377.62678186247285 307.51067737818812 0 307.51067737818812 636.68548735440709 0 0 0 0 -1.0568761381063858 1.8702012057629176 0 1.8702012057629176 -3.9079512484658494 0 0 0 0 407.7624520749614 -961.19421097220038 0 -961.19421097220038 820.45606489508646 0 0 0 0 533.00333824397694 868.217976282569 0 868.217976282569 777.76494542980799 0 0 0 0 58.689513673669353 -307.01609458910389 0 -307.01609458910389 219.14368673404533 0 0 0 0 845.90636229272172 -205.49123147445061 0 -205.49123147445061 231.18335892853793 0 0 0 0 -239.26195095305229 -30.014101390435826 0 -30.014101390435826 501.23696803564235 0 0 0 0 -244.94379423554665 -291.79718023692112 0 -291.79718023692112 1033.4065945931943 0 0 0 0 -209.20427487706183 -382.61553227434342 0 -382.61553227434342 350.96488188186049 0 0 0 0 146.76045792645255 -233.9164605483893 0 -233.9164605483893 41.492775503415032 0 0 0 0 -15.449694612407256 -172.17107664113428 0 -172.17107664113428 73.221697502503957 0 0 0 0 -131.24573494583728 -293.60105863577337 0 -293.60105863577337 31.42745759760146 0 0 0 0 69.401133383677916 -230.41927873505483 0 -230.41927873505483 -150.99558964536118 0 0 0 0 87.19681332819016 -161.91707170744667 0 -161.91707170744667 30.0931602675264 0 0 0 0 -99.066927103412922 -293.86755907388579 0 -293.86755907388579 -324.42895369970938 0 0 0 0 -119.69743602452536 -106.28970545189577 0 -106.28970545189577 -5.6081386761798058 0 0 0 0 -112.79850826243285 -140.33828303655082 0 -140.33828303655082 -77.918132885737577 0 0 0 0 64.321317485476811 -123.11250859532447 0 -123.11250859532447 -17.294233653545234 0 0 0 0 215.17650964765699 -221.94737445503051 0 -221.94737445503051 15.843017587969371 0 0 0 0 332.57479086134413 -52.054503079354618 0 -52.054503079354618 83.447668018256081 0 0 0 0 162.9292138198939 -129.91303949006033 0 -129.91303949006033 53.418786262700451 0 0 0 0 137.69250464012111 -272.74752109217297 0 -272.74752109217297 1.1645931848615874 0 0 0 0 -12.677211350839002 -16.463629103709536 0 -16.463629103709536 57.773837647193432 0 0 0 0 -4.2065957142684169 -21.895487992576818 0 -21.895487992576818 60.325839668486879 0 0 0 0 187.79330825971465 225.59764743997221 0 225.59764743997221 -55.101979432554799 0 0 0 0 6.1145653327743528 -25.944873592569955 0 -25.944873592569955 23.610027388467955 0 0 0 0 -288.13998019644259 50.906839600847889 0 50.906839600847889 157.05006302902257 0 0 0 0 -49.867902810123269 -137.89625308026734 0 -137.89625308026734 -148.5186247593374 0 0 0 0 -223.91248626141987 37.035965915765701 0 37.035965915765701 536.47411345237197 0 0 0 0 -186.56780461706148 -77.439039240194688 0 -77.439039240194688 168.29966726363637 0 0 0 0 -53.939964150354172 96.966033771244838 0 96.966033771244838 16.668982495963064 0 0 0 0 -11.086884882635637 9.1629271100676632 0 9.1629271100676632 -4.8817633983177018 0 0 0 0 -511.29827516986461 -50.238215640190901 0 -50.238215640190901 8.9159991542546777 0 0 0 0 -276.13124254947979 22.745812698121881 0 22.745812698121881 -240.69526753314494 0 0 0 0 -494.28969511284322 -202.29381917460705 0 -202.29381917460705 27.2427933512663 0 0 0 0 40.770828420430007 -157.87125011470744 0 -157.87125011470744 129.69962005304114 0 0 0 0 11.96807009295668 2.0944386603596286 0 2.0944386603596286 49.120766659331821 0 0 0 0 -6.484251839411888 -7.4128404148399198 0 -7.4128404148399198 50.304880022863244 0 0 0 0 -87.423955667610983 -52.430722844927914 0 -52.430722844927914 28.279601870199258 0 0 0 0 -27.493008755434403 -41.500512316488312 0 -41.500512316488312 -20.404887539265474 0 0 0 0 -62.350982302470356 -31.437801094004499 0 -31.437801094004499 23.384194918282446 0 0 0 0 3.3418535885661487 -17.237952888562813 0 -17.237952888562813 28.548768132787757 0 0 0 0 -184.335214758863 -164.76654349501769 0 -164.76654349501769 -285.02861820714679 0 0 0 0 -209.56610908984294 -47.088363608781947 0 -47.088363608781947 -153.2418205300055 0 0 0 0 -208.60710637183172 -30.4020783661108 0 -30.4020783661108 -35.738669725134969 0 0 0 0 -194.7308905116497 -62.724728214507195 0 -62.724728214507195 -150.52921109920135 0 0 0 0 -198.04406861498353 -84.627182934604207 0 -84.627182934604207 -250.33322827820666 0 0 0 0 -224.80419068599986 -27.331007879703975 0 -27.331007879703975 -30.711423948116135 0 0 0 0 -400.74125837430893 -288.41720329748932 0 -288.41720329748932 -84.603371434641303 0 0 0 0 -232.18901406021496 -51.955130012138397 0 -51.955130012138397 -28.704781086402363 0 0 0 0 -206.88703397258905 20.818869467038894 0 20.818869467038894 63.519402630729019 0 0 0 0 -261.35950132629932 -173.34804863794125 0 -173.34804863794125 -120.32080513011351 0 0 0 0 -212.03026486802264 -177.88144424384518 0 -177.88144424384518 -240.99493900386005 0 0 0 0 -214.08823080540878 -36.260395400022389 0 -36.260395400022389 -91.8033470933442 0 0 0 0 -222.80243087855069 -67.327741755274474 0 -67.327741755274474 -124.71426792559214 0 0 0 0 -249.52825101140866 -108.90127877310897 0 -108.90127877310897 -18.576385434600525 0 0 0 0 -314.37657708362258 -203.25491097031772 0 -203.25491097031772 -70.528970210485568 0 0 0 0 -354.25375532186786 -96.612882936171445 0 -96.612882936171445 71.355861705029383 0 0 0 0 -284.42997959331387 -124.32947914594115 0 -124.32947914594115 5.1042561923677567 0 0 0 0 -192.64975024117939 -26.568557666338165 0 -26.568557666338165 17.302725786095834 0 0 0 0 -270.80435436070229 -109.01039531236165 0 -109.01039531236165 -4.9933893385459669 0 0 0 0 -193.58747603958454 14.297609946057491 0 14.297609946057491 65.706529084680369 0 0 0 0 -74.6996762786207 133.23420266690664 0 133.23420266690664 119.80618615210915 0 0 0 0 -131.47257482035707 31.983480432496435 0 31.983480432496435 25.847203278768575 0 0 0 0 -187.79273407019718 85.896607333903376 0 85.896607333903376 163.23438035061918 0 0 0 0 -233.4082127858087 1.3828810342893121 0 1.3828810342893121 58.89617134447326 0 0 0 0 -191.829690051939 -103.8727951028086 0 -103.8727951028086 -2.8341079739184352 0 0 0 0 0.86160887690501298 -7.2933967849603789 0 -7.2933967849603789 12.272316898307366 0 0 0 0 -159.14192972565303 -31.671822692735077 0 -31.671822692735077 11.00129925593501 0 0 0 0 -220.77945448729167 -29.869799271156808 0 -29.869799271156808 44.6852479041263 0 0 0 0 -211.42654472285676 -28.789654164749663 0 -28.789654164749663 -31.006759252864867 0 0 0 0 -92.657186526888154 52.312821687875839 0 52.312821687875839 100.38270814383577 0 0 0 0 -52.269393251126985 -55.094456697941496 0 -55.094456697941496 -81.198201725186664 0 0 0 0 382.00893565511205 -234.24230585723853 0 -234.24230585723853 232.03909497320456 0 0 0 0 -6.9897207921428617 -142.9438954808702 0 -142.9438954808702 548.47383480161807 0 0 0 0 65.023953667973728 -97.609906742203748 0 -97.609906742203748 175.10262342424539 0 0 0 0 -178.11988235458875 -106.56213701732122 0 -106.56213701732122 145.72408635455213 0 0 0 0 -276.12397209170103 13.863825043270481 0 13.863825043270481 0.6177038862806512 0 0 0 0 -95.816676689308679 49.216411310473632 0 49.216411310473632 150.0648436151605 0 0 0 0 -232.06669144130456 -28.083002869339907 0 -28.083002869339907 156.77790058717801 0 0 0 0 -22.645312800121701 272.43114848893674 0 272.43114848893674 258.70711729301729 0 0 0 0 -91.760124698626441 143.58981608870454 0 143.58981608870454 196.61779891655533 0 0 0 0 -134.22249963261947 150.88229103789763 0 150.88229103789763 216.01333079267351 0 0 0 0 -80.381237035011964 276.0409680362427 0 276.0409680362427 630.08302937940607 0 0 0 0 216.3047789849229 476.13634301669481 0 476.13634301669481 197.48778225283968 0 0 0 0 26.401377539047189 -312.38656420863845 0 -312.38656420863845 489.83751149682121 0 0 0 0 0.4703415841120413 1.8204068019173825 0 1.8204068019173825 8.0466881220137907 0 0 0 0 -46.596808796471123 -20.493015222940585 0 -20.493015222940585 376.88599240669282 0 0 0 0 597.74678174594294 101.02347135491254 0 101.02347135491254 181.49098186399351 0 0 0 0 83.127729051836013 154.07204293922769 0 154.07204293922769 591.44345754645201 0 0 0 0 199.7115830960629 -27.403157156069938 0 -27.403157156069938 150.5406804162667 0 0 0 0 208.67798692167094 -59.165870458491554 0 -59.165870458491554 122.52920711722982 0 0 0 0 97.81906976913433 4.4915499062699382 0 4.4915499062699382 145.59876219240232 0 0 0 0 266.63661130543733 21.457938784889848 0 21.457938784889848 147.04850942271878 0 0 0 0 95.361863914744845 143.88214327161404 0 143.88214327161404 304.3310594919185 0 0 0 0 -21.216222964945246 44.698904304816097 0 44.698904304816097 220.4997459181759 0 0 0 0 42.126310025261319 95.191173438055557 0 95.191173438055557 160.5774646590944 0 0 0 0 118.29619291029894 16.198316704498211 0 16.198316704498211 114.49411172265536 0 0 0 0 24.040048409789904 32.520140098188676 0 32.520140098188676 117.35620817642484 0 0 0 0 28.052264191117047 61.041955924149079 0 61.041955924149079 86.708173022503615 0 0 0 0 -63.78211963727972 54.732506419401034 0 54.732506419401034 147.61280046344473 0 0 0 0 -43.300006281453932 40.340090280747972 0 40.340090280747972 84.000319066850352 0 0 0 0 56.857696193203537 50.883633894354716 0 50.883633894354716 61.905261307885667 0 0 0 0 14.065475920950121 -18.779192516405601 0 -18.779192516405601 125.77911163117096 0 0 0 0 -64.479920999667229 -12.907509962289623 0 -12.907509962289623 143.66529356950196 0 0 0 0 -4.9432383446246142 -2.4175081220795107 0 -2.4175081220795107 20.34843944009252 0 0 0 0 -17.156345731580448 26.257087149327049 0 26.257087149327049 119.04123107618233 0 0 0 0 -50.12275655524661 79.004393354470267 0 79.004393354470267 35.020097639324376 0 0 0 0 -66.854366602842902 40.841037088108351 0 40.841037088108351 97.645687434924184 0 0 0 0 -45.039430388522049 108.76525038976388 0 108.76525038976388 150.19738015368785 0 0 0 0 -137.09339748438629 112.84726317362674 0 112.84726317362674 175.36349666930619 0 0 0 0 60.38944974804771 -124.85024246937974 0 -124.85024246937974 238.45407908804191 0 0 0 0 -78.947838086106827 -28.409612685054526 0 -28.409612685054526 242.61940763231905 0 0 0 0 -12.01027654659115 23.749287384219045 0 23.749287384219045 128.67353294880922 0 0 0 0 -46.977721672341694 -28.89465940220839 0 -28.89465940220839 203.99093165787417 0 0 0 0 109.7331165636632 -199.91932150482171 0 -199.91932150482171 126.31117544571316 0 0 0 0 52.392703043668234 -149.52699153465801 0 -149.52699153465801 137.80073579411692 0 0 0 0 -105.08305116799693 -155.25056578441581 0 -155.25056578441581 182.11435827859168 0 0 0 0 -5.5554829159393648 -197.34908084299786 0 -197.34908084299786 159.69735360207051 0 0 0 0 -19.144066438740651 -101.73842609372241 0 -101.73842609372241 146.74740842305619 0 0 0 0 -369.50535623104946 330.38059430094017 0 330.38059430094017 9.1212502491398482 0 0 0 0 -277.50877620614597 -71.893267456827743 0 -71.893267456827743 164.91090361334136 0 0 0 0 0.14020727714821435 4.4300398540262016 0 4.4300398540262016 21.224917446497869 0 0 0 0 -103.5060590403935 -150.45579939309096 0 -150.45579939309096 72.248706119265989 0 0 0 0 -572.32610674862042 141.54608459245719 0 141.54608459245719 109.37822391554846 0 0 0 0 -0.6683568147141532 4.8644237288983554 0 4.8644237288983554 26.953703056526876 0 0 0 0 -852.43875239178362 345.29332145668377 0 345.29332145668377 349.97146945688291 0 0 0 0 132.58510154709302 182.45495729067625 0 182.45495729067625 -94.16054433876343 0 0 0 0 -297.09571931775008 -181.10484286331302 0 -181.10484286331302 297.22123438428389 0 0 0 0 83.992396499719462 181.64948092081249 0 181.64948092081249 -71.359083521412686 0 0 0 0 162.41248267465903 89.856702886398125 0 89.856702886398125 356.70895163060322 0 0 0 0 207.47359284662588 -160.18800847564489 0 -160.18800847564489 277.45531413373101 0 0 0 0 122.54678746024888 -70.683531378692351 0 -70.683531378692351 188.45466036748257 0 0 0 0 114.98736505607701 -171.81932680714272 0 -171.81932680714272 13.556111223038897 0 0 0 0 114.21311853451061 -134.79670455860105 0 -134.79670455860105 221.56928461644929 0 0 0 0 -3.2738953988756521 -98.179922499763052 0 -98.179922499763052 214.7857147843315 0 0 0 0 -30.368523821943313 -38.223149060901051 0 -38.223149060901051 294.09213464565619 0 0 0 0 -34.82427302637484 73.170751712198808 0 73.170751712198808 90.580783053883351 0 0 0 0 -83.607903035146364 37.511691111165419 0 37.511691111165419 119.41946110415302 0 0 0 0 -11.746183499995055 90.523737859494304 0 90.523737859494304 155.57726048382756 0 0 0 0 -42.770047463098763 150.45334917402397 0 150.45334917402397 127.98306658076035 0 0 0 0 125.684003355198 147.17045848120324 0 147.17045848120324 125.75769429605134 0 0 0 0 8.5343632949939092 71.777065485532148 0 71.777065485532148 172.89645981121794 0 0 0 0 140.81379976091034 26.211194422026892 0 26.211194422026892 138.56658085627714 0 0 0 0 69.233245220876597 186.30469210906631 0 186.30469210906631 70.435525351083925 0 0 0 0 121.94201256091657 308.19323082547726 0 308.19323082547726 113.76715576200513 0 0 0 0 92.995591029573461 220.6230535219438 0 220.6230535219438 27.254007216732134 0 0 0 0 134.66382045546152 241.58913392505201 0 241.58913392505201 -82.47661936039367 0 0 0 0 35.601124509189958 105.62078373644545 0 105.62078373644545 -42.236165885225091 0 0 0 0 -119.51803776595784 -25.660035268381762 0 -25.660035268381762 -90.961571836211078 0 0 0 0 113.07056855267683 259.1165569425284 0 259.1165569425284 241.55358936162156 0 0 0 0 112.99323966367001 -423.19019870932061 0 -423.19019870932061 573.2557756101387 0 0 0 0 118.25159854110143 70.135095084651766 0 70.135095084651766 737.58388648805703 0 0 0 0 237.66925117975052 147.70468832761981 0 147.70468832761981 -1.211784680497658 0 0 0 0 286.42923859241853 -79.60012046394786 0 -79.60012046394786 211.95607472724078 0 0 0 0 209.25039107829684 90.115019930040944 0 90.115019930040944 297.97835846308953 0 0 0 0 194.85717168964845 -38.153551120589782 0 -38.153551120589782 202.15981749915954 0 0 0 0 71.313004950279037 -160.77823671570968 0 -160.77823671570968 248.14964957274788 0 0 0 0 -0.80314868667952588 -0.14571767489070453 0 -0.14571767489070453 1.584052587416835 0 0 0 0 203.2495554113155 232.19118249377152 0 232.19118249377152 169.00538497519301 0 0 0 0 40.451017461449595 -10.316110787172875 0 -10.316110787172875 371.63339094132243 0 0 0 0 -53.125803830292398 956.00637648305565 0 956.00637648305565 1776.8368347191008 0 0 0 0 39.820984143867236 761.75681561313831 0 761.75681561313831 1181.8562209937772 0 0 0 0 157.95198529192601 755.65087235136707 0 755.65087235136707 1173.3864081420325 0 0 0 0 142.78917360661012 467.86381272283506 0 467.86381272283506 734.8044613033926 0 0 0 0 111.11164380873936 612.68121573100166 0 612.68121573100166 631.94193566307149 0 0 0 0 -204.41574716859452 562.97368990156701 0 562.97368990156701 2118.3997613328975 0 0 0 0 -190.02006580782165 492.0847093704906 0 492.0847093704906 1371.2223883421102 0 0 0 0 -378.40078345182201 -801.01887726444693 0 -801.01887726444693 3745.1609678526838 0 0 0 0 -3.7331298966307163 3.0247325160213734 0 3.0247325160213734 6.1156399952119855 0 0 0 0 189.72728650053568 -347.63845330476943 0 -347.63845330476943 991.32960086658204 0 0 0 0 222.40466245466314 153.88361960621978 0 153.88361960621978 1499.8438032729464 0 0 0 0 226.44760628524682 -748.67667403347514 0 -748.67667403347514 1924.5673553268352 0 0 0 0 -821.98491308237919 1352.1856431141132 0 1352.1856431141132 1516.6886229287966 0 0 0 0 -804.28983584214632 538.23833844626824 0 538.23833844626824 2013.2991111594183 0 0 0 0 -648.65434729819663 -175.87294905572071 0 -175.87294905572071 3498.4018937640867 0 0 0 0 -485.49386876199583 730.79247608965397 0 730.79247608965397 1957.6492482491813 0 0 0 0 -915.60042368856386 886.27277799880449 0 886.27277799880449 3499.9342019429278 0 0 0 0 -188.28646701175859 1026.0793737779968 0 1026.0793737779968 2575.7850683122742 0 0 0 0 -231.02680291737937 1183.1704592049537 0 1183.1704592049537 2561.1510535683733 0 0 0 0 -495.93838028036492 -12.989783383753092 0 -12.989783383753092 1909.1086190408969 0 0 0 0 -333.18368952702696 2.9191128204856795 0 2.9191128204856795 1206.3297223491463 0 0 0 0 -193.39808309329499 -266.52114578932742 0 -266.52114578932742 1714.6504497702554 0 0 0 0 -0.090355143412921279 161.28187675112531 0 161.28187675112531 1128.6910833650691 0 0 0 0 -0.52781008508534799 1.6778682579889637 0 1.6778682579889637 14.067141127587803 0 0 0 0 -312.90438533966096 881.67246314704607 0 881.67246314704607 1254.9568431116095 0 0 0 0 -329.61131641389261 -889.63627735336922 0 -889.63627735336922 1729.1056600361553 0 0 0 0 -291.20882569956996 -116.77107112791873 0 -116.77107112791873 2567.6643981408706 0 0 0 0 -453.52448688166623 -225.73498460113842 0 -225.73498460113842 2976.1436911427227 0 0 0 0 234.72868630834955 -513.68461155626483 0 -513.68461155626483 1607.9058981548733 0 0 0 0 -560.31101335324536 -22.560536365164808 0 -22.560536365164808 2814.274271796723 0 0 0 0 -6.0533923451505753 7.6176774290980518 0 7.6176774290980518 10.476483267933006 0 0 0 0 111.87610177206182 -45.037186729936366 0 -45.037186729936366 2470.0066365128678 0 0 0 0 -52.580754146958363 -637.08706094331501 0 -637.08706094331501 3499.8932315602433 0 0 0 0 -101.98754794239093 -638.32463437080787 0 -638.32463437080787 3971.7796769579509 0 0 0 0 -390.32900869289136 -114.29231221842201 0 -114.29231221842201 3500.4760863136435 0 0 0 0 1.1402018761500301 -66.109774704314987 0 -66.109774704314987 1047.8999213246352 0 0 0 0 -632.23316741298572 21.839000139978452 0 21.839000139978452 1900.5298185876491 0 0 0 0 -1.9329207222306486 3.5839972468321548 0 3.5839972468321548 6.7273015845397737 0 0 0 0 -678.7258008295172 -21.939672356591473 0 -21.939672356591473 2217.5263903742161 0 0 0 0 -677.47779202445258 -176.48396534899439 0 -176.48396534899439 2765.0922322608094 0 0 0 0 -367.05863106871016 -200.53561914703459 0 -200.53561914703459 1714.6332300569193 0 0 0 0 -584.16845937372159 -469.90112214219516 0 -469.90112214219516 2856.8561128552101 0 0 0 0 -811.7363733519536 -543.86102609581576 0 -543.86102609581576 3499.2693135916525 0 0 0 0 -444.98677462261298 -976.67536740480136 0 -976.67536740480136 2620.8408085584815 0 0 0 0 -289.2221570433851 -710.95626915833054 0 -710.95626915833054 2097.96518330861 0 0 0 0 -2.4489822389553031 -0.20674275121261587 0 -0.20674275121261587 7.2087439563943576 0 0 0 0 -580.58468410978617 -291.13301364286235 0 -291.13301364286235 2114.5465978333159 0 0 0 0 606.29613975810253 -1885.9370913881939 0 -1885.9370913881939 2446.2713004001644 0 0 0 0 -353.8541746502288 -423.41674294069162 0 -423.41674294069162 2091.7007552494688 0 0 0 0 -711.71608302775348 -569.08646204538672 0 -569.08646204538672 2667.6201150040492 0 0 0 0 -353.1835322743168 -400.58074122164544 0 -400.58074122164544 2261.5333038179597 0 0 0 0 -125.77237271439208 -243.97983258685417 0 -243.97983258685417 1180.1212991960128 0 0 0 0 -8.5572846659527499 -653.98581629805631 0 -653.98581629805631 1896.5512499177494 0 0 0 0 92.588668518554073 -923.93197574928854 0 -923.93197574928854 2426.6737451846784 0 0 0 0 137.88549020338047 -531.07152580125876 0 -531.07152580125876 1218.0361242034123 0 0 0 0 67.516458977535365 -24.481100668042927 0 -24.481100668042927 327.54427776711236 0 0 0 0 204.57993534553577 -598.90399438664463 0 -598.90399438664463 1178.1722869691584 0 0 0 0 418.99020545776568 -372.91773739672681 0 -372.91773739672681 463.09607874990616 0 0 0 0 158.96506839168001 -339.45094157449785 0 -339.45094157449785 1041.8087920708131 0 0 0 0 203.99741745069161 -265.55193882528692 0 -265.55193882528692 590.81894278535037 0 0 0 0 -29.569420450707185 202.3181810908718 0 202.3181810908718 -150.60666158643289 0 0 0 0 -11.820646188593855 86.19307111389935 0 86.19307111389935 85.501357811415801 0 0 0 0 -12.390907666523422 47.668810074626478 0 47.668810074626478 85.067843527207685 0 0 0 0 118.80008402507156 98.142454775712395 0 98.142454775712395 73.310893953257619 0 0 0 0 12.767318598073359 15.330096369323968 0 15.330096369323968 -21.09043750266099 0 0 0 0 -55.416033320943768 79.153062130899343 0 79.153062130899343 166.04500999458833 0 0 0 0 277.11809221034684 -230.53559783715173 0 -230.53559783715173 149.03685761779707 0 0 0 0 107.05295829370209 -231.69916303917125 0 -231.69916303917125 557.31981789853307 0 0 0 0 -64.519741873495974 -61.958325681356655 0 -61.958325681356655 356.97077492038079 0 0 0 0 517.19465139251827 -151.68836957753956 0 -151.68836957753956 200.31798622061615 0 0 0 0 239.91783235345213 -460.40593559452827 0 -460.40593559452827 884.47289194104087 0 0 0 0 565.64887662072624 -944.15036306123511 0 -944.15036306123511 844.05685222524062 0 0 0 0 -6.695577551675342 -55.134216824015311 0 -55.134216824015311 236.83507103267016 0 0 0 0 -2.0806188763828928 -3.4159676275295254 0 -3.4159676275295254 9.710037333376178 0 0 0 0 81.809933192762401 9.0769841999062919 0 9.0769841999062919 233.64083012977062 0 0 0 0 -35.246205938007733 -43.297211823519319 0 -43.297211823519319 218.58167150781082 0 0 0 0 2060.1016823970785 -1534.3118095071623 0 -1534.3118095071623 625.94725818414008 0 0 0 0 1104.9110857269609 -405.25397851588968 0 -405.25397851588968 555.26825522767467 0 0 0 0 998.6717443611617 -1698.411991506553 0 -1698.411991506553 2542.9966895626712 0 0 0 0 6.8730194840439269 -4.1517004022820458 0 -4.1517004022820458 10.945874741836263 0 0 0 0 391.02110091915023 -878.80375925342742 0 -878.80375925342742 1687.0324075580138 0 0 0 0 944.83078093900008 -1453.4971281191247 0 -1453.4971281191247 1430.2610956436511 0 0 0 0 596.8628314500279 -1372.2777435270489 0 -1372.2777435270489 2060.2654765354673 0 0 0 0 -2.0831207454317955 -1.1349073969693393 0 -1.1349073969693393 9.0462491193523817 0 0 0 0 537.02668659317385 -1797.2321388487835 0 -1797.2321388487835 3497.831347627809 0 0 0 0 927.21228913801383 -484.04073955665808 0 -484.04073955665808 1843.8139311729519 0 0 0 0 1011.3314546319322 2.8524483072469593 0 2.8524483072469593 3569.5996268523631 0 0 0 0 1932.2142771337465 -1332.077980420574 0 -1332.077980420574 3294.8074992924521 0 0 0 0 444.36135774052082 -969.61445482370982 0 -969.61445482370982 3495.7998503878407 0 0 0 0 360.83974680733928 -1484.9381226291953 0 -1484.9381226291953 2628.2542840796978 0 0 0 0 -83.418837609688239 -350.59008849540987 0 -350.59008849540987 3680.5393885100257 0 0 0 0 322.76058981310598 -1648.2000172265634 0 -1648.2000172265634 3499.8719549026573 0 0 0 0 -107.57500519545471 -74.758278882776722 0 -74.758278882776722 53.025827652483713 0 0 0 0 23.112005896554365 30.512320292640652 0 30.512320292640652 60.370857554833492 0 0 0 0 -64.378346388829186 -2.4135829389360879 0 -2.4135829389360879 67.920250305061927 0 0 0 0 144.98948238586291 169.86761785380077 0 169.86761785380077 2099.9989619396383 0 0 0 0 7.8496024468446617 9.7301694504720047 0 9.7301694504720047 27.549980386511308 0 0 0 0 -351.76303256115625 -493.91919177892669 0 -493.91919177892669 3492.6915038896987 0 0 0 0 2.7378372723701041 5.0789502843371821 0 5.0789502843371821 9.3614914731353451 0 0 0 0 341.1303493607204 319.03474994015414 0 319.03474994015414 46.061908108822536 0 0 0 0 464.26452962562024 645.82204617914249 0 645.82204617914249 565.05179719800071 0 0 0 0 120.27640892980889 226.29943465767428 0 226.29943465767428 -137.92376710003009 0 0 0 0 9.9415171643071609 12.135488535524047 0 12.135488535524047 11.349124974894352 0 0 0 0 2.9828399177428082 -163.38547503542213 0 -163.38547503542213 101.19662606139536 0 0 0 0 163.36195000746329 170.7567749118316 0 170.7567749118316 581.64073051559808 0 0 0 0 78.53218969982845 139.31477778857879 0 139.31477778857879 -279.11909334083612 0 0 0 0 1.7137377421285995 -0.36821187502772545 0 -0.36821187502772545 -0.36713155596446967 0 0 0 0 59.964559056122312 99.663893063487194 0 99.663893063487194 217.29411006115697 0 0 0 0 63.400336728359775 66.021193907297857 0 66.021193907297857 163.06491301629285 0 0 0 0 48.938274747363721 47.545307677733945 0 47.545307677733945 184.73474390641059 0 0 0 0 -6.3515090945593329 -42.179568160907365 0 -42.179568160907365 61.915775037799904 0 0 0 0 111.89947757902155 86.35522040885553 0 86.35522040885553 118.04753645374149 0 0 0 0 -23.213845835364737 -105.42230294996261 0 -105.42230294996261 -71.982760378707098 0 0 0 0 -2.4733978865773967 5.9652393987115033 0 5.9652393987115033 -6.0197126786529509 0 0 0 0 -21.792334556316291 30.812323678670509 0 30.812323678670509 -20.242599474695453 0 0 0 0 -22.90994752190727 18.164968922028493 0 18.164968922028493 26.992287759941973 0 0 0 0 -37.09536419749611 6.9986827527354762 0 6.9986827527354762 32.452127091746661 0 0 0 0 6.3515983186139238 3.0102919448327157 0 3.0102919448327157 -17.333462799317203 0 0 0 0 2.0286829167726452 -0.38364680437948095 0 -0.38364680437948095 -0.87470028425627788 0 0 0 0 71.416631805917859 53.586005874007242 0 53.586005874007242 -47.396215536420641 0 0 0 0 13.30730253991851 -51.021589070169284 0 -51.021589070169284 163.07809104656917 0 0 0 0 -46.200069328929715 23.500548635850919 0 23.500548635850919 162.49036464098754 0 0 0 0 -23.442992823982088 45.635909071197972 0 45.635909071197972 76.031618966369962 0 0 0 0 0.015080823241566677 -12.198012262505834 0 -12.198012262505834 74.140144644907451 0 0 0 0 7.9674416041801948 14.937035596915166 0 14.937035596915166 19.77171594706374 0 0 0 0 -28.395652783580772 -39.524351526008104 0 -39.524351526008104 48.82790144851333 0 0 0 0 -29.37394409254739 16.863167513161898 0 16.863167513161898 44.915952805474262 0 0 0 0 -109.10672872442274 61.617139159568069 0 61.617139159568069 47.770033116692503 0 0 0 0 -21.210720777064125 22.859200941136805 0 22.859200941136805 35.773483691220463 0 0 0 0 -16.38823701309585 25.758116381015377 0 25.758116381015377 -4.9521654577048935 0 0 0 0 -12.413935448323059 57.252135588631063 0 57.252135588631063 -37.134775791520951 0 0 0 0 -1.7105068143223434 76.485391842041281 0 76.485391842041281 -86.05443045697757 0 0 0 0 7.9189581694677145 48.961442877982336 0 48.961442877982336 -54.018579238501843 0 0 0 0 3.7288139578793675 40.648435343571691 0 40.648435343571691 -63.128059480979573 0 0 0 0 7.7922915337011318 15.95742068212985 0 15.95742068212985 -17.169858353430755 0 0 0 0 90.603029756086926 -30.100945636026154 0 -30.100945636026154 -6.495793758869695 0 0 0 0 -5.2954751531828492 31.920879711346061 0 31.920879711346061 11.809027719282312 0 0 0 0 -10.208232930017141 13.612049805558698 0 13.612049805558698 -13.863255554262764 0 0 0 0 -11.243229429987878 16.09908109697426 0 16.09908109697426 30.078162997757317 0 0 0 0 0.90381158263800021 6.738959736543805 0 6.738959736543805 0.44629683586686042 0 0 0 0 1.3786319234345683 28.510115506542206 0 28.510115506542206 -3.9994415142791695 0 0 0 0 -33.820339570941996 30.221133517843555 0 30.221133517843555 24.418082920899906 0 0 0 0 -13.966081974838971 40.786791725586227 0 40.786791725586227 6.799115890666144 0 0 0 0 -13.417625961113572 -13.07718297190695 0 -13.07718297190695 113.89780276332749 0 0 0 0 -26.547212956203339 110.82887051182115 0 110.82887051182115 62.947776408116624 0 0 0 0 2.2966469298513275 0.73064717040706739 0 0.73064717040706739 0.28793175948806038 0 0 0 0 10.669758767163671 12.816335908202745 0 12.816335908202745 -3.3660910431353841 0 0 0 0 44.885693773317257 36.202950784263521 0 36.202950784263521 -3.5789017583301757 0 0 0 0 -7.4330086904674317 10.708688529070059 0 10.708688529070059 -11.71400337781597 0 0 0 0 -5.6275870562653134 13.08406864590431 0 13.08406864590431 -5.2093648964455497 0 0 0 0 3.2630458235548758 8.0226936581530026 0 8.0226936581530026 -7.8630375167031161 0 0 0 0 6.7167237177879997 18.062437066528219 0 18.062437066528219 -10.019171085994458 0 0 0 0 11.744776873847801 8.9538870391068883 0 8.9538870391068883 0.96791113299278564 0 0 0 0 13.838021630873413 13.640324300769862 0 13.640324300769862 -10.460598050951376 0 0 0 0 97.234856944710373 -163.05096811984549 0 -163.05096811984549 396.80828265322634 0 0 0 0 3.8680653141222194 4.4364872144546439 0 4.4364872144546439 2.6171989320172315 0 0 0 0 968.00773553142835 622.49451870847406 0 622.49451870847406 359.94825122992916 0 0 0 0 19.500762154149129 43.379625797748304 0 43.379625797748304 -19.010787396255182 0 0 0 0 23.887365707761628 10.009314880599106 0 10.009314880599106 -0.33534813805020747 0 0 0 0 -1053.0165563551509 -640.2657866473528 0 -640.2657866473528 855.95997523004189 0 0 0 0 454.76567927065844 -148.41531204390412 0 -148.41531204390412 766.07349910541961 0 0 0 0 1142.5103500377872 668.22999428959884 0 668.22999428959884 -546.0918733409635 0 0 0 0 3.2581205524999426 5.6364615089837002 0 5.6364615089837002 6.4412812874891756 0 0 0 0 -217.61828664493805 -177.81413068879192 0 -177.81413068879192 846.36178466174169 0 0 0 0 59.224676665475272 223.18692355250823 0 223.18692355250823 770.29394489204878 0 0 0 0 -174.22000406534062 6.6891578528884565 0 6.6891578528884565 937.29359991008823 0 0 0 0 -129.413644175429 -41.102558455226244 0 -41.102558455226244 700.71632640818279 0 0 0 0 -144.40478425160245 -208.59988569498819 0 -208.59988569498819 657.95399443482165 0 0 0 0 -214.87754399011419 117.23812257735699 0 117.23812257735699 1263.0483212911477 0 0 0 0 19.299463148450968 74.964844072550477 0 74.964844072550477 -130.94300664520415 0 0 0 0 14.269651282067361 6.7036661928151489 0 6.7036661928151489 1.7885712817414792 0 0 0 0 -156.07471115342059 -88.811694227319094 0 -88.811694227319094 870.0908447211259 0 0 0 0 -199.41773986164389 -148.45611268591165 0 -148.45611268591165 1216.1072027699338 0 0 0 0 153.8753207397674 243.16600394468696 0 243.16600394468696 701.96256989780522 0 0 0 0 -152.63418912571331 -12.05581097574759 0 -12.05581097574759 443.14207173829527 0 0 0 0 146.86501886981145 -71.835734661752099 0 -71.835734661752099 420.24969136592699 0 0 0 0 126.61940420664352 -69.186407870096446 0 -69.186407870096446 190.13377060348284 0 0 0 0 -12.861304870256447 284.1209949900076 0 284.1209949900076 87.105755659271381 0 0 0 0 -531.64493935306291 279.99606010362913 0 279.99606010362913 401.43861670660226 0 0 0 0 11.047520702139536 -160.38450540069789 0 -160.38450540069789 182.86865367893188 0 0 0 0 4.2896465815150009 2.7568990703868508 0 2.7568990703868508 1.0349167305815783 0 0 0 0 258.47481208454883 10.863729665696155 0 10.863729665696155 -232.97789524064137 0 0 0 0 57.957758467810663 234.344920726282 0 234.344920726282 1263.024951077241 0 0 0 0 246.71631602919774 26.138905118790717 0 26.138905118790717 149.46743808343308 0 0 0 0 58.908427226869946 -77.929020865216444 0 -77.929020865216444 105.6206684852832 0 0 0 0 -10.140890098532305 27.428909061442582 0 27.428909061442582 130.2431149609715 0 0 0 0 232.83734913180376 -102.30505928870116 0 -102.30505928870116 92.615041319822922 0 0 0 0 270.82385649119198 -129.85801872480079 0 -129.85801872480079 112.50522182391069 0 0 0 0 -8.9812226442017664 27.70416927531744 0 27.70416927531744 131.63071430176836 0 0 0 0 131.22681384743439 200.21912722704838 0 200.21912722704838 186.92772761685774 0 0 0 0 -3.6281790065411315 -215.20415393663643 0 -215.20415393663643 351.80713733870653 0 0 0 0 206.87200859117823 -56.555108559516398 0 -56.555108559516398 420.76851232639456 0 0 0 0 396.4049396366737 -67.83575404772273 0 -67.83575404772273 316.44413541878748 0 0 0 0 398.21290320342297 -113.72141307943639 0 -113.72141307943639 175.22468133773509 0 0 0 0 190.0203375451224 -4.122319881448675 0 -4.122319881448675 621.76251978446817 0 0 0 0 157.9509180732905 -358.69099611591082 0 -358.69099611591082 509.46488748597039 0 0 0 0 2.1680342843466072 1.1664743440093019 0 1.1664743440093019 0.18947055372522925 0 0 0 0 -98.396925951635126 28.85094310563727 0 28.85094310563727 209.01131883112248 0 0 0 0 198.52723084842552 39.162135829232284 0 39.162135829232284 94.938943974877475 0 0 0 0 -195.92749836656094 382.14180865440176 0 382.14180865440176 -11.97115267796471 0 0 0 0 -10.756750193330774 32.401307311345825 0 32.401307311345825 117.69101493170439 0 0 0 0 2.585013601301696 -1.8318402561042149 0 -1.8318402561042149 22.563755699091089 0 0 0 0 159.47678049023443 112.85611956619687 0 112.85611956619687 -117.28843508355567 0 0 0 0 336.76634722951121 146.62372702739231 0 146.62372702739231 -39.321440424442699 0 0 0 0 -7.9511496972887947 9.3090758355428989 0 9.3090758355428989 15.098079956223955 0 0 0 0 2.3965536439561341 4.6007753581476933 0 4.6007753581476933 3.262991961186458 0 0 0 0 0.018187601681945741 22.775149378125207 0 22.775149378125207 37.78886883467203 0 0 0 0 -33.541311980102797 6.0161056985962205 0 6.0161056985962205 45.052382686844794 0 0 0 0 13.763277694316457 13.853141385872732 0 13.853141385872732 65.477167033033766 0 0 0 0 6.7887615561064614 19.026107565989236 0 19.026107565989236 51.302351611969812 0 0 0 0 7.415572953643732 27.135641712751749 0 27.135641712751749 68.148405597443343 0 0 0 0 -59.290927165101792 -96.950465576919669 0 -96.950465576919669 20.35335525686969 0 0 0 0 -5.2019778712769709 4.701746686376687 0 4.701746686376687 61.797067780020996 0 0 0 0 0.0003876424564596059 0.26375101322628325 0 0.26375101322628325 0.72091152874054387 0 0 0 0 -1.3568687642353268 -2.0435430293053116 0 -2.0435430293053116 1.0830888778975805 0 0 0 0 0.11295425875553866 0.15201273161662243 0 0.15201273161662243 0.12375902222447621 0 0 0 0 2.0786394748712596 14.961358324988396 0 14.961358324988396 13.944602449204467 0 0 0 0 104.38188883212527 -385.26614755953415 0 -385.26614755953415 1484.1004610440868 0 0 0 0 220.55638890964025 2034.3703216265421 0 2034.3703216265421 3496.2827370950981 0 0 0 0 -0.0004942781995611338 0.26265093043912202 0 0.26265093043912202 0.72046167633743607 0 0 0 0 -0.044726022229351292 0.91310441346530524 0 0.91310441346530524 4.0422593722576039 0 0 0 0 4.9114188204416465 179.69777148326125 0 179.69777148326125 1800.6960318358615 0 0 0 0 -579.85063363730887 1009.6388669931403 0 1009.6388669931403 3340.3658954023977 0 0 0 0 -10.893139043641185 0.25843104059792665 0 0.25843104059792665 55.070595550953783 0 0 0 0 -71.243044106929347 93.989537632223801 0 93.989537632223801 665.48038405131956 0 0 0 0 730.72030037775789 275.93814740316157 0 275.93814740316157 -385.18550877837697 0 0 0 0 2.4606499295589317 2.87443511400798 0 2.87443511400798 8.8951282324680285 0 0 0 0 151.87260458909336 91.181170995791035 0 91.181170995791035 -183.47212014952675 0 0 0 0 -0.65425065830263129 3.7976407459947268 0 3.7976407459947268 -1.7857055460627862 0 0 0 0 -29.266385878730034 -2.8921634756043204 0 -2.8921634756043204 83.993282715578971 0 0 0 0 -4.460003099646201 17.467849940192536 0 17.467849940192536 60.313237256275897 0 0 0 0 -4.8033937345053346 31.948176462545234 0 31.948176462545234 88.327020142143738 0 0 0 0 -25.767464218148234 17.503993979298684 0 17.503993979298684 80.912659685534891 0 0 0 0 51.511534534278383 -465.18632490130585 0 -465.18632490130585 3412.0371414127148 0 0 0 0 -24.678195811402475 3.4949168617022224 0 3.4949168617022224 98.945811031560879 0 0 0 0 -26.257018621412499 5.367652824952529 0 5.367652824952529 103.6037958994275 0 0 0 0 217.68220274131698 926.89033754426055 0 926.89033754426055 4013.424048806628 0 0 0 0 -6.8535812268175462 -17.0554956189291 0 -17.0554956189291 -9.9970028825616168 0 0 0 0 -26.560927750510018 -26.310363816955942 0 -26.310363816955942 77.981802937625616 0 0 0 0 -15.388779919155141 -18.036654927377924 0 -18.036654927377924 8.3757968996980416 0 0 0 0 -10.207135575229318 -145.87272182555171 0 -145.87272182555171 3498.0191230664705 0 0 0 0 -93.825823011458851 -82.303779297537403 0 -82.303779297537403 180.88032561019645 0 0 0 0 -57.321210833158148 -0.97095562740287278 0 -0.97095562740287278 128.31232698625536 0 0 0 0 -40.329350092735694 35.268644069423317 0 35.268644069423317 185.93969319903408 0 0 0 0 13.839561342671686 46.861679117224412 0 46.861679117224412 79.723161566595081 0 0 0 0 7.0902232146063398 57.895059854345163 0 57.895059854345163 79.091700479199062 0 0 0 0 -16.669660663780633 42.064619503667927 0 42.064619503667927 138.17534565649476 0 0 0 0 7.9383375713423447 30.083962866454385 0 30.083962866454385 64.861744048783294 0 0 0 0 5.3396377572776146 35.917991937159968 0 35.917991937159968 66.127248687247629 0 0 0 0 5.1703881982712119 27.155965219601057 0 27.155965219601057 69.171320805318828 0 0 0 0 16.316045740136587 29.92049018423495 0 29.92049018423495 53.094130330697226 0 0 0 0 11.948111496606543 21.081556324126723 0 21.081556324126723 53.148788452212841 0 0 0 0 -2.8440853515790536 29.917743821599288 0 29.917743821599288 51.052741598374269 0 0 0 0 7.7411269566887313 24.488511051800742 0 24.488511051800742 53.780041990255995 0 0 0 0 -15.354573786649475 25.665369461552473 0 25.665369461552473 63.523436987641617 0 0 0 0 -9.0678908828500653 14.612163142715872 0 14.612163142715872 49.882359986237134 0 0 0 0 7.6723788534204687 24.710472935770667 0 24.710472935770667 53.190606491116341 0 0 0 0 36.421516922253431 36.797473268576141 0 36.797473268576141 47.420909367432614 0 0 0 0 11.284709135226194 15.686719777520921 0 15.686719777520921 35.287627826473908 0 0 0 0 59.663023557269014 84.248535504651954 0 84.248535504651954 30.494828603928909 0 0 0 0 46.12364865500922 130.30649225404341 0 130.30649225404341 180.97545384822297 0 0 0 0 97.456699452411158 79.873154439381324 0 79.873154439381324 353.27180335273442 0 0 0 0 122.78140526048389 108.55877061522915 0 108.55877061522915 344.60192043065035 0 0 0 0 144.08014806180108 54.350665265636053 0 54.350665265636053 276.23545354742964 0 0 0 0 -243.67797695995259 -181.65006225145771 0 -181.65006225145771 3516.867057435782 0 0 0 0 -9.9930395664857308 -144.96910937628127 0 -144.96910937628127 3501.8224965117261 0 0 0 0 -64.345474363494304 30.99398948266753 0 30.99398948266753 276.70363751257537 0 0 0 0 -8.4034851080246433 -11.364411151681111 0 -11.364411151681111 2.2537450857974992 0 0 0 0 -70.978583825373676 3.2361643939057103 0 3.2361643939057103 319.00825311726658 0 0 0 0 1.5159192733962694 -0.28229739128590836 0 -0.28229739128590836 0.045025779677068556 0 0 0 0 -13.257383476392306 12.205717727883894 0 12.205717727883894 428.22347321112466 0 0 0 0 41.953311243682549 41.774283992479468 0 41.774283992479468 -44.815549273611396 0 0 0 0 5.7697266175780442 23.793334212852642 0 23.793334212852642 43.981226352960221 0 0 0 0 -15.743902463732297 -7.231400170152483 0 -7.231400170152483 10.555527698568767 0 0 0 0 -3.2891445889036959 20.69801293700948 0 20.69801293700948 38.171347212730325 0 0 0 0 -28.070606721004765 11.779997748715687 0 11.779997748715687 56.992742877930141 0 0 0 0 2.714759975206043 0.41072647161789178 0 0.41072647161789178 0.13869161990180601 0 0 0 0 17.025812977515329 189.97160933518171 0 189.97160933518171 145.28199247887824 0 0 0 0 -107.34499599520791 -57.774800764296742 0 -57.774800764296742 470.78835058985715 0 0 0 0 767.48359588485516 1547.3747339571564 0 1547.3747339571564 2768.1879452757275 0 0 0 0 -2.640191861907927 -3.6028194808534977 0 -3.6028194808534977 2.4056069531075863 0 0 0 0 -262.58348599762451 -205.25001659128429 0 -205.25001659128429 3494.961856596783 0 0 0 0 3.4929437748597016 4.7174915187124071 0 4.7174915187124071 8.1913727552819466 0 0 0 0 -329.45695520689054 -320.01046325493371 0 -320.01046325493371 -296.99684926023474 0 0 0 0 -75.105349691579818 23.963673330494203 0 23.963673330494203 -31.987125779800408 0 0 0 0 -350.60733559505627 -491.02154395608522 0 -491.02154395608522 3498.3154551221814 0 0 0 0 5.9747472019803354 7.1674019878992112 0 7.1674019878992112 49.482985735630791 0 0 0 0 -3.1952746343242779 63.495643124784692 0 63.495643124784692 148.37646967740511 0 0 0 0 4.7719695793638266 -2.4112971649301471 0 -2.4112971649301471 116.2660285509337 0 0 0 0 -4.4444734906737722 48.925507503015979 0 48.925507503015979 70.469014059373876 0 0 0 0 -15.057759060003946 24.315848104837642 0 24.315848104837642 96.307827457378153 0 0 0 0 -12.640206977940736 24.098963604250457 0 24.098963604250457 54.923646624456524 0 0 0 0 -3.9621922364844409 39.886177184333064 0 39.886177184333064 60.388403575125267 0 0 0 0 -1.0857774546909695 34.762445807478798 0 34.762445807478798 62.747377165543185 0 0 0 0 21.13163734458908 40.305738041948644 0 40.305738041948644 15.624912699004199 0 0 0 0 25.193516219552293 53.750158973700309 0 53.750158973700309 40.185239820508286 0 0 0 0 66.143586716948874 108.93309576272122 0 108.93309576272122 58.65439132899337 0 0 0 0 10.833842838555256 27.586545324789768 0 27.586545324789768 22.262836713100114 0 0 0 0 19.076162618677529 18.56850237647086 0 18.56850237647086 4.2909555230580736 0 0 0 0 9.8672731058927639 10.417310749682656 0 10.417310749682656 1.4984091463611549 0 0 0 0 28.117090430156722 28.47558060569645 0 28.47558060569645 4.5451580411609029 0 0 0 0 -63.563405756930479 -83.011873647235916 0 -83.011873647235916 500.17814263720356 0 0 0 0 -31.623357814954829 -23.562656527677973 0 -23.562656527677973 592.56050320374197 0 0 0 0 -140.49283938456574 27.110561105633678 0 27.110561105633678 599.25571950789436 0 0 0 0 -125.33139549628959 -24.776860985337407 0 -24.776860985337407 734.68090550565103 0 0 0 0 -101.52188986401495 46.94627746513288 0 46.94627746513288 598.9845058361534 0 0 0 0 -53.688494189814037 25.7651166852811 0 25.7651166852811 518.68440393855417 0 0 0 0 12.770555815430459 9.0896647683381673 0 9.0896647683381673 1.5971744301595656 0 0 0 0 -45.063888019623732 21.612566487354343 0 21.612566487354343 472.67958748983801 0 0 0 0 -106.70793445769186 58.101265146644437 0 58.101265146644437 614.05681640339753 0 0 0 0 -47.961087178709477 132.75238924143196 0 132.75238924143196 548.63959151969175 0 0 0 0 -57.007913923337128 114.81587430215586 0 114.81587430215586 610.04034493995277 0 0 0 0 -62.077021677127959 166.61070771640516 0 166.61070771640516 658.61460862079548 0 0 0 0 13.454328983932211 9.9121896373439711 0 9.9121896373439711 0.55926532902091708 0 0 0 0 95.953705933414312 144.90878560984856 0 144.90878560984856 212.41408554670852 0 0 0 0 72.332760572643821 246.4992685551656 0 246.4992685551656 408.46163763327058 0 0 0 0 14.09534918400459 18.982777248354978 0 18.982777248354978 29.049007821525265 0 0 0 0 12.050170564533801 15.02793188351643 0 15.02793188351643 40.397746340255253 0 0 0 0 10.523542113834083 13.615121871654992 0 13.615121871654992 22.415921115534729 0 0 0 0 8.1129820805572308 25.172390330400958 0 25.172390330400958 47.386611015452218 0 0 0 0 12.872683880032469 31.552908442125045 0 31.552908442125045 29.246887275046902 0 0 0 0 9.5689511136550891 26.615329427144388 0 26.615329427144388 43.425550923027913 0 0 0 0 13.669481386040388 22.020680073832409 0 22.020680073832409 48.686663419888646 0 0 0 0 9.4283106859170633 20.322538664270475 0 20.322538664270475 41.456877185474866 0 0 0 0 17.352699802243478 16.824003146703035 0 16.824003146703035 47.931348913778493 0 0 0 0 14.087602238804266 18.960943000152838 0 18.960943000152838 47.504346361158241 0 0 0 0 80.321605406512234 -36.712128548141322 0 -36.712128548141322 96.140309170776163 0 0 0 0 12.307739591632931 10.911278899629167 0 10.911278899629167 8.0766657248038882 0 0 0 0 21.199680489978164 23.058191401076328 0 23.058191401076328 40.627494008826034 0 0 0 0 -69.336401204824938 91.914228977002495 0 91.914228977002495 1350.6202548744477 0 0 0 0 384.38614511298522 485.40808630119864 0 485.40808630119864 361.63185113227519 0 0 0 0 1.0798431035117604 1.9858180840037676 0 1.9858180840037676 5.9964809523728491 0 0 0 0 116.36309021271597 -178.66643348717844 0 -178.66643348717844 289.84188559641188 0 0 0 0 242.26254609733004 -535.12290230366489 0 -535.12290230366489 1119.5276261350443 0 0 0 0 26.304684832218232 -74.851103664546827 0 -74.851103664546827 323.17607194080483 0 0 0 0 5.1820072590311179 7.3538257422095086 0 7.3538257422095086 13.287624134649491 0 0 0 0 97.746551575631457 -63.469875042825151 0 -63.469875042825151 125.22585616685683 0 0 0 0 -37.091745577957752 -49.858747586411482 0 -49.858747586411482 383.95472524069692 0 0 0 0 35.505555804834323 -124.78417437355529 0 -124.78417437355529 379.30609979532892 0 0 0 0 -34.720974790298854 -5.8234957590611884 0 -5.8234957590611884 880.11537837864307 0 0 0 0 17.492039368708078 -245.88900553076746 0 -245.88900553076746 672.3209779435856 0 0 0 0 -60.449435246041787 -95.747526483231923 0 -95.747526483231923 601.87018761520812 0 0 0 0 -52.808496688060586 -105.27382711689279 0 -105.27382711689279 603.39030180231384 0 0 0 0 0.0047041589822295893 -48.537356920693128 0 -48.537356920693128 429.3237108692847 0 0 0 0 32.735672229535474 -92.573584658319305 0 -92.573584658319305 282.89797756662301 0 0 0 0 6.267508412608727 14.664445578819141 0 14.664445578819141 110.23572515205888 0 0 0 0 -0.0027865173486189936 28.750202049341169 0 28.750202049341169 89.361447250892525 0 0 0 0 0.25821282924355654 -0.55252411197292872 0 -0.55252411197292872 0.03042501881582993 0 0 0 0 30.819351410036937 19.087725134799257 0 19.087725134799257 69.668023110101785 0 0 0 0 -41.506465799584703 17.37381292435748 0 17.37381292435748 73.907213026643149 0 0 0 0 -6.4839103350627596 15.295485703871236 0 15.295485703871236 54.529178150005464 0 0 0 0 -0.15880147006440598 1.7544934685009821 0 1.7544934685009821 9.2681035291193652 0 0 0 0 -2.2252708127898302 -6.1790481602074578 0 -6.1790481602074578 75.289589014369994 0 0 0 0 -0.19804996929416774 -1.0460165429976769 0 -1.0460165429976769 59.161518555978546 0 0 0 0 19.060789261920469 75.05331887354987 0 75.05331887354987 53.44343915542413 0 0 0 0 -23.03919038810637 26.742732125298062 0 26.742732125298062 84.159089554625098 0 0 0 0 25.615010247004889 41.813473598376731 0 41.813473598376731 86.282686857244698 0 0 0 0 -57.494631749071523 69.775177996743878 0 69.775177996743878 15.253671063313959 0 0 0 0 -37.707910270940985 -45.74087198205234 0 -45.74087198205234 16.978968874100246 0 0 0 0 -0.12113377046824123 0.38029804672932777 0 0.38029804672932777 2.0924214974369306 0 0 0 0 62.378776262870858 59.262267672274902 0 59.262267672274902 -11.460628354157961 0 0 0 0 90.545763581461387 -16.305823484282882 0 -16.305823484282882 54.548360512999352 0 0 0 0 70.448088550599039 81.167831150029087 0 81.167831150029087 -32.527641029999359 0 0 0 0 25.125185847910828 -98.095400609072385 0 -98.095400609072385 259.1113915455353 0 0 0 0 -27.200818267051691 -23.580381989042507 0 -23.580381989042507 524.12024025472056 0 0 0 0 0.0070931705096639094 0.04560885704528328 0 0.04560885704528328 1.2937231365464754 0 0 0 0 -13.31091718859226 -148.58195367695589 0 -148.58195367695589 192.6184912183453 0 0 0 0 39.745984293548489 108.62365190443961 0 108.62365190443961 80.129272671172657 0 0 0 0 -0.027972132691955184 -10.541514004908095 0 -10.541514004908095 571.01234391835169 0 0 0 0 18.583759738484208 25.31183720392437 0 25.31183720392437 616.5948539039091 0 0 0 0 -0.093627003689353394 0.53782000222417992 0 0.53782000222417992 641.97899850321119 0 0 0 0 -15.421162059716234 5.2603362821173505 0 5.2603362821173505 686.42051727348007 0 0 0 0 -20.013899479998585 13.646086021501105 0 13.646086021501105 673.01692309809732 0 0 0 0 32.848115833070551 89.429109255201183 0 89.429109255201183 778.53357539236458 0 0 0 0 50.282189653744268 55.182767104139202 0 55.182767104139202 579.7301685953571 0 0 0 0 -14.104920536399037 55.824597740109311 0 55.824597740109311 669.77771070200924 0 0 0 0 13.111413177342865 40.520961901551345 0 40.520961901551345 591.54874297120841 0 0 0 0 17.778184671838204 66.239514436601894 0 66.239514436601894 563.24411655836593 0 0 0 0 -35.452699005226101 4.472590613328066 0 4.472590613328066 563.7164565155399 0 0 0 0 210.93593056431376 107.8107802038503 0 107.8107802038503 511.37855251331348 0 0 0 0 28.054965235285138 55.948824877614243 0 55.948824877614243 711.77887083303358 0 0 0 0 95.117028568244095 9.6143345128730289 0 9.6143345128730289 700.47015359073703 0 0 0 0 332.39872626782642 335.27632567036926 0 335.27632567036926 1145.9064123587409 0 0 0 0 512.97127244449587 -302.74475602830353 0 -302.74475602830353 790.16919812468404 0 0 0 0 147.4154304136282 -34.790443725963996 0 -34.790443725963996 593.75802368760196 0 0 0 0 117.37189245359855 -104.29177665667521 0 -104.29177665667521 569.31459931962308 0 0 0 0 259.43555985290203 -81.654376070524449 0 -81.654376070524449 346.6363434297964 0 0 0 0 42.701831666473709 -81.851719370555656 0 -81.851719370555656 346.63658408816906 0 0 0 0 127.15334192774674 -117.90158176415571 0 -117.90158176415571 168.96879337144492 0 0 0 0 118.63326182434912 33.867889191504219 0 33.867889191504219 229.68280969295301 0 0 0 0 60.357840843898231 -54.199791207727685 0 -54.199791207727685 365.27939281964791 0 0 0 0 67.096075470300661 51.888875598560844 0 51.888875598560844 448.57813428597001 0 0 0 0 61.335783234299782 44.851053178397706 0 44.851053178397706 154.19163867527095 0 0 0 0 82.075627826923139 19.955358191822597 0 19.955358191822597 -54.597536255838349 0 0 0 0 8.9723456709775746 -18.97672118722403 0 -18.97672118722403 105.06147558374596 0 0 0 0 -48.011804056522053 56.87426455896275 0 56.87426455896275 22.572920225793496 0 0 0 0 111.38011143418188 -54.258784703744823 0 -54.258784703744823 106.12872838399198 0 0 0 0 61.248007481198272 -120.84312169378973 0 -120.84312169378973 -40.125008914503269 0 0 0 0 77.401307916350788 -153.67117209074058 0 -153.67117209074058 128.39020434147824 0 0 0 0 -10.240893544133996 -39.521947627690679 0 -39.521947627690679 136.55116245049794 0 0 0 0 42.374455337398558 -118.54525768294843 0 -118.54525768294843 197.67108860191365 0 0 0 0 121.04619700375588 -195.7643033414206 0 -195.7643033414206 163.46700748933654 0 0 0 0 19.365118997854552 -42.782126718018844 0 -42.782126718018844 381.49519000612781 0 0 0 0 76.129639715522671 -133.79922896993958 0 -133.79922896993958 202.33386454148786 0 0 0 0 46.096096716764123 -88.439431191065523 0 -88.439431191065523 359.74427156375896 0 0 0 0 129.22593058540451 -131.03573670004698 0 -131.03573670004698 376.22783032827647 0 0 0 0 14.623897247771311 -78.410027633784921 0 -78.410027633784921 570.36636578090838 0 0 0 0 147.2326527133996 -158.60964441167016 0 -158.60964441167016 614.10141987544193 0 0 0 0 -83.362134215977946 0.46251747251790221 0 0.46251747251790221 866.72759033013426 0 0 0 0 -88.539988828212302 45.885120334070052 0 45.885120334070052 591.85356748245249 0 0 0 0 -80.771324794011434 1.9200874713569647 0 1.9200874713569647 627.09874969856901 0 0 0 0 18.481795949280524 -95.041410706696297 0 -95.041410706696297 432.50883958999475 0 0 0 0 -89.86102294684315 96.060716120584402 0 96.060716120584402 419.60740279389574 0 0 0 0 -82.935501330166517 22.530585007669288 0 22.530585007669288 479.04143114807812 0 0 0 0 -128.49350879397616 66.121813808073057 0 66.121813808073057 595.6561883444956 0 0 0 0 -105.64369560095156 75.310875767212565 0 75.310875767212565 487.44266496496857 0 0 0 0 -130.08101164476648 135.48971737734246 0 135.48971737734246 645.58880358181705 0 0 0 0 75.176482489670889 116.78246217638662 0 116.78246217638662 85.976919396958692 0 0 0 0 -116.41432703811893 63.739501868682055 0 63.739501868682055 487.30638748787169 0 0 0 0 -236.51997742591334 -77.566247534155991 0 -77.566247534155991 165.84305281035631 0 0 0 0 -17.952266757071811 106.88728483596606 0 106.88728483596606 22.826661057741148 0 0 0 0 23.591454564802916 16.593404756480595 0 16.593404756480595 180.11587121326011 0 0 0 0 19.011344846611422 -49.614776532026099 0 -49.614776532026099 252.16339301758853 0 0 0 0 194.55106076056836 -134.25113661196519 0 -134.25113661196519 52.68258839462942 0 0 0 0 142.04860793371108 -36.778507870156318 0 -36.778507870156318 -107.62284814815939 0 0 0 0 19.67394469170906 -32.782448334305201 0 -32.782448334305201 55.123106587707184 0 0 0 0 -249.22441389260985 -391.07474133271171 0 -391.07474133271171 255.41032758131769 0 0 0 0 -167.35621233754955 -130.52858679210112 0 -130.52858679210112 57.828884245318477 0 0 0 0 124.12131604792046 101.0058351243606 0 101.0058351243606 -43.691423542899429 0 0 0 0 -22.798063055674902 -120.90527043085604 0 -120.90527043085604 -57.797915672475938 0 0 0 0 18.961766947520896 -42.095706218150987 0 -42.095706218150987 66.128361638317728 0 0 0 0 -73.279148167672247 -35.33227417685157 0 -35.33227417685157 94.355070945326588 0 0 0 0 -66.386881325566719 -85.043258680008876 0 -85.043258680008876 23.099523846627562 0 0 0 0 18.485684589639277 -58.398845883210015 0 -58.398845883210015 96.061361917476461 0 0 0 0 5.6815012687384296 87.77080270489023 0 87.77080270489023 19.004717119554698 0 0 0 0 -72.863452761199369 -35.151902961151791 0 -35.151902961151791 177.4681428226977 0 0 0 0 -19.952543556199643 8.5735107814655294 0 8.5735107814655294 23.73481300389156 0 0 0 0 -24.383669561122399 -7.7532714368998512 0 -7.7532714368998512 28.935648958843103 0 0 0 0 -95.766289864024202 -83.974828229013838 0 -83.974828229013838 98.089675572147826 0 0 0 0 -73.986264546814709 -23.175888939818833 0 -23.175888939818833 76.0406491283793 0 0 0 0 -17.135104061165293 -95.248212244892784 0 -95.248212244892784 33.319540189841064 0 0 0 0 1.7010734005643826 -30.909726043573755 0 -30.909726043573755 37.021722198867792 0 0 0 0 -2.7813535195014198 -19.225206778628547 0 -19.225206778628547 0.87983620617671932 0 0 0 0 -14.759808891061311 -23.687716298958549 0 -23.687716298958549 36.752154369845812 0 0 0 0 -7.6237094240050283 -19.083306739586988 0 -19.083306739586988 32.42080233872548 0 0 0 0 0.83190736457828862 -14.036329945389596 0 -14.036329945389596 30.705105044927905 0 0 0 0 -1.5789670189083154 -16.078668753645616 0 -16.078668753645616 21.458987841746421 0 0 0 0 -1.2754067706939622 -23.634002377286379 0 -23.634002377286379 19.939408308055135 0 0 0 0 51.951639731829005 -11.586351924875999 0 -11.586351924875999 -10.359313448818284 0 0 0 0 5.5080135783377955 -25.681897512266005 0 -25.681897512266005 20.495779411008698 0 0 0 0 -3.5346865619980719 -12.609047713092991 0 -12.609047713092991 -10.241168725517213 0 0 0 0 57.687478222039772 -19.818542420958693 0 -19.818542420958693 -49.929907552788791 0 0 0 0 41.218956892646474 -55.806909605009423 0 -55.806909605009423 -127.64056700411311 0 0 0 0 41.513680693008155 -159.59776791610784 0 -159.59776791610784 202.78019292807585 0 0 0 0 2.6799030383858984 -1.5165715787264844 0 -1.5165715787264844 1.1550454752410815 0 0 0 0 66.064514094900915 -75.353959390078671 0 -75.353959390078671 -91.748893928575853 0 0 0 0 7.5429235935935468 -4.8610100288766773 0 -4.8610100288766773 -0.56310635244631158 0 0 0 0 -55.001677095130617 5.0088294443048653 0 5.0088294443048653 37.409843499321141 0 0 0 0 4.5422983012756504 31.152406812318077 0 31.152406812318077 -142.99115363841702 0 0 0 0 1.2464035659516113 -2.8177553293422761 0 -2.8177553293422761 2.0852302178976174 0 0 0 0 80.835515749598017 45.085581686806108 0 45.085581686806108 -94.045609764332767 0 0 0 0 20.328298462990531 -50.372978508887172 0 -50.372978508887172 -98.858386222200352 0 0 0 0 -14.059333130786001 -23.734056531749957 0 -23.734056531749957 6.7993600224581314 0 0 0 0 8.9147243271759908 -14.054513735739363 0 -14.054513735739363 7.5315116077458981 0 0 0 0 5.6465877394143718 -23.925017138361 0 -23.925017138361 12.052644445306214 0 0 0 0 2.3058792499423362 -19.428412034721987 0 -19.428412034721987 24.629760237233086 0 0 0 0 3.8899607710059172 -18.512062960071489 0 -18.512062960071489 14.734039214701625 0 0 0 0 8.1835034794471539 -13.994351864097553 0 -13.994351864097553 19.32578753636335 0 0 0 0 -1.7261748990667911 -16.829146956188197 0 -16.829146956188197 24.565483693403621 0 0 0 0 0.64658272549650064 -13.747810898741591 0 -13.747810898741591 22.117203439258446 0 0 0 0 12.990452383128167 -15.133083830511623 0 -15.133083830511623 10.724468316028236 0 0 0 0 18.468783001015254 -23.271188817045186 0 -23.271188817045186 -17.516543719422771 0 0 0 0 9.2362810190481923 -17.563109666322816 0 -17.563109666322816 22.171325988165336 0 0 0 0 9.7091418464027726 -19.179404358597822 0 -19.179404358597822 1.1310952807252761 0 0 0 0 4.5655537695839712 -4.318537603169915 0 -4.318537603169915 9.6247690321003461 0 0 0 0 -0.35044141995163081 -1.0537517308820838 0 -1.0537517308820838 4.0354304308691837 0 0 0 0 4.1582788424198043 -20.857224619263434 0 -20.857224619263434 17.562236610276159 0 0 0 0 -3.5658070672599038 -1.5536601324059944 0 -1.5536601324059944 11.675233742261639 0 0 0 0 9.408284149856172 -10.364405770233134 0 -10.364405770233134 22.539983608628972 0 0 0 0 0.74722640401432772 -3.6612405261184904 0 -3.6612405261184904 19.826822295632155 0 0 0 0 3.0442568239072898 -4.7090735904639587 0 -4.7090735904639587 5.2283464619686129 0 0 0 0 2.3779323717329328 -4.9649184555045842 0 -4.9649184555045842 8.3376684063370021 0 0 0 0 -1.6799908855304251 -0.10350966976923814 0 -0.10350966976923814 8.7253398973648189 0 0 0 0 -0.06102344404519755 -20.745439885366068 0 -20.745439885366068 5.6606372250244021 0 0 0 0 8.9971268693152524 -7.9880378399975598 0 -7.9880378399975598 12.273546792275738 0 0 0 0 1.0882103036603146 -21.371794275015418 0 -21.371794275015418 4.3350770444085356 0 0 0 0 3.3676310288453668 -5.9957967034949888 0 -5.9957967034949888 6.280700781839613 0 0 0 0 1.8988633972153366 -8.0321482055878732 0 -8.0321482055878732 9.0379170421365416 0 0 0 0 1.689651846877799 -6.3781787898063893 0 -6.3781787898063893 9.0987374227171927 0 0 0 0 -12.504908650537146 -16.906977378996089 0 -16.906977378996089 7.5876823119797336 0 0 0 0 6.7692385367007963 -7.5091827711628127 0 -7.5091827711628127 1.4487101192927412 0 0 0 0 -3.9016766240611904 -24.410537328978535 0 -24.410537328978535 13.384090820123674 0 0 0 0 2.4295634401404165 -10.93923999073013 0 -10.93923999073013 -8.2579892175563145 0 0 0 0 0.94658015500474779 -0.83276758058119071 0 -0.83276758058119071 0.58176201813392936 0 0 0 0 -0.01017825849865295 16.202346797181235 0 16.202346797181235 14.718846255113249 0 0 0 0 25.278696390320473 1.3634793362798519 0 1.3634793362798519 -16.98475353034155 0 0 0 0 1.3532377114442946 -0.28702100375848838 0 -0.28702100375848838 1.1679487012541472 0 0 0 0 23.315514239637849 -4.3502600337378681 0 -4.3502600337378681 -1.7115765104972525 0 0 0 0 38.164045171353223 -13.408908421748492 0 -13.408908421748492 -22.276852529997996 0 0 0 0 21.109119432478565 -13.637736361008137 0 -13.637736361008137 -18.187900187997911 0 0 0 0 35.161919998579222 29.539444143065339 0 29.539444143065339 -39.636597271135543 0 0 0 0 30.594170710217135 -3.9962164705866599 0 -3.9962164705866599 -33.632956828121678 0 0 0 0 0.095173342331237074 -15.242824148705186 0 -15.242824148705186 -5.1885713264346123 0 0 0 0 87.489536223484265 -353.1793761181325 0 -353.1793761181325 602.34028872145063 0 0 0 0 69.167786059112132 149.42309496153757 0 149.42309496153757 357.698684263014 0 0 0 0 136.97711704688996 -159.7053141809065 0 -159.7053141809065 276.95781663359958 0 0 0 0 85.952117466404729 -44.662861830391194 0 -44.662861830391194 282.32457977010927 0 0 0 0 205.2407118658441 -90.859324606200971 0 -90.859324606200971 -208.04974123428838 0 0 0 0 -0.28825219207228514 1.6347569485846805 0 1.6347569485846805 0.57766495125106587 0 0 0 0 8.5149745478465775 -112.66583420134702 0 -112.66583420134702 -45.228504932930264 0 0 0 0 -2.1806801691298041 0.60135235703626222 0 0.60135235703626222 -1.9700826935953977 0 0 0 0 -36.355185877477652 -43.408415531910578 0 -43.408415531910578 153.18967023899313 0 0 0 0 -128.39930278985139 -9.393665447641979 0 -9.393665447641979 141.10618664024514 0 0 0 0 -119.25323737859526 -68.593114406357927 0 -68.593114406357927 447.08507687472593 0 0 0 0 13.932451741908153 -234.88255941118041 0 -234.88255941118041 169.17965750071744 0 0 0 0 -26.678554543553673 124.69363257033547 0 124.69363257033547 255.96214925030654 0 0 0 0 -202.6058441764917 97.862385436790646 0 97.862385436790646 212.41734633113811 0 0 0 0 -109.95886497903803 19.787894072393101 0 19.787894072393101 125.77287197967235 0 0 0 0 -297.42386316768352 129.56899920797514 0 129.56899920797514 85.663084372739831 0 0 0 0 -194.45459888806226 -102.71068649487279 0 -102.71068649487279 200.16326603255584 0 0 0 0 28.704608235484557 -105.8161823898954 0 -105.8161823898954 98.117228757953853 0 0 0 0 13.669126336882528 -69.943206902436941 0 -69.943206902436941 12.887946958253451 0 0 0 0 30.857251585173458 28.739811643095891 0 28.739811643095891 -50.496686257713009 0 0 0 0 0.0094146408255895153 2.6375352369018117 0 2.6375352369018117 4.4020486329251014 0 0 0 0 43.407537809961241 -182.51193907526249 0 -182.51193907526249 401.95251277276111 0 0 0 0 3.2000477702796548 7.2348689005902145 0 7.2348689005902145 8.9175478659684018 0 0 0 0 156.09060978540961 95.395817510225243 0 95.395817510225243 -190.7771067172871 0 0 0 0 5.6924457254474046 10.546954449652247 0 10.546954449652247 11.620544587161589 0 0 0 0 -556.31284045044595 217.40825771505479 0 217.40825771505479 370.21054254524643 0 0 0 0 20.708124034407774 -673.53062302442231 0 -673.53062302442231 676.40381236624671 0 0 0 0 -106.90193854031804 -251.28318803537695 0 -251.28318803537695 386.83886422103456 0 0 0 0 -651.85837683680438 -313.72389495222978 0 -313.72389495222978 1180.0795480319066 0 0 0 0 41.817091774935534 -210.10078743436679 0 -210.10078743436679 210.7270606824386 0 0 0 0 -120.7491613600414 87.155160328475176 0 87.155160328475176 883.10385302195209 0 0 0 0 -27.266140404751241 92.724073484161636 0 92.724073484161636 780.23504458229581 0 0 0 0 3.0155978610894181 -21.934740651740867 0 -21.934740651740867 1160.9681275759795 0 0 0 0 91.011522356593559 355.79061947603623 0 355.79061947603623 885.34199292582343 0 0 0 0 433.04409671153189 -364.48743925516646 0 -364.48743925516646 30.619187410644372 0 0 0 0 5.1644655493957163 -7.9789579691562267 0 -7.9789579691562267 13.86084794152697 0 0 0 0 89.063284327077724 314.2988142002846 0 314.2988142002846 441.37671152016264 0 0 0 0 -185.91719056944748 -168.30454299503617 0 -168.30454299503617 43.384570163223543 0 0 0 0 12.157098221115405 -22.217523807142271 0 -22.217523807142271 38.419428062034626 0 0 0 0 -48.899817567138598 -44.795125771437597 0 -44.795125771437597 -5.5794279248493694 0 0 0 0 -72.008417448638284 -56.860704037979303 0 -56.860704037979303 101.35723964102363 0 0 0 0 -52.213681655299297 -103.62816390459921 0 -103.62816390459921 -23.518653262457519 0 0 0 0 84.161735266649885 -174.71716570033823 0 -174.71716570033823 237.70174944629616 0 0 0 0 83.040645308934472 -120.35715704648464 0 -120.35715704648464 10.491726520616794 0 0 0 0 105.40018370910661 -82.510155410127481 0 -82.510155410127481 158.75274906546838 0 0 0 0 97.451396684747124 -58.147351826573868 0 -58.147351826573868 92.998292781128839 0 0 0 0 85.421042803237015 -29.664912635256769 0 -29.664912635256769 108.53970141597165 0 0 0 0 52.363147039739488 -62.641336780601705 0 -62.641336780601705 130.39796076396306 0 0 0 0 20.107783218745681 15.959267522957816 0 15.959267522957816 174.30723089865796 0 0 0 0 16.729777855272005 -35.725784848313197 0 -35.725784848313197 171.26832213703892 0 0 0 0 83.934020921502182 -32.721336896922367 0 -32.721336896922367 149.57204710169026 0 0 0 0 -38.54622918716268 -60.148246392862347 0 -60.148246392862347 38.602842271997361 0 0 0 0 -125.88022370269482 -39.081045202681707 0 -39.081045202681707 48.670478893080144 0 0 0 0 44.092718920772313 -36.705745021256007 0 -36.705745021256007 54.18708624051942 0 0 0 0 -52.939957738872181 -30.28033296684589 0 -30.28033296684589 119.63554495637072 0 0 0 0 12.660301376008647 -18.911918851159498 0 -18.911918851159498 101.9789872563706 0 0 0 0 -25.728542506871236 11.245666487557173 0 11.245666487557173 145.20468510536011 0 0 0 0 -43.42873166231584 -20.636218910294701 0 -20.636218910294701 118.03693801155168 0 0 0 0 -56.102618494741137 -9.1027321683127411 0 -9.1027321683127411 108.03247432685748 0 0 0 0 -27.113756362354252 19.198226761996921 0 19.198226761996921 142.05602074354829 0 0 0 0 -26.877118338782566 25.626932505960212 0 25.626932505960212 163.88063023629365 0 0 0 0 -1.4085916157464453 -6.4484516351512866 0 -6.4484516351512866 154.72454829570779 0 0 0 0 2.3972067036993394 22.106168165279087 0 22.106168165279087 159.52622586430516 0 0 0 0 -27.603462452532767 9.9532314384705387 0 9.9532314384705387 157.45693018003658 0 0 0 0 -28.002164368650483 6.8250814268831164 0 6.8250814268831164 158.27561355993384 0 0 0 0 12.657883072619825 14.915080866174321 0 14.915080866174321 145.83664328651503 0 0 0 0 -22.091489558548346 3.0985483851982281 0 3.0985483851982281 143.79839891395386 0 0 0 0 -19.412533389404416 92.383642696106108 0 92.383642696106108 88.64834767474531 0 0 0 0 -23.486687436644274 18.254373249093078 0 18.254373249093078 131.02158956660423 0 0 0 0 -22.560209354071048 -26.418981168539176 0 -26.418981168539176 134.90254451219516 0 0 0 0 -1.8218008762214595 11.974852682418714 0 11.974852682418714 -20.565235699759796 0 0 0 0 -15.22983872394434 -26.66446039494258 0 -26.66446039494258 87.018395261133264 0 0 0 0 -5.6146793276621079 2.5606215542062216 0 2.5606215542062216 0.48609056946807527 0 0 0 0 -37.858248871980322 2.0478910505044041 0 2.0478910505044041 152.24422031365248 0 0 0 0 -36.989035150392738 7.1186527305762866 0 7.1186527305762866 174.44167985316744 0 0 0 0 -0.53456483845405511 2.2297104160212484 0 2.2297104160212484 1.7237535004084776 0 0 0 0 44.958459813722357 -107.8240767146217 0 -107.8240767146217 176.49014148501738 0 0 0 0 133.08887257928654 -27.146406559910247 0 -27.146406559910247 145.74973832367687 0 0 0 0 15.746129601981011 -28.167728845211968 0 -28.167728845211968 153.867853997981 0 0 0 0 32.730760325523079 12.520694730672403 0 12.520694730672403 145.70288718523807 0 0 0 0 13.186564967554887 17.499763986657854 0 17.499763986657854 154.11434436906711 0 0 0 0 -1.5253960516783991 -12.738974273801432 0 -12.738974273801432 191.86708792031277 0 0 0 0 -0.82472020941225921 -0.081189687130567734 0 -0.081189687130567734 0.38828218834740369 0 0 0 0 0.94811790084079561 2.1123310139616649 0 2.1123310139616649 0.40347178702310771 0 0 0 0 4.7573177771209885 -11.463630872982321 0 -11.463630872982321 162.42773649365699 0 0 0 0 -45.726975293509895 -30.029289206730027 0 -30.029289206730027 167.3871385872917 0 0 0 0 42.983584721921773 -103.58176716039998 0 -103.58176716039998 121.91145678065368 0 0 0 0 26.258508750465353 -62.864301758414513 0 -62.864301758414513 137.09416301883903 0 0 0 0 46.296545136741898 -36.566721413678351 0 -36.566721413678351 107.00345125468448 0 0 0 0 0.32103417121532285 2.4563521937131299 0 2.4563521937131299 1.8175203305010257 0 0 0 0 92.164313803614277 -51.858705636426748 0 -51.858705636426748 75.366036518993496 0 0 0 0 42.778255172479021 -80.305166374870169 0 -80.305166374870169 153.11653945541912 0 0 0 0 24.095374108618216 -102.96121598094396 0 -102.96121598094396 170.6467334319459 0 0 0 0 38.563636504732131 19.843192070875375 0 19.843192070875375 107.75337288529045 0 0 0 0 76.890054754178607 -62.363820565082278 0 -62.363820565082278 201.5866856527864 0 0 0 0 49.458623560910382 -117.86580435218639 0 -117.86580435218639 393.44651123526182 0 0 0 0 132.11483614687302 -164.91889562056531 0 -164.91889562056531 234.37698957334942 0 0 0 0 112.21182183283796 -53.738970246515237 0 -53.738970246515237 123.43850653640402 0 0 0 0 0.83049641734160318 2.49717893513278 0 2.49717893513278 -1.8240862535646656 0 0 0 0 52.522417815632252 -42.355184033833211 0 -42.355184033833211 143.91858358547142 0 0 0 0 55.722238191990982 -19.019210367459891 0 -19.019210367459891 73.562616616298328 0 0 0 0 -66.912563220295851 -16.768998542604095 0 -16.768998542604095 234.96051434915807 0 0 0 0 25.620454324452112 -133.07778110323852 0 -133.07778110323852 399.24117167393433 0 0 0 0 0.68681489069389912 1.6528028785876359 0 1.6528028785876359 0.098750772727974834 0 0 0 0 71.841298409972751 -58.29373389612374 0 -58.29373389612374 0.35098818088590633 0 0 0 0 36.81171802149629 -63.915578487292805 0 -63.915578487292805 178.70886270215487 0 0 0 0 132.77127104515557 -151.88660088391771 0 -151.88660088391771 197.17547618653043 0 0 0 0 14.231970012482179 -62.228034758874855 0 -62.228034758874855 224.22881869642879 0 0 0 0 98.208804543765837 -144.32553318388454 0 -144.32553318388454 205.54723605653635 0 0 0 0 60.386435066433933 -121.88865785115559 0 -121.88865785115559 192.25157704342018 0 0 0 0 24.129528606583335 5.3133476098701067 0 5.3133476098701067 139.96103539206888 0 0 0 0 -0.47738565479241402 2.0876060125582825 0 2.0876060125582825 1.6974881847517054 0 0 0 0 32.478282132554568 -46.265627480785042 0 -46.265627480785042 183.78659945655818 0 0 0 0 80.341324256243752 -98.319352817270556 0 -98.319352817270556 204.76785989638302 0 0 0 0 0.84947427283191246 -62.891232401325396 0 -62.891232401325396 177.32062688044243 0 0 0 0 27.493976591786804 -18.049066967412728 0 -18.049066967412728 91.935506455301947 0 0 0 0 8.6285988163576803 -19.412582418421152 0 -19.412582418421152 204.36942095925042 0 0 0 0 52.20194924020052 32.390760195055918 0 32.390760195055918 7.3191627940177568 0 0 0 0 -5.9971914619443396 5.3527729388224543 0 5.3527729388224543 97.008082530112006 0 0 0 0 2.6485235869013275 2.3818358453217598 0 2.3818358453217598 2.5362819199317812 0 0 0 0 -2.6602204061910015 41.183089043362997 0 41.183089043362997 4.391673533275025 0 0 0 0 3.2277892386039317 13.274210583286461 0 13.274210583286461 32.274860899792941 0 0 0 0 -5.8464843732858185 50.448871631771908 0 50.448871631771908 3.114707249798812 0 0 0 0 16.682272940616485 3.7271107444103109 0 3.7271107444103109 40.654344184738875 0 0 0 0 18.554456416435187 5.4354471730184741 0 5.4354471730184741 32.478792367232018 0 0 0 0 14.885546110628503 7.0009226800475659 0 7.0009226800475659 6.403762058891644 0 0 0 0 5.3120252501024652 16.455172408423095 0 16.455172408423095 0.59782411163905635 0 0 0 0 -4.3736213213072688 15.740236432451638 0 15.740236432451638 6.1730012790721958 0 0 0 0 3.9012199041928852 25.028936041875568 0 25.028936041875568 0.46453730465145782 0 0 0 0 6.6810003585296727 31.884390644063387 0 31.884390644063387 12.90563988249778 0 0 0 0 6.2955406727881993 20.240854765655769 0 20.240854765655769 10.02741189188793 0 0 0 0 26.009461920938691 -20.987203557390785 0 -20.987203557390785 1.1296984650543891 0 0 0 0 26.504657945590679 4.0374409621072118 0 4.0374409621072118 -39.697016196823824 0 0 0 0 8.4815054088680881 81.096176394381473 0 81.096176394381473 24.134777914710867 0 0 0 0 -7.7466117403414501 18.013060372519249 0 18.013060372519249 69.012767624397384 0 0 0 0 -2.4482583080576417 -0.89575796792387763 0 -0.89575796792387763 4.2624900574312221 0 0 0 0 116.19011811304426 13.959732341070776 0 13.959732341070776 12.426809806547681 0 0 0 0 137.08627040012317 -5.1670779751220834 0 -5.1670779751220834 162.02295462047186 0 0 0 0 0.46905045041521021 -74.062026357752984 0 -74.062026357752984 279.55080923862988 0 0 0 0 43.467388806692384 -101.02542271124548 0 -101.02542271124548 209.64495875399007 0 0 0 0 40.845525513490998 102.71066899714606 0 102.71066899714606 174.87474611461948 0 0 0 0 -40.37853590034274 -48.191005096927256 0 -48.191005096927256 94.354994741632254 0 0 0 0 -14.071460346427557 -25.114039414140279 0 -25.114039414140279 110.6704876695776 0 0 0 0 -51.82770448984229 -15.641667648273142 0 -15.641667648273142 3.0712238402848016 0 0 0 0 -10.741479834456641 12.270279291184124 0 12.270279291184124 12.981935369796702 0 0 0 0 -1.7569102932776071 1.9141081720848163 0 1.9141081720848163 15.441192621297574 0 0 0 0 -2.3676855074150547 9.4716447244699751 0 9.4716447244699751 20.926389220252759 0 0 0 0 -10.52117077782259 10.205326896822953 0 10.205326896822953 13.648485141056881 0 0 0 0 -15.607162074790722 16.216067484430823 0 16.216067484430823 11.076325077927322 0 0 0 0 0.78071071776264489 54.142746985823578 0 54.142746985823578 24.703957127720059 0 0 0 0 -59.408840960148154 39.751112780038966 0 39.751112780038966 24.626142508728663 0 0 0 0 -13.828231451063402 7.7974079356790753 0 7.7974079356790753 15.028657210656093 0 0 0 0 -6.4581253912356047 1.1029699808270976 0 1.1029699808270976 9.261913645274916 0 0 0 0 -20.853835955273098 8.9899599958007457 0 8.9899599958007457 -0.30723371100611985 0 0 0 0 -17.378282791731181 12.796475747265504 0 12.796475747265504 24.519948920817114 0 0 0 0 -5.8588824492254519 5.4009391205447699 0 5.4009391205447699 5.407810429901275 0 0 0 0 -1.6764944930873753 11.206865731699509 0 11.206865731699509 1.1637480978388339 0 0 0 0 -3.008073642026698 0.69399516369533387 0 0.69399516369533387 3.2464205627829301 0 0 0 0 -2.0312409786610672 -5.7037363075298799 0 -5.7037363075298799 12.139442418685292 0 0 0 0 -6.1597595973362331 -1.4182792390638497 0 -1.4182792390638497 10.513746011187322 0 0 0 0 -16.435086226667437 11.325740980207158 0 11.325740980207158 4.0761725628767635 0 0 0 0 -19.513102931576221 8.2311151092122827 0 8.2311151092122827 37.363133944991347 0 0 0 0 -36.739638070197543 24.005405180039816 0 24.005405180039816 11.750275573693216 0 0 0 0 -33.730295281813596 19.653481296176324 0 19.653481296176324 8.3071339592570439 0 0 0 0 -23.409002403413986 19.287393405037903 0 19.287393405037903 26.185718317994912 0 0 0 0 0.55403795380433962 4.0585066859532901 0 4.0585066859532901 -5.2306081612392745 0 0 0 0 -12.768091627393005 7.1057340278639458 0 7.1057340278639458 12.89529615920037 0 0 0 0 14.485426275119607 -3.4295351525361184 0 -3.4295351525361184 28.915637606263772 0 0 0 0 -9.8256818376285082 11.95946596142312 0 11.95946596142312 14.991257759334985 0 0 0 0 -11.303445455894689 11.383744376464165 0 11.383744376464165 16.042498698283453 0 0 0 0 -10.498337465019631 11.631128304474259 0 11.631128304474259 14.293015002986067 0 0 0 0 -8.7828960987707134 8.9017835738501248 0 8.9017835738501248 -0.85250198044339243 0 0 0 0 -10.575579343795653 11.245212926573004 0 11.245212926573004 13.946390400800738 0 0 0 0 -10.756832094030869 10.304519622393855 0 10.304519622393855 16.465990183845861 0 0 0 0 -10.607614474320144 11.481133345856506 0 11.481133345856506 12.564311346893646 0 0 0 0 -13.374358928042057 9.2877641389932251 0 9.2877641389932251 -1.0966102364764083 0 0 0 0 -3.855684446062714 4.2688934861558323 0 4.2688934861558323 9.4181153947212977 0 0 0 0 -2.6594592604582168 4.8621840882229321 0 4.8621840882229321 4.8828267304133988 0 0 0 0 -9.9330468947396184 0.078102098430463229 0 0.078102098430463229 19.416876574061462 0 0 0 0 -20.468360560264728 12.37120161139319 0 12.37120161139319 2.4079872641741531 0 0 0 0 -0.96755548581294537 0.98938401010621391 0 0.98938401010621391 1.4887738582538077 0 0 0 0 -4.245571292364275 3.5533137637539767 0 3.5533137637539767 -0.56258514110777469 0 0 0 0 -18.295813111050848 7.3314645704631403 0 7.3314645704631403 2.9329547424713382 0 0 0 0 -5.3470279972859878 2.1076261735194919 0 2.1076261735194919 8.0956143536973286 0 0 0 0 -4.1759773017893167 7.8370058903528843 0 7.8370058903528843 -1.3945103496516822 0 0 0 0 11.07369483192997 7.7438458863180131 0 7.7438458863180131 -18.233031659110566 0 0 0 0 -1.0288409541976051 0.90567266809675573 0 0.90567266809675573 -3.8142914705984197 0 0 0 0 -6.8276848763009497 9.6888559007417996 0 9.6888559007417996 5.9398384256754255 0 0 0 0 -7.8147740049114418 -4.0331909461619944 0 -4.0331909461619944 -4.1910468424030114 0 0 0 0 -8.666984450535324 0.054955685614004324 0 0.054955685614004324 4.4956035063078161 0 0 0 0 -12.84243406990754 11.805893859775097 0 11.805893859775097 -3.6762705682631349 0 0 0 0 -14.509990953646593 -4.3849303349852562 0 -4.3849303349852562 0.31543546800457989 0 0 0 0 -8.5920055719734592 3.1843986588046391 0 3.1843986588046391 9.9650487663748208 0 0 0 0 -4.4463525733845017 -7.8058572149220709 0 -7.8058572149220709 11.70195708234678 0 0 0 0 -8.5386351359666151 3.5948821973470331 0 3.5948821973470331 1.6940876082808245 0 0 0 0 -1.7681502120077539 20.052839057549136 0 20.052839057549136 -0.74387233113520779 0 0 0 0 -5.701828085869546 19.236075118800372 0 19.236075118800372 10.361033622211529 0 0 0 0 19.776016121984867 63.707296095297352 0 63.707296095297352 -23.758827558100165 0 0 0 0 -7.698056873512531 12.350908623322013 0 12.350908623322013 10.197121371544455 0 0 0 0 -5.9203208227936557 22.701106236956548 0 22.701106236956548 -13.913075868804299 0 0 0 0 -1.4353037421101362 27.736000867218536 0 27.736000867218536 -10.060510645213071 0 0 0 0 -13.769118042839182 20.503081761366047 0 20.503081761366047 -7.9437797750724712 0 0 0 0 47.435778938434851 74.556903898796008 0 74.556903898796008 -93.321491503214929 0 0 0 0 85.887743235644848 -23.736658627312863 0 -23.736658627312863 -27.070726783331338 0 0 0 0 -0.44620865841255508 -1.0022295578876879 0 -1.0022295578876879 -1.3714680177527327 0 0 0 0 -9.7290344426774027 25.703675926342839 0 25.703675926342839 -3.7398301402572542 0 0 0 0 -7.957808738688982 20.394306635425892 0 20.394306635425892 4.0810856845419039 0 0 0 0 -62.334069388766011 86.728197716116483 0 86.728197716116483 -16.243951508702594 0 0 0 0 1.8696411798387067 9.9325518861721918 0 9.9325518861721918 13.006414996629815 0 0 0 0 52.702711573160741 -115.7042160847268 0 -115.7042160847268 -35.690925336948567 0 0 0 0 -0.2761997344570446 -0.46497044476745941 0 -0.46497044476745941 -0.58493826001210891 0 0 0 0 3.9808899628991412 0.19283626117339736 0 0.19283626117339736 -20.015060262259794 0 0 0 0 -2.8246768172285783 28.00992070596385 0 28.00992070596385 -65.963057551169186 0 0 0 0 31.765380895915769 -140.53276374245615 0 -140.53276374245615 141.56749972468242 0 0 0 0 -134.51061690786446 -26.83747768435569 0 -26.83747768435569 297.38490084883233 0 0 0 0 125.02585136168909 -57.096664032171248 0 -57.096664032171248 -101.01617208422977 0 0 0 0 370.10555221044797 -324.8768474253593 0 -324.8768474253593 176.66358753235545 0 0 0 0 -129.22905890873616 102.62784164092977 0 102.62784164092977 -31.813205652870238 0 0 0 0 -140.26298477376918 389.54215782761753 0 389.54215782761753 78.551618534867885 0 0 0 0 445.39950173589114 219.5278678186296 0 219.5278678186296 -29.292162161822489 0 0 0 0 12.745717396000146 -4.8108135011425475 0 -4.8108135011425475 2.1556305647827685 0 0 0 0 -11.533819159298218 -6.4393054566899082 0 -6.4393054566899082 12.468965008476516 0 0 0 0 0.74891876553556358 7.9703711203401326 0 7.9703711203401326 1.1265458053530892 0 0 0 0 0.34138714501740974 0.98326444147194536 0 0.98326444147194536 3.6945136796518909 0 0 0 0 -11.013788061140076 -4.789270082161238 0 -4.789270082161238 -2.0535566405887948 0 0 0 0 -27.740210934854531 7.4701837594075187 0 7.4701837594075187 12.984565597827896 0 0 0 0 -10.852389919725539 12.832203122992496 0 12.832203122992496 5.7747010650928132 0 0 0 0 -9.1047593320035958 -7.9026642695607734 0 -7.9026642695607734 -7.663405524843256 0 0 0 0 -0.9542783272126858 -1.141913713354711 0 -1.141913713354711 -0.040515806381364428 0 0 0 0 0.15149900876595535 1.5929538954234772 0 1.5929538954234772 5.3715073981251749 0 0 0 0 -27.669751947159966 -183.37179963173548 0 -183.37179963173548 240.34821652516257 0 0 0 0 -112.27977994532012 -17.428933945426252 0 -17.428933945426252 82.993419774284121 0 0 0 0 -10.213728535257815 -6.8555513887768029 0 -6.8555513887768029 15.546687715137523 0 0 0 0 -59.219808915293925 -16.548652293397026 0 -16.548652293397026 -20.120152130621136 0 0 0 0 -62.527861967786066 -240.37963469922397 0 -240.37963469922397 160.28450055560097 0 0 0 0 -76.653854679973392 -221.98179996744148 0 -221.98179996744148 138.52607010761858 0 0 0 0 -59.534796377255589 -158.00722974038945 0 -158.00722974038945 192.26702340635529 0 0 0 0 -39.37280450468279 -169.67226745076186 0 -169.67226745076186 193.31700788949092 0 0 0 0 47.604929684426679 -2.6948041360083153 0 -2.6948041360083153 153.83694002214907 0 0 0 0 46.266423508295702 10.016903423638723 0 10.016903423638723 331.56575493826676 0 0 0 0 90.967517533317732 -110.56906710873591 0 -110.56906710873591 257.79484133957885 0 0 0 0 25.579651485655631 -92.615735873492667 0 -92.615735873492667 281.92476218589582 0 0 0 0 91.550555418554723 -76.421510659449268 0 -76.421510659449268 344.45998168613005 0 0 0 0 102.86469948874947 -105.63495100816363 0 -105.63495100816363 271.8391144980269 0 0 0 0 353.85393660655973 -337.41099522594595 0 -337.41099522594595 404.53696302475873 0 0 0 0 -0.17739349371712265 -0.14028065112724164 0 -0.14028065112724164 0.11379637226440309 0 0 0 0 107.77846416187822 -63.938476308248937 0 -63.938476308248937 265.58373725386991 0 0 0 0 101.84532355425472 -68.902675651042955 0 -68.902675651042955 315.01142105780309 0 0 0 0 163.31324401109009 39.795817131172839 0 39.795817131172839 137.52044332236983 0 0 0 0 162.60822316470421 6.75117266594782 0 6.75117266594782 205.45408905952354 0 0 0 0 148.53307465870512 100.07948702266731 0 100.07948702266731 124.05914869089975 0 0 0 0 -39.416255454971633 -61.173532746572164 0 -61.173532746572164 121.2230276414266 0 0 0 0 123.74915367275071 55.696417225233745 0 55.696417225233745 41.981962859033956 0 0 0 0 42.254978984075024 257.65261208112679 0 257.65261208112679 102.90256382427469 0 0 0 0 75.477915880300316 -513.84560830735427 0 -513.84560830735427 437.3633727277047 0 0 0 0 0.51920019997322253 2.1163204072313277 0 2.1163204072313277 6.1372372674613871 0 0 0 0 52.064050573677378 -153.25407753416584 0 -153.25407753416584 -323.17353319606627 0 0 0 0 67.644952314060447 57.197407397663483 0 57.197407397663483 959.79295776132494 0 0 0 0 -87.857957202739271 123.49698953295592 0 123.49698953295592 657.33298582036514 0 0 0 0 -38.870203509141902 214.08901046373649 0 214.08901046373649 -163.97731203218427 0 0 0 0 -0.51381213538628678 0.37782254998307963 0 0.37782254998307963 2.0542031899304618 0 0 0 0 -93.971664854107985 189.95048591550585 0 189.95048591550585 15.769558822372346 0 0 0 0 -96.918072710636807 -16.92307122686907 0 -16.92307122686907 -18.201177695766091 0 0 0 0 186.89975628793991 -319.96828397726495 0 -319.96828397726495 541.71402247581864 0 0 0 0 120.95831171412829 165.21765608144051 0 165.21765608144051 519.8895006546918 0 0 0 0 160.52820652085029 -229.35814310334536 0 -229.35814310334536 657.80256161393481 0 0 0 0 25.988478582760763 243.96881319749809 0 243.96881319749809 459.54337430318992 0 0 0 0 146.71982389965888 100.04546198808384 0 100.04546198808384 162.97266583592864 0 0 0 0 76.578180131482441 81.979622948208998 0 81.979622948208998 188.8026629248925 0 0 0 0 177.12347931419208 63.176647005668201 0 63.176647005668201 65.566209319629706 0 0 0 0 126.32222499637646 79.146830230703927 0 79.146830230703927 194.83149197862804 0 0 0 0 -105.54175294559764 -39.60565620768466 0 -39.60565620768466 69.751343671479844 0 0 0 0 85.480857040234014 0.40781616718368241 0 0.40781616718368241 -33.413604190471233 0 0 0 0 2.6754508592148047 6.8736844589878672 0 6.8736844589878672 14.373362788298749 0 0 0 0 69.730206672864369 -206.19189774629484 0 -206.19189774629484 187.77529004712414 0 0 0 0 -194.17714122271855 244.49749717742088 0 244.49749717742088 454.47927961133973 0 0 0 0 0.34286963477412136 1.7526326156738108 0 1.7526326156738108 6.850238638669822 0 0 0 0 -206.00786316301219 -209.68605542291334 0 -209.68605542291334 456.13397730942233 0 0 0 0 198.73122712054749 75.976603958126361 0 75.976603958126361 62.950076010965859 0 0 0 0 111.44060782496695 91.64869631309557 0 91.64869631309557 54.354713217522658 0 0 0 0 62.762966912466823 47.398624442917935 0 47.398624442917935 86.709206301151426 0 0 0 0 124.60891466447862 163.49684852065548 0 163.49684852065548 264.936843582851 0 0 0 0 -15.944433290902907 -13.8780856848025 0 -13.8780856848025 530.32452265209577 0 0 0 0 151.81391830292137 -313.32508382846572 0 -313.32508382846572 401.48056984194409 0 0 0 0 39.25746179092107 -147.73476966006274 0 -147.73476966006274 238.07454517030328 0 0 0 0 -25.176787125326427 7.915548592027335 0 7.915548592027335 110.21519047427864 0 0 0 0 -10.576532814529401 20.736319212808667 0 20.736319212808667 220.89412379948772 0 0 0 0 -23.808593801494681 -2.5168673336956999 0 -2.5168673336956999 188.58819259508164 0 0 0 0 -61.812723878069207 1.6086021321825683 0 1.6086021321825683 130.2506479540898 0 0 0 0 -50.154970041454071 49.598848017324144 0 49.598848017324144 28.740142478352936 0 0 0 0 -53.037506102982555 26.687054139416432 0 26.687054139416432 132.83382331610483 0 0 0 0 1.7314998488134279 43.164254337752936 0 43.164254337752936 66.057266526535386 0 0 0 0 -39.505760785137909 57.955494665133301 0 57.955494665133301 70.280055239549256 0 0 0 0 28.68664924136408 92.471015817871375 0 92.471015817871375 150.76195095258299 0 0 0 0 60.057169619002742 72.699561262894349 0 72.699561262894349 16.207129112284747 0 0 0 0 4.6292095204220232 65.719550750771305 0 65.719550750771305 15.328453174213791 0 0 0 0 -21.033979890640161 47.23120998365539 0 47.23120998365539 5.3775402755418327 0 0 0 0 50.469301925407308 45.598905224778719 0 45.598905224778719 -9.048412453616038 0 0 0 0 -40.773921422267208 43.830165712519374 0 43.830165712519374 9.4332344444555929 0 0 0 0 -18.00565786474715 74.909126726575778 0 74.909126726575778 -14.442732597744907 0 0 0 0 -101.73093494453099 115.20821164597874 0 115.20821164597874 -31.034586395078804 0 0 0 0 -4.2473056940976068 1.6088757056286198 0 1.6088757056286198 12.190675942611804 0 0 0 0 1.8853481882163119 13.458670396320379 0 13.458670396320379 39.954279582274694 0 0 0 0 -66.67479623389022 84.481606611640018 0 84.481606611640018 12.053387829073472 0 0 0 0 -92.904342993160327 57.129335818041 0 57.129335818041 33.134827982634306 0 0 0 0 18.517862644403067 3.9850510626492905 0 3.9850510626492905 40.677525202167089 0 0 0 0 9.5116897626748482 44.580963045195858 0 44.580963045195858 -4.1093811545870267 0 0 0 0 13.598074165973685 64.092263124883175 0 64.092263124883175 -3.751598475038918 0 0 0 0 -35.716679259954759 43.99805603711502 0 43.99805603711502 3.4651841973391129 0 0 0 0 15.111076741249462 18.129139452481468 0 18.129139452481468 -6.6024109258287353 0 0 0 0 24.633358441394648 42.414596350579814 0 42.414596350579814 -6.8482304726639995 0 0 0 0 25.254532869236186 26.108838321102667 0 26.108838321102667 -0.55258521307951014 0 0 0 0 2.2357401684821525 6.4971688355290098 0 6.4971688355290098 10.267245559633011 0 0 0 0 14.851222808063767 9.1144999330499559 0 9.1144999330499559 8.4476366784583661 0 0 0 0 18.89605669191269 -14.415519089950976 0 -14.415519089950976 0.83846787465154193 0 0 0 0 1.9625258727164883 5.1149327349063327 0 5.1149327349063327 14.427693721366182 0 0 0 0 108.35152882191755 -12.363548213535978 0 -12.363548213535978 -7.8588961774221389 0 0 0 0 43.935134678422401 36.360601409853189 0 36.360601409853189 9.7923821640870301 0 0 0 0 47.781255723284403 46.926576185425802 0 46.926576185425802 7.2690369245829061 0 0 0 0 67.018648129409598 13.126056843888364 0 13.126056843888364 -6.7179855484719155 0 0 0 0 -0.0098495950281737524 -1.8553893809330475 0 -1.8553893809330475 36.33480944985422 0 0 0 0 -2.8359655294776767 -1.3539262144048774 0 -1.3539262144048774 32.633011257388148 0 0 0 0 -122.41113472679433 -38.270377503034979 0 -38.270377503034979 71.278431040227588 0 0 0 0 -26.430342694129394 0.55644431488326518 0 0.55644431488326518 15.055087670960347 0 0 0 0 -38.633291847509099 -0.37454143418290187 0 -0.37454143418290187 26.614459782598715 0 0 0 0 -1.4367958376237508 -4.459569183013901 0 -4.459569183013901 3.7297512788814515 0 0 0 0 -26.413903167109652 -5.4430738631199347 0 -5.4430738631199347 31.954581370751839 0 0 0 0 11.226855673601563 -22.529139595746528 0 -22.529139595746528 6.4672221943037584 0 0 0 0 -3.0883696948935921 -13.264214142371969 0 -13.264214142371969 13.574441651341942 0 0 0 0 -11.503431435201865 0.55677957873251671 0 0.55677957873251671 29.608257717228994 0 0 0 0 -0.95918530964289528 -8.0242501081069264 0 -8.0242501081069264 31.585745539549066 0 0 0 0 -11.259968262692841 -7.9968979827608564 0 -7.9968979827608564 38.520785868290659 0 0 0 0 -7.32299837736835 -2.1106050638541092 0 -2.1106050638541092 37.718737490475178 0 0 0 0 -4.2845850157927785 3.8079235391069015 0 3.8079235391069015 37.917659295406736 0 0 0 0 0.0038223088938020774 -12.824020185104018 0 -12.824020185104018 23.337119098054245 0 0 0 0 -82.081364041151744 16.125877150257111 0 16.125877150257111 156.54491538618458 0 0 0 0 -0.98365343116011661 -5.6670293547859627 0 -5.6670293547859627 24.718591637108602 0 0 0 0 -12.43382337472692 1.3431307541914066 0 1.3431307541914066 41.50105026512756 0 0 0 0 0.0002239423221501724 -0.858664943154265 0 -0.858664943154265 0.98567551786226204 0 0 0 0 27.469513231668316 92.473213497745746 0 92.473213497745746 87.714338006873732 0 0 0 0 119.17144529087864 -24.433772992197191 0 -24.433772992197191 -62.394825441064313 0 0 0 0 -29.848150696583161 -47.673573813968687 0 -47.673573813968687 -17.614320298103848 0 0 0 0 23.078308760806749 -76.993273299631255 0 -76.993273299631255 6.5346799739054404 0 0 0 0 -7.8105068713957735 35.047623558246414 0 35.047623558246414 -3.6635413668409456 0 0 0 0 9.4561926730176822 -29.173618727002577 0 -29.173618727002577 28.590882586897351 0 0 0 0 -0.19080776948840139 -22.743900200170174 0 -22.743900200170174 36.150177582647302 0 0 0 0 -6.5959727838628908 -27.851218933154087 0 -27.851218933154087 59.498959471296985 0 0 0 0 -8.4289554304773446 -11.764098922059929 0 -11.764098922059929 46.863312889712688 0 0 0 0 -0.49043884700012708 -0.54102567971946769 0 -0.54102567971946769 2.9178878373518415 0 0 0 0 17.127285405371303 -1.4166591720968427 0 -1.4166591720968427 16.558233825169737 0 0 0 0 -7.2116013526259932 -2.1403411528197722 0 -2.1403411528197722 7.887436717466727 0 0 0 0 0.38083888250456255 -38.997413104822044 0 -38.997413104822044 -38.151911869899777 0 0 0 0 0.42459503620511896 -15.83187883534265 0 -15.83187883534265 21.358713186753448 0 0 0 0 -2.3627652282048075 -12.389055663472391 0 -12.389055663472391 17.879944903543219 0 0 0 0 -3.1246961708269838 -7.1992755616943214 0 -7.1992755616943214 8.4870254021515734 0 0 0 0 -2.0726322858683943 -11.531782859325176 0 -11.531782859325176 20.18799829974887 0 0 0 0 6.5628834454333855 -19.635905009370617 0 -19.635905009370617 36.342093247192679 0 0 0 0 -7.0501950013816899 -4.9399304956933463 0 -4.9399304956933463 21.64685519338326 0 0 0 0 0.61646576046223345 -13.74493262975011 0 -13.74493262975011 14.213315420027357 0 0 0 0 3.606830194842253 -23.77444806180219 0 -23.77444806180219 16.144308608150226 0 0 0 0 -3.4497215079361112 -5.4646966036726781 0 -5.4646966036726781 17.395162900066026 0 0 0 0 -5.5967857175546669 -10.615626359009184 0 -10.615626359009184 6.7080828466860112 0 0 0 0 -2.1413511790138067 -14.502566112214822 0 -14.502566112214822 5.5642966110337113 0 0 0 0 14.016726410540286 -13.973548935849976 0 -13.973548935849976 -21.985427064744727 0 0 0 0 3.428194428774038 -17.564630015153142 0 -17.564630015153142 11.137362620620195 0 0 0 0 7.9434045044158665 -18.899368421589315 0 -18.899368421589315 7.3709087197203189 0 0 0 0 1.1000129920577137 -3.7252267467374622 0 -3.7252267467374622 -5.7585218778331182 0 0 0 0 1.3719764052912145 -3.4487510586559011 0 -3.4487510586559011 1.8136769858081152 0 0 0 0 -3.058448035883373 -15.188534143506331 0 -15.188534143506331 -0.075710711345891468 0 0 0 0 18.462686615989924 -46.156057832173246 0 -46.156057832173246 -16.877722484514379 0 0 0 0 -0.25790749446269334 -0.26254302099772531 0 -0.26254302099772531 2.0220499167404 0 0 0 0 115.57267774136199 -12.552490874135401 0 -12.552490874135401 -6.5932349719732883 0 0 0 0 -10.395293064599798 -130.76252384591317 0 -130.76252384591317 122.02007034198323 0 0 0 0 -9.7776671898199083 24.053459985909285 0 24.053459985909285 88.115898589494464 0 0 0 0 4.5827449405865082 -9.2711412479548017 0 -9.2711412479548017 7.8167453452915652 0 0 0 0 4.7942675508979846 -11.304098297805467 0 -11.304098297805467 21.95723066382925 0 0 0 0 -42.36863279465706 -51.821464059728896 0 -51.821464059728896 51.424305324133456 0 0 0 0 -64.45708380645101 8.6169195063557709 0 8.6169195063557709 55.219938394409837 0 0 0 0 40.283844662105366 32.334237138398748 0 32.334237138398748 8.2771898712380789 0 0 0 0 81.558541437331314 -20.306221938310046 0 -20.306221938310046 16.473147493379656 0 0 0 0 -18.174772008461332 -85.694981142689358 0 -85.694981142689358 63.344618989649462 0 0 0 0 17.650858962013444 -30.080420441518072 0 -30.080420441518072 0.93152826689765789 0 0 0 0 -65.395455278199279 -51.146596194645099 0 -51.146596194645099 60.868636986313504 0 0 0 0 69.025525472063975 8.9329311160562952 0 8.9329311160562952 0.29991695503122173 0 0 0 0 68.068133563027459 -68.727786233372171 0 -68.727786233372171 6.8227216387458611 0 0 0 0 -13.890558479591618 -20.919457389019954 0 -20.919457389019954 -1.3556833987386199 0 0 0 0 7.6845763577121033 -19.415254681676743 0 -19.415254681676743 14.866573465958936 0 0 0 0 -51.949073465752008 6.6550182230275823 0 6.6550182230275823 13.175953775789822 0 0 0 0 1.0650170619191188 -2.3842872260865988 0 -2.3842872260865988 1.0589527798926781 0 0 0 0 -13.931605314987337 -21.425269180908799 0 -21.425269180908799 11.974808460778149 0 0 0 0 -68.108577168122736 -12.425384798303185 0 -12.425384798303185 31.106992475659354 0 0 0 0 21.016205813349188 -7.4692667248673388 0 -7.4692667248673388 -4.6199000930355396 0 0 0 0 -0.67220613626204795 -6.1894827886644634 0 -6.1894827886644634 12.259821967134485 0 0 0 0 -0.095753591249414072 -7.655947177722112 0 -7.655947177722112 7.7297769688668865 0 0 0 0 -23.424015305245121 -14.434796473935421 0 -14.434796473935421 9.393063279116177 0 0 0 0 -1.1024566118125501 -9.2378772745494757 0 -9.2378772745494757 5.7210153842509044 0 0 0 0 -2.7732244220582647 -4.835642933658761 0 -4.835642933658761 11.609398956567773 0 0 0 0 2.3876371001037331 -9.9892538426708342 0 -9.9892538426708342 21.629117239344396 0 0 0 0 -6.044729116513281 -17.680699797194393 0 -17.680699797194393 21.727333365022787 0 0 0 0 -8.2173014620184404 -13.455105384797207 0 -13.455105384797207 20.971107756369747 0 0 0 0 -5.3432944647574914 -9.0936665195695241 0 -9.0936665195695241 29.053173156982666 0 0 0 0 -7.8361722309473407 -7.7366762486744847 0 -7.7366762486744847 31.370151510716823 0 0 0 0 23.884769860845154 -8.9168764773385192 0 -8.9168764773385192 -27.948400296940235 0 0 0 0 -3.7914283439456327 -8.2258321620904837 0 -8.2258321620904837 3.7295449536546954 0 0 0 0 -7.3177934690493203 -8.7829072467138758 0 -8.7829072467138758 33.094476578640752 0 0 0 0 -2.3057591658132583 -0.87257537099208093 0 -0.87257537099208093 2.3220124061309093 0 0 0 0 -1.7389487332784483 -2.5086438200669363 0 -2.5086438200669363 29.761080184474849 0 0 0 0 -4.994060553503914 -9.9063497623428702 0 -9.9063497623428702 30.273805911347154 0 0 0 0 -1.1217183140547604 -8.0262705688546703 0 -8.0262705688546703 52.444808000247576 0 0 0 0 -6.7310413456115086 -7.1760000692578387 0 -7.1760000692578387 11.81784508567506 0 0 0 0 -10.051302044883414 1.9437537750200136 0 1.9437537750200136 23.982156110512733 0 0 0 0 -6.7743757072362314 -8.6299903119834198 0 -8.6299903119834198 53.933884538710117 0 0 0 0 -47.004943917301716 43.63439763803035 0 43.63439763803035 -17.013729383819737 0 0 0 0 -1.1502938336293482 -3.4925971615157323 0 -3.4925971615157323 20.89327704628522 0 0 0 0 -8.7459223464538809 0.29595940747822169 0 0.29595940747822169 19.020249871398846 0 0 0 0 -3.9974875938474685 -0.97734080197548678 0 -0.97734080197548678 0.14296780453861402 0 0 0 0 -6.8936018480803796 17.173934545760858 0 17.173934545760858 5.4796228472696384 0 0 0 0 -2.0121253234301548 10.484161824031617 0 10.484161824031617 -17.210311196738985 0 0 0 0 27.209838692114317 -19.504069149435963 0 -19.504069149435963 -18.724221568074427 0 0 0 0 -7.6602046998286824 -3.5602494139493501 0 -3.5602494139493501 19.70396627302398 0 0 0 0 71.088081786143448 -44.703296813670022 0 -44.703296813670022 -38.567086653682054 0 0 0 0 1.3305394117578899 0.41153200058209904 0 0.41153200058209904 0.0096158269282398123 0 0 0 0 11.307337879921306 -17.928913053561701 0 -17.928913053561701 42.238140060570004 0 0 0 0 25.903188668583425 16.761648509382212 0 16.761648509382212 31.944863313969108 0 0 0 0 16.227700156358878 -6.6900087855829042 0 -6.6900087855829042 10.635194762246101 0 0 0 0 -7.211172092290326 7.2036025474371854 0 7.2036025474371854 8.7615759970067302 0 0 0 0 -2.2459141725030349 -6.3921920511202188 0 -6.3921920511202188 18.115887378116895 0 0 0 0 1.1289609731452863 0.63145905457132301 0 0.63145905457132301 0.38853965517429856 0 0 0 0 0.28355668594758754 -1.308478060120251 0 -1.308478060120251 20.324483250049525 0 0 0 0 302.50598728051591 246.86715744028334 0 246.86715744028334 234.28539162449306 0 0 0 0 4.1400704745562962 -19.499182873940299 0 -19.499182873940299 22.802787399938097 0 0 0 0 -153.55763623498387 -190.1120914905805 0 -190.1120914905805 298.23952574880968 0 0 0 0 26.427988335854025 -144.4490455139603 0 -144.4490455139603 -39.705038823375503 0 0 0 0 16.132680552009788 -78.608974574170134 0 -78.608974574170134 142.22331048884371 0 0 0 0 -55.784577153206101 77.467479011527757 0 77.467479011527757 446.58426186061115 0 0 0 0 -28.060724623351405 -27.842757236769103 0 -27.842757236769103 139.10098579208716 0 0 0 0 221.42817657444311 207.6720661927211 0 207.6720661927211 209.78245592244639 0 0 0 0 -69.185599809411542 -225.20867771331177 0 -225.20867771331177 110.19677346764365 0 0 0 0 -0.056901588529010283 -0.17481077458507954 0 -0.17481077458507954 4.6931651157840406 0 0 0 0 -52.014705499343336 -183.9981203689149 0 -183.9981203689149 16.209703648914001 0 0 0 0 -0.51179927777322032 -0.43532036732600687 0 -0.43532036732600687 12.059626862123707 0 0 0 0 -292.98687156393817 -54.087114760452096 0 -54.087114760452096 92.382051945300191 0 0 0 0 -74.967575050272444 24.585425867469894 0 24.585425867469894 -16.122254138477729 0 0 0 0 46.23271656572706 39.168915429676417 0 39.168915429676417 49.750066613618401 0 0 0 0 84.103155121290001 52.864248653091636 0 52.864248653091636 40.840086450436502 0 0 0 0 17.456810396924539 39.934245623320749 0 39.934245623320749 66.159148793616623 0 0 0 0 29.430887076115141 73.327174047881272 0 73.327174047881272 149.15548049411154 0 0 0 0 37.96833445044831 46.854162786374218 0 46.854162786374218 44.857422933841008 0 0 0 0 22.89294577502028 37.651894124464889 0 37.651894124464889 62.495813314675615 0 0 0 0 -15.085486576757603 -12.751767095378455 0 -12.751767095378455 108.34960441653675 0 0 0 0 -1.6576210689190702 -21.05702839343212 0 -21.05702839343212 92.632032032852294 0 0 0 0 -17.443176839046828 -8.1918632587694447 0 -8.1918632587694447 168.84300867280581 0 0 0 0 -9.1907621386685605 -15.709807037863357 0 -15.709807037863357 98.146768060309114 0 0 0 0 -23.12350412690239 -15.385181946156081 0 -15.385181946156081 100.37275082740962 0 0 0 0 9.8767750268998498 -32.377183904012782 0 -32.377183904012782 20.439726686192444 0 0 0 0 8.7069295151973165 -29.238137430240386 0 -29.238137430240386 74.518381250993116 0 0 0 0 -21.519025054421718 -29.794734655777575 0 -29.794734655777575 72.3044082412016 0 0 0 0 -22.894231213550146 -38.028224880986699 0 -38.028224880986699 81.991135432836018 0 0 0 0 46.103348978790564 -70.886732663217117 0 -70.886732663217117 77.654325646006328 0 0 0 0 -19.177054213381176 -50.59122941150008 0 -50.59122941150008 125.79213406752388 0 0 0 0 78.37380919663417 12.424623820490524 0 12.424623820490524 0.089349350557313301 0 0 0 0 -33.048889047869807 97.652054061589297 0 97.652054061589297 43.967427419600426 0 0 0 0 -75.008637611357585 -18.399698110832105 0 -18.399698110832105 32.012540606709081 0 0 0 0 2.5151064784811865 -19.813859084706564 0 -19.813859084706564 32.186006344563793 0 0 0 0 -13.754405847960243 -3.0459148061781889 0 -3.0459148061781889 57.174436388268077 0 0 0 0 22.377250937968029 22.192920190151199 0 22.192920190151199 13.685777428891015 0 0 0 0 3.7772326500345628 26.134682571867415 0 26.134682571867415 31.796714558644453 0 0 0 0 6.7664062175731488 5.7766069986682851 0 5.7766069986682851 -6.0918126632022904 0 0 0 0 -10.356521746068655 10.125997123229354 0 10.125997123229354 1.2985064968816005 0 0 0 0 -99.688729783994717 -3.492646308575786 0 -3.492646308575786 25.840170305404172 0 0 0 0 27.230792919759359 -20.816559178200805 0 -20.816559178200805 -95.592938488785876 0 0 0 0 -62.372055357436793 4.7607570724103425 0 4.7607570724103425 125.34297648478241 0 0 0 0 -0.014020874263377239 2.0396870692194522 0 2.0396870692194522 35.51538333619277 0 0 0 0 -0.033431198828546595 1.3791572396755316 0 1.3791572396755316 22.426974377313172 0 0 0 0 -72.015216602293037 23.382162528501794 0 23.382162528501794 136.70750457484974 0 0 0 0 0.00037365784475433853 0.54249579930910841 0 0.54249579930910841 25.767935466948984 0 0 0 0 0.038908297757366518 1.1654558532346346 0 1.1654558532346346 29.42609811902372 0 0 0 0 -0.35732324387527192 2.0910525988292648 0 2.0910525988292648 27.006415573894628 0 0 0 0 0.00083899038855867608 0.20289807185690734 0 0.20289807185690734 32.071887746307766 0 0 0 0 -168.78188047320475 49.369630578072247 0 49.369630578072247 85.02727474711719 0 0 0 0 0.25075581045398776 1.9848421939787224 0 1.9848421939787224 34.251492667148852 0 0 0 0 -1.5871827574597432 -2.7625014904697309 0 -2.7625014904697309 -48.671445053070784 0 0 0 0 -45.708817569351815 -4.0828189640851633 0 -4.0828189640851633 78.583380556257907 0 0 0 0 -0.47478664730867565 1.0730741246730471 0 1.0730741246730471 34.937787853337397 0 0 0 0 -2.0124983318915675 0.81051944891828498 0 0.81051944891828498 32.952781623607734 0 0 0 0 -23.622787659913168 -17.018470266835038 0 -17.018470266835038 129.05119233584264 0 0 0 0 0.0067159738172337174 7.51122875832516 0 7.51122875832516 5.9705401157334563 0 0 0 0 0.10339803167517955 0.93622277282342914 0 0.93622277282342914 4.4391419707104092 0 0 0 0 0.026659821159330299 3.8341844095284836 0 3.8341844095284836 34.136349357703864 0 0 0 0 118.47724513970198 -8.1521480253322807 0 -8.1521480253322807 -64.652236116246058 0 0 0 0 -49.612589449096959 61.522526581673446 0 61.522526581673446 36.224590880738106 0 0 0 0 0.070500043704115514 4.0094818625323949 0 4.0094818625323949 37.334785716617205 0 0 0 0 -6.8291010600967628 9.5179999839710945 0 9.5179999839710945 7.8539652467334236 0 0 0 0 -0.0098029464573357733 1.5062110182007018 0 1.5062110182007018 16.535122752655298 0 0 0 0 -0.97504087697998132 3.7539691317397228 0 3.7539691317397228 18.195460351649672 0 0 0 0 23.996032436673659 -26.123895989043376 0 -26.123895989043376 -66.848744143950171 0 0 0 0 -236.10992162853893 -81.694774657796643 0 -81.694774657796643 89.718967239925405 0 0 0 0 0.024148254286307302 3.0275119346062738 0 3.0275119346062738 37.221379775813489 0 0 0 0 -36.204887191998715 38.724881809296903 0 38.724881809296903 71.468589626136236 0 0 0 0 0.025542780567319484 1.4768230138285765 0 1.4768230138285765 13.677019881997978 0 0 0 0 187.13044106786947 126.01236492376938 0 126.01236492376938 74.879452377630514 0 0 0 0 116.3328805963788 -169.4092076536981 0 -169.4092076536981 -2.979198516564793 0 0 0 0 -17.110051305583056 32.069158000522293 0 32.069158000522293 15.600221830158262 0 0 0 0 15.184543342105599 9.1060951009058044 0 9.1060951009058044 22.670665757104871 0 0 0 0 63.593313690528703 53.176636033815157 0 53.176636033815157 25.999302877811715 0 0 0 0 3.2732380613029384 0.55809141744830981 0 0.55809141744830981 -0.11084818310928313 0 0 0 0 12.675840737882254 35.114620799184195 0 35.114620799184195 241.77955732552073 0 0 0 0 20.379006813770502 -8.7593836775267846 0 -8.7593836775267846 -10.863893559522694 0 0 0 0 50.152762606129727 -24.163533060534974 0 -24.163533060534974 -5.8128122140769847 0 0 0 0 71.327457716438403 5.5629804406162293 0 5.5629804406162293 -26.918779451458249 0 0 0 0 -171.3873082169705 194.28266188057432 0 194.28266188057432 177.04103211934853 0 0 0 0 26.729968224314689 24.054106140545628 0 24.054106140545628 -31.718478383590991 0 0 0 0 30.952895205870163 1.7688627677853219 0 1.7688627677853219 -1.4467112466372782 0 0 0 0 8.5780837341480947 9.2425963966888958 0 9.2425963966888958 2.4205645942347473 0 0 0 0 2.7592135655786478 26.819346975724329 0 26.819346975724329 13.142699726464343 0 0 0 0 10.567772539459838 4.9670713104047479 0 4.9670713104047479 7.0723494675156928 0 0 0 0 3.5452475893775954 31.375564237710933 0 31.375564237710933 27.264228196407203 0 0 0 0 5.157869418700102 -1.9861760738058365 0 -1.9861760738058365 24.883965100605565 0 0 0 0 13.161504680602491 -4.7089173939407374 0 -4.7089173939407374 25.23782103114354 0 0 0 0 15.794570635245236 6.9827969571779249 0 6.9827969571779249 51.792120541118493 0 0 0 0 24.281366596557177 21.690883084377674 0 21.690883084377674 -16.850565549786552 0 0 0 0 8.1797247312142289 2.6781873339441233 0 2.6781873339441233 0.31676445995810809 0 0 0 0 7.7541326929573415 0.52245297829176707 0 0.52245297829176707 65.215694273400004 0 0 0 0 13.513992684225514 30.545563307527118 0 30.545563307527118 36.331009025263484 0 0 0 0 21.379255046193521 51.803580584070005 0 51.803580584070005 93.409495375206461 0 0 0 0 21.623631896166444 24.968392812264938 0 24.968392812264938 39.509986726559873 0 0 0 0 -0.83264719123488007 -0.64526366479173447 0 -0.64526366479173447 16.285474940393328 0 0 0 0 38.872785893406615 23.246604315943273 0 23.246604315943273 23.970094873322523 0 0 0 0 6.5744458318185934 10.445307085548848 0 10.445307085548848 31.247260832125903 0 0 0 0 -52.48287575098766 1.8566873326490168 0 1.8566873326490168 -32.508559452311601 0 0 0 0 -72.323957515619441 -13.750840004930069 0 -13.750840004930069 21.297522964021482 0 0 0 0 -216.344918138102 21.284713898308837 0 21.284713898308837 65.827428884425899 0 0 0 0 -35.737967006637064 51.027591911846685 0 51.027591911846685 20.590581753967854 0 0 0 0 0.76683832532068985 0.37979616264792426 0 0.37979616264792426 19.217454703274598 0 0 0 0 -114.05741870777274 23.719929567483632 0 23.719929567483632 54.333365108497674 0 0 0 0 -66.929787347124147 55.694699955121905 0 55.694699955121905 -3.3590362505565281 0 0 0 0 -2.2540259180944915 -0.33004713138645059 0 -0.33004713138645059 7.448487778203372 0 0 0 0 1.5289370207187858 66.450185744710325 0 66.450185744710325 63.981969509753981 0 0 0 0 27.826135663007335 21.20512245138525 0 21.20512245138525 26.444024701202579 0 0 0 0 -58.227893349324404 25.333476648298529 0 25.333476648298529 65.958872039263952 0 0 0 0 -2.4597995152489602 -24.885741980884632 0 -24.885741980884632 -2.1939382054042653 0 0 0 0 -0.83810876956381186 1.6211982507895755 0 1.6211982507895755 -3.0083124987993699 0 0 0 0 -17.484700935584215 112.23554813441751 0 112.23554813441751 71.93981736934802 0 0 0 0 -2.3119348296137803 6.500087790149351 0 6.500087790149351 30.93475820276899 0 0 0 0 -17.042257670606432 -4.6543374445500376 0 -4.6543374445500376 48.526753163278045 0 0 0 0 26.842534736238122 -9.2486898812785512 0 -9.2486898812785512 35.165923784399638 0 0 0 0 -15.583234145294114 -9.4194068587785296 0 -9.4194068587785296 38.004654894924897 0 0 0 0 -10.928295032462302 39.112218060887244 0 39.112218060887244 75.528968208698643 0 0 0 0 0.70740014393796002 4.3001195601410274 0 4.3001195601410274 5.4251869845265901 0 0 0 0 6.686522188814024 10.714190645830968 0 10.714190645830968 10.420538905702415 0 0 0 0 -10.421720349383349 17.635410262195364 0 17.635410262195364 92.832950700380025 0 0 0 0 6.1608515350280406 16.600056371037738 0 16.600056371037738 -3.0674651516052478 0 0 0 0 -9.1077545710234062 7.8603938715532422 0 7.8603938715532422 64.081295281976054 0 0 0 0 4.7245101055412153 16.502618789327471 0 16.502618789327471 1.4833442547948366 0 0 0 0 7.0439641996766795 13.262426538516593 0 13.262426538516593 46.077155631595815 0 0 0 0 -2.3646077794992455 0.39893660353537896 0 0.39893660353537896 40.221980834590227 0 0 0 0 -40.010323380052114 6.5321285512854956 0 6.5321285512854956 78.482726788090076 0 0 0 0 -10.765722877565167 -6.9667621207627235 0 -6.9667621207627235 24.370234499328944 0 0 0 0 -5.747136357207463 8.4777174442744752 0 8.4777174442744752 9.5238533539202308 0 0 0 0 10.597205136361481 52.646749021267169 0 52.646749021267169 10.318347801367054 0 0 0 0 -228.32782886972382 9.2463404864538461 0 9.2463404864538461 46.861843476275681 0 0 0 0 0.028594428209913758 1.8520911896835628 0 1.8520911896835628 5.9732376121895214 0 0 0 0 -272.93293001060738 210.46155552305572 0 210.46155552305572 60.654525563499192 0 0 0 0 -107.05518471185133 111.92421672827913 0 111.92421672827913 98.612054087956494 0 0 0 0 -49.394913301170163 158.3637020548922 0 158.3637020548922 35.089360925350775 0 0 0 0 -12.720510918706196 22.93491605193617 0 22.93491605193617 25.016200860001845 0 0 0 0 -2.327446845937672 1.4366908430111209 0 1.4366908430111209 -0.32595710200800454 0 0 0 0 -110.31452718040782 -11.461596705448756 0 -11.461596705448756 19.263179817564378 0 0 0 0 45.634882461627512 -12.338328681777057 0 -12.338328681777057 45.514085584974964 0 0 0 0 -4.9278463863716819 5.2232234971061544 0 5.2232234971061544 35.319924316377978 0 0 0 0 -25.869828809393539 2.0310474037614767 0 2.0310474037614767 52.328902136243414 0 0 0 0 -8.8280641480469058 15.403322360849415 0 15.403322360849415 30.227650331835321 0 0 0 0 -7.4709087181490759 12.603910065023229 0 12.603910065023229 35.898225612851093 0 0 0 0 -8.6571738197912964 18.370769108580134 0 18.370769108580134 41.797648515246692 0 0 0 0 56.444925972710735 46.480742997031484 0 46.480742997031484 30.956731621707149 0 0 0 0 -6.2966148785246787 23.665837129086867 0 23.665837129086867 84.676335101306904 0 0 0 0 57.74218806233015 -8.8234798313973215 0 -8.8234798313973215 1.9451839644752908 0 0 0 0 6.8027020414335766 14.567233705951367 0 14.567233705951367 66.069605085460353 0 0 0 0 6.4747711379059467 9.4356642065934011 0 9.4356642065934011 20.607589788822224 0 0 0 0 -44.356528301362687 22.105557889393822 0 22.105557889393822 28.376665010320721 0 0 0 0 -11.01063167444309 11.716713127952971 0 11.716713127952971 37.207239313262107 0 0 0 0 63.527347513457244 98.822105593630113 0 98.822105593630113 -25.982662019567215 0 0 0 0 -0.79564073192479867 -0.66017229077020545 0 -0.66017229077020545 1.5659175441853677 0 0 0 0 117.07274914440495 119.43575832497299 0 119.43575832497299 -18.096670694380009 0 0 0 0 -70.334649643764578 174.72791812951709 0 174.72791812951709 -17.125899714155821 0 0 0 0 615.79461065427404 356.82684145463281 0 356.82684145463281 -7.9173824869794771 0 0 0 0 -376.85426691862654 -146.42503619187301 0 -146.42503619187301 577.56024694583903 0 0 0 0 138.6406981718992 -402.04625083821156 0 -402.04625083821156 395.90591858488915 0 0 0 0 206.44994462310478 -343.5039869415923 0 -343.5039869415923 279.93804376919525 0 0 0 0 18.940920195881858 472.57556952190498 0 472.57556952190498 361.73942786743282 0 0 0 0 -199.91222720734987 -23.193537625127647 0 -23.193537625127647 40.994936838047579 0 0 0 0 105.85778951454164 -168.31580124331185 0 -168.31580124331185 -17.370141948282253 0 0 0 0 -1.3253034646783548 0.38455622998057493 0 0.38455622998057493 7.3939539767918632 0 0 0 0 -15.961241121309506 -33.401368891223683 0 -33.401368891223683 -36.087007177397027 0 0 0 0 0.023974292870498459 0.5116628183119758 0 0.5116628183119758 6.0105285265019859 0 0 0 0 70.804929343268014 -41.05464696069248 0 -41.05464696069248 9.8305109425564297 0 0 0 0 -5.8120491289697771 15.486026621234487 0 15.486026621234487 36.350883014485589 0 0 0 0 0.24073665732195135 1.1108741065751282 0 1.1108741065751282 16.325018290975095 0 0 0 0 -0.022428898286078594 -25.38396316330909 0 -25.38396316330909 -34.739071682779468 0 0 0 0 0.24348111782450679 -0.45811991514241868 0 -0.45811991514241868 0.67371878054422041 0 0 0 0 -20.164513630363082 -23.972295424147887 0 -23.972295424147887 -7.4497752574825427 0 0 0 0 0.0066625332743647236 28.361459441744955 0 28.361459441744955 152.17507541181112 0 0 0 0 125.99849798630061 8.9857283590972656 0 8.9857283590972656 -52.740041800760082 0 0 0 0 56.657805136425928 -285.56863846439228 0 -285.56863846439228 4.7683535426913295 0 0 0 0 -211.59690719865927 -84.713415930775227 0 -84.713415930775227 54.65557084257307 0 0 0 0 0.20259863298165584 2.1372750159553533 0 2.1372750159553533 26.357233948618955 0 0 0 0 -170.89496932189391 270.73224596581713 0 270.73224596581713 217.94805207406171 0 0 0 0 -2.6662069646015425 -5.2916482674099825 0 -5.2916482674099825 18.44082200586854 0 0 0 0 1.6475489407932651 1.8096613562984061 0 1.8096613562984061 5.1670190985803686 0 0 0 0 -1.2039209823142301 -1.4081319303659257 0 -1.4081319303659257 12.70463683581329 0 0 0 0 5.7680573550605914 -8.9069152564552496 0 -8.9069152564552496 14.538748419625335 0 0 0 0 -1.0488589665157013 0.059626350440574072 0 0.059626350440574072 12.814905027944917 0 0 0 0 -55.164610420312329 4.9654417699512123 0 4.9654417699512123 65.810178939354955 0 0 0 0 -3.8857396583371155 -4.1807325587651576 0 -4.1807325587651576 16.499372781916463 0 0 0 0 -1.2993015421412473 -0.74103256775903503 0 -0.74103256775903503 16.234415281902812 0 0 0 0 -15.474684531034654 -4.7114742577177822 0 -4.7114742577177822 19.681009323860053 0 0 0 0 -6.1672963192308998 -0.18509929007632309 0 -0.18509929007632309 18.406289552447561 0 0 0 0 19.868187051688437 -21.107342946888821 0 -21.107342946888821 22.896869603548112 0 0 0 0 0.2436303864471121 1.2613459853270399 0 1.2613459853270399 3.2581402699630644 0 0 0 0 0.48802143044690638 0.7125325173328747 0 0.7125325173328747 7.3606323911153595 0 0 0 0 23.035315985770694 -7.9398823367446312 0 -7.9398823367446312 -1.3575872936416999 0 0 0 0 7.2069056242218137 4.1390605927726369 0 4.1390605927726369 0.33522457327167388 0 0 0 0 16.444888600672243 5.6008582154408941 0 5.6008582154408941 1.7688064813555684 0 0 0 0 7.136536769641225 -2.073701120869373 0 -2.073701120869373 6.0180200378126756 0 0 0 0 1.5942906137411228 -1.1402246570214629 0 -1.1402246570214629 8.8017253989819437 0 0 0 0 5.2320611424455974 3.9387541846563749 0 3.9387541846563749 4.1036380640465282 0 0 0 0 22.736846936606668 -27.031490561035753 0 -27.031490561035753 4.612836479464022 0 0 0 0 14.239054838558559 -35.820063612188278 0 -35.820063612188278 86.713763060964993 0 0 0 0 -42.853524108344402 -32.247243114503362 0 -32.247243114503362 90.650865745868941 0 0 0 0 -15.271258007271797 -56.53277071814955 0 -56.53277071814955 111.65238291770402 0 0 0 0 -11.088497104534127 -48.646312500186468 0 -48.646312500186468 90.13582836225396 0 0 0 0 60.413848073459462 -81.265839932435483 0 -81.265839932435483 48.859178358885401 0 0 0 0 46.720905875354802 158.31395202215413 0 158.31395202215413 -200.38652188394917 0 0 0 0 33.837664244000734 -53.30641724113957 0 -53.30641724113957 35.771048394459285 0 0 0 0 85.51801056617262 -116.40221397227651 0 -116.40221397227651 17.025523491145577 0 0 0 0 3.2264609091538432 2.663981994630376 0 2.663981994630376 11.767846697708592 0 0 0 0 -4.4020601685763285 -1.853519497491618 0 -1.853519497491618 9.0369494920345517 0 0 0 0 -5.8182540623638488 -0.39408975539845414 0 -0.39408975539845414 -3.4559609519055812 0 0 0 0 0.94286343978261966 -1.3787939824623408 0 -1.3787939824623408 -0.50756996337025839 0 0 0 0 -94.226602931839807 33.940410224509833 0 33.940410224509833 9.7457408799964469 0 0 0 0 4.4700403410890477 9.6659396996819567 0 9.6659396996819567 18.286750575502879 0 0 0 0 13.845662290239488 32.797735691623529 0 32.797735691623529 46.530093886307441 0 0 0 0 -26.097994258904237 -21.416833400046016 0 -21.416833400046016 23.651238692167681 0 0 0 0 23.252363558685602 18.197514163741289 0 18.197514163741289 52.820583037522738 0 0 0 0 338.02774463416995 -187.26633557716923 0 -187.26633557716923 -86.537177979393164 0 0 0 0 -35.40768433390167 -27.878710954169946 0 -27.878710954169946 26.496174766027252 0 0 0 0 15.080917902672809 -38.491677153288038 0 -38.491677153288038 24.465191655493982 0 0 0 0 12.848672524122776 19.798007286408392 0 19.798007286408392 87.054860903430381 0 0 0 0 117.76155624995181 73.731056396154599 0 73.731056396154599 75.138588601286756 0 0 0 0 1.3309644057963066 0.23580600546628716 0 0.23580600546628716 -0.1448203233249501 0 0 0 0 -18.124602884336127 -29.084131896437611 0 -29.084131896437611 33.70840181519452 0 0 0 0 24.929857854351212 24.537080339607201 0 24.537080339607201 -25.204976745293607 0 0 0 0 -31.184087214036481 -3.6737058391736355 0 -3.6737058391736355 58.089512202408514 0 0 0 0 2.6460000989019896 0.67198316421277582 0 0.67198316421277582 1.4192887970707773 0 0 0 0 -58.165978861888334 -3.8604338333334454 0 -3.8604338333334454 94.692116793215973 0 0 0 0 122.09963733751101 64.18527567772253 0 64.18527567772253 86.410765193031693 0 0 0 0 126.74045627837313 28.731625249492936 0 28.731625249492936 -3.3522925153520191 0 0 0 0 83.268093339070219 -12.180925251603185 0 -12.180925251603185 -38.866080194140523 0 0 0 0 91.004748646739245 4.1268904852477135 0 4.1268904852477135 3.6026292208480299 0 0 0 0 35.005277411746647 109.21315490386041 0 109.21315490386041 45.954516731739204 0 0 0 0 130.14541983103106 51.15278897169037 0 51.15278897169037 1.3449550785881002 0 0 0 0 33.530491951576096 5.4373946269952285 0 5.4373946269952285 39.603609843856248 0 0 0 0 81.973883395287885 86.131053814409825 0 86.131053814409825 34.758884644499631 0 0 0 0 90.560818104519058 59.463437245969544 0 59.463437245969544 -0.16305490742161055 0 0 0 0 68.958496335350446 88.510161948135647 0 88.510161948135647 63.206750536002801 0 0 0 0 36.063320365240543 65.29840756059275 0 65.29840756059275 65.759709297737572 0 0 0 0 100.5768291183972 33.154117484711605 0 33.154117484711605 65.984149939555209 0 0 0 0 40.184057036925878 26.742174676081049 0 26.742174676081049 80.168880458775675 0 0 0 0 65.183003923912565 49.029546682755608 0 49.029546682755608 14.482827668529353 0 0 0 0 0.27768620384785336 0.2132756775616258 0 0.2132756775616258 0.16770350110829213 0 0 0 0 -14.989488306062412 -14.692112870659912 0 -14.692112870659912 -7.0667074244120158 0 0 0 0 -17.040264778974233 -1.5567185666004661 0 -1.5567185666004661 5.8723700409755111 0 0 0 0 -0.5026208639938794 0.24301871885880644 0 0.24301871885880644 1.2576571730552644 0 0 0 0 -13.645115628662552 -28.770710141950985 0 -28.770710141950985 -9.3174978116294369 0 0 0 0 30.300341397834927 51.889184153780661 0 51.889184153780661 84.548495378432563 0 0 0 0 0.61416121469905072 0.16071314909311241 0 0.16071314909311241 -1.0222877993562491 0 0 0 0 -1.0104218904750315 2.7240003422844836 0 2.7240003422844836 -2.1104625923439357 0 0 0 0 73.978021479011659 71.138710060607991 0 71.138710060607991 27.567971708820551 0 0 0 0 98.156170052029211 32.438375926176377 0 32.438375926176377 5.2222381847313954 0 0 0 0 9.4732619456017346 -8.2526925491329166 0 -8.2526925491329166 -20.737966835396946 0 0 0 0 -3.7784733231146674 5.9572054369054968 0 5.9572054369054968 48.383623609122878 0 0 0 0 -16.697423725676344 -3.3640349743363913 0 -3.3640349743363913 57.270185193992802 0 0 0 0 -16.134922433537213 -10.517788290031604 0 -10.517788290031604 70.958343538004556 0 0 0 0 18.797179645767756 -7.5269798962108325 0 -7.5269798962108325 46.222664007073035 0 0 0 0 6.2356963735755926 -19.075836141171749 0 -19.075836141171749 71.498549031233779 0 0 0 0 5.6484685241357511 -25.13857046837802 0 -25.13857046837802 39.872787622531177 0 0 0 0 4.1328409080879283 -9.3405498840147629 0 -9.3405498840147629 10.213600154587766 0 0 0 0 1.7276148118753554 10.244806930641062 0 10.244806930641062 13.170553761156043 0 0 0 0 1.4772636788731965 0.89168068610401008 0 0.89168068610401008 -0.65873878215961668 0 0 0 0 0.7574232299821233 15.466631354363926 0 15.466631354363926 -8.0884457516876864 0 0 0 0 0.34958433477924444 2.5522513387036838 0 2.5522513387036838 1.7305381669099091 0 0 0 0 4.381277885826421 5.2189974250504747 0 5.2189974250504747 -0.61747528757405235 0 0 0 0 6.792345846554781 -2.2580343343215645 0 -2.2580343343215645 -3.1952074142172933 0 0 0 0 0.095225159946967786 -0.59309047961534134 0 -0.59309047961534134 1.0380377719515081 0 0 0 0 19.856822378022571 -36.606514570397849 0 -36.606514570397849 -4.2307655060758407 0 0 0 0 0.93220658333963158 -0.56646910301225262 0 -0.56646910301225262 3.9210355503154233 0 0 0 0 8.6147247968692682 7.4084784155820671 0 7.4084784155820671 17.869056811847258 0 0 0 0 0.57454059145705472 0.76691414351023468 0 0.76691414351023468 5.8987443724668083 0 0 0 0 -0.057190820974687639 2.3472529134230342 0 2.3472529134230342 9.1474637887883432 0 0 0 0 1.5634125688557106 -1.9274987014505314 0 -1.9274987014505314 6.3731039742779103 0 0 0 0 -14.47731054212818 11.900762242039491 0 11.900762242039491 19.808338515707874 0 0 0 0 -10.48879195767995 16.97748543551279 0 16.97748543551279 7.8680169945291709 0 0 0 0 31.384848056593 47.068842211439915 0 47.068842211439915 -39.852199604880298 0 0 0 0 -45.987636635660238 33.424232458535698 0 33.424232458535698 18.10446145167225 0 0 0 0 -113.11120943853894 58.409166137797001 0 58.409166137797001 45.490391832194291 0 0 0 0 -3.2408788244547395 2.9204009503737325 0 2.9204009503737325 26.255214081698796 0 0 0 0 -0.98595904093179065 -0.67508675805916596 0 -0.67508675805916596 2.7400388937061848 0 0 0 0 -40.525377078171005 135.17856299503183 0 135.17856299503183 -87.017429491708754 0 0 0 0 -15.848693187603658 -1.4700911420368357 0 -1.4700911420368357 58.331091773601656 0 0 0 0 0.1101139724482354 4.6163749341625184 0 4.6163749341625184 13.919962356803808 0 0 0 0 -4.0678655873016396 0.92858117999276146 0 0.92858117999276146 25.197174922970589 0 0 0 0 -2.9020113071342495 0.35241079109080076 0 0.35241079109080076 17.708568535942334 0 0 0 0 4.0904676990867301 10.470022700559639 0 10.470022700559639 -16.31830567401812 0 0 0 0 22.247305491198858 20.600313535724126 0 20.600313535724126 -11.531290972299757 0 0 0 0 -1.0868054733614372 11.983401651636086 0 11.983401651636086 -14.665515710512409 0 0 0 0 21.583873813950049 -12.530141764713335 0 -12.530141764713335 72.548241833370412 0 0 0 0 24.249422313674643 7.2775082542057135 0 7.2775082542057135 4.8019993381603854 0 0 0 0 53.193089955990217 19.080348416944616 0 19.080348416944616 8.3335995866364101 0 0 0 0 14.761746105692055 -10.123974855174311 0 -10.123974855174311 17.251168132701423 0 0 0 0 19.992983591884695 -1.1439208077135845 0 -1.1439208077135845 16.429828567436743 0 0 0 0 11.397933733911486 25.466510186633968 0 25.466510186633968 72.072984991453723 0 0 0 0 -5.9152028300895836 -5.489536848032003 0 -5.489536848032003 70.261109183207736 0 0 0 0 38.66204909193857 -54.161851127115369 0 -54.161851127115369 115.09395230568771 0 0 0 0 12.990205175073243 63.584462520659145 0 63.584462520659145 175.64797858757083 0 0 0 0 5.073317132102602 24.321597776659473 0 24.321597776659473 94.286355180578539 0 0 0 0 7.7893599314372537 16.384257835247638 0 16.384257835247638 -0.40841078993854296 0 0 0 0 1.1419934594656578 6.0608821240726698 0 6.0608821240726698 5.0292669445525462 0 0 0 0 -36.322837949660425 2.6077144854789367 0 2.6077144854789367 39.379055197903654 0 0 0 0 5.5039321303938777 12.690944165937253 0 12.690944165937253 40.751913004307426 0 0 0 0 39.591898585562376 -69.139325909403851 0 -69.139325909403851 94.788969633409579 0 0 0 0 -58.984145418007756 70.856864525419951 0 70.856864525419951 -33.074868843541481 0 0 0 0 -16.575030038595287 28.489705496671377 0 28.489705496671377 -45.681435549049638 0 0 0 0 -116.98711027345962 84.731789991186815 0 84.731789991186815 -36.379568036878482 0 0 0 0 -1.6274128611162357 2.6250030719056952 0 2.6250030719056952 17.37930235945467 0 0 0 0 -82.457502395534902 27.074727599479957 0 27.074727599479957 -43.97098781488603 0 0 0 0 -13.003323263299535 40.652036842540838 0 40.652036842540838 -89.959758440978476 0 0 0 0 -38.286890575056532 82.23275817646936 0 82.23275817646936 -23.030384232799406 0 0 0 0 1.8893481420909666 -8.7888985128083732 0 -8.7888985128083732 26.690488301392179 0 0 0 0 27.84296382764478 15.229157502908492 0 15.229157502908492 48.316161450697109 0 0 0 0 104.16777425695545 -42.758832473096845 0 -42.758832473096845 28.767723241486237 0 0 0 0 28.159095920854725 42.091283356025087 0 42.091283356025087 223.60743513554917 0 0 0 0 -35.239714313416698 -9.0073670523852343 0 -9.0073670523852343 173.43140802753624 0 0 0 0 7.8535684368789589 -15.506548390992975 0 -15.506548390992975 5.9039054983877577 0 0 0 0 1.5550650559209807 0.89732815050038539 0 0.89732815050038539 7.1980607387858093 0 0 0 0 0.97153647528284637 -60.393783481173159 0 -60.393783481173159 201.12759209620708 0 0 0 0 84.649504185708338 -52.360729313979391 0 -52.360729313979391 152.86403295342461 0 0 0 0 13.890428432659064 -28.981824820839392 0 -28.981824820839392 24.854892308136186 0 0 0 0 -19.736467903316225 -82.185272957547568 0 -82.185272957547568 185.2656468800833 0 0 0 0 -20.114520386920276 84.514442872012296 0 84.514442872012296 73.73613296559779 0 0 0 0 -4.135095855093823 -107.73632136024116 0 -107.73632136024116 63.265249185657012 0 0 0 0 -0.10674024010013783 -0.49195192623680128 0 -0.49195192623680128 1.8536374365414758 0 0 0 0 121.85559267703354 61.507851048982047 0 61.507851048982047 21.251417033970938 0 0 0 0 3.337273407372777 15.573123567119183 0 15.573123567119183 7.025876080377202 0 0 0 0 -7.2397445409606007 -130.34032529369142 0 -130.34032529369142 118.87498921832594 0 0 0 0 5.6359260990943145 15.753995851372963 0 15.753995851372963 18.809652170654999 0 0 0 0 -6.8944314879631747 35.256559807584381 0 35.256559807584381 44.569218819306116 0 0 0 0 23.044910453138073 45.592298909279634 0 45.592298909279634 -52.21226592102721 0 0 0 0 -11.706470008163706 9.5494305117681506 0 9.5494305117681506 130.03423541729717 0 0 0 0 72.500055468102801 -71.912036707017251 0 -71.912036707017251 -29.821965539755183 0 0 0 0 0.19444740051439346 0.41441287005828542 0 0.41441287005828542 0.98548389398933978 0 0 0 0 -8.879296589403566 67.048351356927014 0 67.048351356927014 108.36726595897926 0 0 0 0 16.454921657674277 28.773629458446521 0 28.773629458446521 -3.5538029741655919 0 0 0 0 -33.778700908885071 108.21222220772142 0 108.21222220772142 103.06936200147902 0 0 0 0 -121.10978430194427 36.17752879402542 0 36.17752879402542 68.434213716580416 0 0 0 0 25.318362495457222 -50.986496790028468 0 -50.986496790028468 67.46028002849016 0 0 0 0 1.2906214960093214 4.4870056272284486 0 4.4870056272284486 3.3094652756371374 0 0 0 0 2.5144491103083446 12.622324846626128 0 12.622324846626128 18.860902545759899 0 0 0 0 -8.1612878109081066 4.5865165452269139 0 4.5865165452269139 7.1872181817016099 0 0 0 0 -0.85881419763298172 3.0010418833438877 0 3.0010418833438877 18.693839506622112 0 0 0 0 -37.560426641219692 -13.242170417927809 0 -13.242170417927809 52.442787212872645 0 0 0 0 -14.244449151699882 -3.9131383624917362 0 -3.9131383624917362 24.109239398210775 0 0 0 0 -0.3763331358087143 -0.29401330508825652 0 -0.29401330508825652 6.6815928408022387 0 0 0 0 9.2357727675553178 -24.362968551606173 0 -24.362968551606173 21.572413560177665 0 0 0 0 -23.764872093520353 2.6897794465112383 0 2.6897794465112383 7.5886570885777473 0 0 0 0 2.2353806496718516 5.0786221867264096 0 5.0786221867264096 12.924713401661336 0 0 0 0 23.001690611690719 50.226610349818657 0 50.226610349818657 27.584878208799637 0 0 0 0 -9.9283763022499443 -0.6930012884477037 0 -0.6930012884477037 16.956580201942415 0 0 0 0 -1.0688304662876611 0.0045374293642765906 0 0.0045374293642765906 3.5954375123378668 0 0 0 0 -3.9881234951005808 5.6289953192990652 0 5.6289953192990652 11.861042942779022 0 0 0 0 -3.5575698709135395 -7.9504763383083628 0 -7.9504763383083628 24.755473075718328 0 0 0 0 -5.7543175823798265 2.4866913068617578 0 2.4866913068617578 9.7366095654433593 0 0 0 0 -3.2893840472332769 -2.9574115750643841 0 -2.9574115750643841 13.081765698202204 0 0 0 0 0.31629474333499852 0.67739840489829106 0 0.67739840489829106 13.030880256252118 0 0 0 0 -5.1179354634896299 1.8789291013818001 0 1.8789291013818001 8.5626283396268263 0 0 0 0 -9.3152177017045137 -8.2988250892849749 0 -8.2988250892849749 22.360061202785346 0 0 0 0 46.933110162754929 21.744381701901148 0 21.744381701901148 15.57056204579203 0 0 0 0 50.845252906351107 -62.667351959134066 0 -62.667351959134066 97.137835739427828 0 0 0 0 -0.090221321782994579 0.26266680240107121 0 0.26266680240107121 1.3954671674648296 0 0 0 0 -23.25015678858972 -11.35020070146129 0 -11.35020070146129 30.779734140662185 0 0 0 0 44.724379391513594 -38.326596336606599 0 -38.326596336606599 26.707608968863497 0 0 0 0 1.9275204764114733 9.0258222917200328 0 9.0258222917200328 144.47853752056835 0 0 0 0 2.0337733779069822 61.980916458851425 0 61.980916458851425 99.947300477600947 0 0 0 0 -28.887669245761572 33.011338647944285 0 33.011338647944285 70.161392871916178 0 0 0 0 -14.196275679815244 46.084871496452251 0 46.084871496452251 60.142009212886478 0 0 0 0 -5.3488071949104778 55.27111081709154 0 55.27111081709154 67.899407779546891 0 0 0 0 40.320534499081347 61.376825597160973 0 61.376825597160973 22.628708169722813 0 0 0 0 11.067818331296166 -5.0484874222856888 0 -5.0484874222856888 -6.4343575324019184 0 0 0 0 1.2135326560933208 51.347714154566347 0 51.347714154566347 64.262971439413377 0 0 0 0 -12.692772477120343 0.087322249964927323 0 0.087322249964927323 39.319090488716029 0 0 0 0 -5.2000126241759972 17.803145409263379 0 17.803145409263379 13.689039929246064 0 0 0 0 4.5538503767627425 6.5574985799606225 0 6.5574985799606225 10.282895256954902 0 0 0 0 1.2441128048579069 2.5767432742987495 0 2.5767432742987495 3.976399212527383 0 0 0 0 5.8995745275410627 10.711907314209384 0 10.711907314209384 23.574449779633142 0 0 0 0 8.0214080171631394 8.1204428552446188 0 8.1204428552446188 24.104578745602339 0 0 0 0 6.4859145230543618 10.543021728168242 0 10.543021728168242 20.434926878660917 0 0 0 0 10.883438307163942 11.775942350410332 0 11.775942350410332 19.972659851919161 0 0 0 0 7.3309668232626848 13.638234642958196 0 13.638234642958196 19.000569752053707 0 0 0 0 8.073862578084805 6.471623139894632 0 6.471623139894632 -3.4602384497846117 0 0 0 0 18.476141519895407 1.7072656799373362 0 1.7072656799373362 27.217983422073303 0 0 0 0 3.0658578018658318 1.2857233095601259 0 1.2857233095601259 40.340436422826315 0 0 0 0 0.46821356640066369 -0.44939291856644559 0 -0.44939291856644559 40.656040723135447 0 0 0 0 27.066293629070742 1.2526642154334695 0 1.2526642154334695 16.117834230844892 0 0 0 0 0.58403349132354343 -0.23386295614818664 0 -0.23386295614818664 -1.0693365539466129 0 0 0 0 48.992204114510969 0.63016955447346845 0 0.63016955447346845 -72.763323106148164 0 0 0 0 -5.9075897147323531 11.101861303704936 0 11.101861303704936 46.364550058749046 0 0 0 0 4.3002973950062575 9.4749897771168889 0 9.4749897771168889 7.3065964228385241 0 0 0 0 2.4360400778752229 19.949995461349189 0 19.949995461349189 20.988474431660293 0 0 0 0 -4.0505588333825244 78.375885411907802 0 78.375885411907802 -70.43466110836016 0 0 0 0 -3.1315096957805508 11.620174670533743 0 11.620174670533743 1.7414090126549127 0 0 0 0 -5.6941960965493381 28.866653416315188 0 28.866653416315188 43.880168475289366 0 0 0 0 -5.8493652703427577 2.181706884158217 0 2.181706884158217 42.68153123714589 0 0 0 0 -2.2544199608330473 6.7710717096779263 0 6.7710717096779263 52.268030601206192 0 0 0 0 -9.8398424973056535 0.27963864240518888 0 0.27963864240518888 46.870002615076373 0 0 0 0 -6.0927162564203172 10.343417290472644 0 10.343417290472644 54.550929968943819 0 0 0 0 -0.0054489985084358317 7.651272357027068 0 7.651272357027068 43.457196301572793 0 0 0 0 8.4982314678729836 -3.2921237879145338 0 -3.2921237879145338 34.869164918869501 0 0 0 0 0.76285313297282187 6.4275612968394285 0 6.4275612968394285 38.582669936704349 0 0 0 0 -23.586523261927482 12.234024786212103 0 12.234024786212103 54.683981793525163 0 0 0 0 0.57360961060680893 -0.46327056960217305 0 -0.46327056960217305 39.934656055731466 0 0 0 0 -0.65159310128365178 14.17842590733926 0 14.17842590733926 28.373352308022731 0 0 0 0 2.7683054265255578 -6.1507570403264253 0 -6.1507570403264253 34.556996270638592 0 0 0 0 42.169646816008864 -46.43226416963472 0 -46.43226416963472 71.59266057817149 0 0 0 0 20.887145276601302 41.631526836081321 0 41.631526836081321 132.67906023823889 0 0 0 0 14.78137986703041 -23.266386969440646 0 -23.266386969440646 76.428375794843305 0 0 0 0 -0.78891060120190559 9.8524312812187418 0 9.8524312812187418 38.296259159680631 0 0 0 0 13.171534705356862 21.826049822138884 0 21.826049822138884 47.365662553460425 0 0 0 0 12.931653610941794 6.6439225020185404 0 6.6439225020185404 51.426223830698291 0 0 0 0 36.233179614953656 28.631808505701883 0 28.631808505701883 31.408445439286879 0 0 0 0 11.78464429347207 3.6298846159043023 0 3.6298846159043023 7.2221256348348106 0 0 0 0 6.8150807030571094 3.2947636369022746 0 3.2947636369022746 6.8143413296319153 0 0 0 0 385.61487898060182 9.0166430448225583 0 9.0166430448225583 22.120568387716048 0 0 0 0 3.4677378640816414 13.226800463104155 0 13.226800463104155 18.724478858501243 0 0 0 0 12.699139184682313 22.879282233424533 0 22.879282233424533 28.452937539375853 0 0 0 0 0.82567466637900755 5.3840846009904624 0 5.3840846009904624 33.471839330776646 0 0 0 0 12.256816594865228 5.9242998925537904 0 5.9242998925537904 33.991908787298598 0 0 0 0 -8.6678193549901152 18.269996492555947 0 18.269996492555947 35.474851958220825 0 0 0 0 11.594243233067971 9.910952321766672 0 9.910952321766672 28.666531286507961 0 0 0 0 5.2029249659761945 15.251559217085742 0 15.251559217085742 30.72577933773573 0 0 0 0 0.31583176672025237 8.7826706085209878 0 8.7826706085209878 21.943904826915059 0 0 0 0 3.1588116490442464 10.548920444866241 0 10.548920444866241 31.602542447802875 0 0 0 0 0.40199756475567483 9.9457226565173187 0 9.9457226565173187 -41.375596854024479 0 0 0 0 -19.463169480265606 5.7421280085291073 0 5.7421280085291073 70.028968807651836 0 0 0 0 -0.2781724615860881 -0.071004718248417475 0 -0.071004718248417475 10.383440387399524 0 0 0 0 -5.5007972586090546 17.231181083428964 0 17.231181083428964 20.615779132449461 0 0 0 0 -0.28796562322018726 2.8227710773419545 0 2.8227710773419545 40.746496116329865 0 0 0 0 4.2267387827026628 10.295364849856419 0 10.295364849856419 25.88029319821996 0 0 0 0 -5.330399178022617 134.0609943821255 0 134.0609943821255 -25.866153698894777 0 0 0 0 -88.92972468169819 114.24680960065962 0 114.24680960065962 163.78859344663942 0 0 0 0 4.252953049161734 12.847887433834295 0 12.847887433834295 32.47599452447966 0 0 0 0 -32.232261346525547 3.3899219990926213 0 3.3899219990926213 28.287809991292306 0 0 0 0 150.82771043895264 -5.1915295914113813 0 -5.1915295914113813 -41.378270181652624 0 0 0 0 1.5506615668881425 1.7417108532629584 0 1.7417108532629584 2.4069582423117311 0 0 0 0 11.256822896144513 78.727641122255591 0 78.727641122255591 245.21315498629338 0 0 0 0 16.939835860482845 -55.585762226115548 0 -55.585762226115548 205.2708035040414 0 0 0 0 176.0366998802225 78.218147551269794 0 78.218147551269794 117.24444300562027 0 0 0 0 2.5919871575701423 8.5350539051805256 0 8.5350539051805256 -3.2829259435606559 0 0 0 0 -207.62371620552858 -6.5649610690106783 0 -6.5649610690106783 339.16970367620524 0 0 0 0 -166.07785258961667 -92.512142209467129 0 -92.512142209467129 394.23671217168157 0 0 0 0 166.74705658066205 109.57799078428798 0 109.57799078428798 -73.868071272088855 0 0 0 0 108.40676870335665 -134.72640794576728 0 -134.72640794576728 234.7598403416705 0 0 0 0 27.431232016930608 -23.194932722777594 0 -23.194932722777594 66.24261042852595 0 0 0 0 35.053507642493059 2.3473437960856245 0 2.3473437960856245 -195.96861169498879 0 0 0 0 2.7951033884271386 13.994962737072804 0 13.994962737072804 66.590907944634665 0 0 0 0 -10.255073511810679 4.6253545882718754 0 4.6253545882718754 46.347456392279128 0 0 0 0 -40.693546725275723 -28.541771256263019 0 -28.541771256263019 74.856629370315204 0 0 0 0 -22.51676422378938 -51.224789349582352 0 -51.224789349582352 101.31710355608084 0 0 0 0 -4.1380927831139047 -66.818566007630579 0 -66.818566007630579 109.92306071026542 0 0 0 0 -145.2932536337882 -46.873246308774469 0 -46.873246308774469 135.20243544712139 0 0 0 0 -66.757041879834844 4.6289400992245646 0 4.6289400992245646 71.240326695633485 0 0 0 0 -71.146741412036135 -288.18552929261205 0 -288.18552929261205 181.60175255501599 0 0 0 0 93.062557574714447 76.788688676850143 0 76.788688676850143 -14.997818552568788 0 0 0 0 132.44201748350946 -81.840582860713766 0 -81.840582860713766 31.785872420790838 0 0 0 0 0.94360325968552661 4.8776268684778046 0 4.8776268684778046 6.0462404872947388 0 0 0 0 10.98752371866567 -5.4158462876766862 0 -5.4158462876766862 54.788019588759198 0 0 0 0 -2.7131162348708244 27.389026385140824 0 27.389026385140824 109.39094547744753 0 0 0 0 1.0847737341413275 -1.2030016535029091 0 -1.2030016535029091 2.114494389848403 0 0 0 0 13.452618053195692 122.41057930624311 0 122.41057930624311 334.67960894390126 0 0 0 0 -18.339836809033841 -15.172821664436924 0 -15.172821664436924 123.86085243079287 0 0 0 0 -17.609719210453932 -22.431271582394402 0 -22.431271582394402 181.28432039482868 0 0 0 0 1.5643645810923772 -18.62283382898022 0 -18.62283382898022 104.99985293242207 0 0 0 0 -5.8504366807587758 -6.1713905205506308 0 -6.1713905205506308 140.97578188122861 0 0 0 0 7.3282874577187158 40.576783459455328 0 40.576783459455328 148.04848148718156 0 0 0 0 36.443483032867334 12.150140633766568 0 12.150140633766568 121.56662512393086 0 0 0 0 22.443565147550089 -37.867209472853574 0 -37.867209472853574 49.014675038983114 0 0 0 0 28.320518867301416 -8.4407599002006464 0 -8.4407599002006464 11.05360481646494 0 0 0 0 8.6185963835828261 -45.957666354535831 0 -45.957666354535831 94.623345198560855 0 0 0 0 10.028565093538418 -6.4758072824042756 0 -6.4758072824042756 71.377972162386868 0 0 0 0 2.6482821198437705 1.929127751285705 0 1.929127751285705 91.372488643992256 0 0 0 0 18.439757497707433 -8.1811913805031509 0 -8.1811913805031509 35.111454886980937 0 0 0 0 5.9916154174093208 -7.2492599865108787 0 -7.2492599865108787 35.254604624532476 0 0 0 0 19.702808940542582 2.9317913072591182 0 2.9317913072591182 5.1418485944959684 0 0 0 0 3.4304249377359568 5.5970539690011663 0 5.5970539690011663 6.7927058144203443 0 0 0 0 -1.8509601648806893 16.805328916922008 0 16.805328916922008 21.339923256015027 0 0 0 0 1.6371407707463987 18.340747464504602 0 18.340747464504602 12.433490500799962 0 0 0 0 20.136635774004901 14.363881193294219 0 14.363881193294219 3.9971323402496637 0 0 0 0 -0.94128955484147259 3.5108053491831299 0 3.5108053491831299 9.3512820460763351 0 0 0 0 -1.7427362776745667 4.5923273009466357 0 4.5923273009466357 24.591155865099608 0 0 0 0 0.56690698817828888 3.5149020337958063 0 3.5149020337958063 23.026917905146547 0 0 0 0 2.6946661290937275 0.081735111521126669 0 0.081735111521126669 5.3174550227292698 0 0 0 0 -1.8930747302874806 -0.26867329347805935 0 -0.26867329347805935 14.199153251026019 0 0 0 0 -0.91384995620640774 2.727307167648874 0 2.727307167648874 15.900010194441592 0 0 0 0 -2.1038681731818958 -1.5089871430578086 0 -1.5089871430578086 12.512474418745484 0 0 0 0 0.048636173382874404 1.7857783793879207 0 1.7857783793879207 51.650149812825475 0 0 0 0 2.5184403769012489 -4.2514591644817585 0 -4.2514591644817585 5.1903638506645962 0 0 0 0 13.240383952500906 -18.830533211719739 0 -18.830533211719739 19.647405047609936 0 0 0 0 9.467902051945714 5.8743407035508426 0 5.8743407035508426 31.644792943719949 0 0 0 0 1.470486192323718 -3.6021442439993479 0 -3.6021442439993479 1.7657514286155411 0 0 0 0 8.0305153481678389 9.0731670222644425 0 9.0731670222644425 38.382564760599053 0 0 0 0 5.9905217835748772 7.1178726721373096 0 7.1178726721373096 39.304470392606163 0 0 0 0 22.223313256903111 26.98888474130581 0 26.98888474130581 29.705218676230288 0 0 0 0 5.2578867369675208 -0.42240089392589653 0 -0.42240089392589653 23.772822938903118 0 0 0 0 0.19657073352937005 14.162447283841175 0 14.162447283841175 72.607060283269675 0 0 0 0 3.9013395950423728 -6.3227657421812182 0 -6.3227657421812182 55.554017804566683 0 0 0 0 -0.38485981268017611 8.2778502156781997 0 8.2778502156781997 44.585813916564803 0 0 0 0 2.5598499684388045 3.1622463145367306 0 3.1622463145367306 36.19924610372982 0 0 0 0 -5.0393918680438219 6.3016034377687902 0 6.3016034377687902 25.131536259874338 0 0 0 0 -2.0385512522917661 4.2754787237285399 0 4.2754787237285399 24.104379200404878 0 0 0 0 25.483714911906645 26.216537852604233 0 26.216537852604233 42.395843903981586 0 0 0 0 -12.306023482994988 -22.982343170573586 0 -22.982343170573586 58.894934844211093 0 0 0 0 -3.2280735709913055 0.31174560087104908 0 0.31174560087104908 24.415056116950581 0 0 0 0 -2.0384724579908982 -1.7614849440262645 0 -1.7614849440262645 3.4278960932701068 0 0 0 0 6.704418518999546 -6.0849526181955298 0 -6.0849526181955298 45.354027150431648 0 0 0 0 14.809047149371963 -1.6616712095492403 0 -1.6616712095492403 28.473342526434863 0 0 0 0 -2.0269336454271931 5.501961482862086 0 5.501961482862086 8.1317176585570792 0 0 0 0 -1.3445912059328293 5.810647714897641 0 5.810647714897641 73.392854636986158 0 0 0 0 4.1761231077039156 18.063148316992738 0 18.063148316992738 59.513194518149248 0 0 0 0 3.4506627408795794 3.5763113876964781 0 3.5763113876964781 45.15171316272972 0 0 0 0 14.330993629383329 2.3145587269827956 0 2.3145587269827956 45.218746124926838 0 0 0 0 -1.1757743067017259 7.665625717364037 0 7.665625717364037 49.955216989648761 0 0 0 0 -0.014498255756920209 8.9747795821450893 0 8.9747795821450893 32.750451787600099 0 0 0 0 -8.1229928306493093 15.751717208988339 0 15.751717208988339 40.008407798290136 0 0 0 0 13.891957238706254 63.538250779420196 0 63.538250779420196 205.84465313102555 0 0 0 0 -61.870972819795497 -9.5301308658381458 0 -9.5301308658381458 147.40902648677729 0 0 0 0 5.1631946403558686 -13.596058509428985 0 -13.596058509428985 204.71465187115245 0 0 0 0 -0.83812694605084914 -2.2214640175648626 0 -2.2214640175648626 3.0806681429431251 0 0 0 0 2.3358312640069947 -12.672931810913028 0 -12.672931810913028 8.3448293971196783 0 0 0 0 4.2053606004960784 -2.2399040267118835 0 -2.2399040267118835 36.115136305830674 0 0 0 0 18.733633557164467 47.238396370747068 0 47.238396370747068 119.47860039694933 0 0 0 0 -10.960314665675014 -9.2477525705890002 0 -9.2477525705890002 151.12912830383721 0 0 0 0 -3.1492612509508762 -9.500887766927292 0 -9.500887766927292 26.10246328119571 0 0 0 0 5.5953736336432485 3.5633881420799298 0 3.5633881420799298 42.604443996766349 0 0 0 0 -0.0082889156211786164 -1.5541517600004227 0 -1.5541517600004227 41.810739725726307 0 0 0 0 -2.9461489589562007 3.1146164306992432 0 3.1146164306992432 48.707237380220249 0 0 0 0 1.5680365413137451 6.6536376584954269 0 6.6536376584954269 31.006869292185002 0 0 0 0 12.242637129473906 0.35532997337213601 0 0.35532997337213601 15.074728867213707 0 0 0 0 22.174939249173633 56.465134288710033 0 56.465134288710033 231.73137129413226 0 0 0 0 -24.545563073736048 40.173830149236892 0 40.173830149236892 245.17820928491346 0 0 0 0 1.2382063914829775 -0.75869254329305136 0 -0.75869254329305136 5.1801124755763652 0 0 0 0 17.547626458425512 -35.341303275876726 0 -35.341303275876726 148.30654329962272 0 0 0 0 15.226922547512153 0.69146696480652281 0 0.69146696480652281 133.5540542499657 0 0 0 0 20.10431992408212 58.273964075011463 0 58.273964075011463 153.04209497053671 0 0 0 0 -19.095940073480904 49.18785858611227 0 49.18785858611227 229.10236583085498 0 0 0 0 20.719962278364903 3.5236426787705568 0 3.5236426787705568 136.72958179039415 0 0 0 0 12.621557546334961 2.2751861387660028 0 2.2751861387660028 24.564283286768841 0 0 0 0 0.23650429056119071 -0.61751609394811169 0 -0.61751609394811169 -0.011311706032213209 0 0 0 0 20.53862504465836 31.665959471298265 0 31.665959471298265 90.732727723099742 0 0 0 0 -23.097861961414765 -31.131524502881803 0 -31.131524502881803 113.50441451149527 0 0 0 0 -10.854704870282148 -52.501718513522064 0 -52.501718513522064 147.64369555777739 0 0 0 0 -46.340195049911927 0.80688053383346414 0 0.80688053383346414 179.53229983520396 0 0 0 0 63.131728064943673 -31.206103054220875 0 -31.206103054220875 32.133247396930528 0 0 0 0 -12.020218808388449 38.073694155604244 0 38.073694155604244 43.693570009614632 0 0 0 0 8.7906598993777152 -5.6509855099502602 0 -5.6509855099502602 22.054054130698205 0 0 0 0 -1.4551362610436627 23.739820525741379 0 23.739820525741379 29.033203083934495 0 0 0 0 -6.2978325380275351 14.033510341630063 0 14.033510341630063 43.011995294662484 0 0 0 0 -1.4551362610441174 23.739820525719551 0 23.739820525719551 29.033203084036359 0 0 0 0 -47.865201440091369 29.221519842059934 0 29.221519842059934 48.112373159903655 0 0 0 0 -1.6632798023199271 5.1035338685793121 0 5.1035338685793121 29.453282330502446 0 0 0 0 11.274367594146497 -17.664615890511413 0 -17.664615890511413 69.340658958000859 0 0 0 0 -6.9299389922087302 7.6206031619878942 0 7.6206031619878942 30.530088376749205 0 0 0 0 -5.1518869072388043 16.002421317698463 0 16.002421317698463 53.159017395351839 0 0 0 0 17.154001263838836 -8.7748502275671854 0 -8.7748502275671854 73.981919115034543 0 0 0 0 -27.114072129365923 34.14727819656764 0 34.14727819656764 38.353148932921613 0 0 0 0 -12.664385209418469 12.976712006813614 0 12.976712006813614 44.610433969035512 0 0 0 0 -8.7818438504175766 7.7098614720672032 0 7.7098614720672032 57.531674802755845 0 0 0 0 -1.4551362610427532 23.739820525675896 0 23.739820525675896 29.033203083959961 0 0 0 0 7.3227136868036951 17.439229507217533 0 17.439229507217533 35.541082417428697 0 0 0 0 7.0453068809838442 8.3242618204349128 0 8.3242618204349128 39.167309320961067 0 0 0 0 9.7426126921835348 1.6283360696397722 0 1.6283360696397722 42.433682745657279 0 0 0 0 16.004617956747552 10.133704185014722 0 10.133704185014722 38.323938506378909 0 0 0 0 18.457218758550141 4.8190837418515002 0 4.8190837418515002 30.823439472049358 0 0 0 0 7.9873450110770818 -0.78125955794530455 0 -0.78125955794530455 61.402052023684519 0 0 0 0 -24.133298591906168 0.8940556125025978 0 0.8940556125025978 55.487097024187278 0 0 0 0 -6.7055485027085524 -15.44642003568697 0 -15.44642003568697 26.73973997666144 0 0 0 0 -8.8810648768403553 10.989263140681942 0 10.989263140681942 40.157270781037369 0 0 0 0 -162.56162248011242 -83.236943632236944 0 -83.236943632236944 29.051449358317768 0 0 0 0 6.7127283565205289 0.13028509712876257 0 0.13028509712876257 38.090763582846193 0 0 0 0 2.065960680389253 1.7953356269335927 0 1.7953356269335927 47.341066702520038 0 0 0 0 2.0549945581922202 1.5845528628536272 0 1.5845528628536272 44.925652668316616 0 0 0 0 -47.977035185562045 23.992888458724337 0 23.992888458724337 68.165598614086775 0 0 0 0 0.24980664213627612 -4.2494035188552921 0 -4.2494035188552921 41.123380812554487 0 0 0 0 -1.485334448990443 -18.372885360613054 0 -18.372885360613054 42.408801402467361 0 0 0 0 -5.828602399878946 -1.1405816438418697 0 -1.1405816438418697 43.670273621046363 0 0 0 0 13.573635360840854 -15.766709080477995 0 -15.766709080477995 61.450052273019537 0 0 0 0 14.741088864331687 9.9173777110654555 0 9.9173777110654555 49.446748339125406 0 0 0 0 -2.8105917993648344 1.1907198558130734 0 1.1907198558130734 35.939873207662785 0 0 0 0 -6.907461616542605 2.6556762639593217 0 2.6556762639593217 49.195215404692135 0 0 0 0 -3.2897291499525689 4.6705460128209495 0 4.6705460128209495 46.757501923690967 0 0 0 0 -0.20470527269571903 6.5127703401667532 0 6.5127703401667532 51.377172059117584 0 0 0 0 -4.1476872666708466 2.6013133514576694 0 2.6013133514576694 27.948151297619916 0 0 0 0 14.386232642877985 -5.6618730961035908 0 -5.6618730961035908 21.146799225869472 0 0 0 0 3.3534561133465104 -0.29003799518432061 0 -0.29003799518432061 39.48127170461521 0 0 0 0 -16.17067804855651 7.341362982397186 0 7.341362982397186 114.76837340583734 0 0 0 0 -63.007214533017759 62.009863341849268 0 62.009863341849268 53.048551044283158 0 0 0 0 -95.97091813685347 -62.641883659925952 0 -62.641883659925952 385.53872349286394 0 0 0 0 175.22860090128052 212.13540900445514 0 212.13540900445514 -203.66693399024371 0 0 0 0 -103.13089445040941 -25.636875991859142 0 -25.636875991859142 251.48079408134799 0 0 0 0 101.05436194203867 -141.18904458079123 0 -141.18904458079123 156.0509985240551 0 0 0 0 0.62682613653628394 1.2182138570047947 0 1.2182138570047947 1.8301891889732644 0 0 0 0 1.1336569362226712 -8.5108155080108823 0 -8.5108155080108823 32.598611204506739 0 0 0 0 -10.364439248344752 -7.3588966573188372 0 -7.3588966573188372 42.442728183785221 0 0 0 0 -4.3974389060604153 -6.5964369196844928 0 -6.5964369196844928 37.527295660913296 0 0 0 0 -0.4526991707693 -1.8545308126381741 0 -1.8545308126381741 8.1294253818009139 0 0 0 0 1.9941530612322822 -2.632113897761883 0 -2.632113897761883 47.128499422717141 0 0 0 0 -1.8619549924551393 -2.5343707876718327 0 -2.5343707876718327 57.394332344127179 0 0 0 0 -5.0521768424314359 2.8166460123429715 0 2.8166460123429715 49.499631669792507 0 0 0 0 -4.7862715770691295 -4.2426387086025343 0 -4.2426387086025343 5.9598597944505212 0 0 0 0 15.685406709533709 36.860099006982637 0 36.860099006982637 -76.717187710863072 0 0 0 0 0.29927610865490806 -5.4238311185877643 0 -5.4238311185877643 20.486570849996554 0 0 0 0 -208.68903566272274 26.574286381750426 0 26.574286381750426 94.32907221059213 0 0 0 0 4.5779970161802339 272.01268591956614 0 272.01268591956614 154.98758949446346 0 0 0 0 309.43377440091899 -8.7226895043895638 0 -8.7226895043895638 -23.826510302832048 0 0 0 0 44.316637592524785 -102.75853723771252 0 -102.75853723771252 35.671749205613651 0 0 0 0 30.376020927167701 62.346393979680215 0 62.346393979680215 -32.774927932243145 0 0 0 0 201.65608947411783 -154.17922811555763 0 -154.17922811555763 39.317901232362146 0 0 0 0 -11.81516175227307 8.6668673661015418 0 8.6668673661015418 79.673046263014839 0 0 0 0 -6.4847666868654414 -44.945029507684922 0 -44.945029507684922 -29.200344396831497 0 0 0 0 -6.8256228643076611 -6.8346222298459907 0 -6.8346222298459907 58.82948532368664 0 0 0 0 -7.614876026146792 -4.217244120893028 0 -4.217244120893028 19.020641140919977 0 0 0 0 -42.34881725576588 36.671866247647813 0 36.671866247647813 9.5738498358150537 0 0 0 0 0.27686177441976056 -1.5956248451106809 0 -1.5956248451106809 4.3243384704012584 0 0 0 0 -50.859630020710711 -68.039359122090673 0 -68.039359122090673 287.74082406086382 0 0 0 0 -45.288492968962601 72.938331660391668 0 72.938331660391668 104.18967329418592 0 0 0 0 199.04367557410933 215.69462967832987 0 215.69462967832987 11.179124421098095 0 0 0 0 158.78344416522486 -295.72564938222422 0 -295.72564938222422 80.00523070039344 0 0 0 0 0.71236399649975546 -1.92494674839255 0 -1.92494674839255 7.8229091492486447 0 0 0 0 52.623529848124235 -331.95531788535845 0 -331.95531788535845 175.7063128445443 0 0 0 0 128.11719551834267 -246.09539286984 0 -246.09539286984 0.71505689306650311 0 0 0 0 -87.641355573381588 275.32145583140664 0 275.32145583140664 159.08174689066072 0 0 0 0 134.79872063621769 -462.44963019448733 0 -462.44963019448733 366.1959711314048 0 0 0 0 566.25106196277193 367.45208905031905 0 367.45208905031905 -327.47115518204373 0 0 0 0 20.773459223295504 -365.15853377003077 0 -365.15853377003077 483.5210265600017 0 0 0 0 -54.993740355983391 54.991288200413692 0 54.991288200413692 -37.390109692630176 0 0 0 0 -201.52320932233124 -17.039482387317548 0 -17.039482387317548 131.78919719671103 0 0 0 0 -87.182334552999237 -31.971807352369069 0 -31.971807352369069 7.2664599265308425 0 0 0 0 -1.7835601376465746 -0.31928597213851617 0 -0.31928597213851617 4.4306973744291502 0 0 0 0 -20.908798177735662 22.093436086717702 0 22.093436086717702 48.521483834450919 0 0 0 0 16.939544009194833 41.110796117265636 0 41.110796117265636 -16.059250181388052 0 0 0 0 67.972779251793327 24.340730097213964 0 24.340730097213964 -27.08176085159721 0 0 0 0 6.3550073271794645 -20.600430971359856 0 -20.600430971359856 57.255277431024297 0 0 0 0 0.097495691838091147 1.3864085165097038 0 1.3864085165097038 6.5538462063726541 0 0 0 0 -7.357445412193556 -35.499509251218115 0 -35.499509251218115 53.092785325367004 0 0 0 0 -7.0086585560998174 -28.482598368040271 0 -28.482598368040271 100.35396628543094 0 0 0 0 6.1795257307803695 -17.401893714431935 0 -17.401893714431935 49.306490944683901 0 0 0 0 -1.1308799541562742 -3.2641178497995114 0 -3.2641178497995114 1.6812485118467926 0 0 0 0 -0.93070143817658391 2.1540076876590319 0 2.1540076876590319 24.071558742147317 0 0 0 0 -11.87341246199685 -3.9330819911956496 0 -3.9330819911956496 20.782520572247449 0 0 0 0 -0.46843082790436519 3.2530855537330226 0 3.2530855537330226 13.376049461065165 0 0 0 0 5.2394950081543357 -2.8936492126522353 0 -2.8936492126522353 10.639194680970832 0 0 0 0 0.78050749667615449 2.2871206196277853 0 2.2871206196277853 8.6326450024034926 0 0 0 0 -10.901963635278662 18.215065873506319 0 18.215065873506319 23.073982666857773 0 0 0 0 64.719319491403439 -53.872264380831439 0 -53.872264380831439 66.658856617279525 0 0 0 0 57.308174369891276 -46.921286424501886 0 -46.921286424501886 75.242001677084772 0 0 0 0 77.713859929806858 -50.672757000002093 0 -50.672757000002093 15.038051135954447 0 0 0 0 4.2675857483100117 -49.088445840348868 0 -49.088445840348868 18.235451714983355 0 0 0 0 -3.9818673271265652 -20.265170105936704 0 -20.265170105936704 67.976610408863053 0 0 0 0 109.39915006761657 -170.00956232238241 0 -170.00956232238241 138.09133770368214 0 0 0 0 605.7072228053712 -333.17168203806068 0 -333.17168203806068 32.037873511966609 0 0 0 0 137.82069842159763 -59.992084310080827 0 -59.992084310080827 -126.51633322445923 0 0 0 0 53.319284809493183 -23.664484624443503 0 -23.664484624443503 -47.433667086503192 0 0 0 0 26.594172029354922 -54.098349487680935 0 -54.098349487680935 -16.110846641280659 0 0 0 0 -138.11933739978213 -15.824476790781773 0 -15.824476790781773 43.624409728445244 0 0 0 0 -45.859056385326767 -9.3933290013492297 0 -9.3933290013492297 -1.3701340060579241 0 0 0 0 -228.26331796596423 124.14342242368457 0 124.14342242368457 52.151387988342321 0 0 0 0 -0.094719775323699906 -1.2177551613786779 0 -1.2177551613786779 7.5606877853909964 0 0 0 0 11.784492591744371 -7.6095147449688909 0 -7.6095147449688909 13.191691838523138 0 0 0 0 9.6165063420471597 -52.41866426669003 0 -52.41866426669003 50.089676553729078 0 0 0 0 11.151641681944056 -21.446731408392225 0 -21.446731408392225 16.683585960221535 0 0 0 0 -0.24216635215680071 -21.732226794061717 0 -21.732226794061717 86.410696809208275 0 0 0 0 9.3231509298262267 6.4788787971415331 0 6.4788787971415331 40.207531813888636 0 0 0 0 -6.515235950969327 14.697136798473366 0 14.697136798473366 44.461568115941191 0 0 0 0 -1.9994090702131189 7.9755487251204613 0 7.9755487251204613 51.726343047550927 0 0 0 0 -7.2105939295718695 3.9222453107053283 0 3.9222453107053283 55.76904700965855 0 0 0 0 17.748377154694481 -20.583894278051957 0 -20.583894278051957 77.827965493244847 0 0 0 0 -1.3460633521226555 -7.3157984319241223 0 -7.3157984319241223 74.104263434514792 0 0 0 0 -1.5625569375606574 -8.7676863013784896 0 -8.7676863013784896 65.040327305239771 0 0 0 0 4.3163457381797343 -0.18109156245373015 0 -0.18109156245373015 16.422601954876882 0 0 0 0 5.4707394621700587 6.6610375907166599 0 6.6610375907166599 34.803107814862869 0 0 0 0 3.6073060781364532 -7.7261707895994576 0 -7.7261707895994576 14.379008473719516 0 0 0 0 8.2206795416750538 3.5210597292571038 0 3.5210597292571038 17.640689728358666 0 0 0 0 -4.4653960530094992 3.0976419880043977 0 3.0976419880043977 54.6731548963362 0 0 0 0 18.915728855136877 -5.9862647172667494 0 -5.9862647172667494 25.358689883236366 0 0 0 0 28.400220593574545 25.785993260217538 0 25.785993260217538 13.904470426798071 0 0 0 0 -6.979151975194327 -7.7094158654308558 0 -7.7094158654308558 73.331404440927145 0 0 0 0 -27.898219278269835 33.251516335364613 0 33.251516335364613 21.543271252969134 0 0 0 0 -12.78140604590171 1.9336949116551168 0 1.9336949116551168 59.947344600226828 0 0 0 0 155.36361598181247 -2.2798099690080562 0 -2.2798099690080562 -60.234480967967102 0 0 0 0 22.218984561466186 -54.099646934606426 0 -54.099646934606426 -9.3949011880977196 0 0 0 0 -12.767206676706234 7.8876165120872237 0 7.8876165120872237 68.753915028371011 0 0 0 0 -76.614000738133655 121.27298358739972 0 121.27298358739972 54.849114892662328 0 0 0 0 117.35667672880118 155.57614183495753 0 155.57614183495753 453.16059873707127 0 0 0 0 -82.170021026236554 -25.536138450946964 0 -25.536138450946964 236.59149247300775 0 0 0 0 52.287599247728394 21.411492871260634 0 21.411492871260634 52.733757409518148 0 0 0 0 8.3700357900752351 61.577869746108263 0 61.577869746108263 138.83518780560553 0 0 0 0 49.827084976049264 18.257268359589943 0 18.257268359589943 53.405112515323594 0 0 0 0 25.317583748808829 168.51974226292441 0 168.51974226292441 284.9468111760325 0 0 0 0 255.86346219513507 -84.987941593660253 0 -84.987941593660253 44.209089322393993 0 0 0 0 -88.53662482209495 -41.602824828822349 0 -41.602824828822349 382.31526087256862 0 0 0 0 -89.156732250793539 -38.650936578853361 0 -38.650936578853361 381.26830323205104 0 0 0 0 1.5020914279840731 -1.5484363659888558 0 -1.5484363659888558 0.83241157172053448 0 0 0 0 71.020280614890794 -119.59531309337876 0 -119.59531309337876 254.91289210765171 0 0 0 0 23.011433285344538 -8.1262541474770842 0 -8.1262541474770842 22.268665687651264 0 0 0 0 -1.6520268087115255 -16.076275313669612 0 -16.076275313669612 73.781987603466405 0 0 0 0 -11.623042137537141 -13.026832862118681 0 -13.026832862118681 89.189748005854199 0 0 0 0 4.2306065566740898 -2.3628392711472443 0 -2.3628392711472443 0.95028707661929346 0 0 0 0 -16.216590688518409 -23.862749716005055 0 -23.862749716005055 72.648083857234269 0 0 0 0 -6.342428517409644 -22.39499234016148 0 -22.39499234016148 71.398865015286901 0 0 0 0 -0.51167050898061461 -11.504461177014036 0 -11.504461177014036 39.809503747794224 0 0 0 0 0.24375394578275689 -0.48024820956383252 0 -0.48024820956383252 -0.079172044492967331 0 0 0 0 -6.8894041180683416 -62.59567074466031 0 -62.59567074466031 91.421859926509569 0 0 0 0 28.113578391988995 -59.310182409168192 0 -59.310182409168192 64.369635906778058 0 0 0 0 -6.3165644128946496 -51.613238792625452 0 -51.613238792625452 186.6802818083379 0 0 0 0 55.520350817176904 -114.65483945547703 0 -114.65483945547703 125.65453396951489 0 0 0 0 77.061525600067853 -58.083995976836377 0 -58.083995976836377 57.760741755002527 0 0 0 0 -109.67703682145293 329.25621022067935 0 329.25621022067935 18.513160886519472 0 0 0 0 -32.195977119281451 35.989784671521193 0 35.989784671521193 169.31669558121212 0 0 0 0 139.75668402435622 248.4888732002546 0 248.4888732002546 -128.66749368285309 0 0 0 0 67.263990840203405 32.373825702331487 0 32.373825702331487 106.91631836700253 0 0 0 0 -58.928863888809246 -74.598414731541197 0 -74.598414731541197 21.34255173395286 0 0 0 0 -0.041497295960402525 -0.44146857933638373 0 -0.44146857933638373 3.0042757449909772 0 0 0 0 -33.757089765116461 56.37501481057916 0 56.37501481057916 150.73566181834758 0 0 0 0 -10.665245522052828 55.670389300754323 0 55.670389300754323 37.946819987795607 0 0 0 0 -3.021063027929813 5.9929757027239248 0 5.9929757027239248 184.53819568103791 0 0 0 0 -32.509380704777868 67.676253315401482 0 67.676253315401482 165.87901927260111 0 0 0 0 -33.261058629392267 53.14032566483354 0 53.14032566483354 194.28085555808138 0 0 0 0 -14.451658165136905 95.051766725742709 0 95.051766725742709 156.01198042158285 0 0 0 0 -41.048169781448451 64.909947284892041 0 64.909947284892041 274.34910969054181 0 0 0 0 80.159424507763106 -53.770978379572625 0 -53.770978379572625 66.625134280827524 0 0 0 0 13.331648218096234 -6.3979745600372553 0 -6.3979745600372553 61.803774863618855 0 0 0 0 38.764545865747095 -75.443998169462247 0 -75.443998169462247 248.21787975689222 0 0 0 0 0.53827659921650284 1.0704465036827635 0 1.0704465036827635 2.9867415363518575 0 0 0 0 190.41184611416247 -221.92899413748091 0 -221.92899413748091 315.40965745986978 0 0 0 0 -37.07826108593872 87.265637472686649 0 87.265637472686649 440.0581680716482 0 0 0 0 -7.8778763326536136 -6.7167602670724591 0 -6.7167602670724591 62.631618056768275 0 0 0 0 6.4175608950190508 -19.859294966721791 0 -19.859294966721791 72.839653891103808 0 0 0 0 4.0949236647816178 17.354181843883282 0 17.354181843883282 89.973499341831484 0 0 0 0 -10.400826899644017 -30.839604308581329 0 -30.839604308581329 75.179199076157602 0 0 0 0 -6.7418060266973043 57.22574985760366 0 57.22574985760366 111.09667254769192 0 0 0 0 -22.280057997772019 1.973327582300044 0 1.973327582300044 159.25297908416906 0 0 0 0 4.9099276876663573 -2.0509049023358088 0 -2.0509049023358088 0.89665892409732351 0 0 0 0 -55.463626291262699 82.931625161905686 0 82.931625161905686 214.78022171100383 0 0 0 0 -50.541242471386795 69.764252213377404 0 69.764252213377404 165.77417024221347 0 0 0 0 -21.679247496680546 46.320407520686786 0 46.320407520686786 132.63879157768315 0 0 0 0 27.345138418029819 -8.7069083163078176 0 -8.7069083163078176 71.709237525941717 0 0 0 0 10.27394831975289 -22.296366949247385 0 -22.296366949247385 218.746335138414 0 0 0 0 7.6072065662444857 17.161609578362913 0 17.161609578362913 53.191053045549779 0 0 0 0 127.82853138023711 15.021255265408399 0 15.021255265408399 52.816146153625596 0 0 0 0 -297.25862489358042 224.76394386846368 0 224.76394386846368 607.02301314326905 0 0 0 0 4.4365749074216367 -1.5423271860125425 0 -1.5423271860125425 0.77978501328095362 0 0 0 0 -0.56929315007107917 0.68656511709847479 0 0.68656511709847479 4.6584878091119606 0 0 0 0 260.24387909870711 -176.50273921545158 0 -176.50273921545158 148.39984329317667 0 0 0 0 -94.753862564051815 150.15283582321354 0 150.15283582321354 125.54758024450666 0 0 0 0 -88.737872788487948 91.224882580665508 0 91.224882580665508 -59.856979371028046 0 0 0 0 4.8867061576579083 11.283097125907069 0 11.283097125907069 18.551798311140573 0 0 0 0 -77.814587984450782 42.657944940277275 0 42.657944940277275 5.2275543382202159 0 0 0 0 -5.2676280318883073 36.678723178136352 0 36.678723178136352 -62.977094737099833 0 0 0 0 78.583055973228511 2.2374829963355296 0 2.2374829963355296 5.0166552032715117 0 0 0 0 -44.000276064483387 -7.3070506961876163 0 -7.3070506961876163 33.702957064124348 0 0 0 0 -9.1137783369740646 23.907440389284602 0 23.907440389284602 45.972504608660529 0 0 0 0 -83.076335785561241 7.6807352790619916 0 7.6807352790619916 -24.899552958577004 0 0 0 0 -10.065165438083568 2.2145333209628006 0 2.2145333209628006 -24.890060036966169 0 0 0 0 -30.443508711238792 -43.79982097881657 0 -43.79982097881657 -64.180241579217181 0 0 0 0 -37.609554695833594 -31.158654815229056 0 -31.158654815229056 14.332447271117417 0 0 0 0 -18.769904628060431 -33.935207464062387 0 -33.935207464062387 47.565741664435336 0 0 0 0 -3.0919176484103446 -6.4845161261910107 0 -6.4845161261910107 23.404616242063639 0 0 0 0 -2.3593709855140332 -9.1665076665776724 0 -9.1665076665776724 -36.219138566528272 0 0 0 0 -8.0754638449116101 16.277397405585361 0 16.277397405585361 50.53483604601206 0 0 0 0 -99.950729723475888 -5.1459732695511775 0 -5.1459732695511775 56.127186557281675 0 0 0 0 -163.02495993773209 42.888913309256168 0 42.888913309256168 97.036380820409249 0 0 0 0 -111.79129641957547 144.5994517530371 0 144.5994517530371 -74.739243385407462 0 0 0 0 -77.031921021321068 61.641858120986399 0 61.641858120986399 90.274963992778794 0 0 0 0 -0.22020012195880412 -0.7052313394359615 0 -0.7052313394359615 0.51407636384043087 0 0 0 0 -66.849383171554109 22.578677374329345 0 22.578677374329345 -15.48120087215284 0 0 0 0 2.7634035169971085 7.0783504252954046 0 7.0783504252954046 12.226555381740795 0 0 0 0 131.60876502090105 -235.69801730688778 0 -235.69801730688778 351.11765245099537 0 0 0 0 97.761837977205005 -129.88776557459505 0 -129.88776557459505 233.82975713301494 0 0 0 0 44.366199834161307 -158.54918650707987 0 -158.54918650707987 272.86138345454583 0 0 0 0 37.826957322821727 -87.44628770979125 0 -87.44628770979125 204.06316614338175 0 0 0 0 26.995520824961204 -107.67986991253383 0 -107.67986991253383 252.48171289199308 0 0 0 0 -25.513227878108637 -25.344624517725151 0 -25.344624517725151 27.01768247558357 0 0 0 0 70.012755084655055 -26.0048813048179 0 -26.0048813048179 -90.108929368190729 0 0 0 0 4.2759107498886806 -55.478819262498291 0 -55.478819262498291 138.63046784727158 0 0 0 0 0.25767580428679793 -0.84293688294536651 0 -0.84293688294536651 0.52332988475433595 0 0 0 0 19.390225940758683 -83.603697425166501 0 -83.603697425166501 110.66242356898147 0 0 0 0 6.7000952207089313 -5.5417001580040051 0 -5.5417001580040051 39.569688257783127 0 0 0 0 17.515215840059682 -51.416881105727953 0 -51.416881105727953 109.70379458442767 0 0 0 0 -15.778103804344937 -14.679818521912239 0 -14.679818521912239 39.237424625129279 0 0 0 0 2.4866181687921198 -26.877849403853361 0 -26.877849403853361 6.9404649790212716 0 0 0 0 0.02511725163230949 -6.8757371171923296 0 -6.8757371171923296 -3.2490192604382173 0 0 0 0 -8.0008756892011661 -30.944735613692274 0 -30.944735613692274 -21.785523870312318 0 0 0 0 -21.706641763308653 -38.347983235687934 0 -38.347983235687934 54.595489742705468 0 0 0 0 0.218101330686995 -1.3056733895079589 0 -1.3056733895079589 0.8287514865132195 0 0 0 0 0.70057955934584371 -1.4423476597140237 0 -1.4423476597140237 0.8033336171440375 0 0 0 0 -17.028018186450026 -3.6562998279041494 0 -3.6562998279041494 25.542184827851088 0 0 0 0 10.741627031320604 -70.174161727770752 0 -70.174161727770752 -53.261109000333818 0 0 0 0 -15.527034148848543 -71.828584698980194 0 -71.828584698980194 107.68696202145293 0 0 0 0 -18.406285798701674 -15.581372531891475 0 -15.581372531891475 75.556879045772803 0 0 0 0 -20.277354107122846 -9.5713983174591704 0 -9.5713983174591704 69.550468359273509 0 0 0 0 -22.262332491034712 22.023621470284866 0 22.023621470284866 160.17935232800301 0 0 0 0 -41.733148559574019 -27.118622868598123 0 -27.118622868598123 227.35576037230203 0 0 0 0 -41.989797004192951 -43.133581730631704 0 -43.133581730631704 259.90528823119303 0 0 0 0 28.928046781785952 -18.135642022682077 0 -18.135642022682077 27.684788649319671 0 0 0 0 76.27392157678787 -105.00306359284878 0 -105.00306359284878 142.43956950230131 0 0 0 0 282.48292140293916 -174.12393262301157 0 -174.12393262301157 71.155907506286894 0 0 0 0 230.58170881357 -31.440388274562793 0 -31.440388274562793 -278.95658901165734 0 0 0 0 -10.40489760749962 -94.806789817049321 0 -94.806789817049321 -142.64578559629081 0 0 0 0 0.096708771101746749 -0.27785082763052227 0 -0.27785082763052227 17.259602825751472 0 0 0 0 42.841253528107245 -10.494541701049457 0 -10.494541701049457 9.3454830181963189 0 0 0 0 104.14168960140211 13.434204814409668 0 13.434204814409668 7.3777315943407302 0 0 0 0 57.376091997871754 -11.23749291351487 0 -11.23749291351487 7.5370994939912634 0 0 0 0 45.692148783197354 0.78897542214144778 0 0.78897542214144778 6.6255397126305979 0 0 0 0 12.241907496896005 8.9194825687486059 0 8.9194825687486059 35.325814788491698 0 0 0 0 -11.076060855759351 41.831613959664537 0 41.831613959664537 -1.1038429642985648 0 0 0 0 -1.0153667217568909 -17.350357327123675 0 -17.350357327123675 58.141663252594299 0 0 0 0 -0.43033069589651729 -1.0206109043804243 0 -1.0206109043804243 23.160440974314909 0 0 0 0 33.412529490617999 -52.209336560948941 0 -52.209336560948941 123.71348769477481 0 0 0 0 -7.2660926509083765 -36.280348863490872 0 -36.280348863490872 170.24812625798222 0 0 0 0 -12.823861774531061 8.3518087753117456 0 8.3518087753117456 89.585635967956307 0 0 0 0 -101.20254506202036 2.774171092079996 0 2.774171092079996 121.08048379486718 0 0 0 0 -82.616585025481982 -35.97413600080472 0 -35.97413600080472 199.83471388078033 0 0 0 0 -94.196762798381883 227.99752837448705 0 227.99752837448705 -284.49707357689113 0 0 0 0 -14.430902508584547 12.155747274209261 0 12.155747274209261 85.853855219826769 0 0 0 0 136.06216053059859 -4.4879959374429745 0 -4.4879959374429745 206.33772927011887 0 0 0 0 296.35526867721865 14.424368254178262 0 14.424368254178262 -309.43570680270409 0 0 0 0 50.130128365894052 -51.140284822717149 0 -51.140284822717149 239.05537136751082 0 0 0 0 186.29914874826613 -250.1299406515418 0 -250.1299406515418 223.52338437061553 0 0 0 0 -80.246503767258559 891.73602341979677 0 891.73602341979677 -293.60411302970533 0 0 0 0 -17.35403349986159 6.0294324617705293 0 6.0294324617705293 87.705649136958897 0 0 0 0 -276.78367311303555 -70.513561960313382 0 -70.513561960313382 195.1393642474352 0 0 0 0 -58.220894244590454 91.090287219580205 0 91.090287219580205 65.821340438335028 0 0 0 0 -9.5128675504527784 -1.5271414437803372 0 -1.5271414437803372 53.47623017471966 0 0 0 0 128.33725111707463 -351.81712092716771 0 -351.81712092716771 -27.169491108063085 0 0 0 0 6.173220991446442 -3.6297013379669636 0 -3.6297013379669636 -2.8204832596624101 0 0 0 0 16.592835814693899 333.22510450316622 0 333.22510450316622 427.50024934233807 0 0 0 0 -182.57977079660486 -379.7196824980856 0 -379.7196824980856 79.462948694999795 0 0 0 0 328.85354201267182 -93.739261575916316 0 -93.739261575916316 -25.377602924956591 0 0 0 0 -38.14647396413784 -134.66351854075037 0 -134.66351854075037 56.839594953773485 0 0 0 0 6.6120156974738258 -12.312685979518015 0 -12.312685979518015 22.106915693287363 0 0 0 0 69.705331932025729 51.921602537033323 0 51.921602537033323 46.298390063744591 0 0 0 0 135.75358464102646 158.06484021433425 0 158.06484021433425 199.55091696115414 0 0 0 0 77.961318974054393 -102.29259399942657 0 -102.29259399942657 246.45098383823643 0 0 0 0 124.44896287416304 -50.07301783029834 0 -50.07301783029834 216.2360987020329 0 0 0 0 135.45313448097113 37.001643746014452 0 37.001643746014452 355.69966869289328 0 0 0 0 56.388889499636207 -93.570653750924976 0 -93.570653750924976 327.08744299200771 0 0 0 0 99.775610776462599 -23.571855747304653 0 -23.571855747304653 253.72529014004976 0 0 0 0 -25.233897936601352 -222.2683264527368 0 -222.2683264527368 204.00043574638403 0 0 0 0 67.166404770978261 72.773721440273221 0 72.773721440273221 102.0675250995082 0 0 0 0 54.190316269849063 -81.560692826147715 0 -81.560692826147715 239.53372182682506 0 0 0 0 -0.8490207486999175 -1.6369963083293904 0 -1.6369963083293904 2.3190547997881481 0 0 0 0 22.358589917819245 -25.288030187206459 0 -25.288030187206459 42.888984660530696 0 0 0 0 -893.39492214277016 -115.72129460850556 0 -115.72129460850556 154.22610300310407 0 0 0 0 7.703706250678696 -4.9446443262871309 0 -4.9446443262871309 5.1228046868980641 0 0 0 0 168.11122947174044 -273.79541459406028 0 -273.79541459406028 36.304541378063732 0 0 0 0 70.566245879635972 -961.34377679242971 0 -961.34377679242971 154.85089292965131 0 0 0 0 18.457327657812584 5.3654434833006235 0 5.3654434833006235 39.744208996606176 0 0 0 0 20.512757496894125 6.0356957776350981 0 6.0356957776350981 7.4213024559364698 0 0 0 0 38.235379121064398 -4.3720162570971297 0 -4.3720162570971297 9.0163456137015601 0 0 0 0 -37.559284038766236 51.888833826513292 0 51.888833826513292 331.56249075525557 0 0 0 0 -182.89565911857972 -104.26123615121833 0 -104.26123615121833 222.1358456117232 0 0 0 0 893.68513042772793 -196.18533871151885 0 -196.18533871151885 -265.12581659239368 0 0 0 0 1.7983196330625084 -2.8490791977831691 0 -2.8490791977831691 8.496416593938477 0 0 0 0 179.20427238708567 -202.08861616135755 0 -202.08861616135755 -94.682899001432816 0 0 0 0 134.35818794357601 828.25995310320468 0 828.25995310320468 645.03929766883084 0 0 0 0 22.81490437723096 -24.392405432998203 0 -24.392405432998203 55.578937530131952 0 0 0 0 1775.4275625605442 320.99969156290172 0 320.99969156290172 128.41715987840189 0 0 0 0 30.077436367107353 -14.289122660343892 0 -14.289122660343892 -0.2880709671072168 0 0 0 0 -31.888997443625158 -117.095639438945 0 -117.095639438945 107.09307279501081 0 0 0 0 27.155815418966988 -15.458149234242498 0 -15.458149234242498 -8.0345767880027879 0 0 0 0 37.801517269405394 -12.983635832984874 0 -12.983635832984874 72.454634924826678 0 0 0 0 25.887132820842908 -22.65781375397637 0 -22.65781375397637 71.839550784541643 0 0 0 0 21.982153177547843 -18.026558563527942 0 -18.026558563527942 70.848608773460001 0 0 0 0 39.96038723329184 -23.929994709025777 0 -23.929994709025777 42.331953504915873 0 0 0 0 55.564590663489867 -45.678875226886703 0 -45.678875226886703 15.673127070695045 0 0 0 0 71.402826232229017 5.6841701260418631 0 5.6841701260418631 65.667804378128494 0 0 0 0 29.970608717185314 3.2917526117162197 0 3.2917526117162197 103.46845742494042 0 0 0 0 -0.57301000592329832 4.2333708988784586 0 4.2333708988784586 2.5336035735950304 0 0 0 0 -0.8718982302680538 0.54377860732529726 0 0.54377860732529726 33.397247097158726 0 0 0 0 23.880354736898198 -24.653132435549196 0 -24.653132435549196 44.423943168076221 0 0 0 0 -21.547903030817906 52.29034876159858 0 52.29034876159858 82.161010223086123 0 0 0 0 14.3463067677244 -25.253650637518149 0 -25.253650637518149 87.649454411395709 0 0 0 0 22.216751598030896 -3.6668515763858522 0 -3.6668515763858522 9.4247485892556142 0 0 0 0 18.060431025660364 -21.076029230047425 0 -21.076029230047425 47.409514597347879 0 0 0 0 17.551089852582663 -21.545732947157376 0 -21.545732947157376 75.796627702409751 0 0 0 0 24.529147205367735 -26.047347871901366 0 -26.047347871901366 47.588944931550941 0 0 0 0 23.030835596255201 -20.741409142683551 0 -20.741409142683551 47.039843073958764 0 0 0 0 -8.9155358243501723 -35.654960648596898 0 -35.654960648596898 59.542740347831568 0 0 0 0 3.3335008776682784 1.3830995117066394 0 1.3830995117066394 40.49657796518423 0 0 0 0 18.743412348078891 4.6242966400131991 0 4.6242966400131991 41.17501321205782 0 0 0 0 14.978072399017492 -2.4229579224920599 0 -2.4229579224920599 37.91228628605495 0 0 0 0 11.498827769535183 -2.2886107000958873 0 -2.2886107000958873 45.274184141417209 0 0 0 0 -1.5069935225752715 6.4787923883559415 0 6.4787923883559415 42.163102713548142 0 0 0 0 15.719809487821294 1.4743334577469795 0 1.4743334577469795 54.265240339576849 0 0 0 0 5.22807412225443 7.5358988138874992 0 7.5358988138874992 16.027177649985461 0 0 0 0 0.73829616591643465 10.017353475073691 0 10.017353475073691 28.463704216727763 0 0 0 0 -97.946835635136438 76.28724542143209 0 76.28724542143209 50.483606029869406 0 0 0 0 13.948112797384965 10.500359413475962 0 10.500359413475962 31.592943776639004 0 0 0 0 6.0507951059383345 -11.301744329010035 0 -11.301744329010035 47.656191675108857 0 0 0 0 13.553354881769337 -13.062191995486501 0 -13.062191995486501 40.588145411747973 0 0 0 0 8.1972588179215045 7.2580148546149843 0 7.2580148546149843 15.126050774337259 0 0 0 0 -68.24225376399886 29.646742136035755 0 29.646742136035755 54.971994312607421 0 0 0 0 -0.52460635656189103 7.935668302858204 0 7.935668302858204 34.309560581871608 0 0 0 0 -8.9762714729563413 15.814124619890208 0 15.814124619890208 41.614439203243819 0 0 0 0 -66.678559434472845 6.1998282158165239 0 6.1998282158165239 726.90889331721701 0 0 0 0 0.099324227162510326 8.4957673473443975 0 8.4957673473443975 44.554610920124048 0 0 0 0 -48.54296433581203 -14.867539824681444 0 -14.867539824681444 65.82650362826098 0 0 0 0 -61.787229902383729 -14.515941030382237 0 -14.515941030382237 84.018525966683228 0 0 0 0 3.3654950187030295 -20.084031619679081 0 -20.084031619679081 55.345086406639894 0 0 0 0 10.25833117234572 -0.29201087857290986 0 -0.29201087857290986 20.584708975395188 0 0 0 0 0.94691865112743479 -1.6799803949270142 0 -1.6799803949270142 5.3495685661985135 0 0 0 0 25.753350608591063 -18.629728778265417 0 -18.629728778265417 -39.862383495383256 0 0 0 0 1.0758478837815346 -1.376548589381855 0 -1.376548589381855 -22.214138008654118 0 0 0 0 16.765718316651601 0.9012368755065836 0 0.9012368755065836 14.395737735700095 0 0 0 0 -21.855396076047327 9.7706516758480575 0 9.7706516758480575 14.732995431746531 0 0 0 0 5.433880868705053 6.6654020052638216 0 6.6654020052638216 19.267372919421547 0 0 0 0 -2.9794295840371219 2.6576705097448468 0 2.6576705097448468 16.538960998230209 0 0 0 0 -6.549967044871428 -11.127729398729144 0 -11.127729398729144 29.512350819417264 0 0 0 0 4.9000310807314236 -17.448993397294544 0 -17.448993397294544 3.176163837662898 0 0 0 0 -0.87451664348964719 -2.7572897816788107 0 -2.7572897816788107 1.7862469792675029 0 0 0 0 -16.505021371426665 9.3382600358454511 0 9.3382600358454511 11.120123266417067 0 0 0 0 -99.31327454420898 -50.929303990629705 0 -50.929303990629705 27.368898908112897 0 0 0 0 0.30150203779283391 -4.5413259536035149 0 -4.5413259536035149 43.367233442134449 0 0 0 0 25.545051071933813 42.484904534940142 0 42.484904534940142 -155.53375742514254 0 0 0 0 -18.633844257965848 -96.555143104407762 0 -96.555143104407762 -102.35700871399604 0 0 0 0 -80.092396980139711 -24.282633924412949 0 -24.282633924412949 282.61860691067704 0 0 0 0 -97.170342214720677 162.29025820522111 0 162.29025820522111 127.64004707853019 0 0 0 0 -57.982681826955513 13.204567257758754 0 13.204567257758754 105.12797083296755 0 0 0 0 19.269289646443212 -15.99184227317528 0 -15.99184227317528 95.528563779400429 0 0 0 0 -10.677793221363572 -7.5913182114854862 0 -7.5913182114854862 89.357637666806113 0 0 0 0 18.727660148813811 83.068924406165024 0 83.068924406165024 120.34814751172962 0 0 0 0 88.064694927615164 0.18544126673805295 0 0.18544126673805295 -50.947787865581631 0 0 0 0 0.46555238610493532 0.13338508433869833 0 0.13338508433869833 -0.34132195072095328 0 0 0 0 63.091486411187702 20.688982191330069 0 20.688982191330069 69.224597825450473 0 0 0 0 46.013019171851283 -18.872672073950525 0 -18.872672073950525 15.766191966005863 0 0 0 0 30.026911906680198 -10.251634154537896 0 -10.251634154537896 47.477466722506506 0 0 0 0 12.906742465200978 5.9556018084767857 0 5.9556018084767857 127.47723839092941 0 0 0 0 16.084069315892123 -9.5028040170968779 0 -9.5028040170968779 107.33058622076351 0 0 0 0 10.95095192184499 -76.053165976409218 0 -76.053165976409218 111.27653864233434 0 0 0 0 22.031880654395081 -12.104097979019571 0 -12.104097979019571 25.73091651937284 0 0 0 0 23.555069231734706 -20.400916431502992 0 -20.400916431502992 70.862833306644461 0 0 0 0 -124.97119527607629 -199.88945434423658 0 -199.88945434423658 295.64553714149497 0 0 0 0 11.201601063115504 -91.487560172896337 0 -91.487560172896337 -45.012078404964996 0 0 0 0 7.1226547542191838 20.805725092686771 0 20.805725092686771 10.337199184408746 0 0 0 0 -106.20046837061579 55.814655160992515 0 55.814655160992515 71.083637417497812 0 0 0 0 -11.183919315229836 11.253215875886184 0 11.253215875886184 73.699666028008991 0 0 0 0 7.3942987526290835 11.929705425944121 0 11.929705425944121 63.769197938447178 0 0 0 0 7.6754869241422057 8.1450438564024807 0 8.1450438564024807 76.615920481472131 0 0 0 0 -20.585855756035585 30.144076245717315 0 30.144076245717315 260.17078349143412 0 0 0 0 33.585798223575011 0.41545851209230023 0 0.41545851209230023 75.655910084497009 0 0 0 0 15.655352070868958 -8.5812799995565001 0 -8.5812799995565001 71.97891318272741 0 0 0 0 -27.824214587030838 -108.99277903481197 0 -108.99277903481197 106.02825114375355 0 0 0 0 -64.350880254199069 -135.91755282761869 0 -135.91755282761869 225.56204261357925 0 0 0 0 48.125802241511906 9.8062042100123108 0 9.8062042100123108 -3.0279197823656432 0 0 0 0 -16.817195000450283 -16.940653896576805 0 -16.940653896576805 103.87785417824125 0 0 0 0 0.32566636445140951 -1.5927612434364917 0 -1.5927612434364917 5.5169684465332267 0 0 0 0 1.2816910540634541 -4.079974518384585 0 -4.079974518384585 0.83983620940507819 0 0 0 0 -3.0378231577205952 58.42376955461441 0 58.42376955461441 268.00429923597267 0 0 0 0 -8.6049232280137069 7.9229163784256613 0 7.9229163784256613 79.867019031192228 0 0 0 0 56.729092314010742 -44.01802310002563 0 -44.01802310002563 6.0985447958446457 0 0 0 0 6.0732619153412415 -21.123302859460487 0 -21.123302859460487 36.879909962094999 0 0 0 0 23.32153730357868 -17.742304212672025 0 -17.742304212672025 82.92616465975334 0 0 0 0 19.731755235782877 -21.127273914893451 0 -21.127273914893451 14.171510805230142 0 0 0 0 24.539655074070197 -19.998770460555534 0 -19.998770460555534 67.917429848734173 0 0 0 0 26.761884934466025 -18.833340236333243 0 -18.833340236333243 68.44283339674439 0 0 0 0 
</DataArray>
<DataArray type="Float64" Name="cross_section_updated" format="ascii">
1 1 1 1 1 1 1 1 1 0.010178062065137147 1 1 0.010051793647589954 1 1 1 1 1 1 0.011711860435692455 1 0.012136954918115148 1 1 0.011164566848412849 1 1 1 0.011710509662197527 1 1 1 0.010011121849735294 1 0.0099974233397670826 0.010385596853854319 1 1 1 0.010235441311429446 1 1 1 1 0.015028430277315583 0.0083615237334062238 1 0.015014858448072849 1 1 1 1 1 0.0099704047261606615 1 0.0082752076493181233 1 1 1 1 0.011996010061389482 1 1 1 1 1 1 1 1 1 1 1 1 1 0.009687762568776322 1 1 1 0.0091107676754748658 1 1 1 1 1 1 1 1 1 1 1 1 1 1 0.0099444994299320438 1 1 1 1 1 0.0099621273963222054 1 1 0.010852739354444411 1 1 1 1 0.0094834280051752581 1 1 0.014557625289862134 1 1 1 1 1 1 0.013542019239743292 1 1 1 1 1 1 1 0.0098039961325670916 1 1 0.010140728374527681 1 1 1 1 1 1 1 1 1 1 1 1 1 1 1 1 0.011692585149646155 1 1 1 0.011817340034531838 1 1 1 0.01069382934619377 1 0.011129332413410888 1 1 0.01452809331548454 1 0.014875439595856148 1 1 0.009450997153892908 1 1 1 1 1 1 1 1 0.0096131782926266087 1 1 0.0094614412183258376 1 1 1 1 1 1 1 1 1 1 0.0098837687596161038 1 1 1 0.010005242674055729 1 1 1 1 1 1 1 1 1 1 1 1 1 0.010863826607981575 1 1 1 0.0099823720336098404 0.011608803170200389 1 1 1 1 1 1 1 1 0.0098210022721680855 1 1 1 1 1 0.0098218792344754169 1 1 1 1 1 1 1 1 1 1 1 1 1 1 1 1 0.010000876962307309 1 1 1 1 1 1 1 1 1 0.016554303911253773 1 1 1 1 1 1 1 1 1 0.017637544578835481 0.010651239813895916 1 1 1 1 1 1 1 1 1 1 1 1 1 1 1 1 1 1 1 1 1 1 1 1 1 1 1 1 1 1 1 1 1 1 1 1 0.010966267453172668 1 1 1 1 1 1 1 0.011525212534801264 1 1 1 1 1 0.010707420661395795 1 1 1 1 1 1 1 1 1 1 1 1 1 1 1 1 1 1 1 1 1 1 1 1 0.0094243752640154332 1 1 0.0095921793831912697 0.023349373896626998 1 1 1 1 1 1 1 0.021727274602081233 0.009952014832655523 1 1 1 1 1 1 1 1 1 1 1 1 1 1 1 1 0.011435184834449524 1 1 1 1 1 1 1 1 0.010249961369476665 1 0.011267556187739114 1 1 1 1 0.010069317297123702 0.011214894837593761 1 1 1 1 1 1 1 0.010563743184948411 1 1 1 1 1 1 1 0.01077056102914253 1 1 1 0.010667048577106104 1 1 1 1 1 1 1 1 1 1 1 1 1 1 1 1 1 1 1 1 1 1 1 0.011723792758989673 1 1 1 1 1 1 1 0.014357459715889765 0.011365457894989824 1 1 1 0.012804093482172809 1 1 1 1 1 1 1 1 1 1 1 1 1 1 1 0.013346080160479654 1 1 1 1 0.010303600138507792 1 1 1 0.01277776609004231 1 1 1 1 0.010079502706975968 1 1 1 1 1 1 1 1 1 1 1 1 0.011402217761994207 1 1 1 1 0.0098088338134974633 1 1 1 1 0.010192267919327407 1 1 0.010165336927117505 1 1 1 1 1 0.012214112967105409 1 0.0098782472127854209 0.011630022527514942 1 1 0.013424960694597306 1 1 1 1 1 1 1 0.010802054109666226 1 1 1 0.012995606939772038 0.010091338827210687 1 1 1 1 0.010108307838599574 1 1 1 1 1 1 1 0.01142840565509403 1 0.010241002748958531 0.011405354810064647 1 1 1 1 1 1 1 1 1 1 1 1 1 1 1 1 1 1 1 1 1 1 1 1 1 1 1 0.010010802952766828 1 1 1 1 1 0.009986727934605151 1 1 1 1 1 1 0.010032262202978348 1 0.0116015114532796 1 1 0.011558820297635858 1 1 0.011938695670881011 1 1 0.01141310944386642 0.010026301570598438 1 1 1 0.0095988527463181737 1 0.013106470898922203 1 1 1 1 1 1 1 0.010098968263340799 1 1 0.010170308009770986 1 1 1 0.010112073185135684 1 1 0.010219471791746202 1 1 1 1 0.010472230572899231 1 1 1 1 1 0.010304377504901222 1 1 1 1 1 1 1 1 1 1 0.0093276079753031923 1 1 0.009860505610226172 1 1 1 0.01288231986824389 1 1 1 1 0.0096501743862398952 1 1 0.012973856063496707 1 1 1 1 1 1 1 1 1 1 1 1 1 1 1 1 0.01000318208223545 1 1 1 1 0.011192638410374805 1 1 1 0.011424759979104991 1 1 1 1 1 1 1 0.01000960028641292 1 1 1 1 1 1 1 1 1 1 1 1 1 1 1 1 1 1 1 1 0.010028484425807355 1 1 1 1 1 1 1 0.010025302343571896 1 1 1 0.010156172494737232 1 1 1 1 1 0.0097906193809248077 0.010102535737453951 1 1 1 1 1 1 1 1 1 0.024824992015311909 1 1 0.0243912438359404 1 1 1 1 1 0.0098291142222126163 1 1 1 1 1 1 1 0.010100130788295586 1 1 1 1 0.009346314272835634 1 0.010032505220309608 1 1 1 0.007566030555119058 1 1 1 1 1 1 1 1 1 1 1 0.025052641266713499 1 1 1 1 1 1 1 1 1 0.0079613086628448401 1 1 1 1 1 1 1 1 1 0.010118076394945717 1 1 1 1 1 1 0.017191122949035964 1 1 1 1 1 1 0.016109612217043524 1 1 0.0089810429369481595 0.0101112628720275 1 1 1 0.0098729279636396057 1 1 1 1 0.010338063385583468 1 1 1 1 1 1 1 0.0099628315112638803 1 1 1 1 1 1 1 1 1 1 1 1 1 0.010046494031012312 1 1 1 1 1 1 1 1 1 1 1 1 1 1 1 1 1 0.0096416748931144464 1 1 1 1 1 1 1 1 1 1 1 1 0.011005433647983912 1 1 1 1 1 1 0.013053464431023697 1 1 0.0095890307548063304 0.015080275843903448 1 0.008585871295793664 1 1 1 1 1 1 1 1 1 1 1 1 1 1 1 1 1 1 0.0095323777358270224 1 1 1 1 1 1 1 1 1 1 1 1 1 1 0.010103733804928565 0.016969089379457646 0.0095856814182175964 1 1 1 1 0.0099644748324459777 1 1 1 1 1 1 1 1 1 1 1 0.011965981988891768 1 1 1 1 0.012765680412076139 0.011522736978174563 1 1 0.011400791578894818 1 1 1 0.010950436351581036 1 1 0.010067796083889528 1 1 1 1 1 1 1 1 1 1 1 1 1 1 1 1 1 1 1 1 1 1 1 1 1 1 1 1 1 1 1 1 1 1 1 1 1 1 1 1 1 1 1 0.010854153388670044 1 1 1 0.01111991376124874 1 1 1 0.0099761345643822694 1 1 1 1 1 1 1 0.010512029583293087 1 1 1 1 0.010739009741267727 1 0.010466107827216697 1 1 0.012137571584465863 1 0.010794723391747229 1 1 1 1 1 1 1 1 1 1 1 1 1 1 1 1 0.010704841698740572 1 1 1 1 1 0.013724647637040246 1 1 0.010287603387764447 1 0.0096484886882923834 1 1 1 1 1 0.010754112522168202 1 1 1 1 1 1 1 1 1 1 1 1 1 1 1 1 0.011679779143040209 1 1 1 1 1 0.010211882635851988 1 1 1 1 1 1 1 1 1 1 1 0.01064965042130242 0.010802518939441671 1 1 1 1 1 0.011967839927311083 1 1 1 1 1 1 1 1 1 1 1 1 0.0097494947108374974 1 1 1 1 1 1 1 1 0.0099879667151104405 1 1 0.0099470560657830623 1 1 0.01176141777576678 1 1 1 1 1 0.012363276249875951 1 1 1 1 0.012410812868285305 1 0.0094723227376010202 0.0093789954693035988 1 1 1 1 0.013149565953602589 1 1 1 0.014376617447684745 1 1 1 0.0099662362938436767 1 1 1 1 1 0.011194659116783273 1 1 1 0.01044741410401042 1 1 1 1 1 1 1 1 1 1 1 1 1 1 1 1 1 1 1 1 1 1 1 1 1 1 1 1 1 1 1 0.011037536094842974 1 1 1 1 1 1 0.0096617288600019183 1 1 1 1 1 1 1 1 1 1 1 1 1 1 0.0099881188279859409 1 0.0091067579968124382 1 1 1 1 1 0.017198264425384177 1 1 0.017207380358120535 1 1 1 1 1 1 1 1 1 0.013803844480393844 0.0080433061718735606 1 0.0084298443492299563 1 1 1 0.013362780072335321 1 1 1 0.012822334410113037 1 1 1 1 1 1 1 0.011937422729552088 1 1 1 1 1 0.017235600596772517 1 0.010050312732616097 1 1 1 0.019130698899746109 1 1 1 0.010372559675250578 1 0.0099979950246421086 1 1 1 0.0098539340140022542 1 1 1 1 1 0.016869545416815249 0.013521554168982588 1 0.010007260496776469 1 0.014285013050620559 0.0092104215306675948 1 0.014576749921543045 1 1 0.0090997371558513961 0.010282152289700466 1 0.011208821336081632 0.010514979900522897 1 1 0.016114949685109365 1 1 0.01003266028890425 0.017963920332504633 1 1 0.014924150865064522 1 1 1 1 1 1 1 1 1 1 1 1 1 1 0.0097103768827349231 1 1 0.013095607965020526 1 0.013167507001836805 1 1 1 1 1 0.016167414863395589 1 1 0.010011855062090871 1 1 1 1 1 0.014738968123827101 1 1 0.013465710746699746 1 1 1 0.015570916421625369 0.010075854166494692 0.012621354467053297 1 0.01194848401685952 1 0.014115523832095345 1 0.011547795244492506 1 1 0.010004561342290571 0.0098884910652873304 1 0.0099745843179036876 0.011984675812454326 1 1 0.011760916930442511 1 0.0097775325997979806 0.011454046949653962 1 1 1 0.012614761351992826 1 1 1 0.013065545380949247 0.012098052086488616 1 1 1 0.010789915846986567 1 1 0.015743800022273075 1 1 1 1 0.013814911005270795 1 0.01237939991276938 0.01267632329596196 1 1 1 0.010171126781110445 1 1 1 1 1 1 1 1 0.010137891467416159 1 1 0.010193074530877083 1 0.010198128295291186 1 1 1 1 0.010395198927290379 1 1 0.010369255076401627 1 1 0.0099672238883092013 1 1 1 0.011882398570801511 1 0.014035457661961313 1 1 0.0099364921857326011 1 1 0.016432331133940201 1 1 1 1 1 1 1 1 1 1 0.01224753121562821 1 1 1 1 1 1 0.01310854257693315 1 1 1 0.011045144036486368 1 0.013742455050871134 1 0.010378947573975885 1 1 1 1 1 1 1 1 1 1 0.010939181410252288 1 1 1 1 1 1 0.0098499720797306008 1 1 1 1 1 1 1 1 1 1 1 1 1 1 1 1 1 1 1 0.011046532682119114 1 1 1 1 1 1 1 1 1 1 1 1 1 1 1 1 1 1 1 1 1 1 1 1 1 1 0.010457406513138279 1 1 1 0.0099906652559356157 1 1 1 1 1 1 1 1 1 1 1 1 1 1 1 1 1 1 1 1 1 0.0099499196134235114 1 1 1 1 1 1 1 1 1 1 0.0098436845620085249 1 1 0.010065126575312177 1 1 1 1 0.010839285872532708 1 1 1 1 0.010704961897705294 1 1 1 1 1 1 1 1 1 1 1 1 1 1 1 0.010322846811547472 1 1 1 1 1 1 1 1 1 1 1 1 0.010821060070018759 1 1 1 1 0.0096812320395246541 1 1 1 1 1 1 1 0.0096998097977178729 1 1 1 1 0.010159381165571787 1 1 1 1 0.0099498135188576513 1 1 1 1 1 1 1 1 1 0.010908327531103641 1 1 1 0.010072303715233591 1 0.01120312836201578 1 1 1 1 1 1 1 1 1 1 1 1 1 1 1 1 1 1 1 1 1 1 1 1 1 1 0.010306738925505793 1 1 1 1 1 1 1 0.011814256809136631 1 1 1 1 0.011909197196428753 1 1 1 1 1 1 1 1 1 1 1 1 1 1 1 0.010313258633214436 1 1 1 1 0.011254937751335705 1 1 1 1 1 1 1 0.010459238948461234 1 1 1 1 1 1 1 1 1 1 1 1 1 1 1 1 1 1 1 1 1 1 1 1 1 1 1 1 1 1 1 1 1 1 1 1 1 1 1 1 1 1 1 1 1 1 1 1 1 1 1 1 1 1 1 1 1 1 1 1 1 1 0.010114257082496801 1 1 1 1 1 0.010261222159681957 1 1 1 1 1 1 1 1 1 1 1 1 0.0099136530199229623 1 1 1 1 0.01161775357871447 1 1 1 0.010181812923218634 1 1 1 1 1 0.0095683608673546427 1 1 1 1 0.012629194534908423 0.0085341653797195594 0.010714217218411442 1 1 1 1 1 1 0.011070638916335012 0.010521938585965803 1 1 0.011384091839903248 1 1 1 1 1 0.017774773143157941 0.012824657184867489 1 0.014881865322265368 1 1 1 1 1 0.0095155509795464034 1 0.010127780130560591 0.017841484672376097 1 1 1 1 1 1 1 1 1 1 1 1 1 1 1 1 1 1 1 1 0.010695019385616136 1 1 1 1 1 1 1 1 0.011012718627165548 1 1 0.010533915593601988 1 1 1 1 1 0.01514279547031281 0.010009774349658253 1 1 1 1 0.010262049810332746 0.015694379362046405 1 0.0093895646911491947 1 1 1 1 0.010511561752315268 1 1 1 1 1 0.010385817991295759 1 1 1 1 0.013082447762416148 1 1 1 1 1 1 1 1 1 1 1 0.011237680973693178 1 1 0.011540635776815973 1 0.010521351507731999 1 1 1 1 1 1 1 1 1 1 1 1 1 1 1 1 0.012349699522842299 0.012027475279339707 0.0096687715286470008 1 1 0.011336585250699575 1 1 1 1 1 1 1 1 1 1 1 1 1 1 1 1 1 1 1 1 1 1 1 1 1 1 1 1 1 1 1 1 1 1 1 0.010610433324993699 1 1 1 1 1 1 1 1 0.010770282510695846 1 1 1 1 1 1 1 1 0.010462298646955762 1 1 1 1 1 1 1 1 0.011503016934324501 1 1 1 1 1 1 1 1 1 1 0.010732734423628664 1 1 1 0.0099756220213398899 1 1 1 1 1 0.0096237107185626284 1 1 1 1 0.0095633686079127089 1 1 1 1 1 1 0.0099574799669476313 1 1 1 0.0099449038205169996 1 1 0.01053829016605333 1 1 0.010316869133943822 0.010565260180288874 1 1 0.010001795464873965 0.009923816542628635 1 1 0.010021179769245202 1 1 1 1 0.0099887862900725748 1 0.0098445090582571088 1 1 1 0.0098446789185514475 0.010621795606694292 1 1 1 1 1 1 1 1 1 1 1 1 1 1 1 1 1 1 1 1 1 1 1 1 1 1 1 1 1 1 1 1 1 1 1 1 1 1 1 1 1 1 1 1 1 1 1 1 0.0098554878453070947 1 1 1 1 1 1 1 1 1 1 1 1 1 1 1 1 1 1 1 1 0.0089389693964422104 1 1 1 1 1 1 1 1 1 1 0.012192911568690075 1 1 1 1 0.010811519221154593 1 1 1 1 1 1 1 1 1 1 1 0.010899163300294489 1 1 1 1 0.012395747407657972 1 0.01047988380704214 1 1 1 0.011186894211799041 1 0.010353239393106718 0.014167611991973073 1 1 0.0093556649517792766 1 1 1 1 1 0.015170747539923533 1 1 1 1 1 1 1 1 1 1 1 1 0.0084412936218059079 1 1 0.010846368936671522 1 1 1 1 1 1 1 0.014532614181780572 1 1 1 0.016140573855154446 1 1 1 1 1 1 1 0.011657687384001296 1 1 1 1 0.014963129218461612 1 1 0.004627253877983027 0.009397775591002697 1 1 1 1 0.0066811215201278071 1 1 1 1 1 1 1 1 1 1 1 1 1 1 1 1 1 1 1 1 1 1 1 1 1 0.016489619262049771 0.0096624144156796706 1 1 1 1 1 1 1 1 1 1 1 1 1 0.017222498238849117 0.0087047020172299101 0.016677283092572923 1 1 0.011697973969453726 0.010429605650490057 1 1 1 1 1 0.016074636737983913 1 1 1 0.0098603082804712989 1 1 1 1 1 0.008642810157256554 1 1 1 0.0096071891644156707 1 1 1 1 1 1 1 1 1 0.0098408968228856503 1 1 1 0.0096553722133550113 1 0.016701058780407139 1 1 0.010194181744564188 1 0.011258926822644073 1 1 1 1 0.017535882440768882 1 1 0.016214602912762357 1 1 1 1 1 0.0143184047539405 1 1 0.010663507113115839 1 0.01099322866091664 1 0.010535269916047925 1 1 1 1 1 1 1 0.0097264564081092301 1 1 1 1 1 1 1 1 1 1 1 1 1 1 0.010004672291546404 1 0.010027565767080349 1 1 1 1 1 0.0098547586411751285 1 0.010913748040579586 1 1 0.010686520760960593 1 1 1 1 1 0.0098096653657136317 1 1 1 1 0.0094495691586908015 1 0.010003856887254024 1 0.011313448211678042 1 1 0.0096669392668490266 1 1 1 1 0.010383474208562424 1 0.0094663476271442948 1 1 1 1 0.010688608177493812 0.010062474623803139 0.0096794419275555467 1 1 0.0095141948649108202 1 1 0.010054365678079973 0.011344204674635403 1 1 1 0.011453752289436729 1 1 0.0095875368576327103 0.011003674772541428 1 1 1 1 0.010364554769209864 1 1 1 1 1 1 1 1 1 1 1 1 0.010132293113058428 1 1 0.00999113458777009 1 1 1 1 1 1 1 1 1 1 1 1 1 1 1 1 1 1 1 1 1 1 1 1 1 1 1 0.010722574217858065 1 1 1 1 1 1 1 1 1 1 1 1 1 1 1 1 1 1 1 1 1 1 1 1 1 1 1 1 1 1 1 1 1 1 1 1 0.010144116015089705 1 1 1 1 1 0.010335320059238299 0.012566800331645476 1 1 1 1 1 1 0.011854799841709333 1 1 1 1 1 1 0.011152019485814985 1 0.010954482491280794 1 0.0099016405900685701 1 1 1 1 1 1 1 1 1 1 1 1 1 1 1 1 1 1 1 1 1 1 0.012486241071808598 1 1 1 1 1 1 1 1 1 1 1 1 1 0.012966355171392554 1 1 1 1 1 1 0.0098748505532553314 1 1 1 1 1 1 1 1 1 0.010071388811507072 1 1 0.015025895066810313 1 1 1 1 1 1 1 0.0162034089698949 1 1 1 1 1 0.011112404219235116 1 1 0.0097559461118839497 1 1 0.010326975778220903 1 0.010684978267911826 1 1 0.010951614112014833 1 0.01076855719742947 1 1 0.010870049283141385 0.01161911002743512 1 1 0.01098755866721416 0.010654267082143313 1 0.01384394122463577 1 0.0099982642885148177 1 1 1 1 0.011978981202997615 1 0.013068019009592645 1 1 1 1 1 1 1 1 1 1 1 1 1 0.01128644371346924 1 1 0.0094226941526289257 0.0098951216022053288 1 1 1 0.011701263341485359 1 1 1 1 1 0.017332666015918145 1 0.010439654224870424 1 1 1 1 1 1 1 1 1 1 0.010930607480159078 1 0.01228251155046611 1 1 0.0085524742148652133 1 1 1 0.010413437400346101 0.011437507684032268 0.011029325453310652 1 1 1 0.0099799828755462727 1 1 1 1 0.014426391798964756 1 1 1 0.011005494108122352 1 1 1 1 1 0.0092994515280725547 1 1 1 1 1 1 1 1 1 1 1 1 1 1 1 1 0.010141409662903639 1 1 0.019262682607106098 1 1 1 1 1 1 1 1 1 1 1 1 1 1 1 1 1 1 1 1 0.012917028571009475 0.009130614169911299 1 0.0097807199173088853 1 1 1 1 1 1 1 1 1 1 1 0.011195335649579726 1 1 1 1 1 1 1 1 1 1 1 0.011536700735772207 1 1 1 1 1 0.011464042998801901 0.01146666186800306 1 1 1 0.0098252418220019736 1 1 0.010531269597996853 1 1 0.018741677011181054 0.012422425799971734 0.01308445553635411 1 1 1 1 1 0.01268220346975797 1 1 1 1 1 0.010627723957236412 1 1 1 1 1 1 1 0.013616955702948283 1 1 1 1 1 0.0099543215908662816 1 1 0.011116250416904297 1 1 1 1 1 1 0.0098387665033615977 0.012442218506318131 1 1 1 1 1 0.010427149798739722 1 0.01096322119223269 1 0.01154520966941323 1 1 1 0.010889984221272703 1 1 1 0.0084290614562794325 1 1 0.019026637407240685 1 1 1 1 1 1 0.010343696801309846 1 1 1 1 1 1 1 1 1 1 1 1 1 1 1 1 1 0.0088860888931313713 1 1 1 0.0096540362481116332 1 1 1 1 1 1 0.022753507225859202 1 1 0.021482665074303277 1 1 1 1 0.010381615554398324 1 1 1 1 1 1 1 1 1 1 1 1 1 1 1 1 1 1 1 0.017575978201804281 1 1 1 0.010266573502068247 0.017907437498164397 1 1 1 0.0098840879272983316 1 1 1 0.010525196204779666 1 1 0.0092796884603737386 1 1 1 1 1 1 1 1 1 1 1 1 1 1 1 1 1 1 1 1 1 1 0.010980585532082015 1 1 1 0.0088578710898472648 1 1 1 1 1 1 1 1 1 1 1 1 1 1 1 1 1 1 1 1 1 0.011442321286341072 1 1 1 0.011494369312742211 1 1 1 1 1 1 1 1 1 1 1 1 1 0.00951002233927104 0.010757200367916223 0.010961412169807495 1 0.0097276362022280013 0.010207918247440466 1 1 1 1 1 1 0.010096586086201002 1 0.011024998515246166 0.010760830593020715 1 1 1 1 1 1 0.010143785368993401 1 1 0.011226968409097923 1 0.011870812134897799 1 0.0099602242741135896 1 1 1 1 1 1 1 1 1 0.0099988005204912425 1 1 1 1 1 1 0.0099570653038843042 0.009968983768895448 1 1 1 1 1 1 1 1 1 1 1 1 1 1 1 1 1 1 1 1 1 1 0.010689440146715787 1 1 1 1 0.01192210733615183 1 0.0099879642648438346 1 1 1 1 1 0.018054372304924918 1 1 1 1 1 1 1 0.0098521154723983616 1 1 1 0.0094556230222612812 1 1 1 1 1 1 1 1 1 1 1 1 1 1 1 1 1 1 1 1 1 1 1 1 0.014149000846318706 1 1 1 1 0.014164226099456589 1 1 1 1 1 1 1 1 1 1 1 1 1 1 1 1 1 1 1 1 1 1 1 1 1 1 1 1 1 0.020614926854110552 1 1 1 1 0.019467082050667286 1 0.010935953504081056 1 1 1 1 1 1 1 1 0.020302248494563968 1 1 0.0102674342452614 1 1 1 1 1 1 1 1 1 1 1 1 1 1 1 1 1 1 1 1 1 1 1 1 1 1 1 1 1 1 1 1 1 1 1 1 1 1 1 0.012715106126892911 1 1 1 1 1 1 1 1 1 1 1 1 1 0.014007613211690764 1 1 1 1 1 1 1 1 1 1 0.010595464356906661 1 1 1 0.014454506550226615 0.010342413540904316 1 1 1 0.010012006180469393 1 1 1 1 1 1 1 1 1 1 1 1 1 1 1 1 0.024772105920054667 1 1 1 1 0.026922558849440559 1 1 1 1 1 1 1 1 1 1 1 1 1 1 1 1 0.014531902897379798 1 1 1 1 1 1 1 1 1 1 1 1 1 1 1 1 0.011618316701543721 1 1 1 1 1 1 1 1 1 1 1 1 0.0098475021365506572 1 1 0.0094453822040098286 1 1 1 1 1 1 1 1 0.0096509535317944057 1 0.010018475838837193 1 1 1 1 1 1 1 1 1 1 1 1 1 0.028393602068115538 1 1 1 1 0.010131680547878039 1 1 1 1 1 1 1 0.010016754500210863 1 1 0.010292789175506594 1 1 1 1 1 1 1 1 1 0.010119601761573178 1 1 1 1 1 1 1 1 0.028341066417729745 1 1 1 0.028775264415283032 1 1 1 1 1 1 1 1 1 1 1 1 1 1 1 1 1 1 0.010331732187509334 1 1 1 1 1 1 1 0.011714668527200522 1 1 0.010459973808015718 1 1 1 1 1 1 1 1 1 1 1 1 1 1 1 1 1 1 1 1 1 1 1 1 1 1 1 1 1 1 1 0.010291974602438837 1 1 1 1 0.010895092660141818 1 1 1 0.010662359166021852 1 1 1 1 1 0.011264723293911913 1 1 1 1 1 1 1 1 1 1 1 1 1 1 1 1 1 1 1 0.010936376177917085 1 1 1 1 1 1 1 1 1 1 1 1 0.010366578541066396 1 1 1 1 1 1 1 1 1 1 1 1 1 1 1 1 1 1 1 1 1 0.01107707126054128 1 1 1 1 1 1 1 0.011530722304726591 1 0.01022287293881353 1 1 1 1 1 1 1 1 1 1 1 1 1 1 1 1 1 1 1 0.013578819729988366 1 1 1 1 1 1 1 1 1 1 1 1 1 1 1 1 1 1 1 1 1 1 0.011389081736768475 1 1 1 1 1 1 1 1 1 1 1 1 1 1 1 0.01071249231874186 1 1 1 1 1 1 1 1 1 1 0.012530350338042709 1 1 1 1 1 1 0.013459768980459676 1 1 1 1 1 0.010911581603457808 1 1 1 1 0.012200629248643947 1 1 1 0.012289885106371315 1 1 0.012518917804683734 1 1 1 1 1 1 1 1 1 1 1 1 0.01146953598443547 1 1 1 1 1 1 0.01161856417163688 1 1 1 0.0096095856370831054 1 0.010892735104454848 1 0.014554027468594006 1 1 1 1 1 1 1 0.011528787007061411 1 0.010749515703038504 1 1 1 1 1 1 1 1 1 1 1 1 1 1 1 1 1 1 1 1 1 1 1 1 0.010720020281396955 1 1 1 1 1 1 1 1 1 1 1 1 1 1 1 1 1 1 1 0.014227307851467733 0.013534358668135515 1 1 1 1 1 1 1 1 0.012630870420925854 0.014115690245121082 1 1 1 1 1 1 1 1 0.011092283768127841 1 1 0.010415694350101229 1 1 1 1 0.011826022298784078 1 1 1 1 0.0087502253424690379 0.0149777164865726 1 1 1 1 1 0.013918410203614399 0.010048082218041644 1 1 0.010080267071720328 1 1 1 1 1 1 1 1 1 1 1 1 1 1 1 1 1 1 1 1 1 1 1 1 1 1 1 1 1 1 1 1 0.011096645197113448 1 1 1 0.013174696308485237 1 1 1 1 1 0.0098636558888088744 1 0.0099720808179171901 1 1 1 1 1 1 1 1 1 0.010069601633416201 1 1 1 1 1 1 1 1 1 1 1 1 1 1 1 1 1 1 1 1 1 1 1 1 1 0.010038708516115748 1 0.011836651367417432 1 0.010084385207626896 1 1 1 0.011494518697754252 1 1 1 1 1 1 1 1 0.0098240991377648648 1 1 1 1 1 1 1 1 1 1 1 1 0.010486501940219599 1 1 1 1 1 1 1 1 1 1 1 0.01075275471166188 1 1 1 1 1 1 1 1 1 1 1 1 1 1 1 1 1 1 1 1 1 1 1 1 1 1 0.010473410157372095 1 0.0096480176697511175 1 1 0.011486923574197441 1 1 1 1 1 0.010042135316016458 1 1 1 1 1 1 1 1 0.013094836526582459 1 1 1 1 1 1 1 0.0077916634859827947 1 1 0.010075841096441399 1 1 1 1 1 1 1 1 1 0.0090594996713638989 1 1 1 1 1 1 1 0.010066598689900142 1 1 0.012846919454494224 1 1 1 1 1 1 0.014540816488024527 1 0.015772863869886591 1 1 1 1 1 1 1 1 1 1 1 1 0.016304124324624643 1 1 1 1 0.01055117079513716 1 1 1 1 1 1 1 0.0080803887933207554 1 1 1 1 0.011264872638121658 1 1 0.010168039446992343 1 1 0.010499917562489754 1 1 1 1 1 1 1 1 1 1 1 1 1 1 1 1 1 1 1 1 1 1 1 0.011882771556805338 1 0.010071216706209696 1 1 1 1 1 0.0099997817090136873 1 1 1 1 1 1 0.013759967309610655 1 1 1 1 1 0.014269902137054417 1 1 1 0.007348084749015403 1 1 1 1 0.010002259135034698 1 1 0.014705538091270965 0.0099366345362851098 0.010306859242869825 0.010009537447583395 1 1 1 1 0.0099576524593166914 1 1 1 1 1 1 1 1 1 1 1 0.010814477939063814 1 1 1 1 0.010283735554389807 1 1 1 1 1 1 1 1 1 1 1 1 1 1 1 1 1 1 0.01029222786790393 1 1 1 1 1 1 0.010935335128703941 1 1 0.011477103097280152 1 1 0.0097699874889679034 1 1 1 1 1 1 1 1 0.0099545726731944742 1 1 1 1 0.010173539076451138 1 1 1 1 1 1 1 1 1 1 1 1 1 1 1 1 1 1 0.010052170712657578 0.013828027650708863 0.010503794558144914 1 1 0.016324643419706873 1 1 1 0.016497629683853411 1 1 1 1 1 1 1 1 1 1 1 1 1 1 0.016201434063662319 1 0.010181281742967613 1 1 1 0.010048228501163223 1 1 1 1 1 1 1 1 1 1 1 1 1 1 0.012036672814415558 1 1 1 0.010059403609897103 0.011623092058800841 1 1 1 1 1 1 1 1 1 1 1 1 1 1 1 1 1 1 1 1 1 1 1 1 1 1 1 0.010580289584457218 1 0.0096903871182770652 1 1 0.010844292381744699 1 1 0.010597255932079217 1 1 1 1 0.01185060737923865 0.01229189872667873 1 1 1 1 1 1 1 1 0.012342262984468605 1 1 1 1 1 1 1 1 1 1 1 1 1 1 1 1 1 0.012240956839195133 1 0.011023019642636757 1 1 1 1 1 1 1 1 1 1 1 1 1 1 1 1 1 1 1 1 1 1 0.011061041373672354 1 1 1 1 1 1 1 1 1 1 1 1 1 1 1 1 0.010885429319387824 1 1 1 1 1 1 0.010346468553039652 1 0.010228931601118686 1 1 1 1 1 1 1 0.010209890668984499 1 0.010776208514262762 1 0.015581107547833352 1 1 1 1 1 1 0.013882277210381964 1 0.010683430691733737 1 1 1 1 1 1 1 1 1 1 1 1 1 0.016231118404862244 1 1 1 1 1 1 0.010577514545331818 1 1 1 1 0.014072217691598698 1 1 0.015511208660179665 1 0.011539944557687851 1 1 0.0099867617438859062 0.01001236820240268 1 1 1 1 1 0.010131325977165718 1 1 1 0.0092367715316352822 1 1 1 1 1 1 1 1 0.010069617018221741 1 1 1 1 1 1 1 1 1 1 1 1 1 1 1 1 1 1 1 1 1 1 1 1 1 1 0.010054693728472034 1 0.010048474336120659 0.013381605445044081 1 1 1 1 1 1 1 0.010029326232695963 1 1 1 1 0.018498763985385733 0.010002281429396678 0.011622718464709362 0.0099324866588224037 1 1 1 1 0.012122557481783536 1 0.0092229153534082939 1 1 1 0.012559669420251635 0.014364310643731469 1 1 1 0.0095561906261837984 1 0.0099575986682596679 1 1 1 1 1 1 1 0.0099574527279795103 1 1 1 0.010822397599955597 1 1 1 0.0098363914085415078 1 0.012699750306045912 1 1 1 0.012261642474493342 0.014949838561103197 1 1 0.012493441882110231 1 1 0.014368348280475762 0.010013089738685161 1 1 0.012000281025870849 1 1 1 1 0.012948536306666014 0.016613792814717164 1 1 1 1 1 0.010845589235135672 1 0.01205423496754986 1 1 1 1 1 1 0.009989944619236333 1 1 1 1 1 1 0.013017039137699932 1 1 1 0.010277839733949627 1 1 1 1 1 1 1 1 1 1 1 1 1 1 0.012897938415923073 0.011583439594655288 0.015885722654290751 1 0.01444638454066894 1 1 1 1 0.011265873879569161 1 1 1 1 1 1 1 1 1 1 1 1 1 1 1 1 1 1 1 1 1 0.010495755539210415 1 1 1 0.0101947517503835 1 0.01278888176150572 1 0.012425975095100872 1 1 1 0.013045109983836142 1 1 1 1 1 1 1 1 1 1 1 0.010099416558582881 1 1 1 0.0098226891434939206 1 1 1 1 0.010254287615813672 1 1 1 0.008481513960615512 1 0.0080315471758351884 0.011914979976128053 1 0.0088401182149737845 1 1 1 1 1 1 1 1 1 1 1 1 1 1 1 1 1 1 1 1 1 0.0099856112734014978 0.0099443486159529054 1 1 1 1 0.0099891978540124771 1 1 0.0094214985095114664 1 1 1 1 1 1 1 1 1 1 0.010043195777013472 1 1 1 0.0099979639032393083 1 0.0085655264778089785 0.0085517797883182083 1 1 1 1 1 1 1 1 1 0.015130206822875188 1 0.0099057746883227157 1 1 0.011292957408032564 1 0.010010835218953911 1 0.011299226673837714 1 1 0.012786377027761824 1 1 1 0.011948965403103836 1 1 1 1 1 1 1 1 0.010606309911824067 1 1 1 1 0.0099439136847154844 1 1 1 1 1 1 0.017126003178912962 1 1 0.020926834992024631 1 0.011178423924670375 1 1 1 1 0.010538617235580753 0.0087971894927843415 1 1 1 0.01061708728167792 1 0.016028538425898138 1 1 1 0.013647125234409604 1 1 1 0.0085709996842148525 1 1 1 1 1 1 1 1 1 1 1 1 1 1 1 1 1 1 1 1 1 1 1 1 1 0.014738212544829014 0.011979290645238578 1 1 1 1 1 1 0.010346065400758844 1 1 1 0.01347153137939406 1 1 1 0.013189120941885854 1 0.011567201620847572 0.010032857235671521 1 1 1 1 1 1 1 1 1 1 1 1 1 0.010034498477215874 0.01698255620865436 1 1 1 0.0100149023636385 1 1 1 1 1 1 1 1 1 1 1 1 1 1 0.015927079878136123 1 1 0.01919229363934143 1 0.01152532161274966 1 0.010319886727909219 1 1 1 1 1 1 1 1 1 0.022199741044837094 1 1 1 1 1 0.014454842106374941 1 1 1 0.0099623484025981087 1 1 1 1 1 0.016437035339201787 1 1 0.0098239889419056339 1 1 1 1 1 1 1 1 0.011793927144250059 1 1 0.014999326908844706 1 0.010002088530726542 1 1 0.01507328096566273 0.012681788572527679 1 0.01381154629602529 1 0.010663696096369338 1 1 1 1 1 0.012931929917613947 1 0.016336094032626529 1 0.011698927328948235 1 1 1 1 0.008779730561227184 0.012671847141084628 1 0.0075918490074268572 1 0.0099805281603215119 1 1 1 1 0.013846511622719087 0.015306882573883568 1 1 1 1 1 0.010230779575522304 1 1 1 0.010016974519436556 1 0.010706828735146941 0.01085773305601672 1 0.0099360293022328419 1 1 1 1 1 1 0.010010438276056331 1 1 1 1 0.0097384379880609481 1 1 1 1 0.0089196210147951399 0.014465719091789423 1 1 1 1 1 1 1 1 1 1 1 1 0.010358316009395513 1 1 1 1 1 1 1 1 1 1 1 1 1 1 1 1 0.010968578787057225 1 1 1 0.011588326645138815 1 1 1 1 0.014572475229873295 0.011700620270332114 1 1 1 1 1 0.0096141612170003009 1 1 0.010081544233185632 1 1 1 0.0095115415277454915 1 0.012248208738853687 1 0.0092232685178547675 0.011562153677474164 1 0.0099976539856446202 1 1 1 0.0086981504593498567 1 1 0.013051359340010603 0.010006175145079085 1 1 1 0.015059582474580571 0.014712752757699401 1 0.0099294087021602039 1 1 0.01091133903788245 1 1 1 1 0.010461225362584691 1 1 1 1 1 1 1 1 0.0087249899291475964 0.0098627304761789401 1 1 1 1 1 0.0099504826970300223 1 0.0092251588942104026 1 1 1 1 1 1 1 1 1 1 1 0.011436304324266757 0.010014990425231664 1 1 1 1 1 1 1 1 0.013435096273667133 1 1 0.015181544665956986 1 1 1 1 0.012833304691350701 1 0.010100152523828499 1 1 1 1 1 1 1 1 1 0.010192772908750343 1 1 1 1 1 1 1 1 1 1 1 1 1 1 1 1 1 1 1 1 1 1 1 1 1 1 0.010077256566585509 1 1 1 1 1 1 1 1 1 0.010585267284256315 1 1 0.010012976863590397 1 1 1 1 1 1 1 1 1 1 1 1 1 1 1 1 0.010049413032436682 1 0.01003757571516813 1 1 1 1 1 0.0098833684915691829 1 1 1 0.0099497158435788626 1 1 0.0099649086504435547 1 1 1 1 1 1 1 1 1 1 1 1 1 1 1 1 1 0.010233508008744022 1 1 1 1 1 1 1 1 1 1 0.010488369687128371 1 1 1 1 1 1 1 1 1 1 1 1 1 1 1 1 1 1 1 1 1 1 1 1 1 0.010161677570324969 1 1 1 1 1 1 1 1 1 1 1 1 1 1 1 1 1 1 1 1 1 1 1 1 1 1 0.011563405519567601 0.011300266228853311 1 1 1 0.01101410657972123 1 0.01366558573210536 1 0.011647396872112791 0.010411412988301613 1 1 1 1 1 1 1 1 0.011035690666567897 1 0.010031799477569905 1 1 0.010004288729292954 1 1 0.013902479733477982 1 1 1 1 1 1 1 1 1 1 1 1 1 1 1 1 1 1 1 1 1 1 1 1 1 1 1 1 1 1 1 1 1 1 1 1 1 0.013578426386032348 0.0098022626978909715 1 1 1 1 1 1 1 1 0.010032280821137121 0.013336487283633619 1 1 1 1 1 1 1 1 1 1 1 1 1 1 1 1 1 1 1 1 0.012445358718264051 0.0099410791723835851 1 1 1 0.010899817933947429 1 1 1 1 1 1 0.012138867553959026 1 1 1 1 1 1 1 1 1 1 1 0.012370514236371781 1 1 0.0099984288179959697 1 1 0.010020898852098298 1 1 1 1 1 1 1 1 1 1 1 1 1 0.0092054367921804124 1 0.012462135869892654 1 1 1 1 0.010807263578042152 1 1 0.012491122194548496 1 0.012099969050307148 1 0.0083527754030292192 1 1 0.009977438966985077 1 1 0.010472225608674781 1 1 1 1 1 1 1 1 1 1 1 1 1 1 1 1 1 1 1 1 1 1 1 1 1 1 0.020612275763776722 1 1 0.018688768557206293 1 1 1 1 1 1 0.016461876023046905 1 1 1 1 1 1 1 1 1 1 0.010257831142781466 1 1 1 1 1 1 1 1 1 1 1 0.010712307984649089 1 1 1 0.010434465723309 0.010693124442328719 1 1 1 1 1 1 0.011493230657041432 1 1 1 0.010117618740611851 1 1 0.011563940650958896 1 1 0.013785156853697387 1 0.012161392904122053 1 1 1 1 1 1 1 0.013327661141863343 1 1 0.012769592047681013 0.012698451442704373 1 1 1 0.0096658027689701248 0.010556771247537202 1 0.012976937459095238 1 0.0099088992648656629 1 1 1 0.0131222187096359 1 1 1 0.01301274801836709 0.012550358586697877 1 1 1 1 0.01033349976013213 1 1 1 1 0.0098832795894604909 0.016703695509491419 1 1 1 0.010205020422488765 0.010226557665574799 1 1 1 1 1 0.010121286210859604 1 1 1 0.015686195725739944 0.0098793803558883137 1 1 1 1 0.010028843795317757 1 1 1 1 1 1 1 1 1 1 1 1 1 1 1 0.014641477996515325 0.013901495265166163 1 1 1 1 1 0.01075161910908589 1 1 1 1 1 0.012313385434202417 0.015456593076752767 1 1 1 1 1 1 0.016959127148721394 1 1 1 1 1 1 1 1 1 1 1 1 0.016980560741521912 1 0.010055101527054047 1 1 1 1 1 1 1 0.014942414063485999 1 1 0.011683841431817473 1 0.015348376352961697 1 1 1 1 1 0.016148415941277947 1 1 1 0.011462908030482234 1 1 1 1 1 1 0.012527822497950812 1 1 1 1 1 1 1 1 1 1 1 1 1 1 1 1 1 1 1 1 1 0.011520325810396886 1 0.0099305246187156963 1 1 0.010566884205075518 1 1 1 1 1 1 0.010189958603875138 1 1 1 1 1 1 1 1 1 1 1 1 1 1 1 0.0098853740379101565 1 1 1 1 1 1 1 0.0096085226987181697 1 1 0.010153846873693265 1 1 1 1 1 1 1 1 1 1 1 1 1 1 1 1 1 1 1 1 1 1 1 1 1 1 1 1 1 1 1 1 1 1 1 1 1 1 1 1 0.013779174094098845 0.012034162118291763 1 1 1 1 1 1 1 1 0.017637067248199662 1 0.010057912817036788 1 0.011258710758377689 0.013453019087152174 1 0.010004758574079922 1 1 1 1 0.013775697283249906 1 1 1 1 1 1 1 1 1 1 1 1 1 1 1 1 1 1 1 1 1 1 1 1 1 1 1 1 1 1 1 1 0.011122153665042579 1 1 1 1 0.01109889069174543 0.010420262051114675 1 1 1 1 1 1 1 1 1 1 1 1 1 1 1 1 1 1 0.011318806964073459 1 1 1 1 1 1 0.010913062714966984 1 0.010355750158536391 0.013482580453573305 1 0.0099930168120463819 0.013601533095569015 1 1 1 1 0.0099656951297238047 0.01769163428204228 1 1 1 1 1 1 1 1 1 1 1 1 1 1 1 1 1 1 1 1 1 1 1 1 1 1 1 1 1 1 1 1 1 1 1 1 1 1 1 1 1 0.010012209742487607 1 0.0094371343180030733 1 1 0.010672634117144237 1 1 1 0.011998372857191998 0.0096044279338305082 1 0.010556013797651309 1 1 1 1 1 1 0.010007621188070314 1 1 1 0.010521490794131951 1 1 1 0.00939395666524462 1 1 0.013444349016074466 0.0099712396407661569 0.0091694854276904957 1 1 1 0.012265368122654713 1 1 1 0.011908432684139332 1 1 1 1 0.010962677891551012 1 1 1 1 1 1 0.01097574573727763 1 1 1 1 1 1 1 1 1 1 1 0.011048189267196546 1 1 1 1 1 0.010259079544369974 1 1 1 1 0.010492210711223714 1 1 1 1 1 1 1 1 1 1 1 1 1 1 1 0.010792533509050916 1 1 1 1 1 1 1 1 1 1 1 1 1 1 1 1 1 1 1 1 1 1 1 1 1 1 0.010993094873800215 1 1 1 1 1 1 1 1 1 1 1 1 1 1 1 1 1 0.017937253541360103 1 1 1 1 1 1 1 1 1 1 1 1 1 0.011187630539501583 0.019635467102376833 1 1 0.013271847194337634 1 0.016768186221047789 1 1 1 1 1 1 1 1 1 1 1 1 1 0.020843603138950492 1 1 1 1 1 0.010415825557144131 1 1 1 1 1 1 1 1 1 1 1 1 1 1 1 1 1 1 1 1 1 1 1 1 1 1 1 1 1 0.021314933182320916 1 1 1 1 1 1 1 1 1 1 0.010850401918662014 1 1 1 1 1 1 1 1 1 1 1 1 1 1 1 1 1 1 1 1 1 1 1 1 1 1 1 1 1 1 1 1 1 1 1 1 1 0.01241422246522533 1 1 1 0.010358848373474847 1 1 1 1 1 1 1 1 0.011061654901744915 1 1 1 1 1 1 0.011495340037320985 1 1 0.01026200233205719 1 1 1 1 1 1 1 1 1 1 1 1 1 1 1 1 0.021659048653915131 1 1 1 0.011047582401775106 1 1 1 1 1 1 1 1 1 1 1 1 1 1 1 0.013007761104798803 1 1 0.022664940212710163 1 1 1 1 1 1 1 1 1 1 1 1 0.01082738039245758 1 0.022446692059811243 1 1 1 1 0.014671378719152963 1 1 0.01839736573563187 1 1 0.013156382629631775 0.011734922838524155 0.013108915722670724 1 1 1 1 1 1 1 0.010228502033250732 1 1 1 1 1 1 0.013358490911314707 1 1 1 0.0099882411354616819 1 0.0098726232411409671 1 1 1 1 1 1 1 1 1 1 1 1 1 1 1 1 1 1 0.016141129333929249 1 0.015425207643608626 1 1 1 0.011049810081877503 1 0.014070646632484137 1 1 0.015544479874246266 1 1 1 1 1 0.015745470853610506 1 1 1 0.013366386352422063 1 1 1 1 1 1 1 1 1 1 1 1 1 1 1 1 1 1 1 0.0099892465475365858 1 1 0.011401374310323738 1 0.010826395289752679 1 1 0.010000071072952824 1 1 1 0.011001215832860414 1 1 1 1 0.010840542702468668 1 1 1 1 1 1 1 0.011426565520835041 1 1 0.010062479184090513 1 1 0.010879282977942894 1 1 1 0.010111605657196317 1 1 1 1 0.010296173181251278 1 1 1 1 1 1 1 1 0.01041309288383168 1 1 1 1 1 1 0.01082525389309423 1 1 1 1 1 0.010184656103368007 1 1 1 1 1 1 0.010503791299474013 1 1 1 1 1 1 1 1 0.0099789853298742261 1 1 1 1 1 1 1 1 1 1 1 1 1 1 1 1 1 1 1 1 1 1 1 1 1 0.0099786997008089358 1 0.0099296512688367908 0.010082516306347974 1 1 1 1 1 1 0.010037084248442706 1 1 1 1 1 1 1 1 1 1 1 1 0.010412161009262552 1 1 1 1 1 1 1 1 1 0.015942641677076902 1 1 1 0.0155069790115823 1 1 0.0099991225053998479 0.014260148215823443 1 1 1 1 1 1 1 1 1 1 1 1 1 1 1 1 1 1 1 1 1 0.010059367911918875 1 1 1 1 0.014906813776223075 1 1 1 1 0.010143009217333741 1 0.015957263293517543 1 1 1 1 0.010018030426196018 1 1 1 1 1 1 0.016302998028170528 1 1 1 1 1 1 1 1 0.0090143947490023604 1 0.0091954764549044693 1 1 1 0.011339965432173605 1 1 1 0.010536621670883217 1 0.010647022558887054 1 1 0.0099997143709346925 1 1 1 0.016893029469747967 0.011896787658336289 1 1 1 1 0.016011459837979927 1 1 0.010393640232995048 1 1 1 0.016593955319871387 1 1 1 1 1 1 0.012420915073803052 1 1 1 1 0.010008781662465535 1 0.014111830947494805 0.0092576186059777008 1 1 1 1 0.013766063578219016 1 1 0.01000923263530386 1 1 1 0.012948205108538441 1 1 1 1 1 1 0.011675104631627031 1 0.010675956704856876 0.010045664547311279 1 1 1 1 1 1 0.011715173686146711 1 1 1 1 1 1 1 1 1 1 1 1 1 1 1 1 1 1 1 1 1 0.012941707390954994 1 0.013024909145841954 1 1 1 1 1 1 1 1 1 1 1 1 1 1 1 1 1 1 1 1 1 1 1 1 1 1 1 1 1 1 1 1 1 1 1 1 1 1 1 1 1 1 1 1 1 1 1 1 1 1 1 1 1 1 1 1 1 1 0.010153502537329058 1 1 1 1 1 0.010363596328919528 1 1 1 1 1 1 1 1 0.010613832357933509 1 1 1 1 1 1 1 1 1 1 0.010210093791590468 1 1 1 1 1 1 1 1 1 1 1 1 1 1 1 1 1 1 1 1 1 1 1 1 1 1 1 1 1 1 1 1 1 1 1 1 1 1 1 1 1 1 1 1 1 1 1 1 1 1 1 1 1 1 1 1 1 1 1 1 1 1 1 1 1 1 1 1 1 1 1 1 0.010578829890189469 1 1 0.010101744386971274 1 0.015846439633665596 1 1 1 1 1 1 0.010606561157961112 1 0.010672953446107579 1 1 1 1 1 1 1 1 0.010519833690067164 1 1 0.010000392501200165 1 1 1 1 1 1 1 1 0.014743954935885746 1 1 1 1 0.013576376728939507 1 1 0.012375481340263478 1 1 1 1 1 1 0.013623688647364683 0.011622087665043178 1 1 1 1 1 1 1 1 1 1 1 1 0.015173995413746574 1 1 0.0099962805944031341 0.011513552442598858 1 1 1 1 1 0.012065188817178761 1 0.012384721147217967 1 1 1 1 1 0.010036931241546625 0.010552158256743611 1 1 1 0.01105534507042152 1 1 1 1 1 1 0.010191325526089673 1 1 1 1 1 0.013131595099979965 1 1 0.01295190110912034 1 1 1 1 1 0.01063275584548159 1 1 0.013864310948847446 0.012689869435502661 1 0.010251871956513101 1 0.010014267149608366 1 1 1 1 0.010047118759869035 1 1 1 1 1 1 1 1 0.012664764134229423 1 1 1 0.013314267924015386 1 1 1 1 1 0.0098931840450135686 0.0099852802954267759 0.012230892329130258 1 1 0.010177183234038302 1 0.010017603074656552 1 0.011002595681278059 0.0096105185984158223 0.010565954580762833 0.010773294224241666 1 1 1 1 1 1 1 1 0.011388325069724564 1 1 1 1 1 1 1 1 1 1 1 0.014467925409086792 1 1 1 1 1 1 1 1 1 0.0099915783076198056 0.014479359607273985 1 1 1 1 1 1 1 1 1 1 1 1 1 1 1 1 1 1 0.010099033628915899 1 1 1 1 1 1 1 1 1 1 1 1 1 1 0.01029803951780392 1 1 1 1 1 0.010231150480553374 1 0.010486274235525936 0.0099997332221607449 1 1 0.010006319574801725 1 1 0.01040486107915041 1 1 1 1 1 1 1 1 1 1 1 1 1 1 1 1 1 1 1 1 1 1 0.0099879864544363886 0.011544940871431063 1 1 1 1 1 0.013645492185623213 1 1 0.013477588593876245 1 1 0.014835055145301984 1 1 1 1 1 0.012213586108869974 1 1 1 0.010566880576884041 1 1 1 1 0.010295958645724511 0.013177814097626009 1 1 1 1 0.012719979106058583 1 0.011479489709100206 1 1 1 0.012089227189451329 0.011325418469365998 1 1 1 1 1 1 1 1 1 1 0.014246665969000212 1 1 1 1 0.010070680795737688 1 1 1 1 1 1 1 0.010683133031555977 1 1 1 1 1 1 1 1 1 1 1 0.0096879772175293699 1 1 0.010724565017371308 1 1 1 1 1 1 1 1 1 1 1 0.009416229540966459 1 1 0.0091621369103677391 1 1 1 1 1 0.013436147911294126 1 0.0099903561888067087 1 0.012581646110636245 1 1 1 1 1 0.011545688660228287 1 0.010014600199308943 1 1 1 0.011986577035656275 1 1 1 1 1 0.009977815427640032 1 1 0.011879519624937603 1 0.0098681950289788278 1 1 1 1 1 1 1 1 1 1 1 1 1 1 1 1 1 1 0.0091905834834475029 1 1 1 1 1 1 0.0094315567490957514 1 1 0.0097929701784143959 1 1 1 0.01182763054166245 1 1 1 1 0.013067736136038809 1 1 1 1 1 1 0.018896063061785262 1 1 0.020535538193077789 1 1 1 1 1 1 1 1 1 1 1 1 1 1 1 1 1 1 1 1 1 1 1 0.010114127347125468 1 1 1 1 1 0.021431083915588567 1 1 1 0.012400728719859111 1 0.012382435413249342 1 0.010830192275452601 1 1 1 1 1 0.021592182183021877 1 1 0.010279549300119836 1 0.0092323283385106342 1 1 1 1 1 1 1 1 1 1 0.015698580138060365 1 1 1 1 0.013930399486674726 0.01352854989259312 1 1 1 0.017119208162895305 1 1 0.0098859798206916445 1 1 1 1 1 1 1 1 1 1 1 1 1 1 0.013379981235164233 1 1 1 1 1 1 1 0.013048327063854736 1 1 1 1 1 1 1 1 1 1 0.013023790018744551 0.011652739881198542 1 0.0095385623120191141 1 0.015696291053480537 1 1 0.013812612866122688 1 1 1 1 1 1 1 1 1 1 0.010175652501960054 1 1 1 0.01011692084575821 1 1 1 1 0.012660760234505967 1 1 1 1 1 1 1 1 1 0.0091385166423002852 1 1 1 1 1 1 1 1 1 1 1 1 1 1 1 1 1 1 1 1 1 1 1 1 1 1 1 1 1 1 1 1 1 1 1 1 1 1 1 1 1 1 1 1 1 1 1 1 1 1 0.010456088870031749 1 1 1 1 1 1 1 1 1 1 1 1 1 1 1 1 0.0091900583285022593 1 1 1 1 0.011675342049621472 1 1 1 1 1 0.014396937096254801 1 0.0074898849602212155 1 0.014541759152738493 1 1 1 0.0072936886724704261 1 1 1 1 1 1 0.011784177529741806 1 0.011049058731869461 1 1 1 1 1 0.010735064090725083 1 1 1 1 1 1 1 0.010314357368156463 1 1 1 1 1 1 1 1 1 1 1 1 1 1 0.010113051315465076 1 0.013919840652717522 1 1 1 1 1 1 1 1 0.012114282412945911 1 1 0.01023318605385995 1 1 1 1 0.013529482420985721 1 0.0096801062930148424 1 1 1 1 1 0.01131877932223499 1 1 1 1 1 1 0.011662941965370772 1 1 1 1 1 0.013791905968489254 1 1 1 0.011270132146455815 1 1 0.010018918068242582 1 1 0.010113893156941384 1 1 1 0.010024899603614735 1 0.01183584983623978 1 1 1 1 1 1 1 1 1 1 1 1 1 1 1 1 1 1 1 0.010481408117547881 1 1 1 1 1 1 1 1 1 1 1 1 1 1 0.012582334522916886 1 1 1 1 0.01167629409127981 0.010866131746860812 1 0.011231831765156389 1 1 0.011089215542110986 1 0.011930044179200121 1 0.011387295924965641 1 0.010007004974044567 1 1 1 1 1 1 1 0.009859599894342895 1 1 1 1 1 1 1 0.012520033723330194 0.011614982793164974 1 0.012537433370590836 1 1 0.011193186734423797 0.012231848797919973 1 1 1 0.0085827619841628879 1 1 0.012963319757915389 1 1 0.0082499913246148991 1 1 1 0.010001886121242209 0.015277791168629158 1 1 1 1 1 1 0.0087131663496737479 1 1 1 1 1 1 1 1 1 1 1 1 1 1 1 1 1 0.013162984579391674 1 1 1 1 0.019443059087023394 1 1 1 1 1 1 0.01667235929402934 1 1 1 0.010652086174508916 1 1 1 1 0.010000469784806749 1 0.010236176009162148 1 1 0.011455680279972683 1 0.0095196628066298288 0.009923025787436323 1 1 1 0.012144232206277063 1 1 0.011078351576384357 1 0.010351388174523728 1 0.012849112349892083 0.010068063658285532 1 1 0.010086876354595766 1 1 1 1 1 1 1 1 1 1 1 1 1 0.010237606183921296 1 1 1 1 1 1 1 1 1 1 1 0.013561909546054077 1 1 1 1 1 1 1 1 1 1 1 1 0.010015618237836182 1 1 0.01430593541779078 1 1 0.0088454006811426473 1 1 1 0.015090475793674967 1 1 1 1 1 1 1 1 0.011033802572668148 1 1 1 1 1 1 1 1 1 1 0.0098841875855917392 1 1 0.018947861280267563 1 1 0.020647579080199874 1 1 1 1 1 1 0.010701950323271262 1 1 1 1 1 1 1 1 1 0.012148627509118824 1 1 1 1 1 1 1 1 0.016758728987029063 0.0099786560646826766 1 1 1 1 1 1 1 1 1 1 1 1 1 1 1 1 1 0.012962129696637532 1 1 1 1 1 1 1 1 1 1 0.010950041785679796 1 1 1 1 1 1 1 1 0.010862156298145033 1 1 1 1 1 1 0.017781780629143269 0.010529271363867457 1 1 0.019457298866934807 1 1 0.0096143013143455934 1 1 1 1 0.0098507260105134605 1 1 0.01995532709372002 1 1 1 1 1 1 1 1 1 1 1 1 1 1 1 1 1 1 1 1 1 1 1 1 0.010515720078657259 1 1 1 1 1 1 1 1 1 1 1 1 1 1 1 0.010339039180700279 1 1 1 1 1 1 0.0099699700613731582 1 1 1 1 1 1 1 1 1 1 1 1 1 1 1 1 1 1 1 1 1 0.0093614784261782085 1 1 1 1 0.0082364657240595312 1 1 0.0093971029217139405 0.010103142691380979 1 1 1 1 1 1 1 1 1 1 1 1 1 1 1 1 1 1 0.010322729547771912 1 1 1 1 1 1 1 1 1 1 1 1 1 1 1 1 1 0.0099591038801120045 1 1 1 1 0.010217825039457265 1 1 1 1 1 1 1 1 1 0.0099533717423475419 1 0.009880705972417532 1 1 1 1 1 0.012107171607985258 0.019200912438429127 1 1 1 0.014661534132543797 1 0.013176205205085056 1 0.0087903887176603406 1 1 0.010068439185403049 1 0.0093777442805665703 1 1 0.010148644016277219 0.010137283919295416 1 1 1 0.013329841354076919 1 1 1 1 0.013202536178873181 1 1 1 1 1 1 1 1 0.010013273016062252 1 0.0097857002406061908 0.01212244039738578 0.011177118186966381 1 1 0.011265613542356299 1 0.01009136137110034 1 1 1 0.011343676441196108 0.011176464153171918 1 0.0097112980228011223 1 0.011444271368944473 1 1 0.012122422627888001 1 0.011902113243956007 0.010965323714426812 1 0.0097746280619522893 1 0.01288280604626477 1 1 1 0.012750274761362335 1 0.0092021359171241806 1 1 0.010504687371515265 1 1 1 1 1 1 0.010053807546507556 1 1 1 1 0.0101642785359588 1 0.010022466602626392 1 1 0.010924976903932607 1 0.010713454182949913 1 0.011379688284455444 1 0.011903696670725803 1 1 1 0.012166189924541139 1 1 1 1 1 0.011184032494660079 1 0.0099447968811942275 1 1 1 0.01113861439312137 1 1 1 1 1 1 1 1 1 1 1 1 1 1 1 0.010779277387040381 1 0.011505374295874352 1 1 1 1 1 1 1 1 1 1 1 1 1 1 1 1 0.011928918431735491 1 0.009994881522044979 1 0.010983105418077623 1 1 0.010013031515126343 1 1 0.0099825751371717449 1 0.0112571962809356 1 1 1 1 1 1 1 1 1 1 1 1 1 1 1 1 1 1 1 1 0.010348810755799159 1 1 1 1 1 1 1 1 1 1 1 1 1 1 0.01081256722996334 1 1 1 1 1 1 1 1 1 1 1 1 1 1 1 1 1 1 1 0.010132693612055784 1 1 1 1 1 0.010091797492167785 1 1 1 1 0.012379659561528396 1 1 1 1 1 1 1 1 1 1 1 1 1 1 1 1 1 1 1 1 1 1 1 1 1 1 1 0.010460500095972968 1 1 1 1 1 1 1 1 1 1 1 0.010774900435834928 1 1 1 1 1 1 0.010886589776008711 1 1 1 1 1 1 1 1 1 1 1 1 1 1 1 1 0.0095999218510535601 1 1 0.012612386872561014 1 1 1 1 0.016349113486722081 1 1 1 1 1 1 1 1 1 1 0.0091381354721352566 1 1 1 1 1 1 1 1 1 1 0.011759272666288574 1 1 1 1 1 0.010476283949438876 1 1 1 1 1 0.010948992680945697 1 1 1 1 1 1 1 1 1 1 1 0.014732283003844975 1 1 1 0.01000481476836567 1 0.017517272482778498 1 1 1 1 1 0.010030373541043304 1 1 1 1 1 1 1 1 1 1 1 1 1 0.018598528494054987 1 1 1 1 1 1 1 1 1 1 1 1 1 0.012516909595429738 1 1 0.010259823960153774 1 1 1 1 1 1 1 1 1 1 1 1 0.010872297099751743 1 1 0.010873123851312597 1 0.019040212375409215 0.013255963973080929 1 1 1 1 1 0.015691407144662148 0.016705398929229474 1 1 0.010130668419260407 1 0.010504951376826841 1 1 1 1 1 1 1 1 1 1 1 1 1 1 1 1 1 1 1 0.015086920369088857 1 1 1 1 1 1 1 1 1 1 0.012741042403749707 1 1 1 0.014467765110820392 1 0.0091555752274854931 1 1 1 0.010024313391066641 1 1 1 1 1 1 0.012198617822136647 1 1 1 1 1 1 0.011698506799128622 1 1 1 1 0.009775995725228151 1 1 0.012309606454414644 1 1 1 0.011797717555786024 1 1 1 1 1 0.010703724695388543 1 1 0.010972864841994138 1 0.010535177895718341 1 1 1 1 1 1 1 1 0.010358859313749335 1 1 1 1 1 1 1 1 0.01012291889144422 1 1 0.015745570688499716 1 1 1 1 1 0.015612530893258666 1 0.015644268916383909 1 1 1 1 1 1 0.015519972247389846 1 1 1 1 1 0.010295555559751802 1 1 1 1 1 0.010702412900979527 1 0.010554699028345287 1 1 1 1 1 1 1 1 1 1 1 1 1 1 1 1 1 1 1 1 1 1 1 1 1 1 1 0.010516003554309435 1 1 1 1 1 1 1 1 1 1 1 1 1 1 1 1 0.0093333965237559768 1 1 0.0099167346283224357 1 1 1 0.016327260034068567 1 0.0090560126361516266 1 1 1 1 1 1 0.019619585451245855 0.0099067345882911505 1 1 1 1 1 1 1 1 1 1 1 1 1 0.013789114616940462 1 0.017721708760248797 1 0.019109288068331218 1 0.010933411848176013 1 1 1 1 0.011487323896770769 1 0.010019986638389794 1 1 1 1 1 1 1 0.010724213555175574 1 1 0.010442715856315579 1 1 1 1 1 1 1 1 1 1 1 1 1 1 0.0109663458885385 1 0.014032589263967254 1 0.012881409546500999 1 1 0.010728167532553914 1 1 0.011126292501507404 1 1 1 1 1 0.014336840021763424 1 1 1 1 1 1 0.009759453459045251 1 1 1 1 1 1 1 1 1 1 1 1 0.010360272148235516 0.010568571901562048 1 0.014095701149619628 1 1 1 1 1 1 1 1 1 1 1 0.0095262324215150788 1 1 1 1 1 1 1 1 1 1 1 1 1 1 1 1 1 1 1 1 1 1 1 0.012985075908634732 1 1 1 1 1 0.0084558429877426133 1 1 1 1 1 0.014359856798069878 1 1 1 0.013247709980944182 1 1 1 1 1 1 1 1 1 1 1 1 1 1 1 1 1 1 1 1 1 1 1 1 1 0.011541403145767144 1 1 1 1 1 1 1 1 1 1 1 1 1 1 1 1 1 1 0.010845962922399264 1 1 1 1 1 1 1 1 1 1 1 1 1 1 1 1 1 1 0.0094894687728776274 0.020937266374325442 1 1 1 1 1 1 0.021582940137982974 1 1 1 1 1 1 1 1 0.012208213992904549 1 1 0.012764561586470932 1 1 1 1 1 1 1 1 1 1 1 1 1 1 1 1 1 1 1 1 1 1 1 1 1 1 1 1 1 1 1 1 0.010105280389194091 1 1 1 1 1 1 1 1 1 1 0.0098666647040205856 1 1 1 1 1 1 1 1 1 1 1 1 1 1 0.011402310515965651 1 1 1 1 1 1 0.0099341026783724938 1 1 1 1 1 1 0.010067437974351889 1 1 1 1 1 1 1 0.010087087289006058 1 1 1 1 1 1 1 1 1 1 1 1 1 1 1 1 0.015834631958898573 1 0.0099829090435095569 1 1 1 1 1 1 1 1 0.0098288842089452374 1 1 1 1 1 0.011352596053276329 1 1 1 0.010087957918697254 1 1 1 1 1 1 1 1 1 1 1 1 0.012255834689131835 1 0.010933305567082668 1 1 1 0.012129211482468354 1 1 1 0.010144681788806134 1 1 1 1 1 1 0.010194343283577427 1 1 1 1 0.010077746730196431 1 1 1 0.014603335265910549 0.016591815393583384 0.012480352213230744 1 1 1 1 0.006970894111643592 1 1 1 1 1 1 1 0.0075211863356777764 1 0.010698956700093536 1 1 1 1 1 0.010235140058654229 1 1 1 0.0083290015187313313 1 1 0.011272236438569535 1 1 0.009907167736509119 1 1 0.012494116700417383 1 1 1 0.010957899896151348 1 1 1 1 1 1 1 0.011498741849498848 1 1 1 1 1 1 1 1 1 0.010459084885418132 1 1 1 1 0.022058633179895579 1 1 0.022215370587615614 1 1 1 1 1 1 1 0.010265772642078732 1 1 1 0.02150431873428485 0.010661551290754717 1 1 1 0.010037737302676153 1 1 1 0.015802817562180251 1 1 0.015204107317219447 1 0.009913276657257386 0.0099990530382913709 1 1 1 1 0.010403333806055175 1 1 0.01481219009483585 1 1 0.010268860263565964 1 0.0095227976294650074 1 1 1 1 1 1 1 1 0.01006931934532266 1 0.0083273752392416869 1 1 1 1 1 1 1 1 1 1 1 1 1 1 1 1 1 1 1 1 1 1 1 1 1 1 1 0.0090747560805488417 1 0.010131758424051805 1 1 1 1 1 1 0.010276440212857936 1 1 1 0.0097093081969746742 1 0.01090862378277235 1 1 1 1 1 1 1 1 1 1 1 1 1 1 1 1 1 1 1 1 1 1 1 1 0.011376222059212446 1 1 1 1 1 0.011453345241258578 1 1 1 1 1 1 1 1 1 0.015127981928466414 1 1 1 0.01135275622566617 1 1 1 0.010665246162190375 1 1 1 0.011743457381573862 1 1 1 1 1 1 1 1 1 1 1 0.010019502701115039 1 1 1 0.01000697314902343 1 1 1 1 1 1 1 0.010210768395928604 1 1 1 1 1 0.010129508569450933 1 1 1 1 1 1 1 1 1 1 1 1 1 1 1 1 1 1 1 1 1 1 1 1 1 1 1 1 1 1 1 1 1 1 1 1 1 1 1 1 1 1 1 1 1 1 1 1 1 1 1 1 1 1 1 1 1 1 1 0.017466533951967393 1 1 1 1 0.019078707245162134 1 1 1 1 1 0.010473162018610944 0.0088104144476225509 1 1 1 1 0.0079976848115017544 1 1 0.013518727956108119 1 1 1 1 0.0081741686514347715 1 1 1 0.010356515316120219 1 0.010981833605026607 1 1 0.009883268191521145 1 1 1 0.011934482237085649 1 1 1 1 1 1 0.012408535303475203 1 1 1 0.010872813882469964 0.0099903146465414577 1 0.010470249521073182 1 1 1 0.010812244100918196 0.010105330213826653 1 1 1 0.010842898010931742 1 0.01088223589126365 1 0.0096154963779111757 1 1 0.0099913681464646326 1 1 0.010115574918977223 1 1 1 1 1 1 1 1 1 1 1 0.0099855231372535588 1 0.0097871897324733302 1 1 1 1 1 1 1 1 1 1 1 1 0.010391324023892944 1 0.011184512217354607 1 0.011751088089612996 1 1 1 1 1 1 1 1 1 1 0.011859917865792248 1 1 0.015107215023540017 1 1 1 1 1 1 1 1 1 1 1 1 1 1 1 1 1 1 1 1 1 1 1 1 1 1 1 1 1 1 1 1 1 0.010136149651089171 1 1 0.010094858283256907 1 1 1 1 1 1 0.010018400087907907 0.0099730003630886035 1 1 1 1 1 0.010186528990211014 1 1 1 1 1 1 1 1 0.010043562985675495 1 1 1 1 0.010043225224560162 1 1 1 1 1 1 1 0.010091670706954088 1 1 1 1 1 1 1 0.010466096022585443 1 0.013633532039301781 1 1 1 0.011681459406991501 1 1 1 1 0.011254253342330049 1 1 1 1 0.010171485685535806 1 1 1 1 1 1 1 1 1 0.011456710828002899 0.012428085512924479 1 1 1 1 1 0.010729428555033102 1 1 0.01073637294584482 1 0.010000933870485312 0.009776017877181159 1 0.010839071322339343 0.0080700392070489624 1 1 0.011386412817157422 0.0099974498799889813 1 1 1 1 1 0.0086943416353731963 1 1 1 1 0.010958915653506778 0.010682145409941269 1 1 0.010182024171866894 1 1 0.0095612911802694274 1 1 0.0097756743296541077 0.0096422931798947915 1 1 1 1 1 1 1 1 0.010053176460195599 1 0.0096484076947289284 1 1 1 1 1 0.0097988047646243026 1 1 1 0.011817552239506085 1 0.0099084896529731941 1 1 1 1 1 1 1 1 1 1 1 1 0.010396157257119225 1 1 1 1 0.0098274785490578172 0.010581867556963977 1 1 1 1 1 1 1 1 1 1 1 1 1 1 1 0.010002307465743432 1 1 1 1 1 1 1 1 1 0.010643485676969745 1 1 1 1 0.010072213743171217 1 1 1 1 1 1 1 1 1 1 1 1 0.01172280696645662 1 1 0.010719796374519204 1 1 1 1 1 1 1 1 1 1 1 1 1 1 1 1 1 1 1 1 1 1 1 1 0.0099951535000613705 0.014181134211336082 1 1 1 1 1 1 1 1 1 1 1 1 0.011625338569365602 1 1 1 1 1 0.013240479820144271 1 1 1 0.010326495833374832 1 1 0.010567402416445094 0.0091172121368201277 0.013122739941141652 1 1 0.013806130166341905 1 1 0.012446426884181079 1 0.010089620624511283 1 1 1 1 1 1 1 1 1 0.0099425744730668557 1 0.010040267436294392 1 1 1 0.0094960102358642058 1 1 0.010658443803500697 1 0.0088816427694927026 0.010133560433298144 1 0.011631844662512186 1 0.011382453138186017 1 1 0.010473872968663213 1 1 0.010165083057000156 1 1 1 1 1 1 1 1 1 1 1 1 1 1 1 1 1 0.0098772696734860249 1 1 1 1 0.010481113560501786 1 0.01120648929359741 0.0096096424534428716 0.012535259050232617 1 1 1 1 1 0.010140613724097282 1 0.0097538454345874222 1 1 1 0.0098811013851375345 1 1 1 1 1 0.0095803297531032415 1 1 1 1 1 0.010126951566460866 1 1 1 1 1 0.010147492715758606 1 1 1 1 1 1 1 1 1 1 0.010456615298515298 1 0.011171258989750073 1 1 1 1 1 1 1 1 1 1 1 1 1 1 1 1 1 1 1 1 1 1 1 1 1 1 1 1 1 1 1 0.013563060842020677 0.012247571132789049 1 1 0.012946251512584578 1 1 1 0.013436509254024426 1 1 0.013496749034541115 1 1 1 0.010447722551897062 0.013443690977308222 1 1 0.013764498924337915 1 1 1 1 1 0.013743233401054978 1 0.011373397281904223 1 1 1 1 1 0.01030253431905899 1 1 1 1 1 1 1 1 1 0.011386854352090444 1 1 1 1 1 0.010872285005462072 1 1 1 1 0.011583384394915949 1 1 1 1 1 1 0.011830223345132798 1 1 0.0099485581103500309 1 1 1 1 0.0096871169456546457 1 0.012696839429913273 1 1 1 1 0.0098247152948601774 1 1 0.010343282923324497 1 0.010205106693682419 1 0.013829985071778343 1 1 0.0091463300146456938 1 1 0.0099769560289435771 1 1 1 1 0.0096997373496346597 1 1 0.013157245066335983 1 1 1 1 1 1 1 1 1 1 1 1 0.010086224675792059 1 1 1 1 1 1 1 1 1 0.01020052886544278 1 0.010206585208154449 1 1 0.011639616498948298 1 0.010087960685603173 1 1 1 1 1 0.012650642653037412 1 1 0.010579182281464553 1 1 0.011228947307918721 1 1 0.0115875264765949 1 1 1 0.010353178171675845 1 1 0.010854206214964749 1 1 1 0.010671385326266221 1 1 1 1 1 1 1 1 1 1 0.0095404594863898115 1 0.010006077340662233 1 0.012306022693620062 1 1 1 1 1 1 1 1 0.010136469537535352 1 1 1 0.01028584279276184 1 1 1 1 1 1 1 1 1 1 1 1 1 1 1 0.01004331623216765 1 1 0.0099873960436008061 1 1 0.010055085423303344 0.0096019661206571093 1 1 1 1 1 1 1 1 1 1 1 0.010124996788802973 1 0.010199216705524369 1 1 0.010087510250016734 1 0.010088645949763443 1 0.010600590570391699 0.010710527016272403 1 1 1 1 1 1 1 0.0099472875241116941 1 1 0.011169214174779493 1 0.01174704241713664 1 1 1 1 1 1 1 1 1 1 1 1 1 0.010510272063425806 0.010068604018455218 1 1 1 1 1 1 0.010620408001744467 1 1 1 1 1 1 1 1 1 0.010144752387827726 1 1 1 1 1 1 0.010169984374986007 1 1 1 0.012367196087745516 1 1 1 1 0.010102244003035343 1 1 1 1 1 0.010439735096644184 0.011862777872417423 1 0.011913345545294683 1 1 0.010302414446983163 1 1 0.011063724669930495 1 1 0.0099385118707472613 1 1 1 0.00965459995976479 0.011231608996511653 1 0.009897412175541756 1 1 0.010120511595831794 1 1 1 1 1 1 1 1 1 1 1 1 0.011243809857190361 0.0099829939089392961 1 1 1 1 1 0.010581085671719764 1 1 1 1 0.010013598020288094 1 1 0.010146651959662098 0.012102950052168408 1 1 0.015492613064574997 0.0094651099566068105 1 1 1 0.014439328001156083 1 0.013928309986887195 1 1 1 1 1 1 1 1 1 1 1 1 0.010809142284281769 1 1 1 0.01339950966162865 1 1 1 1 0.012399862728333187 0.013342383077701001 1 1 0.010011058030884187 1 0.010240765998350373 0.01292590168559762 1 1 0.01369877771115297 1 1 0.010373304213455104 1 1 1 0.010133171800508446 1 1 1 1 1 1 0.016217377653634804 1 1 1 1 1 1 1 1 1 0.010376352799055853 1 1 0.010290795121669666 1 1 1 1 1 1 1 1 1 1 1 1 1 1 1 0.011088187194588286 1 1 1 0.0098572612406789568 1 1 0.01026970887437509 1 0.011361101017021176 0.010958099039748141 1 0.010827949169736315 1 1 0.010200767238761605 1 1 1 1 1 1 1 1 1 0.012101036639326688 1 1 0.011598444326251529 0.010030016471929833 1 1 0.010012122790228097 1 1 1 1 1 0.013205391797006343 1 1 1 1 0.010009893194555506 0.010636778302993078 1 1 1 0.010046991719559138 1 1 1 1 1 1 1 0.010156592238308972 1 1 1 1 1 1 0.010041994035783344 1 1 1 1 1 1 1 1 1 1 1 0.012123287348178403 1 0.012820866751920814 1 1 1 1 0.014852538057175986 1 1 1 1 1 1 1 1 1 1 1 1 1 1 1 0.014039497776229893 1 1 1 1 0.013256244113318636 1 0.01389877797716596 1 0.011683520141791434 1 1 1 1 1 1 1 1 0.010236597286162519 0.0134735131015962 1 1 0.0099190689364955127 1 1 1 0.0094198873650000355 1 0.012183850941281445 1 1 1 1 1 1 1 1 1 0.0091733622543236117 1 0.010468046874757414 1 1 1 1 0.010830657419378178 1 1 1 1 1 1 1 1 1 0.0098298441250554373 1 1 1 1 0.010681036786158208 1 1 1 0.0099370036372295537 1 1 0.011406856012538113 1 0.010925016860130643 1 1 1 1 1 1 1 1 1 1 1 1 1 1 0.010774738794918378 0.011292364974415912 1 1 1 1 1 1 0.01443353054489966 1 1 1 1 1 0.010481584431957302 1 1 1 1 1 1 0.014454479565246585 1 1 0.015633500054392631 1 1 1 1 1 1 1 1 1 1 0.010208082130719115 1 1 1 1 0.010502384266869561 1 1 1 0.010008997737304876 1 1 1 1 1 1 1 1 1 1 0.010306691920160966 1 1 1 1 1 1 1 1 1 1 0.010336093827789807 1 1 1 1 1 1 1 1 0.01055520400753413 1 1 1 1 1 1 1 1 0.010489403904634416 0.010382169321839418 1 1 1 0.012323565182013635 1 1 1 1 1 1 1 1 1 1 1 1 1 1 1 1 1 0.010027985086174114 1 0.011473534791707587 1 1 1 1 1 1 1 1 0.010079335002483531 1 1 1 1 1 1 1 1 0.010106802053228841 0.010158151969538256 1 1 1 1 1 1 1 1 1 1 1 1 1 0.011724876393245764 1 1 1 1 1 1 1 0.012312803750980077 1 1 0.017266572220147797 1 1 1 0.017265419144550747 1 1 1 1 1 0.016819744136787992 1 1 0.014482499914108344 1 0.010310601405429696 1 1 1 1 0.01286163502059922 1 1 1 1 1 1 1 1 1 1 0.010113910899304379 1 1 0.010258786050855522 1 1 1 0.01220388473931823 1 1 1 1 0.010952054320715103 1 1 1 1 0.012500995793510428 1 0.012161826857787083 1 1 1 1 1 1 1 0.010061343721601132 0.013079739733621266 1 1 1 1 1 1 1 1 1 0.013811900359728952 1 1 1 1 1 0.011296692985261959 0.013000573976182829 1 1 1 1 0.011502508166236734 1 0.013215636557372672 1 1 0.013893652846714521 1 1 1 1 0.010044885867529165 1 1 1 1 0.011583124581331088 0.011636570522255326 0.0091394453247980213 1 0.010002540741998996 1 1 0.01432849531754176 1 1 1 1 1 1 1 1 1 0.010042268899444727 1 1 1 1 1 1 1 1 1 1 1 1 0.016334399969364661 1 1 1 1 1 1 1 1 1 0.0099964113543289969 0.010072809711057196 1 0.016584940340666078 1 0.010037653781306399 1 0.011317171560336832 1 1 
</DataArray>
</CellData>
</Piece>
</UnstructuredGrid>
</VTKFile>
