<?xml version="1.0"?>
<VTKFile type="UnstructuredGrid" version="0.1" byte_order="LittleEndian">
<UnstructuredGrid>
<Piece NumberOfPoints="31780" NumberOfCells="11173">
<Points>
<DataArray type="Float64" NumberOfComponents="3" format="ascii">
-0.5 -0.5 0 -0.48319190646450588 -0.47711482349794371 0 -0.49999999999999728 -0.45408921047276563 0 -0.48499620119032921 -0.50000000000000266 0 -0.5 -0.5 0 -0.48319190646450588 -0.47711482349794371 0 -0.48319190646450588 -0.47711482349794371 0 -0.47237275176400723 -0.48865574153886299 0 -0.4633446523784247 -0.47851346393110239 0 -0.48319190646450588 -0.47711482349794371 0 -0.4633446523784247 -0.47851346393110239 0 -0.47022046138236362 -0.46613061359957347 0 -0.48499620119032921 -0.50000000000000266 0 -0.48319190646450588 -0.47711482349794371 0 -0.47237275176400723 -0.48865574153886299 0 -0.48499620119032921 -0.50000000000000266 0 -0.48319190646450588 -0.47711482349794371 0 -0.48499620119032921 -0.50000000000000266 0 -0.47237275176400723 -0.48865574153886299 0 -0.4632151981456869 -0.5 0 -0.4632151981456869 -0.5 0 -0.45607538120128238 -0.48971403962113202 0 -0.44143419510104448 -0.49999999999999828 0 -0.47237275176400723 -0.48865574153886299 0 -0.45607538120128238 -0.48971403962113202 0 -0.4633446523784247 -0.47851346393110239 0 -0.47237275176400723 -0.48865574153886299 0 -0.4632151981456869 -0.5 0 -0.45607538120128238 -0.48971403962113202 0 -0.45607538120128238 -0.48971403962113202 0 -0.4633446523784247 -0.47851346393110239 0 -0.45107789102766688 -0.48494092829305913 0 -0.4633446523784247 -0.47851346393110239 0 -0.45604238691244142 -0.46659987312490259 0 -0.47022046138236362 -0.46613061359957347 0 -0.4633446523784247 -0.47851346393110239 0 -0.4500623361273639 -0.47861292566533792 0 -0.45604238691244142 -0.46659987312490259 0 -0.4633446523784247 -0.47851346393110239 0 -0.4500623361273639 -0.47861292566533792 0 -0.45107789102766688 -0.48494092829305913 0 -0.44351528561058873 -0.47032144468528952 0 -0.4424063633743498 -0.48613585053501868 0 -0.4318424324615075 -0.47424119986454188 0 -0.4500623361273639 -0.47861292566533792 0 -0.44351528561058873 -0.47032144468528952 0 -0.4424063633743498 -0.48613585053501868 0 -0.44351528561058873 -0.47032144468528952 0 -0.4424063633743498 -0.48613585053501868 0 -0.4500623361273639 -0.47861292566533792 0 -0.4424063633743498 -0.48613585053501868 0 -0.44423054224245478 -0.48631934744320809 0 -0.4500623361273639 -0.47861292566533792 0 -0.44423054224245478 -0.48631934744320809 0 -0.45107789102766688 -0.48494092829305913 0 -0.4500623361273639 -0.47861292566533792 0 -0.44351528561058873 -0.47032144468528952 0 -0.45604238691244142 -0.46659987312490259 0 -0.4424063633743498 -0.48613585053501868 0 -0.44423054224245478 -0.48631934744320809 0 -0.44143419510104448 -0.49999999999999828 0 -0.4424063633743498 -0.48613585053501868 0 -0.44423054224245478 -0.48631934744320809 0 -0.4424063633743498 -0.48613585053501868 0 -0.44143419510104448 -0.49999999999999828 0 -0.42998389901262257 -0.49223093413565128 0 -0.4424063633743498 -0.48613585053501868 0 -0.44143419510104448 -0.49999999999999828 0 -0.45607538120128238 -0.48971403962113202 0 -0.44423054224245478 -0.48631934744320809 0 -0.45107789102766688 -0.48494092829305913 0 -0.45607538120128238 -0.48971403962113202 0 -0.44423054224245478 -0.48631934744320809 0 -0.44143419510104448 -0.49999999999999828 0 -0.44462420784682849 -0.45450703883556048 0 -0.4463828207793834 -0.42942735539237342 0 -0.44462420784682849 -0.45450703883556048 0 -0.45774322903228593 -0.44230436361675468 0 -0.4463828207793834 -0.42942735539237342 0 -0.44462420784682849 -0.45450703883556048 0 -0.4463828207793834 -0.42942735539237342 0 -0.43574418429157241 -0.44562500293402801 0 -0.4410607089243882 -0.45453392659396152 0 -0.44462420784682849 -0.45450703883556048 0 -0.43574418429157241 -0.44562500293402801 0 -0.44351528561058873 -0.47032144468528952 0 -0.4410607089243882 -0.45453392659396152 0 -0.43545719660048932 -0.4578230811475259 0 -0.44351528561058873 -0.47032144468528952 0 -0.44462420784682849 -0.45450703883556048 0 -0.44351528561058873 -0.47032144468528952 0 -0.4410607089243882 -0.45453392659396152 0 -0.44462420784682849 -0.45450703883556048 0 -0.44351528561058873 -0.47032144468528952 0 -0.44462420784682849 -0.45450703883556048 0 -0.45604238691244142 -0.46659987312490259 0 -0.4410607089243882 -0.45453392659396152 0 -0.44462420784682849 -0.45450703883556048 0 -0.44462420784682849 -0.45450703883556048 0 -0.46300590979275552 -0.45436834291572342 0 -0.44462420784682849 -0.45450703883556048 0 -0.45604238691244142 -0.46659987312490259 0 -0.46300590979275552 -0.45436834291572342 0 -0.45604238691244142 -0.46659987312490259 0 -0.46300590979275552 -0.45436834291572342 0 -0.47022046138236362 -0.46613061359957347 0 -0.46300590979275552 -0.45436834291572342 0 -0.45774322903228593 -0.44230436361675468 0 -0.46881909130798038 -0.44212163451200648 0 -0.44462420784682849 -0.45450703883556048 0 -0.46300590979275552 -0.45436834291572342 0 -0.45774322903228593 -0.44230436361675468 0 -0.45774322903228593 -0.44230436361675468 0 -0.46881909130798038 -0.44212163451200648 0 -0.4625990924266018 -0.43119874154692422 0 -0.46881909130798038 -0.44212163451200648 0 -0.48138761173868239 -0.45422964699588481 0 -0.47935961354957601 -0.42850707748474492 0 -0.48138761173868239 -0.45422964699588481 0 -0.47935961354957601 -0.42850707748474492 0 -0.46300590979275552 -0.45436834291572342 0 -0.46881909130798038 -0.44212163451200648 0 -0.48138761173868239 -0.45422964699588481 0 -0.48138761173868239 -0.45422964699588481 0 -0.49018680632206391 -0.44064550810531627 0 -0.47935961354957601 -0.42850707748474492 0 -0.46300590979275552 -0.45436834291572342 0 -0.48138761173868239 -0.45422964699588481 0 -0.47022046138236362 -0.46613061359957347 0 -0.48319190646450588 -0.47711482349794371 0 -0.48138761173868239 -0.45422964699588481 0 -0.48319190646450588 -0.47711482349794371 0 -0.48138761173868239 -0.45422964699588481 0 -0.47022046138236362 -0.46613061359957347 0 -0.46300590979275552 -0.45436834291572342 0 -0.48138761173868239 -0.45422964699588481 0 -0.48319190646450588 -0.47711482349794371 0 -0.48138761173868239 -0.45422964699588481 0 -0.49999999999999728 -0.45408921047276563 0 -0.48138761173868239 -0.45422964699588481 0 -0.49999999999999728 -0.45408921047276563 0 -0.48138761173868239 -0.45422964699588481 0 -0.49999999999999728 -0.45408921047276563 0 -0.49018680632206391 -0.44064550810531627 0 -0.49999999999999728 -0.45408921047276563 0 -0.49018680632206391 -0.44064550810531627 0 -0.5 -0.4257560974678698 0 -0.49018680632206391 -0.44064550810531627 0 -0.5 -0.4257560974678698 0 -0.47935961354957601 -0.42850707748474492 0 -0.5 -0.4257560974678698 0 -0.48804702071529538 -0.41488092223989093 0 -0.47935961354957601 -0.42850707748474492 0 -0.5 -0.4257560974678698 0 -0.48804702071529538 -0.41488092223989093 0 -0.5 -0.3974229844629743 0 -0.47935961354957601 -0.42850707748474492 0 -0.4773316153604692 -0.40278450797360521 0 -0.48804702071529538 -0.41488092223989093 0 -0.47935961354957601 -0.42850707748474492 0 -0.4773316153604692 -0.40278450797360521 0 -0.47935961354957601 -0.42850707748474492 0 -0.4773316153604692 -0.40278450797360521 0 -0.46274594547517078 -0.41640382124184999 0 -0.46881909130798038 -0.44212163451200648 0 -0.47935961354957601 -0.42850707748474492 0 -0.4625990924266018 -0.43119874154692422 0 -0.5 -0.3974229844629743 0 -0.48302533777104251 -0.38214251036411861 0 -0.50000000000000067 -0.36908987145807859 0 -0.48804702071529538 -0.41488092223989093 0 -0.5 -0.3974229844629743 0 -0.4773316153604692 -0.40278450797360521 0 -0.5 -0.3974229844629743 0 -0.4773316153604692 -0.40278450797360521 0 -0.48302533777104251 -0.38214251036411861 0 -0.4773316153604692 -0.40278450797360521 0 -0.48302533777104251 -0.38214251036411861 0 -0.46221463481917069 -0.38289499813441241 0 -0.46221463481917069 -0.38289499813441241 0 -0.46069401266240662 -0.40014407855785539 0 -0.44978528752472741 -0.39006088072760198 0 -0.4773316153604692 -0.40278450797360521 0 -0.46221463481917069 -0.38289499813441241 0 -0.46069401266240662 -0.40014407855785539 0 -0.44814143371193832 -0.40434767194918619 0 -0.42953284928574709 -0.4145545832784821 0 -0.43554439847432919 -0.3941996887913064 0 -0.44814143371193832 -0.40434767194918619 0 -0.44978528752472741 -0.39006088072760198 0 -0.43554439847432919 -0.3941996887913064 0 -0.46069401266240662 -0.40014407855785539 0 -0.44814143371193832 -0.40434767194918619 0 -0.44978528752472741 -0.39006088072760198 0 -0.43554439847432919 -0.3941996887913064 0 -0.44233195795579228 -0.36871796620524971 0 -0.44978528752472741 -0.39006088072760198 0 -0.43554439847432919 -0.3941996887913064 0 -0.44233195795579228 -0.36871796620524971 0 -0.46221463481917069 -0.38289499813441241 0 -0.44978528752472741 -0.39006088072760198 0 -0.44233195795579228 -0.36871796620524971 0 -0.45774322903228593 -0.44230436361675468 0 -0.4625990924266018 -0.43119874154692422 0 -0.4463828207793834 -0.42942735539237342 0 -0.4625990924266018 -0.43119874154692422 0 -0.46274594547517078 -0.41640382124184999 0 -0.4463828207793834 -0.42942735539237342 0 -0.47935961354957601 -0.42850707748474492 0 -0.4625990924266018 -0.43119874154692422 0 -0.46274594547517078 -0.41640382124184999 0 -0.4773316153604692 -0.40278450797360521 0 -0.46069401266240662 -0.40014407855785539 0 -0.46274594547517078 -0.41640382124184999 0 -0.46069401266240662 -0.40014407855785539 0 -0.44814143371193832 -0.40434767194918619 0 -0.46274594547517078 -0.41640382124184999 0 -0.44814143371193832 -0.40434767194918619 0 -0.46274594547517078 -0.41640382124184999 0 -0.4463828207793834 -0.42942735539237342 0 -0.44814143371193832 -0.40434767194918619 0 -0.4463828207793834 -0.42942735539237342 0 -0.44814143371193832 -0.40434767194918619 0 -0.4463828207793834 -0.42942735539237342 0 -0.42953284928574709 -0.4145545832784821 0 -0.42670778597278308 -0.43271737934830468 0 -0.42953284928574709 -0.4145545832784821 0 -0.41583972448732448 -0.42483096564256151 0 -0.4463828207793834 -0.42942735539237342 0 -0.42670778597278308 -0.43271737934830468 0 -0.43574418429157241 -0.44562500293402801 0 -0.4463828207793834 -0.42942735539237342 0 -0.42670778597278308 -0.43271737934830468 0 -0.42953284928574709 -0.4145545832784821 0 -0.42953284928574709 -0.4145545832784821 0 -0.41146627302500971 -0.41296784655426272 0 -0.41583972448732448 -0.42483096564256151 0 -0.42953284928574709 -0.4145545832784821 0 -0.41146627302500971 -0.41296784655426272 0 -0.41885592468948679 -0.39848598209027708 0 -0.41146627302500971 -0.41296784655426272 0 -0.41583972448732448 -0.42483096564256151 0 -0.39959555789722889 -0.41857528874570088 0 -0.41583972448732448 -0.42483096564256151 0 -0.4071609459927148 -0.43580490580461828 0 -0.39959555789722889 -0.41857528874570088 0 -0.42670778597278308 -0.43271737934830468 0 -0.41583972448732448 -0.42483096564256151 0 -0.4071609459927148 -0.43580490580461828 0 -0.42779706167924059 -0.37849117133133742 0 -0.43554439847432919 -0.3941996887913064 0 -0.44233195795579228 -0.36871796620524971 0 -0.42779706167924059 -0.37849117133133742 0 -0.43554439847432919 -0.3941996887913064 0 -0.41885592468948679 -0.39848598209027708 0 -0.42953284928574709 -0.4145545832784821 0 -0.43554439847432919 -0.3941996887913064 0 -0.41885592468948679 -0.39848598209027708 0 -0.41146627302500971 -0.41296784655426272 0 -0.41885592468948679 -0.39848598209027708 0 -0.40068662112655401 -0.40001404289578729 0 -0.41885592468948679 -0.39848598209027708 0 -0.41042484112067729 -0.38072381574353908 0 -0.40068662112655401 -0.40001404289578729 0 -0.42779706167924059 -0.37849117133133742 0 -0.41885592468948679 -0.39848598209027708 0 -0.41042484112067729 -0.38072381574353908 0 -0.41042484112067729 -0.38072381574353908 0 -0.39514236395095781 -0.38339100338852272 0 -0.40068662112655401 -0.40001404289578729 0 -0.40068662112655401 -0.40001404289578729 0 -0.3807372311631434 -0.39469098379688028 0 -0.3910646184638335 -0.40855348404470582 0 -0.39514236395095781 -0.38339100338852272 0 -0.40068662112655401 -0.40001404289578729 0 -0.3807372311631434 -0.39469098379688028 0 -0.39514236395095781 -0.38339100338852272 0 -0.3807372311631434 -0.39469098379688028 0 -0.38673086369127158 -0.36576866811328818 0 -0.3807372311631434 -0.39469098379688028 0 -0.38673086369127158 -0.36576866811328818 0 -0.36152648567755702 -0.38576457033994238 0 -0.3807372311631434 -0.39469098379688028 0 -0.38673086369127158 -0.36576866811328818 0 -0.4071609459927148 -0.43580490580461828 0 -0.39959555789722889 -0.41857528874570088 0 -0.39051041839720491 -0.42843126901670808 0 -0.4071609459927148 -0.43580490580461828 0 -0.39051041839720491 -0.42843126901670808 0 -0.38700241938266999 -0.44341851655563508 0 -0.40068662112655401 -0.40001404289578729 0 -0.39959555789722889 -0.41857528874570088 0 -0.3910646184638335 -0.40855348404470582 0 -0.41146627302500971 -0.41296784655426272 0 -0.40068662112655401 -0.40001404289578729 0 -0.39959555789722889 -0.41857528874570088 0 -0.39959555789722889 -0.41857528874570088 0 -0.38552593535486668 -0.417359193571333 0 -0.39051041839720491 -0.42843126901670808 0 -0.39959555789722889 -0.41857528874570088 0 -0.3910646184638335 -0.40855348404470582 0 -0.38552593535486668 -0.417359193571333 0 -0.3807372311631434 -0.39469098379688028 0 -0.38552593535486668 -0.417359193571333 0 -0.37474359863501688 -0.42361329948047283 0 -0.3807372311631434 -0.39469098379688028 0 -0.3910646184638335 -0.40855348404470582 0 -0.38552593535486668 -0.417359193571333 0 -0.3807372311631434 -0.39469098379688028 0 -0.37474359863501688 -0.42361329948047283 0 -0.37304605726057449 -0.4208707701534678 0 -0.3807372311631434 -0.39469098379688028 0 -0.37474359863501688 -0.42361329948047283 0 -0.38700241938266999 -0.44341851655563508 0 -0.37474359863501688 -0.42361329948047283 0 -0.38552593535486668 -0.417359193571333 0 -0.39051041839720491 -0.42843126901670808 0 -0.37474359863501688 -0.42361329948047283 0 -0.38700241938266999 -0.44341851655563508 0 -0.37436056689416958 -0.42546162182482389 0 -0.37474359863501688 -0.42361329948047283 0 -0.38700241938266999 -0.44341851655563508 0 -0.37492324653409759 -0.43986936384834302 0 -0.37436056689416958 -0.42546162182482389 0 -0.39051041839720491 -0.42843126901670808 0 -0.38700241938266999 -0.44341851655563508 0 -0.37474359863501688 -0.42361329948047283 0 -0.37523877267138578 -0.45255939779237242 0 -0.38700241938266999 -0.44341851655563508 0 -0.37492324653409759 -0.43986936384834302 0 -0.37523877267138578 -0.45255939779237242 0 -0.38700241938266999 -0.44341851655563508 0 -0.38545548133407148 -0.46160157247570638 0 -0.4071609459927148 -0.43580490580461828 0 -0.38700241938266999 -0.44341851655563508 0 -0.40825520629944978 -0.45103855446246072 0 -0.38700241938266999 -0.44341851655563508 0 -0.39926124013032199 -0.463223733630798 0 -0.40825520629944978 -0.45103855446246072 0 -0.39926124013032199 -0.463223733630798 0 -0.38545548133407148 -0.46160157247570638 0 -0.38752118070399472 -0.48061486709336337 0 -0.38700241938266999 -0.44341851655563508 0 -0.39926124013032199 -0.463223733630798 0 -0.37523877267138578 -0.45255939779237242 0 -0.38545548133407148 -0.46160157247570638 0 -0.37606745728253982 -0.4686231826298955 0 -0.38700241938266999 -0.44341851655563508 0 -0.39926124013032199 -0.463223733630798 0 -0.38545548133407148 -0.46160157247570638 0 -0.37606745728253982 -0.4686231826298955 0 -0.38752118070399472 -0.48061486709336337 0 -0.36302964774588309 -0.47820879411623751 0 -0.38545548133407148 -0.46160157247570638 0 -0.37606745728253982 -0.4686231826298955 0 -0.38752118070399472 -0.48061486709336337 0 -0.38752118070399472 -0.48061486709336337 0 -0.36302964774588309 -0.47820879411623751 0 -0.38752118070399472 -0.48061486709336337 0 -0.38689476076400092 -0.49122870179199091 0 -0.36317673097034969 -0.48725438860195491 0 -0.38689476076400092 -0.49122870179199091 0 -0.36317673097034969 -0.48725438860195491 0 -0.39014369807534632 -0.5 0 -0.38689476076400092 -0.49122870179199091 0 -0.36338397722986482 -0.50000000000000866 0 -0.39014369807534632 -0.5 0 -0.38689476076400092 -0.49122870179199091 0 -0.41061279055765387 -0.49520301498201519 0 -0.38689476076400092 -0.49122870179199091 0 -0.40037940671539318 -0.48791491989034941 0 -0.41061279055765387 -0.49520301498201519 0 -0.38689476076400092 -0.49122870179199091 0 -0.41061279055765387 -0.49520301498201519 0 -0.39014369807534632 -0.5 0 -0.41061279055765387 -0.49520301498201519 0 -0.41690341892082788 -0.49999999999999928 0 -0.38752118070399472 -0.48061486709336337 0 -0.38689476076400092 -0.49122870179199091 0 -0.40037940671539318 -0.48791491989034941 0 -0.39926124013032199 -0.463223733630798 0 -0.41152006087797549 -0.48302895070596003 0 -0.38752118070399472 -0.48061486709336337 0 -0.41152006087797549 -0.48302895070596003 0 -0.39926124013032199 -0.463223733630798 0 -0.38752118070399472 -0.48061486709336337 0 -0.41152006087797549 -0.48302895070596003 0 -0.38752118070399472 -0.48061486709336337 0 -0.40037940671539318 -0.48791491989034941 0 -0.41152006087797549 -0.48302895070596003 0 -0.41152006087797549 -0.48302895070596003 0 -0.41902425738007593 -0.4837838091689407 0 -0.42120592238908738 -0.4671025310822518 0 -0.39926124013032199 -0.463223733630798 0 -0.41152006087797549 -0.48302895070596003 0 -0.42120592238908738 -0.4671025310822518 0 -0.41902425738007593 -0.4837838091689407 0 -0.42120592238908738 -0.4671025310822518 0 -0.41152006087797549 -0.48302895070596003 0 -0.41902425738007593 -0.4837838091689407 0 -0.41902425738007593 -0.4837838091689407 0 -0.41690341892082788 -0.49999999999999928 0 -0.41902425738007593 -0.4837838091689407 0 -0.41560994465725032 -0.48963652232546367 0 -0.41690341892082788 -0.49999999999999928 0 -0.40037940671539318 -0.48791491989034941 0 -0.41152006087797549 -0.48302895070596003 0 -0.40953055070206817 -0.48894585197594709 0 -0.40037940671539318 -0.48791491989034941 0 -0.41061279055765387 -0.49520301498201519 0 -0.40953055070206817 -0.48894585197594709 0 -0.41061279055765387 -0.49520301498201519 0 -0.40953055070206817 -0.48894585197594709 0 -0.41560994465725032 -0.48963652232546367 0 -0.41152006087797549 -0.48302895070596003 0 -0.40953055070206817 -0.48894585197594709 0 -0.41560994465725032 -0.48963652232546367 0 -0.41152006087797549 -0.48302895070596003 0 -0.41560994465725032 -0.48963652232546367 0 -0.41152006087797549 -0.48302895070596003 0 -0.41902425738007593 -0.4837838091689407 0 -0.41560994465725032 -0.48963652232546367 0 -0.41061279055765387 -0.49520301498201519 0 -0.41560994465725032 -0.48963652232546367 0 -0.41690341892082788 -0.49999999999999928 0 -0.44143419510104448 -0.49999999999999828 0 -0.41690341892082788 -0.49999999999999928 0 -0.42998389901262257 -0.49223093413565128 0 -0.4424063633743498 -0.48613585053501868 0 -0.41902425738007593 -0.4837838091689407 0 -0.42998389901262257 -0.49223093413565128 0 -0.41902425738007593 -0.4837838091689407 0 -0.41690341892082788 -0.49999999999999928 0 -0.42998389901262257 -0.49223093413565128 0 -0.4424063633743498 -0.48613585053501868 0 -0.41902425738007593 -0.4837838091689407 0 -0.4424063633743498 -0.48613585053501868 0 -0.41902425738007593 -0.4837838091689407 0 -0.4318424324615075 -0.47424119986454188 0 -0.41902425738007593 -0.4837838091689407 0 -0.4318424324615075 -0.47424119986454188 0 -0.42120592238908738 -0.4671025310822518 0 -0.44351528561058873 -0.47032144468528952 0 -0.4318424324615075 -0.47424119986454188 0 -0.43306033355343593 -0.46386236385120833 0 -0.42338758739810151 -0.45042125299556318 0 -0.42120592238908738 -0.4671025310822518 0 -0.43306033355343593 -0.46386236385120833 0 -0.42338758739810151 -0.45042125299556318 0 -0.42120592238908738 -0.4671025310822518 0 -0.44351528561058873 -0.47032144468528952 0 -0.43306033355343593 -0.46386236385120833 0 -0.43545719660048932 -0.4578230811475259 0 -0.4318424324615075 -0.47424119986454188 0 -0.43306033355343593 -0.46386236385120833 0 -0.42120592238908738 -0.4671025310822518 0 -0.43306033355343593 -0.46386236385120833 0 -0.43230199482794951 -0.45214306443840468 0 -0.42338758739810151 -0.45042125299556318 0 -0.4410607089243882 -0.45453392659396152 0 -0.43545719660048932 -0.4578230811475259 0 -0.43230199482794951 -0.45214306443840468 0 -0.43306033355343593 -0.46386236385120833 0 -0.43545719660048932 -0.4578230811475259 0 -0.43230199482794951 -0.45214306443840468 0 -0.42670778597278308 -0.43271737934830468 0 -0.43574418429157241 -0.44562500293402801 0 -0.42338758739810151 -0.45042125299556318 0 -0.43574418429157241 -0.44562500293402801 0 -0.43230199482794951 -0.45214306443840468 0 -0.42338758739810151 -0.45042125299556318 0 -0.4410607089243882 -0.45453392659396152 0 -0.43574418429157241 -0.44562500293402801 0 -0.43230199482794951 -0.45214306443840468 0 -0.42670778597278308 -0.43271737934830468 0 -0.4071609459927148 -0.43580490580461828 0 -0.42338758739810151 -0.45042125299556318 0 -0.4071609459927148 -0.43580490580461828 0 -0.42338758739810151 -0.45042125299556318 0 -0.40825520629944978 -0.45103855446246072 0 -0.42338758739810151 -0.45042125299556318 0 -0.40825520629944978 -0.45103855446246072 0 -0.42120592238908738 -0.4671025310822518 0 -0.39926124013032199 -0.463223733630798 0 -0.40825520629944978 -0.45103855446246072 0 -0.42120592238908738 -0.4671025310822518 0 -0.44120272965231438 -0.256937137247359 0 -0.42763257702111179 -0.24781447733042861 0 -0.45141716021597178 -0.24656667005739549 0 -0.44120272965231438 -0.256937137247359 0 -0.44658702462584438 -0.26952213823611632 0 -0.42649965611174412 -0.26171220266699291 0 -0.45264898928853969 -0.2592656638202277 0 -0.44658702462584438 -0.26952213823611632 0 -0.45988543620386552 -0.26467518791936617 0 -0.45264898928853969 -0.2592656638202277 0 -0.44120272965231438 -0.256937137247359 0 -0.44658702462584438 -0.26952213823611632 0 -0.45264898928853969 -0.2592656638202277 0 -0.44120272965231438 -0.256937137247359 0 -0.45141716021597178 -0.24656667005739549 0 -0.44658702462584438 -0.26952213823611632 0 -0.45013265931438462 -0.28599824843532301 0 -0.43612803693242691 -0.28593009126032198 0 -0.44658702462584438 -0.26952213823611632 0 -0.43612803693242691 -0.28593009126032198 0 -0.43165809570899938 -0.27368428275041051 0 -0.44658702462584438 -0.26952213823611632 0 -0.46667439313994519 -0.27733207380523878 0 -0.45013265931438462 -0.28599824843532301 0 -0.44658702462584438 -0.26952213823611632 0 -0.46667439313994519 -0.27733207380523878 0 -0.44658702462584438 -0.26952213823611632 0 -0.46667439313994519 -0.27733207380523878 0 -0.45988543620386552 -0.26467518791936617 0 -0.46667439313994519 -0.27733207380523878 0 -0.45988543620386552 -0.26467518791936617 0 -0.47093806827538792 -0.26132546829480019 0 -0.46667439313994519 -0.27733207380523878 0 -0.47124330577428419 -0.27910845946123392 0 -0.46451502206222001 -0.28543874232332089 0 -0.45988543620386552 -0.26467518791936617 0 -0.46257870568960979 -0.25593059544044777 0 -0.47093806827538792 -0.26132546829480019 0 -0.45264898928853969 -0.2592656638202277 0 -0.45988543620386552 -0.26467518791936617 0 -0.46257870568960979 -0.25593059544044777 0 -0.45264898928853969 -0.2592656638202277 0 -0.46257870568960979 -0.25593059544044777 0 -0.45141716021597178 -0.24656667005739549 0 -0.47093806827538792 -0.26132546829480019 0 -0.47888787600929211 -0.25745611867219048 0 -0.47520174341083171 -0.24531886278436199 0 -0.47888787600929211 -0.25745611867219048 0 -0.4932475875621487 -0.25840580573030841 0 -0.47124330577428419 -0.27910845946123392 0 -0.47093806827538792 -0.26132546829480019 0 -0.47520174341083171 -0.24531886278436199 0 -0.46257870568960979 -0.25593059544044777 0 -0.47093806827538792 -0.26132546829480019 0 -0.47520174341083171 -0.24531886278436199 0 -0.47888787600929211 -0.25745611867219048 0 -0.4932475875621487 -0.25840580573030841 0 -0.4782957046309152 -0.2451565447281136 0 -0.4932475875621487 -0.25840580573030841 0 -0.4782957046309152 -0.2451565447281136 0 -0.4932475875621487 -0.25840580573030841 0 -0.49999999999999911 -0.26438929792289678 0 -0.49999999999999911 -0.25205282143857172 0 -0.4932475875621487 -0.25840580573030841 0 -0.49999999999999911 -0.26438929792289678 0 -0.4932475875621487 -0.25840580573030841 0 -0.49999999999999911 -0.25205282143857172 0 -0.4932475875621487 -0.25840580573030841 0 -0.49999999999999911 -0.25205282143857172 0 -0.499999999999999 -0.24401787530533059 0 -0.4932475875621487 -0.25840580573030841 0 -0.49999999999999911 -0.26438929792289678 0 -0.48562165288714099 -0.28469873697633541 0 -0.49999999999999911 -0.26438929792289678 0 -0.48562165288714099 -0.28469873697633541 0 -0.49999999999999828 -0.29028901449143502 0 -0.4932475875621487 -0.25840580573030841 0 -0.47124330577428419 -0.27910845946123392 0 -0.48562165288714099 -0.28469873697633541 0 -0.47093806827538792 -0.26132546829480019 0 -0.47888787600929211 -0.25745611867219048 0 -0.47124330577428419 -0.27910845946123392 0 -0.46667439313994519 -0.27733207380523878 0 -0.47093806827538792 -0.26132546829480019 0 -0.4932475875621487 -0.25840580573030841 0 -0.47124330577428419 -0.27910845946123392 0 -0.46667439313994519 -0.27733207380523878 0 -0.47093806827538792 -0.26132546829480019 0 -0.47124330577428419 -0.27910845946123392 0 -0.46667439313994519 -0.27733207380523878 0 -0.47124330577428419 -0.27910845946123392 0 -0.47713793115993353 -0.29030381753786078 0 -0.47572857788368073 -0.30390029353684661 0 -0.46451502206222001 -0.28543874232332089 0 -0.47124330577428419 -0.27910845946123392 0 -0.47713793115993353 -0.29030381753786078 0 -0.46451502206222001 -0.28543874232332089 0 -0.47713793115993353 -0.29030381753786078 0 -0.48562165288714099 -0.28469873697633541 0 -0.48858109719234111 -0.29837285539156688 0 -0.47124330577428419 -0.27910845946123392 0 -0.48562165288714099 -0.28469873697633541 0 -0.47124330577428419 -0.27910845946123392 0 -0.47713793115993353 -0.29030381753786078 0 -0.48562165288714099 -0.28469873697633541 0 -0.48562165288714099 -0.28469873697633541 0 -0.49999999999999828 -0.29028901449143502 0 -0.48858109719234111 -0.29837285539156688 0 -0.48562165288714099 -0.28469873697633541 0 -0.49999999999999828 -0.29028901449143502 0 -0.49999999999999828 -0.29028901449143502 0 -0.48858109719234111 -0.29837285539156688 0 -0.5 -0.3165559668136495 0 -0.48858109719234111 -0.29837285539156688 0 -0.47572857788368073 -0.30390029353684661 0 -0.5 -0.3165559668136495 0 -0.47713793115993353 -0.29030381753786078 0 -0.48858109719234111 -0.29837285539156688 0 -0.47572857788368073 -0.30390029353684661 0 -0.47572857788368073 -0.30390029353684661 0 -0.46451502206222001 -0.28543874232332089 0 -0.45681726974973702 -0.31433749297125679 0 -0.46451502206222001 -0.28543874232332089 0 -0.45681726974973702 -0.31433749297125679 0 -0.46451502206222001 -0.28543874232332089 0 -0.44532382060721659 -0.30349471898430641 0 -0.45681726974973702 -0.31433749297125679 0 -0.46451502206222001 -0.28543874232332089 0 -0.44532382060721659 -0.30349471898430641 0 -0.46451502206222001 -0.28543874232332089 0 -0.45013265931438462 -0.28599824843532301 0 -0.44532382060721659 -0.30349471898430641 0 -0.46667439313994519 -0.27733207380523878 0 -0.46451502206222001 -0.28543874232332089 0 -0.45013265931438462 -0.28599824843532301 0 -0.46667439313994519 -0.27733207380523878 0 -0.46451502206222001 -0.28543874232332089 0 -0.47124330577428419 -0.27910845946123392 0 -0.46451502206222001 -0.28543874232332089 0 -0.45013265931438462 -0.28599824843532301 0 -0.44138398926955991 -0.294215948064944 0 -0.44532382060721659 -0.30349471898430641 0 -0.45013265931438462 -0.28599824843532301 0 -0.44138398926955991 -0.294215948064944 0 -0.43612803693242691 -0.28593009126032198 0 -0.44138398926955991 -0.294215948064944 0 -0.44532382060721659 -0.30349471898430641 0 -0.43395144022421128 -0.30144073357982482 0 -0.4411789711739772 -0.31003485740566938 0 -0.44532382060721659 -0.30349471898430641 0 -0.45681726974973702 -0.31433749297125679 0 -0.4411789711739772 -0.31003485740566938 0 -0.44532382060721659 -0.30349471898430641 0 -0.43395144022421128 -0.30144073357982482 0 -0.4411789711739772 -0.31003485740566938 0 -0.44447568631222922 -0.32538240669651158 0 -0.43078698688794848 -0.33392103278992791 0 -0.44447568631222922 -0.32538240669651158 0 -0.44911951743725392 -0.34323624361919242 0 -0.45681726974973702 -0.31433749297125679 0 -0.4411789711739772 -0.31003485740566938 0 -0.44447568631222922 -0.32538240669651158 0 -0.45681726974973702 -0.31433749297125679 0 -0.44911951743725392 -0.34323624361919242 0 -0.43078698688794848 -0.33392103278992791 0 -0.44911951743725392 -0.34323624361919242 0 -0.43444129555352018 -0.34942628457290231 0 -0.43078698688794848 -0.33392103278992791 0 -0.44447568631222922 -0.32538240669651158 0 -0.44911951743725392 -0.34323624361919242 0 -0.43078698688794848 -0.33392103278992791 0 -0.44911951743725392 -0.34323624361919242 0 -0.45681726974973702 -0.31433749297125679 0 -0.44911951743725392 -0.34323624361919242 0 -0.45681726974973702 -0.31433749297125679 0 -0.47727960797267521 -0.32964082242459131 0 -0.44911951743725392 -0.34323624361919242 0 -0.47727960797267521 -0.32964082242459131 0 -0.47455975871862732 -0.35616305753863547 0 -0.47572857788368073 -0.30390029353684661 0 -0.5 -0.3165559668136495 0 -0.47727960797267521 -0.32964082242459131 0 -0.47572857788368073 -0.30390029353684661 0 -0.45681726974973702 -0.31433749297125679 0 -0.47727960797267521 -0.32964082242459131 0 -0.5 -0.3165559668136495 0 -0.5 -0.34282291913586399 0 -0.47727960797267521 -0.32964082242459131 0 -0.5 -0.34282291913586399 0 -0.47727960797267521 -0.32964082242459131 0 -0.47455975871862732 -0.35616305753863547 0 -0.5 -0.34282291913586399 0 -0.47455975871862732 -0.35616305753863547 0 -0.50000000000000067 -0.36908987145807859 0 -0.47455975871862732 -0.35616305753863547 0 -0.50000000000000067 -0.36908987145807859 0 -0.48302533777104251 -0.38214251036411861 0 -0.47455975871862732 -0.35616305753863547 0 -0.50000000000000067 -0.36908987145807859 0 -0.48302533777104251 -0.38214251036411861 0 -0.46221463481917069 -0.38289499813441241 0 -0.47455975871862732 -0.35616305753863547 0 -0.46221463481917069 -0.38289499813441241 0 -0.45707152573412918 -0.36168342089410238 0 -0.44233195795579228 -0.36871796620524971 0 -0.46221463481917069 -0.38289499813441241 0 -0.47455975871862732 -0.35616305753863547 0 -0.45707152573412918 -0.36168342089410238 0 -0.44911951743725392 -0.34323624361919242 0 -0.47455975871862732 -0.35616305753863547 0 -0.45707152573412918 -0.36168342089410238 0 -0.44911951743725392 -0.34323624361919242 0 -0.47455975871862732 -0.35616305753863547 0 -0.44911951743725392 -0.34323624361919242 0 -0.44233195795579228 -0.36871796620524971 0 -0.43444129555352018 -0.34942628457290231 0 -0.44911951743725392 -0.34323624361919242 0 -0.45707152573412918 -0.36168342089410238 0 -0.44233195795579228 -0.36871796620524971 0 -0.44911951743725392 -0.34323624361919242 0 -0.44233195795579228 -0.36871796620524971 0 -0.42779706167924059 -0.37849117133133742 0 -0.44233195795579228 -0.36871796620524971 0 -0.42060591400430969 -0.35732242426673222 0 -0.42060591400430969 -0.35732242426673222 0 -0.43078698688794848 -0.33392103278992791 0 -0.44233195795579228 -0.36871796620524971 0 -0.43444129555352018 -0.34942628457290231 0 -0.42060591400430969 -0.35732242426673222 0 -0.43444129555352018 -0.34942628457290231 0 -0.42060591400430969 -0.35732242426673222 0 -0.43078698688794848 -0.33392103278992791 0 -0.42060591400430969 -0.35732242426673222 0 -0.40292378525749722 -0.35855919100743472 0 -0.41013094289028112 -0.3423652369551976 0 -0.42060591400430969 -0.35732242426673222 0 -0.41013094289028112 -0.3423652369551976 0 -0.43078698688794848 -0.33392103278992791 0 -0.41042484112067729 -0.38072381574353908 0 -0.42060591400430969 -0.35732242426673222 0 -0.41042484112067729 -0.38072381574353908 0 -0.42060591400430969 -0.35732242426673222 0 -0.40292378525749722 -0.35855919100743472 0 -0.42779706167924059 -0.37849117133133742 0 -0.41042484112067729 -0.38072381574353908 0 -0.42060591400430969 -0.35732242426673222 0 -0.39514236395095781 -0.38339100338852272 0 -0.38673086369127158 -0.36576866811328818 0 -0.40292378525749722 -0.35855919100743472 0 -0.41042484112067729 -0.38072381574353908 0 -0.39514236395095781 -0.38339100338852272 0 -0.40292378525749722 -0.35855919100743472 0 -0.38673086369127158 -0.36576866811328818 0 -0.37562157892520459 -0.34658809988542483 0 -0.39272449621939992 -0.33684635242969613 0 -0.38673086369127158 -0.36576866811328818 0 -0.39272449621939992 -0.33684635242969613 0 -0.40292378525749722 -0.35855919100743472 0 -0.39272449621939992 -0.33684635242969613 0 -0.41013094289028112 -0.3423652369551976 0 -0.38673086369127158 -0.36576866811328818 0 -0.40292378525749722 -0.35855919100743472 0 -0.39272449621939992 -0.33684635242969613 0 -0.39272449621939992 -0.33684635242969613 0 -0.39153647432207977 -0.32564094008476918 0 -0.41158216230716582 -0.32416258785359398 0 -0.39272449621939992 -0.33684635242969613 0 -0.41158216230716582 -0.32416258785359398 0 -0.41013094289028112 -0.3423652369551976 0 -0.39272449621939992 -0.33684635242969613 0 -0.37683724732983281 -0.33491370190076419 0 -0.3803178672636206 -0.32669712071148821 0 -0.37562157892520459 -0.34658809988542483 0 -0.39272449621939992 -0.33684635242969613 0 -0.37683724732983281 -0.33491370190076419 0 -0.39272449621939992 -0.33684635242969613 0 -0.3803178672636206 -0.32669712071148821 0 -0.39153647432207977 -0.32564094008476918 0 -0.37683724732983281 -0.33491370190076419 0 -0.3803178672636206 -0.32669712071148821 0 -0.37369941263681661 -0.32656020472875741 0 -0.392377337726382 -0.31440414291726199 0 -0.37369941263681661 -0.32656020472875741 0 -0.3803178672636206 -0.32669712071148821 0 -0.392377337726382 -0.31440414291726199 0 -0.37369941263681661 -0.32656020472875741 0 -0.392377337726382 -0.31440414291726199 0 -0.37623840079006132 -0.30620355109401381 0 -0.37369941263681661 -0.32656020472875741 0 -0.3803178672636206 -0.32669712071148821 0 -0.37369941263681661 -0.32656020472875741 0 -0.3803178672636206 -0.32669712071148821 0 -0.392377337726382 -0.31440414291726199 0 -0.39153647432207977 -0.32564094008476918 0 -0.392377337726382 -0.31440414291726199 0 -0.41158216230716582 -0.32416258785359398 0 -0.41425268732940468 -0.3001671170887924 0 -0.392377337726382 -0.31440414291726199 0 -0.41158216230716582 -0.32416258785359398 0 -0.392377337726382 -0.31440414291726199 0 -0.39153647432207977 -0.32564094008476918 0 -0.41158216230716582 -0.32416258785359398 0 -0.41158216230716582 -0.32416258785359398 0 -0.42525746678358622 -0.31474589073722481 0 -0.41425268732940468 -0.3001671170887924 0 -0.41158216230716582 -0.32416258785359398 0 -0.43078698688794848 -0.33392103278992791 0 -0.41158216230716582 -0.32416258785359398 0 -0.41013094289028112 -0.3423652369551976 0 -0.43078698688794848 -0.33392103278992791 0 -0.41158216230716582 -0.32416258785359398 0 -0.43078698688794848 -0.33392103278992791 0 -0.42525746678358622 -0.31474589073722481 0 -0.4411789711739772 -0.31003485740566938 0 -0.43078698688794848 -0.33392103278992791 0 -0.4411789711739772 -0.31003485740566938 0 -0.43078698688794848 -0.33392103278992791 0 -0.42525746678358622 -0.31474589073722481 0 -0.42525746678358622 -0.31474589073722481 0 -0.43395144022421128 -0.30144073357982482 0 -0.41425268732940468 -0.3001671170887924 0 -0.4411789711739772 -0.31003485740566938 0 -0.42525746678358622 -0.31474589073722481 0 -0.43395144022421128 -0.30144073357982482 0 -0.44138398926955991 -0.294215948064944 0 -0.43395144022421128 -0.30144073357982482 0 -0.43612803693242691 -0.28593009126032198 0 -0.43395144022421128 -0.30144073357982482 0 -0.43612803693242691 -0.28593009126032198 0 -0.41425268732940468 -0.3001671170887924 0 -0.43612803693242691 -0.28593009126032198 0 -0.41425268732940468 -0.3001671170887924 0 -0.41863504732985618 -0.27426773070593802 0 -0.43612803693242691 -0.28593009126032198 0 -0.41425268732940468 -0.3001671170887924 0 -0.41425268732940468 -0.3001671170887924 0 -0.40185880261470441 -0.28474952742808818 0 -0.41863504732985618 -0.27426773070593802 0 -0.392377337726382 -0.31440414291726199 0 -0.41425268732940468 -0.3001671170887924 0 -0.392377337726382 -0.31440414291726199 0 -0.41425268732940468 -0.3001671170887924 0 -0.39055289243931979 -0.29516067027328341 0 -0.37623840079006132 -0.30620355109401381 0 -0.39055289243931979 -0.29516067027328341 0 -0.37336964109825771 -0.28982497539752339 0 -0.392377337726382 -0.31440414291726199 0 -0.37623840079006132 -0.30620355109401381 0 -0.39055289243931979 -0.29516067027328341 0 -0.392377337726382 -0.31440414291726199 0 -0.37623840079006132 -0.30620355109401381 0 -0.39055289243931979 -0.29516067027328341 0 -0.3802721540238026 -0.27722609237384688 0 -0.37336964109825771 -0.28982497539752339 0 -0.39055289243931979 -0.29516067027328341 0 -0.39287773518642177 -0.27665261603387159 0 -0.3802721540238026 -0.27722609237384688 0 -0.39055289243931979 -0.29516067027328341 0 -0.40185880261470441 -0.28474952742808818 0 -0.39287773518642177 -0.27665261603387159 0 -0.41425268732940468 -0.3001671170887924 0 -0.39055289243931979 -0.29516067027328341 0 -0.40185880261470441 -0.28474952742808818 0 -0.40185880261470441 -0.28474952742808818 0 -0.39287773518642177 -0.27665261603387159 0 -0.39884707319156548 -0.26519857003084207 0 -0.39287773518642177 -0.27665261603387159 0 -0.38625979695972951 -0.26654046913913881 0 -0.39884707319156548 -0.26519857003084207 0 -0.39287773518642177 -0.27665261603387159 0 -0.38625979695972951 -0.26654046913913881 0 -0.3802721540238026 -0.27722609237384688 0 -0.38625979695972951 -0.26654046913913881 0 -0.3802721540238026 -0.27722609237384688 0 -0.37960949725433718 -0.26507081497102081 0 -0.3802721540238026 -0.27722609237384688 0 -0.37960949725433718 -0.26507081497102081 0 -0.37300762464251158 -0.26652156681227579 0 -0.38013376635666379 -0.25484773029434632 0 -0.38586234845556888 -0.25555171366537072 0 -0.39884707319156548 -0.26519857003084207 0 -0.38625979695972951 -0.26654046913913881 0 -0.38013376635666379 -0.25484773029434632 0 -0.39884707319156548 -0.26519857003084207 0 -0.38013376635666379 -0.25484773029434632 0 -0.39884707319156548 -0.26519857003084207 0 -0.38013376635666379 -0.25484773029434632 0 -0.37960949725433718 -0.26507081497102081 0 -0.37300762464251158 -0.26652156681227579 0 -0.38625979695972951 -0.26654046913913881 0 -0.38013376635666379 -0.25484773029434632 0 -0.37960949725433718 -0.26507081497102081 0 -0.38013376635666379 -0.25484773029434632 0 -0.38586234845556888 -0.25555171366537072 0 -0.38750790922318279 -0.2499605689316706 0 -0.38586234845556888 -0.25555171366537072 0 -0.39255427972155021 -0.25312428942571569 0 -0.38750790922318279 -0.2499605689316706 0 -0.39255427972155021 -0.25312428942571569 0 -0.39884707319156548 -0.26519857003084207 0 -0.39945086494686688 -0.25153957108528269 0 -0.38586234845556888 -0.25555171366537072 0 -0.39255427972155021 -0.25312428942571569 0 -0.39884707319156548 -0.26519857003084207 0 -0.39884707319156548 -0.26519857003084207 0 -0.39945086494686688 -0.25153957108528269 0 -0.40641228759764358 -0.25390226709786939 0 -0.40641228759764358 -0.25390226709786939 0 -0.42649965611174412 -0.26171220266699291 0 -0.41770938798862639 -0.24842336549052499 0 -0.40641228759764358 -0.25390226709786939 0 -0.41863504732985618 -0.27426773070593802 0 -0.42649965611174412 -0.26171220266699291 0 -0.39884707319156548 -0.26519857003084207 0 -0.40641228759764358 -0.25390226709786939 0 -0.41863504732985618 -0.27426773070593802 0 -0.40641228759764358 -0.25390226709786939 0 -0.42649965611174412 -0.26171220266699291 0 -0.40185880261470441 -0.28474952742808818 0 -0.39884707319156548 -0.26519857003084207 0 -0.41863504732985618 -0.27426773070593802 0 -0.39884707319156548 -0.26519857003084207 0 -0.41863504732985618 -0.27426773070593802 0 -0.43612803693242691 -0.28593009126032198 0 -0.41863504732985618 -0.27426773070593802 0 -0.43165809570899938 -0.27368428275041051 0 -0.41863504732985618 -0.27426773070593802 0 -0.43165809570899938 -0.27368428275041051 0 -0.42649965611174412 -0.26171220266699291 0 -0.44658702462584438 -0.26952213823611632 0 -0.43165809570899938 -0.27368428275041051 0 -0.42649965611174412 -0.26171220266699291 0 -0.44658702462584438 -0.26952213823611632 0 -0.42649965611174412 -0.26171220266699291 0 -0.44120272965231438 -0.256937137247359 0 -0.42649965611174412 -0.26171220266699291 0 -0.42763257702111179 -0.24781447733042861 0 -0.42649965611174412 -0.26171220266699291 0 -0.42763257702111179 -0.24781447733042861 0 -0.41770938798862639 -0.24842336549052499 0 -0.32297120194301748 -0.26017618522091401 0 -0.29674336521112071 -0.25577230774603738 0 -0.32099492036963639 -0.24418431014163919 0 -0.32297120194301748 -0.26017618522091401 0 -0.30637222787003549 -0.28232139730844241 0 -0.32297120194301748 -0.26017618522091401 0 -0.33733317165247673 -0.28643484481515219 0 -0.30637222787003549 -0.28232139730844241 0 -0.32297120194301748 -0.26017618522091401 0 -0.34376619378216883 -0.26084677116516142 0 -0.33733317165247673 -0.28643484481515219 0 -0.32297120194301748 -0.26017618522091401 0 -0.34376619378216883 -0.26084677116516142 0 -0.33957017601599992 -0.23803097313338581 0 -0.34376619378216883 -0.26084677116516142 0 -0.35968529438436381 -0.27253160397570708 0 -0.35927112491498542 -0.2470602486806481 0 -0.38013376635666379 -0.25484773029434632 0 -0.37300762464251158 -0.26652156681227579 0 -0.35927112491498542 -0.2470602486806481 0 -0.35968529438436381 -0.27253160397570708 0 -0.37300762464251158 -0.26652156681227579 0 -0.35927112491498542 -0.2470602486806481 0 -0.38013376635666379 -0.25484773029434632 0 -0.35927112491498542 -0.2470602486806481 0 -0.35968529438436381 -0.27253160397570708 0 -0.35927112491498542 -0.2470602486806481 0 -0.3802721540238026 -0.27722609237384688 0 -0.35968529438436381 -0.27253160397570708 0 -0.37336964109825771 -0.28982497539752339 0 -0.3802721540238026 -0.27722609237384688 0 -0.35968529438436381 -0.27253160397570708 0 -0.37300762464251158 -0.26652156681227579 0 -0.34376619378216883 -0.26084677116516142 0 -0.35968529438436381 -0.27253160397570708 0 -0.33733317165247673 -0.28643484481515219 0 -0.36009946385374048 -0.29800295927076598 0 -0.33733317165247673 -0.28643484481515219 0 -0.35968529438436381 -0.27253160397570708 0 -0.36009946385374048 -0.29800295927076598 0 -0.33733317165247673 -0.28643484481515219 0 -0.35968529438436381 -0.27253160397570708 0 -0.37336964109825771 -0.28982497539752339 0 -0.36009946385374048 -0.29800295927076598 0 -0.35968529438436381 -0.27253160397570708 0 -0.36009946385374048 -0.29800295927076598 0 -0.37623840079006132 -0.30620355109401381 0 -0.36009946385374048 -0.29800295927076598 0 -0.37623840079006132 -0.30620355109401381 0 -0.36009946385374048 -0.29800295927076598 0 -0.36764916695952182 -0.31426377304049541 0 -0.37623840079006132 -0.30620355109401381 0 -0.37336964109825771 -0.28982497539752339 0 -0.36009946385374048 -0.29800295927076598 0 -0.36009946385374048 -0.29800295927076598 0 -0.36055939055746827 -0.32628837706844388 0 -0.36009946385374048 -0.29800295927076598 0 -0.34283232562981658 -0.30830311747967087 0 -0.36055939055746827 -0.32628837706844388 0 -0.36009946385374048 -0.29800295927076598 0 -0.34283232562981658 -0.30830311747967087 0 -0.33733317165247673 -0.28643484481515219 0 -0.34283232562981658 -0.30830311747967087 0 -0.33733317165247673 -0.28643484481515219 0 -0.32175897868338088 -0.30504196876857392 0 -0.33733317165247673 -0.28643484481515219 0 -0.32175897868338088 -0.30504196876857392 0 -0.30637222787003549 -0.28232139730844241 0 -0.32175897868338088 -0.30504196876857392 0 -0.33441062340201338 -0.32574743747541829 0 -0.30826185624655872 -0.32520649788239259 0 -0.33441062340201338 -0.32574743747541829 0 -0.30826185624655872 -0.32520649788239259 0 -0.31889879392202669 -0.34284124353802659 0 -0.33441062340201338 -0.32574743747541829 0 -0.30826185624655872 -0.32520649788239259 0 -0.31889879392202669 -0.34284124353802659 0 -0.34127437858213588 -0.33862208131725702 0 -0.33441062340201338 -0.32574743747541829 0 -0.34283232562981658 -0.30830311747967087 0 -0.32175897868338088 -0.30504196876857392 0 -0.33441062340201338 -0.32574743747541829 0 -0.34283232562981658 -0.30830311747967087 0 -0.33441062340201338 -0.32574743747541829 0 -0.36055939055746827 -0.32628837706844388 0 -0.33441062340201338 -0.32574743747541829 0 -0.36055939055746827 -0.32628837706844388 0 -0.36009946385374048 -0.29800295927076598 0 -0.36055939055746827 -0.32628837706844388 0 -0.36764916695952182 -0.31426377304049541 0 -0.37623840079006132 -0.30620355109401381 0 -0.37369941263681661 -0.32656020472875741 0 -0.36764916695952182 -0.31426377304049541 0 -0.36055939055746827 -0.32628837706844388 0 -0.37369941263681661 -0.32656020472875741 0 -0.36055939055746827 -0.32628837706844388 0 -0.37369941263681661 -0.32656020472875741 0 -0.36764916695952182 -0.31426377304049541 0 -0.37562157892520459 -0.34658809988542483 0 -0.37683724732983281 -0.33491370190076419 0 -0.36070136303116029 -0.33501966120893578 0 -0.37683724732983281 -0.33491370190076419 0 -0.37369941263681661 -0.32656020472875741 0 -0.36070136303116029 -0.33501966120893578 0 -0.37369941263681661 -0.32656020472875741 0 -0.36070136303116029 -0.33501966120893578 0 -0.36055939055746827 -0.32628837706844388 0 -0.36070136303116029 -0.33501966120893578 0 -0.36055939055746827 -0.32628837706844388 0 -0.37369941263681661 -0.32656020472875741 0 -0.36070136303116029 -0.33501966120893578 0 -0.34127437858213588 -0.33862208131725702 0 -0.36055939055746827 -0.32628837706844388 0 -0.35585742395606068 -0.33817221817260662 0 -0.34127437858213588 -0.33862208131725702 0 -0.33441062340201338 -0.32574743747541829 0 -0.36055939055746827 -0.32628837706844388 0 -0.36070136303116029 -0.33501966120893578 0 -0.35585742395606068 -0.33817221817260662 0 -0.36055939055746827 -0.32628837706844388 0 -0.36070136303116029 -0.33501966120893578 0 -0.35585742395606068 -0.33817221817260662 0 -0.34127437858213588 -0.33862208131725702 0 -0.35585742395606068 -0.33817221817260662 0 -0.34527559660801621 -0.35369377996990831 0 -0.35585742395606068 -0.33817221817260662 0 -0.34527559660801621 -0.35369377996990831 0 -0.3611139243543583 -0.36039211577443919 0 -0.36070136303116029 -0.33501966120893578 0 -0.35585742395606068 -0.33817221817260662 0 -0.3611139243543583 -0.36039211577443919 0 -0.37562157892520459 -0.34658809988542483 0 -0.36070136303116029 -0.33501966120893578 0 -0.3611139243543583 -0.36039211577443919 0 -0.36070136303116029 -0.33501966120893578 0 -0.3611139243543583 -0.36039211577443919 0 -0.38673086369127158 -0.36576866811328818 0 -0.37562157892520459 -0.34658809988542483 0 -0.3611139243543583 -0.36039211577443919 0 -0.3611139243543583 -0.36039211577443919 0 -0.36152648567755702 -0.38576457033994238 0 -0.38673086369127158 -0.36576866811328818 0 -0.3611139243543583 -0.36039211577443919 0 -0.36152648567755702 -0.38576457033994238 0 -0.3611139243543583 -0.36039211577443919 0 -0.33869231190700971 -0.37435031003799979 0 -0.36152648567755702 -0.38576457033994238 0 -0.34527559660801621 -0.35369377996990831 0 -0.3611139243543583 -0.36039211577443919 0 -0.33869231190700971 -0.37435031003799979 0 -0.33869231190700971 -0.37435031003799979 0 -0.32943994424051598 -0.35693217454723891 0 -0.306478580313642 -0.36957858777785418 0 -0.34527559660801621 -0.35369377996990831 0 -0.33869231190700971 -0.37435031003799979 0 -0.32943994424051598 -0.35693217454723891 0 -0.34127437858213588 -0.33862208131725702 0 -0.34527559660801621 -0.35369377996990831 0 -0.32943994424051598 -0.35693217454723891 0 -0.31889879392202669 -0.34284124353802659 0 -0.34127437858213588 -0.33862208131725702 0 -0.32943994424051598 -0.35693217454723891 0 -0.31889879392202669 -0.34284124353802659 0 -0.32943994424051598 -0.35693217454723891 0 -0.306478580313642 -0.36957858777785418 0 -0.31889879392202669 -0.34284124353802659 0 -0.306478580313642 -0.36957858777785418 0 -0.29352738074729451 -0.3409606822279983 0 -0.306478580313642 -0.36957858777785418 0 -0.27624688663260161 -0.35550985123625062 0 -0.29352738074729451 -0.3409606822279983 0 -0.306478580313642 -0.36957858777785418 0 -0.27624688663260161 -0.35550985123625062 0 -0.27931949354112667 -0.38440788098900058 0 -0.27624688663260161 -0.35550985123625062 0 -0.27931949354112667 -0.38440788098900058 0 -0.27160595079285599 -0.35976777697737539 0 -0.27268186235422509 -0.38581538914823882 0 -0.27160595079285599 -0.35976777697737539 0 -0.27624688663260161 -0.35550985123625062 0 -0.27931949354112667 -0.38440788098900058 0 -0.27160595079285599 -0.35976777697737539 0 -0.26457535486403 -0.37310420643241471 0 -0.27268186235422509 -0.38581538914823882 0 -0.27160595079285599 -0.35976777697737539 0 -0.26457535486403 -0.37310420643241471 0 -0.26238056556346162 -0.36398530846490651 0 -0.26457535486403 -0.37310420643241471 0 -0.26238056556346162 -0.36398530846490651 0 -0.25267394267960741 -0.37275161346691338 0 -0.25267394267960741 -0.37275161346691338 0 -0.25542003626020671 -0.35936767987950519 0 -0.24273739530009639 -0.3616683425162493 0 -0.26238056556346162 -0.36398530846490651 0 -0.25267394267960741 -0.37275161346691338 0 -0.25542003626020671 -0.35936767987950519 0 -0.25542003626020671 -0.35936767987950519 0 -0.26395759587374101 -0.3541196040264365 0 -0.25153646070865909 -0.34371880154029438 0 -0.26238056556346162 -0.36398530846490651 0 -0.25542003626020671 -0.35936767987950519 0 -0.26395759587374101 -0.3541196040264365 0 -0.26395759587374101 -0.3541196040264365 0 -0.26472070161122729 -0.34196037528934309 0 -0.25153646070865909 -0.34371880154029438 0 -0.26395759587374101 -0.3541196040264365 0 -0.27624688663260161 -0.35550985123625062 0 -0.26472070161122729 -0.34196037528934309 0 -0.27160595079285599 -0.35976777697737539 0 -0.26238056556346162 -0.36398530846490651 0 -0.26395759587374101 -0.3541196040264365 0 -0.27160595079285599 -0.35976777697737539 0 -0.26395759587374101 -0.3541196040264365 0 -0.27624688663260161 -0.35550985123625062 0 -0.27624688663260161 -0.35550985123625062 0 -0.27317427972407421 -0.32661182148350082 0 -0.29352738074729451 -0.3409606822279983 0 -0.27624688663260161 -0.35550985123625062 0 -0.27317427972407421 -0.32661182148350082 0 -0.27624688663260161 -0.35550985123625062 0 -0.26472070161122729 -0.34196037528934309 0 -0.27317427972407421 -0.32661182148350082 0 -0.25896317891350967 -0.3301953405015472 0 -0.25153646070865909 -0.34371880154029438 0 -0.24381082362484849 -0.32069237975511039 0 -0.26472070161122729 -0.34196037528934309 0 -0.25896317891350967 -0.3301953405015472 0 -0.25153646070865909 -0.34371880154029438 0 -0.26472070161122729 -0.34196037528934309 0 -0.25896317891350967 -0.3301953405015472 0 -0.27317427972407421 -0.32661182148350082 0 -0.26203702619584629 -0.31737509156678018 0 -0.25208713094001511 -0.30225994504666959 0 -0.24381082362484849 -0.32069237975511039 0 -0.25896317891350967 -0.3301953405015472 0 -0.26203702619584629 -0.31737509156678018 0 -0.24381082362484849 -0.32069237975511039 0 -0.25896317891350967 -0.3301953405015472 0 -0.26203702619584629 -0.31737509156678018 0 -0.27317427972407421 -0.32661182148350082 0 -0.26203702619584629 -0.31737509156678018 0 -0.27317427972407421 -0.32661182148350082 0 -0.27009680233847638 -0.29766798463742111 0 -0.28211308909110377 -0.32466555828936688 0 -0.30826185624655872 -0.32520649788239259 0 -0.28211308909110377 -0.32466555828936688 0 -0.30826185624655872 -0.32520649788239259 0 -0.28977325379705349 -0.30446660939597059 0 -0.27317427972407421 -0.32661182148350082 0 -0.28211308909110377 -0.32466555828936688 0 -0.28977325379705349 -0.30446660939597059 0 -0.27317427972407421 -0.32661182148350082 0 -0.28977325379705349 -0.30446660939597059 0 -0.27317427972407421 -0.32661182148350082 0 -0.28211308909110377 -0.32466555828936688 0 -0.29352738074729451 -0.3409606822279983 0 -0.28211308909110377 -0.32466555828936688 0 -0.29352738074729451 -0.3409606822279983 0 -0.30826185624655872 -0.32520649788239259 0 -0.31889879392202669 -0.34284124353802659 0 -0.29352738074729451 -0.3409606822279983 0 -0.30826185624655872 -0.32520649788239259 0 -0.32175897868338088 -0.30504196876857392 0 -0.30826185624655872 -0.32520649788239259 0 -0.28977325379705349 -0.30446660939597059 0 -0.32175897868338088 -0.30504196876857392 0 -0.30637222787003549 -0.28232139730844241 0 -0.28977325379705349 -0.30446660939597059 0 -0.30637222787003549 -0.28232139730844241 0 -0.28977325379705349 -0.30446660939597059 0 -0.30637222787003549 -0.28232139730844241 0 -0.2860009948339125 -0.28179048937584272 0 -0.28977325379705349 -0.30446660939597059 0 -0.2860009948339125 -0.28179048937584272 0 -0.28977325379705349 -0.30446660939597059 0 -0.27009680233847638 -0.29766798463742111 0 -0.27317427972407421 -0.32661182148350082 0 -0.27009680233847638 -0.29766798463742111 0 -0.27317427972407421 -0.32661182148350082 0 -0.28977325379705349 -0.30446660939597059 0 -0.27009680233847638 -0.29766798463742111 0 -0.26203702619584629 -0.31737509156678018 0 -0.27009680233847638 -0.29766798463742111 0 -0.25208713094001511 -0.30225994504666959 0 -0.27009680233847638 -0.29766798463742111 0 -0.26701932495287628 -0.26872414779134163 0 -0.24840581599986661 -0.27789831130410969 0 -0.27009680233847638 -0.29766798463742111 0 -0.25208713094001511 -0.30225994504666959 0 -0.24840581599986661 -0.27789831130410969 0 -0.2860009948339125 -0.28179048937584272 0 -0.27009680233847638 -0.29766798463742111 0 -0.26701932495287628 -0.26872414779134163 0 -0.27009680233847638 -0.29766798463742111 0 -0.26701932495287628 -0.26872414779134163 0 -0.26701932495287628 -0.26872414779134163 0 -0.2484888610175276 -0.25598132161872211 0 -0.24840581599986661 -0.27789831130410969 0 -0.26701932495287628 -0.26872414779134163 0 -0.26394184756727629 -0.2397803109452622 0 -0.26701932495287628 -0.26872414779134163 0 -0.2484888610175276 -0.25598132161872211 0 -0.26394184756727629 -0.2397803109452622 0 -0.26701932495287628 -0.26872414779134163 0 -0.27918139424231853 -0.24793113754157431 0 -0.26394184756727629 -0.2397803109452622 0 -0.26701932495287628 -0.26872414779134163 0 -0.29674336521112071 -0.25577230774603738 0 -0.27918139424231853 -0.24793113754157431 0 -0.30637222787003549 -0.28232139730844241 0 -0.2860009948339125 -0.28179048937584272 0 -0.29674336521112071 -0.25577230774603738 0 -0.2860009948339125 -0.28179048937584272 0 -0.26701932495287628 -0.26872414779134163 0 -0.29674336521112071 -0.25577230774603738 0 -0.32297120194301748 -0.26017618522091401 0 -0.30637222787003549 -0.28232139730844241 0 -0.29674336521112071 -0.25577230774603738 0 -0.33825248381752082 -0.46369220349011092 0 -0.32421664417766249 -0.44352190811352421 0 -0.34408052500459091 -0.44434666662199851 0 -0.32421664417766249 -0.44352190811352421 0 -0.31240784937598481 -0.46511385800219301 0 -0.30366432945983329 -0.44899041722760019 0 -0.33825248381752082 -0.46369220349011092 0 -0.32421664417766249 -0.44352190811352421 0 -0.31240784937598481 -0.46511385800219301 0 -0.33825248381752082 -0.46369220349011092 0 -0.33051460022939472 -0.48178135656062893 0 -0.31240784937598481 -0.46511385800219301 0 -0.33051460022939472 -0.48178135656062893 0 -0.31240784937598481 -0.46511385800219301 0 -0.30772085831481621 -0.48359943696201452 0 -0.3155346065267729 -0.5 0 -0.33051460022939472 -0.48178135656062893 0 -0.30772085831481621 -0.48359943696201452 0 -0.3155346065267729 -0.5 0 -0.33945929187831891 -0.5 0 -0.33051460022939472 -0.48178135656062893 0 -0.33945929187831891 -0.5 0 -0.33051460022939472 -0.48178135656062893 0 -0.34684566559987129 -0.48451787258129769 0 -0.33825248381752082 -0.46369220349011092 0 -0.33051460022939472 -0.48178135656062893 0 -0.34684566559987129 -0.48451787258129769 0 -0.33051460022939472 -0.48178135656062893 0 -0.34684566559987129 -0.48451787258129769 0 -0.34684566559987129 -0.48451787258129769 0 -0.36317673097034969 -0.48725438860195491 0 -0.36302964774588309 -0.47820879411623751 0 -0.33825248381752082 -0.46369220349011092 0 -0.34684566559987129 -0.48451787258129769 0 -0.36276416964715319 -0.46188193403645172 0 -0.34684566559987129 -0.48451787258129769 0 -0.36302964774588309 -0.47820879411623751 0 -0.36276416964715319 -0.46188193403645172 0 -0.33945929187831891 -0.5 0 -0.35321641641960172 -0.49294306529581527 0 -0.36338397722986482 -0.50000000000000866 0 -0.34684566559987129 -0.48451787258129769 0 -0.36317673097034969 -0.48725438860195491 0 -0.34684566559987129 -0.48451787258129769 0 -0.35321641641960172 -0.49294306529581527 0 -0.36317673097034969 -0.48725438860195491 0 -0.33945929187831891 -0.5 0 -0.34684566559987129 -0.48451787258129769 0 -0.35321641641960172 -0.49294306529581527 0 -0.38689476076400092 -0.49122870179199091 0 -0.36338397722986482 -0.50000000000000866 0 -0.36317673097034969 -0.48725438860195491 0 -0.35321641641960172 -0.49294306529581527 0 -0.36338397722986482 -0.50000000000000866 0 -0.36317673097034969 -0.48725438860195491 0 -0.36338397722986482 -0.50000000000000866 0 -0.36317673097034969 -0.48725438860195491 0 -0.37606745728253982 -0.4686231826298955 0 -0.36302964774588309 -0.47820879411623751 0 -0.36276416964715319 -0.46188193403645172 0 -0.38752118070399472 -0.48061486709336337 0 -0.36317673097034969 -0.48725438860195491 0 -0.36302964774588309 -0.47820879411623751 0 -0.36302964774588309 -0.47820879411623751 0 -0.36276416964715319 -0.46188193403645172 0 -0.36317673097034969 -0.48725438860195491 0 -0.36302964774588309 -0.47820879411623751 0 -0.37523877267138578 -0.45255939779237242 0 -0.37606745728253982 -0.4686231826298955 0 -0.36276416964715319 -0.46188193403645172 0 -0.33825248381752082 -0.46369220349011092 0 -0.36276416964715319 -0.46188193403645172 0 -0.34408052500459091 -0.44434666662199851 0 -0.36276416964715319 -0.46188193403645172 0 -0.34408052500459091 -0.44434666662199851 0 -0.36235160832395452 -0.43650947947094848 0 -0.37523877267138578 -0.45255939779237242 0 -0.36276416964715319 -0.46188193403645172 0 -0.36235160832395452 -0.43650947947094848 0 -0.37523877267138578 -0.45255939779237242 0 -0.37492324653409759 -0.43986936384834302 0 -0.36235160832395452 -0.43650947947094848 0 -0.36276416964715319 -0.46188193403645172 0 -0.36235160832395452 -0.43650947947094848 0 -0.37492324653409759 -0.43986936384834302 0 -0.36235160832395452 -0.43650947947094848 0 -0.37436056689416958 -0.42546162182482389 0 -0.36235160832395452 -0.43650947947094848 0 -0.36193904700075569 -0.41113702490544551 0 -0.36235160832395452 -0.43650947947094848 0 -0.36193904700075569 -0.41113702490544551 0 -0.37304605726057449 -0.4208707701534678 0 -0.36235160832395452 -0.43650947947094848 0 -0.37436056689416958 -0.42546162182482389 0 -0.37304605726057449 -0.4208707701534678 0 -0.37436056689416958 -0.42546162182482389 0 -0.37474359863501688 -0.42361329948047283 0 -0.37304605726057449 -0.4208707701534678 0 -0.37436056689416958 -0.42546162182482389 0 -0.37474359863501688 -0.42361329948047283 0 -0.37474359863501688 -0.42361329948047283 0 -0.37304605726057449 -0.4208707701534678 0 -0.3807372311631434 -0.39469098379688028 0 -0.36193904700075569 -0.41113702490544551 0 -0.37304605726057449 -0.4208707701534678 0 -0.36193904700075569 -0.41113702490544551 0 -0.34421281706777229 -0.39904362947217542 0 -0.33804339489091217 -0.42176825672633173 0 -0.36235160832395452 -0.43650947947094848 0 -0.36193904700075569 -0.41113702490544551 0 -0.33804339489091217 -0.42176825672633173 0 -0.34408052500459091 -0.44434666662199851 0 -0.36235160832395452 -0.43650947947094848 0 -0.33804339489091217 -0.42176825672633173 0 -0.36193904700075569 -0.41113702490544551 0 -0.36152648567755702 -0.38576457033994238 0 -0.3807372311631434 -0.39469098379688028 0 -0.36193904700075569 -0.41113702490544551 0 -0.36152648567755702 -0.38576457033994238 0 -0.36193904700075569 -0.41113702490544551 0 -0.36152648567755702 -0.38576457033994238 0 -0.34421281706777229 -0.39904362947217542 0 -0.33869231190700971 -0.37435031003799979 0 -0.36152648567755702 -0.38576457033994238 0 -0.34421281706777229 -0.39904362947217542 0 -0.33869231190700971 -0.37435031003799979 0 -0.306478580313642 -0.36957858777785418 0 -0.32086211027913641 -0.39638271114812929 0 -0.33869231190700971 -0.37435031003799979 0 -0.34421281706777229 -0.39904362947217542 0 -0.32086211027913641 -0.39638271114812929 0 -0.34421281706777229 -0.39904362947217542 0 -0.32086211027913641 -0.39638271114812929 0 -0.33804339489091217 -0.42176825672633173 0 -0.32421664417766249 -0.44352190811352421 0 -0.34408052500459091 -0.44434666662199851 0 -0.33804339489091217 -0.42176825672633173 0 -0.32086211027913641 -0.39638271114812929 0 -0.33804339489091217 -0.42176825672633173 0 -0.30769513212064092 -0.42301040928053318 0 -0.32421664417766249 -0.44352190811352421 0 -0.33804339489091217 -0.42176825672633173 0 -0.30769513212064092 -0.42301040928053318 0 -0.30769513212064092 -0.42301040928053318 0 -0.28239210044965168 -0.41330591074175038 0 -0.29818276265426391 -0.39701459191445759 0 -0.28239210044965168 -0.41330591074175038 0 -0.28546470735817681 -0.44220394049450029 0 -0.30769513212064092 -0.42301040928053318 0 -0.28239210044965168 -0.41330591074175038 0 -0.28546470735817681 -0.44220394049450029 0 -0.306478580313642 -0.36957858777785418 0 -0.32086211027913641 -0.39638271114812929 0 -0.29818276265426391 -0.39701459191445759 0 -0.32086211027913641 -0.39638271114812929 0 -0.30769513212064092 -0.42301040928053318 0 -0.29818276265426391 -0.39701459191445759 0 -0.28239210044965168 -0.41330591074175038 0 -0.29818276265426391 -0.39701459191445759 0 -0.27931949354112667 -0.38440788098900058 0 -0.306478580313642 -0.36957858777785418 0 -0.29818276265426391 -0.39701459191445759 0 -0.27931949354112667 -0.38440788098900058 0 -0.27160595079285599 -0.35976777697737539 0 -0.27931949354112667 -0.38440788098900058 0 -0.27268186235422509 -0.38581538914823882 0 -0.27268186235422509 -0.38581538914823882 0 -0.26445724457037068 -0.39920113836087839 0 -0.27375777391559408 -0.4118630013191022 0 -0.27268186235422509 -0.38581538914823882 0 -0.27375777391559408 -0.4118630013191022 0 -0.28239210044965168 -0.41330591074175038 0 -0.27931949354112667 -0.38440788098900058 0 -0.28239210044965168 -0.41330591074175038 0 -0.27931949354112667 -0.38440788098900058 0 -0.27375777391559408 -0.4118630013191022 0 -0.27931949354112667 -0.38440788098900058 0 -0.27268186235422509 -0.38581538914823882 0 -0.27375777391559408 -0.4118630013191022 0 -0.26445724457037068 -0.39920113836087839 0 -0.25566504003521562 -0.40500811044500301 0 -0.26386116018153538 -0.40940766494968028 0 -0.26445724457037068 -0.39920113836087839 0 -0.25566504003521562 -0.40500811044500301 0 -0.25549680379609357 -0.395357211548784 0 -0.25566504003521562 -0.40500811044500301 0 -0.25549680379609357 -0.395357211548784 0 -0.24771315092544269 -0.39919581982208308 0 -0.26445724457037068 -0.39920113836087839 0 -0.25549680379609357 -0.395357211548784 0 -0.25921785013801879 -0.3855115719319207 0 -0.27268186235422509 -0.38581538914823882 0 -0.26445724457037068 -0.39920113836087839 0 -0.25921785013801879 -0.3855115719319207 0 -0.25549680379609357 -0.395357211548784 0 -0.25921785013801879 -0.3855115719319207 0 -0.24591611631914381 -0.38776796357477328 0 -0.25267394267960741 -0.37275161346691338 0 -0.25921785013801879 -0.3855115719319207 0 -0.24591611631914381 -0.38776796357477328 0 -0.26457535486403 -0.37310420643241471 0 -0.25267394267960741 -0.37275161346691338 0 -0.25921785013801879 -0.3855115719319207 0 -0.26457535486403 -0.37310420643241471 0 -0.27268186235422509 -0.38581538914823882 0 -0.25921785013801879 -0.3855115719319207 0 -0.27375777391559408 -0.4118630013191022 0 -0.27483368547696319 -0.43791061348996552 0 -0.26720633562150609 -0.42642296289994008 0 -0.27375777391559408 -0.4118630013191022 0 -0.27483368547696319 -0.43791061348996552 0 -0.28239210044965168 -0.41330591074175038 0 -0.27483368547696319 -0.43791061348996552 0 -0.28546470735817681 -0.44220394049450029 0 -0.26720633562150609 -0.42642296289994008 0 -0.26441388483467898 -0.44072797033501532 0 -0.27483368547696319 -0.43791061348996552 0 -0.28239210044965168 -0.41330591074175038 0 -0.27375777391559408 -0.4118630013191022 0 -0.27483368547696319 -0.43791061348996552 0 -0.26445724457037068 -0.39920113836087839 0 -0.27375777391559408 -0.4118630013191022 0 -0.26386116018153538 -0.40940766494968028 0 -0.27375777391559408 -0.4118630013191022 0 -0.26449789734505841 -0.41716569950611843 0 -0.26386116018153538 -0.40940766494968028 0 -0.26720633562150609 -0.42642296289994008 0 -0.27375777391559408 -0.4118630013191022 0 -0.26449789734505841 -0.41716569950611843 0 -0.26449789734505841 -0.41716569950611843 0 -0.25737930182009611 -0.41479207497327208 0 -0.26004056027156258 -0.42305703165455888 0 -0.25566504003521562 -0.40500811044500301 0 -0.26386116018153538 -0.40940766494968028 0 -0.25737930182009611 -0.41479207497327208 0 -0.26449789734505841 -0.41716569950611843 0 -0.26386116018153538 -0.40940766494968028 0 -0.25737930182009611 -0.41479207497327208 0 -0.25566504003521562 -0.40500811044500301 0 -0.25737930182009611 -0.41479207497327208 0 -0.24414203371103091 -0.41207361684672428 0 -0.25737930182009611 -0.41479207497327208 0 -0.25106484146468439 -0.42345079450244799 0 -0.24414203371103091 -0.41207361684672428 0 -0.25737930182009611 -0.41479207497327208 0 -0.25106484146468439 -0.42345079450244799 0 -0.26004056027156258 -0.42305703165455888 0 -0.25106484146468439 -0.42345079450244799 0 -0.25792365024768948 -0.43096178407020003 0 -0.24538582553393271 -0.43922293479031371 0 -0.25792365024768948 -0.43096178407020003 0 -0.26441388483467898 -0.44072797033501532 0 -0.24538582553393271 -0.43922293479031371 0 -0.25106484146468439 -0.42345079450244799 0 -0.26004056027156258 -0.42305703165455888 0 -0.25792365024768948 -0.43096178407020003 0 -0.26720633562150609 -0.42642296289994008 0 -0.26004056027156258 -0.42305703165455888 0 -0.25792365024768948 -0.43096178407020003 0 -0.26720633562150609 -0.42642296289994008 0 -0.26449789734505841 -0.41716569950611843 0 -0.26004056027156258 -0.42305703165455888 0 -0.26720633562150609 -0.42642296289994008 0 -0.25792365024768948 -0.43096178407020003 0 -0.26441388483467898 -0.44072797033501532 0 -0.2545110423222009 -0.45159093752002177 0 -0.26441388483467898 -0.44072797033501532 0 -0.24538582553393271 -0.43922293479031371 0 -0.2545110423222009 -0.45159093752002177 0 -0.26441388483467898 -0.44072797033501532 0 -0.26580750652160712 -0.45210972405622057 0 -0.2545110423222009 -0.45159093752002177 0 -0.25847809570928648 -0.46672321029143587 0 -0.2410946996687571 -0.45834353202039518 0 -0.2545110423222009 -0.45159093752002177 0 -0.25847809570928648 -0.46672321029143587 0 -0.26580750652160712 -0.45210972405622057 0 -0.27590959703833268 -0.46395822566082889 0 -0.28415274244228111 -0.44688203472436061 0 -0.25847809570928648 -0.46672321029143587 0 -0.27590959703833268 -0.46395822566082889 0 -0.26580750652160712 -0.45210972405622057 0 -0.27590959703833268 -0.46395822566082889 0 -0.26580750652160712 -0.45210972405622057 0 -0.27483368547696319 -0.43791061348996552 0 -0.27590959703833268 -0.46395822566082889 0 -0.27483368547696319 -0.43791061348996552 0 -0.28415274244228111 -0.44688203472436061 0 -0.27590959703833268 -0.46395822566082889 0 -0.27483368547696319 -0.43791061348996552 0 -0.26441388483467898 -0.44072797033501532 0 -0.26580750652160712 -0.45210972405622057 0 -0.27483368547696319 -0.43791061348996552 0 -0.27483368547696319 -0.43791061348996552 0 -0.28546470735817681 -0.44220394049450029 0 -0.28415274244228111 -0.44688203472436061 0 -0.28546470735817681 -0.44220394049450029 0 -0.28853731426670193 -0.4711019702472502 0 -0.27590959703833268 -0.46395822566082889 0 -0.28415274244228111 -0.44688203472436061 0 -0.28853731426670193 -0.4711019702472502 0 -0.28546470735817681 -0.44220394049450029 0 -0.30366432945983329 -0.44899041722760019 0 -0.28853731426670193 -0.4711019702472502 0 -0.28546470735817681 -0.44220394049450029 0 -0.28415274244228111 -0.44688203472436061 0 -0.28853731426670193 -0.4711019702472502 0 -0.31240784937598481 -0.46511385800219301 0 -0.30366432945983329 -0.44899041722760019 0 -0.28853731426670193 -0.4711019702472502 0 -0.30769513212064092 -0.42301040928053318 0 -0.28546470735817681 -0.44220394049450029 0 -0.30366432945983329 -0.44899041722760019 0 -0.32421664417766249 -0.44352190811352421 0 -0.30769513212064092 -0.42301040928053318 0 -0.30366432945983329 -0.44899041722760019 0 -0.3155346065267729 -0.5 0 -0.30772085831481621 -0.48359943696201452 0 -0.29160992117522699 -0.50000000000000011 0 -0.31240784937598481 -0.46511385800219301 0 -0.30772085831481621 -0.48359943696201452 0 -0.28853731426670193 -0.4711019702472502 0 -0.28853731426670193 -0.4711019702472502 0 -0.28354987969050438 -0.48827027076941631 0 -0.27665396011947369 -0.48197911283041461 0 -0.28853731426670193 -0.4711019702472502 0 -0.29160992117522699 -0.50000000000000011 0 -0.30772085831481621 -0.48359943696201452 0 -0.28853731426670193 -0.4711019702472502 0 -0.29160992117522699 -0.50000000000000011 0 -0.28853731426670193 -0.4711019702472502 0 -0.28354987969050438 -0.48827027076941631 0 -0.29160992117522699 -0.50000000000000011 0 -0.28354987969050438 -0.48827027076941631 0 -0.29160992117522699 -0.50000000000000011 0 -0.27739832320061542 -0.50000000000000033 0 -0.28354987969050438 -0.48827027076941631 0 -0.27739832320061542 -0.50000000000000033 0 -0.27665396011947369 -0.48197911283041461 0 -0.27739832320061542 -0.50000000000000033 0 -0.27665396011947369 -0.48197911283041461 0 -0.26721042086961322 -0.48197911283041511 0 -0.27739832320061542 -0.50000000000000033 0 -0.27665396011947369 -0.48197911283041461 0 -0.27739832320061542 -0.50000000000000033 0 -0.26721042086961322 -0.48197911283041511 0 -0.25851124470089287 -0.50000000000000089 0 -0.27590959703833268 -0.46395822566082889 0 -0.28853731426670193 -0.4711019702472502 0 -0.27665396011947369 -0.48197911283041461 0 -0.27590959703833268 -0.46395822566082889 0 -0.26721042086961322 -0.48197911283041511 0 -0.27590959703833268 -0.46395822566082889 0 -0.27665396011947369 -0.48197911283041461 0 -0.26721042086961322 -0.48197911283041511 0 -0.25847809570928648 -0.46672321029143587 0 -0.27590959703833268 -0.46395822566082889 0 -0.26721042086961322 -0.48197911283041511 0 -0.27590959703833268 -0.46395822566082889 0 -0.27665396011947369 -0.48197911283041461 0 -0.25847809570928648 -0.46672321029143587 0 -0.26721042086961322 -0.48197911283041511 0 -0.25132680618178999 -0.48531696080527031 0 -0.26721042086961322 -0.48197911283041511 0 -0.25851124470089287 -0.50000000000000089 0 -0.25132680618178999 -0.48531696080527031 0 -0.26721042086961322 -0.48197911283041511 0 -0.25851124470089287 -0.50000000000000089 0 -0.25851124470089287 -0.50000000000000089 0 -0.25132680618178999 -0.48531696080527031 0 -0.23438985879728361 -0.5 0 -0.25132680618178999 -0.48531696080527031 0 -0.23438985879728361 -0.5 0 -0.23804441083187339 -0.47788248090449931 0 -0.25847809570928648 -0.46672321029143587 0 -0.25132680618178999 -0.48531696080527031 0 -0.23804441083187339 -0.47788248090449931 0 -0.23804441083187339 -0.47788248090449931 0 -0.22133723048511281 -0.48455239363084007 0 -0.22204200404046051 -0.46768094666674098 0 -0.23438985879728361 -0.5 0 -0.23804441083187339 -0.47788248090449931 0 -0.22133723048511281 -0.48455239363084007 0 -0.23438985879728361 -0.5 0 -0.22133723048511281 -0.48455239363084007 0 -0.21026847289367431 -0.5 0 -0.2545110423222009 -0.45159093752002177 0 -0.24538582553393271 -0.43922293479031371 0 -0.2410946996687571 -0.45834353202039518 0 -0.24538582553393271 -0.43922293479031371 0 -0.2410946996687571 -0.45834353202039518 0 -0.22810681957478859 -0.44696068194935978 0 -0.25847809570928648 -0.46672321029143587 0 -0.23804441083187339 -0.47788248090449931 0 -0.2410946996687571 -0.45834353202039518 0 -0.2410946996687571 -0.45834353202039518 0 -0.22204200404046051 -0.46768094666674098 0 -0.22810681957478859 -0.44696068194935978 0 -0.23804441083187339 -0.47788248090449931 0 -0.2410946996687571 -0.45834353202039518 0 -0.22204200404046051 -0.46768094666674098 0 -0.22204200404046051 -0.46768094666674098 0 -0.22810681957478859 -0.44696068194935978 0 -0.2128407282218541 -0.45450422354379949 0 -0.24538582553393271 -0.43922293479031371 0 -0.22810681957478859 -0.44696068194935978 0 -0.2291534577043676 -0.43308602108592892 0 -0.22810681957478859 -0.44696068194935978 0 -0.21480708581972091 -0.43921561954459859 0 -0.2291534577043676 -0.43308602108592892 0 -0.21480708581972091 -0.43921561954459859 0 -0.2128407282218541 -0.45450422354379949 0 -0.19812468604897909 -0.44446887540474872 0 -0.22810681957478859 -0.44696068194935978 0 -0.21480708581972091 -0.43921561954459859 0 -0.2128407282218541 -0.45450422354379949 0 -0.22204200404046051 -0.46768094666674098 0 -0.2128407282218541 -0.45450422354379949 0 -0.19995753514153991 -0.47329581512265212 0 -0.2128407282218541 -0.45450422354379949 0 -0.19812468604897909 -0.44446887540474872 0 -0.19995753514153991 -0.47329581512265212 0 -0.19812468604897909 -0.44446887540474872 0 -0.19995753514153991 -0.47329581512265212 0 -0.18123572140414601 -0.45604833116022248 0 -0.19812468604897909 -0.44446887540474872 0 -0.18123572140414601 -0.45604833116022248 0 -0.18560747273704409 -0.43299395836275478 0 -0.22133723048511281 -0.48455239363084007 0 -0.21026847289367431 -0.5 0 -0.19995753514153991 -0.47329581512265212 0 -0.22133723048511281 -0.48455239363084007 0 -0.22204200404046051 -0.46768094666674098 0 -0.19995753514153991 -0.47329581512265212 0 -0.21026847289367431 -0.5 0 -0.19995753514153991 -0.47329581512265212 0 -0.1861470869900651 -0.49999999999999611 0 -0.19995753514153991 -0.47329581512265212 0 -0.16671648508065839 -0.4780777820440702 0 -0.18123572140414601 -0.45604833116022248 0 -0.19995753514153991 -0.47329581512265212 0 -0.1861470869900651 -0.49999999999999611 0 -0.16671648508065839 -0.4780777820440702 0 -0.1861470869900651 -0.49999999999999611 0 -0.16671648508065839 -0.4780777820440702 0 -0.1861470869900651 -0.49999999999999611 0 -0.16153137456918529 -0.5 0 -0.16671648508065839 -0.4780777820440702 0 -0.16153137456918529 -0.5 0 -0.16671648508065839 -0.4780777820440702 0 -0.14836704781326501 -0.48365090237396491 0 -0.18123572140414601 -0.45604833116022248 0 -0.1686393937064479 -0.43811909434164759 0 -0.14728588317124991 -0.45615556408814578 0 -0.16671648508065839 -0.4780777820440702 0 -0.18123572140414601 -0.45604833116022248 0 -0.14728588317124991 -0.45615556408814578 0 -0.18123572140414601 -0.45604833116022248 0 -0.1686393937064479 -0.43811909434164759 0 -0.18560747273704409 -0.43299395836275478 0 -0.16671648508065839 -0.4780777820440702 0 -0.14728588317124991 -0.45615556408814578 0 -0.16671648508065839 -0.4780777820440702 0 -0.15043471521053639 -0.46587625794433368 0 -0.14728588317124991 -0.45615556408814578 0 -0.15043471521053639 -0.46587625794433368 0 -0.14728588317124991 -0.45615556408814578 0 -0.12530965853681961 -0.47164100974257989 0 -0.14728588317124991 -0.45615556408814578 0 -0.12785528126184131 -0.43423334613222148 0 -0.15026822310847901 -0.43707591422899711 0 -0.1686393937064479 -0.43811909434164759 0 -0.14728588317124991 -0.45615556408814578 0 -0.15026822310847901 -0.43707591422899711 0 -0.14728588317124991 -0.45615556408814578 0 -0.1263704279512412 -0.45384477781721411 0 -0.12785528126184131 -0.43423334613222148 0 -0.14728588317124991 -0.45615556408814578 0 -0.12785528126184131 -0.43423334613222148 0 -0.14728588317124991 -0.45615556408814578 0 -0.1263704279512412 -0.45384477781721411 0 -0.12530965853681961 -0.47164100974257989 0 -0.15043471521053639 -0.46587625794433368 0 -0.12530965853681961 -0.47164100974257989 0 -0.12530965853681961 -0.47164100974257989 0 -0.1369156621483055 -0.5 0 -0.14836704781326501 -0.48365090237396491 0 -0.16153137456918529 -0.5 0 -0.1369156621483055 -0.5 0 -0.14836704781326501 -0.48365090237396491 0 -0.15043471521053639 -0.46587625794433368 0 -0.12530965853681961 -0.47164100974257989 0 -0.14836704781326501 -0.48365090237396491 0 -0.16671648508065839 -0.4780777820440702 0 -0.15043471521053639 -0.46587625794433368 0 -0.14836704781326501 -0.48365090237396491 0 -0.1492300367780503 -0.39308270386179911 0 -0.15232716993591031 -0.41783009938227239 0 -0.16522961524069171 -0.40299027324053949 0 -0.1492300367780503 -0.39308270386179911 0 -0.13405172194854639 -0.40495918722912622 0 -0.15232716993591031 -0.41783009938227239 0 -0.1506018866269497 -0.38001862832213318 0 -0.1356242623295103 -0.3856488429574641 0 -0.13567442121693471 -0.36803619816867028 0 -0.1492300367780503 -0.39308270386179911 0 -0.1506018866269497 -0.38001862832213318 0 -0.1356242623295103 -0.3856488429574641 0 -0.1356242623295103 -0.3856488429574641 0 -0.13567442121693471 -0.36803619816867028 0 -0.1223443229586418 -0.37774968827619082 0 -0.1356242623295103 -0.3856488429574641 0 -0.1223443229586418 -0.37774968827619082 0 -0.12184318444793869 -0.39004665188686521 0 -0.1356242623295103 -0.3856488429574641 0 -0.13405172194854639 -0.40495918722912622 0 -0.12184318444793869 -0.39004665188686521 0 -0.1492300367780503 -0.39308270386179911 0 -0.1356242623295103 -0.3856488429574641 0 -0.13405172194854639 -0.40495918722912622 0 -0.13405172194854639 -0.40495918722912622 0 -0.12785528126184131 -0.43423334613222148 0 -0.15232716993591031 -0.41783009938227239 0 -0.12785528126184131 -0.43423334613222148 0 -0.15026822310847901 -0.43707591422899711 0 -0.15232716993591031 -0.41783009938227239 0 -0.15232716993591031 -0.41783009938227239 0 -0.17375574090986479 -0.41694986366296982 0 -0.16522961524069171 -0.40299027324053949 0 -0.1686393937064479 -0.43811909434164759 0 -0.15026822310847901 -0.43707591422899711 0 -0.15232716993591031 -0.41783009938227239 0 -0.1686393937064479 -0.43811909434164759 0 -0.15232716993591031 -0.41783009938227239 0 -0.17375574090986479 -0.41694986366296982 0 -0.1686393937064479 -0.43811909434164759 0 -0.18560747273704409 -0.43299395836275478 0 -0.17375574090986479 -0.41694986366296982 0 -0.18560747273704409 -0.43299395836275478 0 -0.17375574090986479 -0.41694986366296982 0 -0.19111407460555069 -0.41403492904181538 0 -0.17375574090986479 -0.41694986366296982 0 -0.18131484392882999 -0.39959285041207832 0 -0.19111407460555069 -0.41403492904181538 0 -0.17375574090986479 -0.41694986366296982 0 -0.18131484392882999 -0.39959285041207832 0 -0.16522961524069171 -0.40299027324053949 0 -0.18131484392882999 -0.39959285041207832 0 -0.16522961524069171 -0.40299027324053949 0 -0.1695202846508031 -0.38749584888357758 0 -0.1492300367780503 -0.39308270386179911 0 -0.16522961524069171 -0.40299027324053949 0 -0.1695202846508031 -0.38749584888357758 0 -0.1506018866269497 -0.38001862832213318 0 -0.1695202846508031 -0.38749584888357758 0 -0.16307811613080739 -0.36819670661602988 0 -0.1695202846508031 -0.38749584888357758 0 -0.16307811613080739 -0.36819670661602988 0 -0.17691506323010939 -0.37471489282543752 0 -0.1492300367780503 -0.39308270386179911 0 -0.1506018866269497 -0.38001862832213318 0 -0.1695202846508031 -0.38749584888357758 0 -0.1695202846508031 -0.38749584888357758 0 -0.1905844688797366 -0.3815774875005829 0 -0.17691506323010939 -0.37471489282543752 0 -0.18131484392882999 -0.39959285041207832 0 -0.1695202846508031 -0.38749584888357758 0 -0.1905844688797366 -0.3815774875005829 0 -0.1905844688797366 -0.3815774875005829 0 -0.2011364521668744 -0.39739014647798221 0 -0.20586001970477069 -0.38294369610154128 0 -0.1905844688797366 -0.3815774875005829 0 -0.20586001970477069 -0.38294369610154128 0 -0.20051075823372849 -0.36978861543852681 0 -0.18131484392882999 -0.39959285041207832 0 -0.1905844688797366 -0.3815774875005829 0 -0.2011364521668744 -0.39739014647798221 0 -0.18131484392882999 -0.39959285041207832 0 -0.2011364521668744 -0.39739014647798221 0 -0.19111407460555069 -0.41403492904181538 0 -0.2011364521668744 -0.39739014647798221 0 -0.21344730450313251 -0.40235836830352412 0 -0.21611109841598641 -0.39083105272300928 0 -0.2011364521668744 -0.39739014647798221 0 -0.21344730450313251 -0.40235836830352412 0 -0.20712622213253001 -0.41320996392327158 0 -0.21344730450313251 -0.40235836830352412 0 -0.21611109841598641 -0.39083105272300928 0 -0.22526550614561711 -0.39957380453474339 0 -0.21611109841598641 -0.39083105272300928 0 -0.20586001970477069 -0.38294369610154128 0 -0.22008908918605469 -0.3754183430462289 0 -0.20586001970477069 -0.38294369610154128 0 -0.22008908918605469 -0.3754183430462289 0 -0.20051075823372849 -0.36978861543852681 0 -0.2011364521668744 -0.39739014647798221 0 -0.21611109841598641 -0.39083105272300928 0 -0.20586001970477069 -0.38294369610154128 0 -0.19812468604897909 -0.44446887540474872 0 -0.18560747273704409 -0.43299395836275478 0 -0.2018750188753542 -0.42840008368872218 0 -0.18560747273704409 -0.43299395836275478 0 -0.2018750188753542 -0.42840008368872218 0 -0.19111407460555069 -0.41403492904181538 0 -0.2011364521668744 -0.39739014647798221 0 -0.19111407460555069 -0.41403492904181538 0 -0.20712622213253001 -0.41320996392327158 0 -0.2018750188753542 -0.42840008368872218 0 -0.19111407460555069 -0.41403492904181538 0 -0.20712622213253001 -0.41320996392327158 0 -0.21344730450313251 -0.40235836830352412 0 -0.20712622213253001 -0.41320996392327158 0 -0.22033970244043971 -0.41141788123030398 0 -0.20712622213253001 -0.41320996392327158 0 -0.21594457933190661 -0.42571580192087921 0 -0.22033970244043971 -0.41141788123030398 0 -0.21480708581972091 -0.43921561954459859 0 -0.19812468604897909 -0.44446887540474872 0 -0.2018750188753542 -0.42840008368872218 0 -0.2018750188753542 -0.42840008368872218 0 -0.20712622213253001 -0.41320996392327158 0 -0.21594457933190661 -0.42571580192087921 0 -0.21480708581972091 -0.43921561954459859 0 -0.2018750188753542 -0.42840008368872218 0 -0.21594457933190661 -0.42571580192087921 0 -0.21480708581972091 -0.43921561954459859 0 -0.21594457933190661 -0.42571580192087921 0 -0.2291534577043676 -0.43308602108592892 0 -0.21594457933190661 -0.42571580192087921 0 -0.2291534577043676 -0.43308602108592892 0 -0.22951620113038571 -0.42035594365930828 0 -0.2291534577043676 -0.43308602108592892 0 -0.22951620113038571 -0.42035594365930828 0 -0.23999472435168989 -0.42614596562021589 0 -0.21594457933190661 -0.42571580192087921 0 -0.22951620113038571 -0.42035594365930828 0 -0.22033970244043971 -0.41141788123030398 0 -0.22033970244043971 -0.41141788123030398 0 -0.23073877772109461 -0.40863357385362031 0 -0.22526550614561711 -0.39957380453474339 0 -0.22951620113038571 -0.42035594365930828 0 -0.22033970244043971 -0.41141788123030398 0 -0.23073877772109461 -0.40863357385362031 0 -0.22951620113038571 -0.42035594365930828 0 -0.23073877772109461 -0.40863357385362031 0 -0.24414203371103091 -0.41207361684672428 0 -0.25106484146468439 -0.42345079450244799 0 -0.24414203371103091 -0.41207361684672428 0 -0.23999472435168989 -0.42614596562021589 0 -0.22951620113038571 -0.42035594365930828 0 -0.24414203371103091 -0.41207361684672428 0 -0.23999472435168989 -0.42614596562021589 0 -0.25106484146468439 -0.42345079450244799 0 -0.24538582553393271 -0.43922293479031371 0 -0.23999472435168989 -0.42614596562021589 0 -0.24538582553393271 -0.43922293479031371 0 -0.2291534577043676 -0.43308602108592892 0 -0.23999472435168989 -0.42614596562021589 0 -0.23086821878946889 -0.3873019578740361 0 -0.22008908918605469 -0.3754183430462289 0 -0.23688224671988681 -0.3747091347210903 0 -0.21611109841598641 -0.39083105272300928 0 -0.23086821878946889 -0.3873019578740361 0 -0.22008908918605469 -0.3754183430462289 0 -0.21611109841598641 -0.39083105272300928 0 -0.23086821878946889 -0.3873019578740361 0 -0.22526550614561711 -0.39957380453474339 0 -0.21344730450313251 -0.40235836830352412 0 -0.22033970244043971 -0.41141788123030398 0 -0.22526550614561711 -0.39957380453474339 0 -0.23073877772109461 -0.40863357385362031 0 -0.22526550614561711 -0.39957380453474339 0 -0.23647645557999869 -0.39741091483603341 0 -0.23086821878946889 -0.3873019578740361 0 -0.22526550614561711 -0.39957380453474339 0 -0.23647645557999869 -0.39741091483603341 0 -0.23086821878946889 -0.3873019578740361 0 -0.23647645557999869 -0.39741091483603341 0 -0.24591611631914381 -0.38776796357477328 0 -0.23073877772109461 -0.40863357385362031 0 -0.24414203371103091 -0.41207361684672428 0 -0.23647645557999869 -0.39741091483603341 0 -0.25566504003521562 -0.40500811044500301 0 -0.24414203371103091 -0.41207361684672428 0 -0.24771315092544269 -0.39919581982208308 0 -0.24414203371103091 -0.41207361684672428 0 -0.23647645557999869 -0.39741091483603341 0 -0.24771315092544269 -0.39919581982208308 0 -0.23647645557999869 -0.39741091483603341 0 -0.24771315092544269 -0.39919581982208308 0 -0.24591611631914381 -0.38776796357477328 0 -0.25549680379609357 -0.395357211548784 0 -0.24771315092544269 -0.39919581982208308 0 -0.24591611631914381 -0.38776796357477328 0 -0.25267394267960741 -0.37275161346691338 0 -0.24591611631914381 -0.38776796357477328 0 -0.23688224671988681 -0.3747091347210903 0 -0.23086821878946889 -0.3873019578740361 0 -0.24591611631914381 -0.38776796357477328 0 -0.23688224671988681 -0.3747091347210903 0 -0.25267394267960741 -0.37275161346691338 0 -0.24273739530009639 -0.3616683425162493 0 -0.23688224671988681 -0.3747091347210903 0 -0.24273739530009639 -0.3616683425162493 0 -0.23688224671988681 -0.3747091347210903 0 -0.22900871804494999 -0.3633465878483414 0 -0.22008908918605469 -0.3754183430462289 0 -0.23688224671988681 -0.3747091347210903 0 -0.22900871804494999 -0.3633465878483414 0 -0.22008908918605469 -0.3754183430462289 0 -0.22900871804494999 -0.3633465878483414 0 -0.20986886558800599 -0.35761715061429072 0 -0.22900871804494999 -0.3633465878483414 0 -0.22503415318428871 -0.33925228979145289 0 -0.20986886558800599 -0.35761715061429072 0 -0.22900871804494999 -0.3633465878483414 0 -0.23707918180949861 -0.3519965054240845 0 -0.22503415318428871 -0.33925228979145289 0 -0.25542003626020671 -0.35936767987950519 0 -0.25153646070865909 -0.34371880154029438 0 -0.24273739530009639 -0.3616683425162493 0 -0.25153646070865909 -0.34371880154029438 0 -0.23707918180949861 -0.3519965054240845 0 -0.22503415318428871 -0.33925228979145289 0 -0.25153646070865909 -0.34371880154029438 0 -0.24273739530009639 -0.3616683425162493 0 -0.23707918180949861 -0.3519965054240845 0 -0.24273739530009639 -0.3616683425162493 0 -0.22900871804494999 -0.3633465878483414 0 -0.23707918180949861 -0.3519965054240845 0 -0.25153646070865909 -0.34371880154029438 0 -0.24381082362484849 -0.32069237975511039 0 -0.25153646070865909 -0.34371880154029438 0 -0.24381082362484849 -0.32069237975511039 0 -0.22503415318428871 -0.33925228979145289 0 -0.24381082362484849 -0.32069237975511039 0 -0.22454726586615159 -0.31306573634262619 0 -0.22503415318428871 -0.33925228979145289 0 -0.22454726586615159 -0.31306573634262619 0 -0.22503415318428871 -0.33925228979145289 0 -0.20910001557251531 -0.32201328622999259 0 -0.22503415318428871 -0.33925228979145289 0 -0.20910001557251531 -0.32201328622999259 0 -0.1994791901812423 -0.33870226370441597 0 -0.22454726586615159 -0.31306573634262619 0 -0.20910001557251531 -0.32201328622999259 0 -0.20138846272059191 -0.30540992118454813 0 -0.20910001557251531 -0.32201328622999259 0 -0.19216616046536461 -0.32113634903081811 0 -0.1994791901812423 -0.33870226370441597 0 -0.20910001557251531 -0.32201328622999259 0 -0.19216616046536461 -0.32113634903081811 0 -0.20138846272059191 -0.30540992118454813 0 -0.19216616046536461 -0.32113634903081811 0 -0.1994791901812423 -0.33870226370441597 0 -0.17733386042117891 -0.33384717207113818 0 -0.1994791901812423 -0.33870226370441597 0 -0.20986886558800599 -0.35761715061429072 0 -0.18492288828118369 -0.35905642695774609 0 -0.1905844688797366 -0.3815774875005829 0 -0.20051075823372849 -0.36978861543852681 0 -0.18492288828118369 -0.35905642695774609 0 -0.20051075823372849 -0.36978861543852681 0 -0.20986886558800599 -0.35761715061429072 0 -0.18492288828118369 -0.35905642695774609 0 -0.22008908918605469 -0.3754183430462289 0 -0.20051075823372849 -0.36978861543852681 0 -0.20986886558800599 -0.35761715061429072 0 -0.22503415318428871 -0.33925228979145289 0 -0.1994791901812423 -0.33870226370441597 0 -0.20986886558800599 -0.35761715061429072 0 -0.22063391237341529 -0.25161311439955902 0 -0.235909427295004 -0.26119690936420409 0 -0.23754331725094441 -0.24910643326123699 0 -0.22063391237341529 -0.25161311439955902 0 -0.2283595494572272 -0.27463953618474252 0 -0.21808485120618629 -0.26155000982986321 0 -0.22063391237341529 -0.25161311439955902 0 -0.2283595494572272 -0.27463953618474252 0 -0.22063391237341529 -0.25161311439955902 0 -0.235909427295004 -0.26119690936420409 0 -0.2283595494572272 -0.27463953618474252 0 -0.2201308960737243 -0.2501138638709765 0 -0.22063391237341529 -0.25161311439955902 0 -0.21599137729769369 -0.25277866920043612 0 -0.2201308960737243 -0.2501138638709765 0 -0.22063391237341529 -0.25161311439955902 0 -0.2484888610175276 -0.25598132161872211 0 -0.235909427295004 -0.26119690936420409 0 -0.23754331725094441 -0.24910643326123699 0 -0.2484888610175276 -0.25598132161872211 0 -0.235909427295004 -0.26119690936420409 0 -0.24840581599986661 -0.27789831130410969 0 -0.235909427295004 -0.26119690936420409 0 -0.24840581599986661 -0.27789831130410969 0 -0.2283595494572272 -0.27463953618474252 0 -0.2283595494572272 -0.27463953618474252 0 -0.21216949460973289 -0.28656883325932198 0 -0.2158337482283938 -0.26679513228867491 0 -0.2283595494572272 -0.27463953618474252 0 -0.2158337482283938 -0.26679513228867491 0 -0.21808485120618629 -0.26155000982986321 0 -0.2283595494572272 -0.27463953618474252 0 -0.2360851865410378 -0.29766595796992651 0 -0.21216949460973289 -0.28656883325932198 0 -0.2283595494572272 -0.27463953618474252 0 -0.2360851865410378 -0.29766595796992651 0 -0.25208713094001511 -0.30225994504666959 0 -0.24840581599986661 -0.27789831130410969 0 -0.2360851865410378 -0.29766595796992651 0 -0.24840581599986661 -0.27789831130410969 0 -0.2283595494572272 -0.27463953618474252 0 -0.2360851865410378 -0.29766595796992651 0 -0.24381082362484849 -0.32069237975511039 0 -0.2360851865410378 -0.29766595796992651 0 -0.25208713094001511 -0.30225994504666959 0 -0.24381082362484849 -0.32069237975511039 0 -0.2360851865410378 -0.29766595796992651 0 -0.24381082362484849 -0.32069237975511039 0 -0.22454726586615159 -0.31306573634262619 0 -0.2360851865410378 -0.29766595796992651 0 -0.22454726586615159 -0.31306573634262619 0 -0.2360851865410378 -0.29766595796992651 0 -0.21216949460973289 -0.28656883325932198 0 -0.22454726586615159 -0.31306573634262619 0 -0.20138846272059191 -0.30540992118454813 0 -0.21216949460973289 -0.28656883325932198 0 -0.19216616046536461 -0.32113634903081811 0 -0.20138846272059191 -0.30540992118454813 0 -0.17684854317692211 -0.30918025099056318 0 -0.20138846272059191 -0.30540992118454813 0 -0.19213948109146331 -0.2847731264022953 0 -0.17684854317692211 -0.30918025099056318 0 -0.20138846272059191 -0.30540992118454813 0 -0.19213948109146331 -0.2847731264022953 0 -0.21216949460973289 -0.28656883325932198 0 -0.19213948109146331 -0.2847731264022953 0 -0.21216949460973289 -0.28656883325932198 0 -0.2105812982566018 -0.2633117091696715 0 -0.21216949460973289 -0.28656883325932198 0 -0.2158337482283938 -0.26679513228867491 0 -0.2105812982566018 -0.2633117091696715 0 -0.19213948109146331 -0.2847731264022953 0 -0.1919044209477905 -0.26640234679042352 0 -0.2105812982566018 -0.2633117091696715 0 -0.19213948109146331 -0.2847731264022953 0 -0.2105812982566018 -0.2633117091696715 0 -0.1919044209477905 -0.26640234679042352 0 -0.19054851346876919 -0.25002597279089323 0 -0.2105812982566018 -0.2633117091696715 0 -0.19054851346876919 -0.25002597279089323 0 -0.2105812982566018 -0.2633117091696715 0 -0.2053414975709994 -0.2494664977315596 0 -0.19054851346876919 -0.25002597279089323 0 -0.2105812982566018 -0.2633117091696715 0 -0.2105812982566018 -0.2633117091696715 0 -0.21233791331938501 -0.25133786795721558 0 -0.2053414975709994 -0.2494664977315596 0 -0.22063391237341529 -0.25161311439955902 0 -0.2105812982566018 -0.2633117091696715 0 -0.21808485120618629 -0.26155000982986321 0 -0.2158337482283938 -0.26679513228867491 0 -0.2105812982566018 -0.2633117091696715 0 -0.2158337482283938 -0.26679513228867491 0 -0.2105812982566018 -0.2633117091696715 0 -0.21808485120618629 -0.26155000982986321 0 -0.22063391237341529 -0.25161311439955902 0 -0.2105812982566018 -0.2633117091696715 0 -0.22063391237341529 -0.25161311439955902 0 -0.2105812982566018 -0.2633117091696715 0 -0.21599137729769369 -0.25277866920043612 0 -0.2105812982566018 -0.2633117091696715 0 -0.21599137729769369 -0.25277866920043612 0 -0.21233791331938501 -0.25133786795721558 0 -0.2201308960737243 -0.2501138638709765 0 -0.21599137729769369 -0.25277866920043612 0 -0.21592604013177041 -0.24798517953124349 0 -0.21599137729769369 -0.25277866920043612 0 -0.21233791331938501 -0.25133786795721558 0 -0.21592604013177041 -0.24798517953124349 0 -0.16297189440145399 -0.26006172066832911 0 -0.1790110501740719 -0.26122880973077051 0 -0.17051572868093681 -0.23674023641211461 0 -0.16297189440145399 -0.26006172066832911 0 -0.15417977530362681 -0.25762297062000938 0 -0.1517762630223069 -0.24017059545733349 0 -0.1919044209477905 -0.26640234679042352 0 -0.19054851346876919 -0.25002597279089323 0 -0.1790110501740719 -0.26122880973077051 0 -0.1919044209477905 -0.26640234679042352 0 -0.1790110501740719 -0.26122880973077051 0 -0.1744504480168817 -0.27599875206419999 0 -0.19213948109146331 -0.2847731264022953 0 -0.1919044209477905 -0.26640234679042352 0 -0.1744504480168817 -0.27599875206419999 0 -0.16297189440145399 -0.26006172066832911 0 -0.1790110501740719 -0.26122880973077051 0 -0.1744504480168817 -0.27599875206419999 0 -0.16297189440145399 -0.26006172066832911 0 -0.1744504480168817 -0.27599875206419999 0 -0.15542806012197019 -0.28338320492454339 0 -0.16297189440145399 -0.26006172066832911 0 -0.15542806012197019 -0.28338320492454339 0 -0.16297189440145399 -0.26006172066832911 0 -0.15542806012197019 -0.28338320492454339 0 -0.15100663910277459 -0.26715225854557989 0 -0.1744504480168817 -0.27599875206419999 0 -0.16935015164994471 -0.2920080047124719 0 -0.15542806012197019 -0.28338320492454339 0 -0.16935015164994471 -0.2920080047124719 0 -0.14788422584248639 -0.30670468918075761 0 -0.15542806012197019 -0.28338320492454339 0 -0.19213948109146331 -0.2847731264022953 0 -0.1744504480168817 -0.27599875206419999 0 -0.16935015164994471 -0.2920080047124719 0 -0.19213948109146331 -0.2847731264022953 0 -0.16935015164994471 -0.2920080047124719 0 -0.17684854317692211 -0.30918025099056318 0 -0.16935015164994471 -0.2920080047124719 0 -0.17684854317692211 -0.30918025099056318 0 -0.14788422584248639 -0.30670468918075761 0 -0.1316207735126273 -0.31006960419355839 0 -0.1362029977012589 -0.28870980354084608 0 -0.116923976312773 -0.30233483291088131 0 -0.14788422584248639 -0.30670468918075761 0 -0.1316207735126273 -0.31006960419355839 0 -0.1362029977012589 -0.28870980354084608 0 -0.1362029977012589 -0.28870980354084608 0 -0.116923976312773 -0.30233483291088131 0 -0.1362029977012589 -0.28870980354084608 0 -0.12659172680805569 -0.27662601618885257 0 -0.116923976312773 -0.30233483291088131 0 -0.14788422584248639 -0.30670468918075761 0 -0.15542806012197019 -0.28338320492454339 0 -0.14788422584248639 -0.30670468918075761 0 -0.1362029977012589 -0.28870980354084608 0 -0.15542806012197019 -0.28338320492454339 0 -0.1362029977012589 -0.28870980354084608 0 -0.15542806012197019 -0.28338320492454339 0 -0.1397594358269027 -0.27332815199028482 0 -0.15542806012197019 -0.28338320492454339 0 -0.15100663910277459 -0.26715225854557989 0 -0.1397594358269027 -0.27332815199028482 0 -0.15100663910277459 -0.26715225854557989 0 -0.1397594358269027 -0.27332815199028482 0 -0.14269402985991911 -0.26136524452473292 0 -0.1362029977012589 -0.28870980354084608 0 -0.12659172680805569 -0.27662601618885257 0 -0.1397594358269027 -0.27332815199028482 0 -0.1397594358269027 -0.27332815199028482 0 -0.12537990572601199 -0.26303752545132808 0 -0.14269402985991911 -0.26136524452473292 0 -0.12659172680805569 -0.27662601618885257 0 -0.1397594358269027 -0.27332815199028482 0 -0.12537990572601199 -0.26303752545132808 0 -0.1379647103721692 -0.25019231396180308 0 -0.12537990572601199 -0.26303752545132808 0 -0.14269402985991911 -0.26136524452473292 0 -0.1379647103721692 -0.25019231396180308 0 -0.12537990572601199 -0.26303752545132808 0 -0.11835882043479951 -0.24860760241583349 0 -0.1379647103721692 -0.25019231396180308 0 -0.14269402985991911 -0.26136524452473292 0 -0.15417977530362681 -0.25762297062000938 0 -0.15100663910277459 -0.26715225854557989 0 -0.14269402985991911 -0.26136524452473292 0 -0.15417977530362681 -0.25762297062000938 0 -0.16297189440145399 -0.26006172066832911 0 -0.15100663910277459 -0.26715225854557989 0 -0.15417977530362681 -0.25762297062000938 0 -0.16376799048231661 -0.34863314939964241 0 -0.16307811613080739 -0.36819670661602988 0 -0.18492288828118369 -0.35905642695774609 0 -0.16376799048231661 -0.34863314939964241 0 -0.16307811613080739 -0.36819670661602988 0 -0.14717816532431391 -0.35902479983673041 0 -0.1905844688797366 -0.3815774875005829 0 -0.17691506323010939 -0.37471489282543752 0 -0.18492288828118369 -0.35905642695774609 0 -0.16307811613080739 -0.36819670661602988 0 -0.17691506323010939 -0.37471489282543752 0 -0.18492288828118369 -0.35905642695774609 0 -0.1994791901812423 -0.33870226370441597 0 -0.18492288828118369 -0.35905642695774609 0 -0.17733386042117891 -0.33384717207113818 0 -0.16376799048231661 -0.34863314939964241 0 -0.18492288828118369 -0.35905642695774609 0 -0.17733386042117891 -0.33384717207113818 0 -0.19216616046536461 -0.32113634903081811 0 -0.17684854317692211 -0.30918025099056318 0 -0.17733386042117891 -0.33384717207113818 0 -0.17684854317692211 -0.30918025099056318 0 -0.17733386042117891 -0.33384717207113818 0 -0.15931632399577081 -0.32708003297459209 0 -0.17684854317692211 -0.30918025099056318 0 -0.14788422584248639 -0.30670468918075761 0 -0.15931632399577081 -0.32708003297459209 0 -0.16376799048231661 -0.34863314939964241 0 -0.17733386042117891 -0.33384717207113818 0 -0.15931632399577081 -0.32708003297459209 0 -0.16376799048231661 -0.34863314939964241 0 -0.15931632399577081 -0.32708003297459209 0 -0.14876012009585651 -0.34288900882978268 0 -0.15931632399577081 -0.32708003297459209 0 -0.14876012009585651 -0.34288900882978268 0 -0.1403403915630026 -0.33002617343697183 0 -0.14876012009585651 -0.34288900882978268 0 -0.1403403915630026 -0.33002617343697183 0 -0.13279655728351941 -0.35334765769318632 0 -0.14788422584248639 -0.30670468918075761 0 -0.1403403915630026 -0.33002617343697183 0 -0.14788422584248639 -0.30670468918075761 0 -0.15931632399577081 -0.32708003297459209 0 -0.1403403915630026 -0.33002617343697183 0 -0.1316207735126273 -0.31006960419355839 0 -0.1259388770013849 -0.32567532707859309 0 -0.1403403915630026 -0.33002617343697183 0 -0.14788422584248639 -0.30670468918075761 0 -0.1316207735126273 -0.31006960419355839 0 -0.1403403915630026 -0.33002617343697183 0 -0.1403403915630026 -0.33002617343697183 0 -0.12964325483768241 -0.3380145665545739 0 -0.13279655728351941 -0.35334765769318632 0 -0.1403403915630026 -0.33002617343697183 0 -0.13279655728351941 -0.35334765769318632 0 -0.1259388770013849 -0.32567532707859309 0 -0.1403403915630026 -0.33002617343697183 0 -0.12964325483768241 -0.3380145665545739 0 -0.12964325483768241 -0.3380145665545739 0 -0.1266110145165843 -0.34633520020965092 0 -0.13279655728351941 -0.35334765769318632 0 -0.12848279862533549 -0.35164480075215387 0 -0.13279655728351941 -0.35334765769318632 0 -0.13567442121693471 -0.36803619816867028 0 -0.1266110145165843 -0.34633520020965092 0 -0.12848279862533549 -0.35164480075215387 0 -0.13279655728351941 -0.35334765769318632 0 -0.12848279862533549 -0.35164480075215387 0 -0.13279655728351941 -0.35334765769318632 0 -0.13279655728351941 -0.35334765769318632 0 -0.14717816532431391 -0.35902479983673041 0 -0.14876012009585651 -0.34288900882978268 0 -0.13279655728351941 -0.35334765769318632 0 -0.14717816532431391 -0.35902479983673041 0 -0.16376799048231661 -0.34863314939964241 0 -0.14876012009585651 -0.34288900882978268 0 -0.14717816532431391 -0.35902479983673041 0 -0.1506018866269497 -0.38001862832213318 0 -0.16307811613080739 -0.36819670661602988 0 -0.13567442121693471 -0.36803619816867028 0 -0.16307811613080739 -0.36819670661602988 0 -0.14717816532431391 -0.35902479983673041 0 -0.13567442121693471 -0.36803619816867028 0 -0.16307811613080739 -0.36819670661602988 0 -0.13567442121693471 -0.36803619816867028 0 -0.13279655728351941 -0.35334765769318632 0 -0.14717816532431391 -0.35902479983673041 0 -0.13567442121693471 -0.36803619816867028 0 -0.1043213230789353 -0.36785255734512901 0 -0.108270726303062 -0.36787568972131118 0 -0.11812517128038939 -0.34755612565126798 0 -0.13567442121693471 -0.36803619816867028 0 -0.108270726303062 -0.36787568972131118 0 -0.12848279862533549 -0.35164480075215387 0 -0.13567442121693471 -0.36803619816867028 0 -0.108270726303062 -0.36787568972131118 0 -0.12848279862533549 -0.35164480075215387 0 -0.108270726303062 -0.36787568972131118 0 -0.13567442121693471 -0.36803619816867028 0 -0.108270726303062 -0.36787568972131118 0 -0.1223443229586418 -0.37774968827619082 0 -0.1043213230789353 -0.36785255734512901 0 -0.099534060164535615 -0.37489148977357989 0 -0.08505493796101378 -0.36773971060781058 0 -0.1043213230789353 -0.36785255734512901 0 -0.108270726303062 -0.36787568972131118 0 -0.099534060164535615 -0.37489148977357989 0 -0.1043213230789353 -0.36785255734512901 0 -0.09476266036063917 -0.35507161355923073 0 -0.08505493796101378 -0.36773971060781058 0 -0.108270726303062 -0.36787568972131118 0 -0.099534060164535615 -0.37489148977357989 0 -0.1043213230789353 -0.36785255734512901 0 -0.08505493796101378 -0.36773971060781058 0 -0.108270726303062 -0.36787568972131118 0 -0.099534060164535615 -0.37489148977357989 0 -0.1110086771929964 -0.37975839217213858 0 -0.1043213230789353 -0.36785255734512901 0 -0.099534060164535615 -0.37489148977357989 0 -0.1043213230789353 -0.36785255734512901 0 -0.108270726303062 -0.36787568972131118 0 -0.1043213230789353 -0.36785255734512901 0 -0.09476266036063917 -0.35507161355923073 0 -0.11812517128038939 -0.34755612565126798 0 -0.09476266036063917 -0.35507161355923073 0 -0.11812517128038939 -0.34755612565126798 0 -0.097212273732337096 -0.33930075589867142 0 -0.1043213230789353 -0.36785255734512901 0 -0.11812517128038939 -0.34755612565126798 0 -0.12848279862533549 -0.35164480075215387 0 -0.108270726303062 -0.36787568972131118 0 -0.11812517128038939 -0.34755612565126798 0 -0.1266110145165843 -0.34633520020965092 0 -0.12848279862533549 -0.35164480075215387 0 -0.11812517128038939 -0.34755612565126798 0 -0.12848279862533549 -0.35164480075215387 0 -0.11812517128038939 -0.34755612565126798 0 -0.12964325483768241 -0.3380145665545739 0 -0.1266110145165843 -0.34633520020965092 0 -0.11836373877474569 -0.33660760144130059 0 -0.1266110145165843 -0.34633520020965092 0 -0.11812517128038939 -0.34755612565126798 0 -0.11836373877474569 -0.33660760144130059 0 -0.11812517128038939 -0.34755612565126798 0 -0.11836373877474569 -0.33660760144130059 0 -0.097212273732337096 -0.33930075589867142 0 -0.1259388770013849 -0.32567532707859309 0 -0.12964325483768241 -0.3380145665545739 0 -0.11836373877474569 -0.33660760144130059 0 -0.1259388770013849 -0.32567532707859309 0 -0.11836373877474569 -0.33660760144130059 0 -0.1117067663303966 -0.32415322033846122 0 -0.1259388770013849 -0.32567532707859309 0 -0.1117067663303966 -0.32415322033846122 0 -0.116923976312773 -0.30233483291088131 0 -0.1316207735126273 -0.31006960419355839 0 -0.1259388770013849 -0.32567532707859309 0 -0.116923976312773 -0.30233483291088131 0 -0.1117067663303966 -0.32415322033846122 0 -0.097644954924287181 -0.31595986228091638 0 -0.097212273732337096 -0.33930075589867142 0 -0.1117067663303966 -0.32415322033846122 0 -0.097644954924287181 -0.31595986228091638 0 -0.116923976312773 -0.30233483291088131 0 -0.11812517128038939 -0.34755612565126798 0 -0.097212273732337096 -0.33930075589867142 0 -0.11836373877474569 -0.33660760144130059 0 -0.1117067663303966 -0.32415322033846122 0 -0.097212273732337096 -0.33930075589867142 0 -0.097212273732337096 -0.33930075589867142 0 -0.076299376184284395 -0.33104538614607593 0 -0.097644954924287181 -0.31595986228091638 0 -0.097212273732337096 -0.33930075589867142 0 -0.080451458999339684 -0.3318700273516873 0 -0.097212273732337096 -0.33930075589867142 0 -0.076299376184284395 -0.33104538614607593 0 -0.079971854940445258 -0.35015121869306137 0 -0.097212273732337096 -0.33930075589867142 0 -0.080451458999339684 -0.3318700273516873 0 -0.076299376184284395 -0.33104538614607593 0 -0.080451458999339684 -0.3318700273516873 0 -0.078365933535801471 -0.32958489165095167 0 -0.076299376184284395 -0.33104538614607593 0 -0.080451458999339684 -0.3318700273516873 0 -0.078365933535801471 -0.32958489165095167 0 -0.097644954924287181 -0.31595986228091638 0 -0.078365933535801471 -0.32958489165095167 0 -0.097644954924287181 -0.31595986228091638 0 -0.078365933535801471 -0.32958489165095167 0 -0.07990558777143783 -0.31434171528490051 0 -0.097644954924287181 -0.31595986228091638 0 -0.080451458999339684 -0.3318700273516873 0 -0.078365933535801471 -0.32958489165095167 0 -0.078365933535801471 -0.32958489165095167 0 -0.068887568968854354 -0.32811957402665232 0 -0.061940493353404603 -0.31158733639820702 0 -0.078365933535801471 -0.32958489165095167 0 -0.07990558777143783 -0.31434171528490051 0 -0.061940493353404603 -0.31158733639820702 0 -0.078365933535801471 -0.32958489165095167 0 -0.061940493353404603 -0.31158733639820702 0 -0.071515158125437198 -0.34317501211585327 0 -0.076299376184284395 -0.33104538614607593 0 -0.079971854940445258 -0.35015121869306137 0 -0.078365933535801471 -0.32958489165095167 0 -0.068887568968854354 -0.32811957402665232 0 -0.076299376184284395 -0.33104538614607593 0 -0.078365933535801471 -0.32958489165095167 0 -0.076299376184284395 -0.33104538614607593 0 -0.068887568968854354 -0.32811957402665232 0 -0.076299376184284395 -0.33104538614607593 0 -0.068887568968854354 -0.32811957402665232 0 -0.076299376184284395 -0.33104538614607593 0 -0.0623899743876207 -0.34087555356901172 0 -0.071515158125437198 -0.34317501211585327 0 -0.076299376184284395 -0.33104538614607593 0 -0.0623899743876207 -0.34087555356901172 0 -0.076299376184284395 -0.33104538614607593 0 -0.0623899743876207 -0.34087555356901172 0 -0.071515158125437198 -0.34317501211585327 0 -0.065046084785114922 -0.35392737427715859 0 -0.0623899743876207 -0.34087555356901172 0 -0.071515158125437198 -0.34317501211585327 0 -0.065046084785114922 -0.35392737427715859 0 -0.079971854940445258 -0.35015121869306137 0 -0.065046084785114922 -0.35392737427715859 0 -0.073635849428249023 -0.36290119683042871 0 -0.079971854940445258 -0.35015121869306137 0 -0.065046084785114922 -0.35392737427715859 0 -0.06338055142727704 -0.36989550897170348 0 -0.073635849428249023 -0.36290119683042871 0 -0.06338055142727704 -0.36989550897170348 0 -0.074725818027394142 -0.37279217160240902 0 -0.068346854420577446 -0.37855013513939167 0 -0.074725818027394142 -0.37279217160240902 0 -0.073635849428249023 -0.36290119683042871 0 -0.08505493796101378 -0.36773971060781058 0 -0.06338055142727704 -0.36989550897170348 0 -0.074725818027394142 -0.37279217160240902 0 -0.073635849428249023 -0.36290119683042871 0 -0.073635849428249023 -0.36290119683042871 0 -0.08505493796101378 -0.36773971060781058 0 -0.079971854940445258 -0.35015121869306137 0 -0.08505493796101378 -0.36773971060781058 0 -0.086883246726674052 -0.37752043415137337 0 -0.080862286381920598 -0.37671559809126159 0 -0.074725818027394142 -0.37279217160240902 0 -0.08505493796101378 -0.36773971060781058 0 -0.080862286381920598 -0.37671559809126159 0 -0.099534060164535615 -0.37489148977357989 0 -0.08505493796101378 -0.36773971060781058 0 -0.086883246726674052 -0.37752043415137337 0 -0.09476266036063917 -0.35507161355923073 0 -0.097212273732337096 -0.33930075589867142 0 -0.079971854940445258 -0.35015121869306137 0 -0.09476266036063917 -0.35507161355923073 0 -0.08505493796101378 -0.36773971060781058 0 -0.079971854940445258 -0.35015121869306137 0 -0.12537990572601199 -0.26303752545132808 0 -0.10405054464961171 -0.259602327016632 0 -0.11835882043479951 -0.24860760241583349 0 -0.12537990572601199 -0.26303752545132808 0 -0.10405054464961171 -0.259602327016632 0 -0.1094252411938651 -0.27841489558104088 0 -0.12659172680805569 -0.27662601618885257 0 -0.12537990572601199 -0.26303752545132808 0 -0.1094252411938651 -0.27841489558104088 0 -0.10405054464961171 -0.259602327016632 0 -0.1094252411938651 -0.27841489558104088 0 -0.083790057562985965 -0.27341705693703111 0 -0.1094252411938651 -0.27841489558104088 0 -0.099815236103752508 -0.29547161498152091 0 -0.116923976312773 -0.30233483291088131 0 -0.1094252411938651 -0.27841489558104088 0 -0.099815236103752508 -0.29547161498152091 0 -0.083790057562985965 -0.27341705693703111 0 -0.12659172680805569 -0.27662601618885257 0 -0.1094252411938651 -0.27841489558104088 0 -0.116923976312773 -0.30233483291088131 0 -0.097644954924287181 -0.31595986228091638 0 -0.116923976312773 -0.30233483291088131 0 -0.097644954924287181 -0.31595986228091638 0 -0.099815236103752508 -0.29547161498152091 0 -0.116923976312773 -0.30233483291088131 0 -0.097644954924287181 -0.31595986228091638 0 -0.07990558777143783 -0.31434171528490051 0 -0.081670969272258143 -0.30023477080952721 0 -0.097644954924287181 -0.31595986228091638 0 -0.099815236103752508 -0.29547161498152091 0 -0.081670969272258143 -0.30023477080952721 0 -0.07990558777143783 -0.31434171528490051 0 -0.081670969272258143 -0.30023477080952721 0 -0.061940493353404603 -0.31158733639820702 0 -0.081670969272258143 -0.30023477080952721 0 -0.066168867907962267 -0.29211366299997538 0 -0.061940493353404603 -0.31158733639820702 0 -0.081670969272258143 -0.30023477080952721 0 -0.066168867907962267 -0.29211366299997538 0 -0.083790057562985965 -0.27341705693703111 0 -0.099815236103752508 -0.29547161498152091 0 -0.081670969272258143 -0.30023477080952721 0 -0.083790057562985965 -0.27341705693703111 0 -0.066168867907962267 -0.29211366299997538 0 -0.083790057562985965 -0.27341705693703111 0 -0.060544637749641278 -0.27683269541837358 0 -0.083790057562985965 -0.27341705693703111 0 -0.064922654965187232 -0.26030735454800252 0 -0.060544637749641278 -0.27683269541837358 0 -0.083790057562985965 -0.27341705693703111 0 -0.064922654965187232 -0.26030735454800252 0 -0.075066728641418501 -0.24741653209891179 0 -0.10405054464961171 -0.259602327016632 0 -0.083790057562985965 -0.27341705693703111 0 -0.091748393042932544 -0.24861226008115139 0 -0.083790057562985965 -0.27341705693703111 0 -0.091748393042932544 -0.24861226008115139 0 -0.075066728641418501 -0.24741653209891179 0 -0.03444644217127648 -0.25622442691896169 0 -0.047599741957801339 -0.25941783140469582 0 -0.03807963019285459 -0.24205692138918439 0 -0.03444644217127648 -0.25622442691896169 0 -0.047599741957801339 -0.25941783140469582 0 -0.027910730739336889 -0.26915617758719512 0 -0.047599741957801339 -0.25941783140469582 0 -0.027910730739336889 -0.26915617758719512 0 -0.064922654965187232 -0.26030735454800252 0 -0.047599741957801339 -0.25941783140469582 0 -0.056830740504242742 -0.24007254315402429 0 -0.064922654965187232 -0.26030735454800252 0 -0.047599741957801339 -0.25941783140469582 0 -0.060544637749641278 -0.27683269541837358 0 -0.047599741957801339 -0.25941783140469582 0 -0.060544637749641278 -0.27683269541837358 0 -0.042131955321280737 -0.27491774228968802 0 -0.047599741957801339 -0.25941783140469582 0 -0.042131955321280737 -0.27491774228968802 0 -0.027910730739336889 -0.26915617758719512 0 -0.042131955321280737 -0.27491774228968802 0 -0.02908961298861313 -0.27559222589271559 0 -0.027910730739336889 -0.26915617758719512 0 -0.031820536260659338 -0.29050156404620459 0 -0.045515053171009283 -0.29358978114546092 0 -0.02908961298861313 -0.27559222589271559 0 -0.042131955321280737 -0.27491774228968802 0 -0.045515053171009283 -0.29358978114546092 0 -0.02908961298861313 -0.27559222589271559 0 -0.045515053171009283 -0.29358978114546092 0 -0.02908961298861313 -0.27559222589271559 0 -0.031820536260659338 -0.29050156404620459 0 -0.045515053171009283 -0.29358978114546092 0 -0.034551459532706989 -0.30541090219969341 0 -0.060544637749641278 -0.27683269541837358 0 -0.042131955321280737 -0.27491774228968802 0 -0.045515053171009283 -0.29358978114546092 0 -0.066168867907962267 -0.29211366299997538 0 -0.060544637749641278 -0.27683269541837358 0 -0.045515053171009283 -0.29358978114546092 0 -0.045515053171009283 -0.29358978114546092 0 -0.061940493353404603 -0.31158733639820702 0 -0.045515053171009283 -0.29358978114546092 0 -0.061940493353404603 -0.31158733639820702 0 -0.04553464697236588 -0.31373100233230289 0 -0.066168867907962267 -0.29211366299997538 0 -0.045515053171009283 -0.29358978114546092 0 -0.061940493353404603 -0.31158733639820702 0 -0.045515053171009283 -0.29358978114546092 0 -0.034551459532706989 -0.30541090219969341 0 -0.04553464697236588 -0.31373100233230289 0 -0.034551459532706989 -0.30541090219969341 0 -0.04553464697236588 -0.31373100233230289 0 -0.029580601363584921 -0.31800741641656322 0 -0.031820536260659338 -0.29050156404620459 0 -0.034551459532706989 -0.30541090219969341 0 -0.023584302183736149 -0.30088386500503628 0 -0.0088985459957128116 -0.30660601876018317 0 -0.029580601363584921 -0.31800741641656322 0 -0.034551459532706989 -0.30541090219969341 0 -0.023584302183736149 -0.30088386500503628 0 -0.029580601363584921 -0.31800741641656322 0 -0.023584302183736149 -0.30088386500503628 0 -0.0088985459957128116 -0.30660601876018317 0 -0.017338943198154912 -0.28544935899455831 0 -0.031820536260659338 -0.29050156404620459 0 -0.034551459532706989 -0.30541090219969341 0 -0.023584302183736149 -0.30088386500503628 0 -0.0088985459957128116 -0.30660601876018317 0 -0.0024549795176976338 -0.28174680059924628 0 -0.017338943198154912 -0.28544935899455831 0 -0.031820536260659338 -0.29050156404620459 0 -0.023584302183736149 -0.30088386500503628 0 -0.017338943198154912 -0.28544935899455831 0 -0.031820536260659338 -0.29050156404620459 0 -0.02908961298861313 -0.27559222589271559 0 -0.031820536260659338 -0.29050156404620459 0 -0.017338943198154912 -0.28544935899455831 0 -0.02908961298861313 -0.27559222589271559 0 -0.017338943198154912 -0.28544935899455831 0 -0.02908961298861313 -0.27559222589271559 0 -0.024675953229418329 -0.27075612503326718 0 -0.02908961298861313 -0.27559222589271559 0 -0.027910730739336889 -0.26915617758719512 0 -0.02908961298861313 -0.27559222589271559 0 -0.024675953229418329 -0.27075612503326718 0 -0.02908961298861313 -0.27559222589271559 0 -0.027910730739336889 -0.26915617758719512 0 -0.024675953229418329 -0.27075612503326718 0 -0.027910730739336889 -0.26915617758719512 0 -0.024675953229418329 -0.27075612503326718 0 -0.0024549795176976338 -0.28174680059924628 0 -0.024675953229418329 -0.27075612503326718 0 -0.010819040425910659 -0.25557293657412511 0 -0.0024549795176976338 -0.28174680059924628 0 -0.010819040425910659 -0.25557293657412511 0 0.01053898167853382 -0.26196387814045702 0 -0.0024549795176976338 -0.28174680059924628 0 -0.017338943198154912 -0.28544935899455831 0 -0.024675953229418329 -0.27075612503326718 0 -0.0024549795176976338 -0.28174680059924628 0 -0.024675953229418329 -0.27075612503326718 0 -0.027910730739336889 -0.26915617758719512 0 -0.024675953229418329 -0.27075612503326718 0 -0.024230883729688641 -0.24906623804860559 0 -0.03444644217127648 -0.25622442691896169 0 -0.027910730739336889 -0.26915617758719512 0 -0.024230883729688641 -0.24906623804860559 0 -0.024675953229418329 -0.27075612503326718 0 -0.010819040425910659 -0.25557293657412511 0 -0.024230883729688641 -0.24906623804860559 0 -0.027910730739336889 -0.26915617758719512 0 -0.024230883729688641 -0.24906623804860559 0 -0.024675953229418329 -0.27075612503326718 0 -0.010819040425910659 -0.25557293657412511 0 -0.03582117561878715 -0.3749218745686862 0 -0.048480572590956707 -0.35070572099194702 0 -0.021384360673768012 -0.34932418923588049 0 -0.048480572590956707 -0.35070572099194702 0 -0.03474202903807698 -0.33757666807638997 0 -0.021384360673768012 -0.34932418923588049 0 -0.03582117561878715 -0.3749218745686862 0 -0.053017535761778742 -0.36300011974166568 0 -0.048480572590956707 -0.35070572099194702 0 -0.03582117561878715 -0.3749218745686862 0 -0.053017535761778742 -0.36300011974166568 0 -0.051625711750929497 -0.37442146323786202 0 -0.065046084785114922 -0.35392737427715859 0 -0.06338055142727704 -0.36989550897170348 0 -0.053017535761778742 -0.36300011974166568 0 -0.06338055142727704 -0.36989550897170348 0 -0.053017535761778742 -0.36300011974166568 0 -0.051625711750929497 -0.37442146323786202 0 -0.065046084785114922 -0.35392737427715859 0 -0.048480572590956707 -0.35070572099194702 0 -0.0623899743876207 -0.34087555356901172 0 -0.065046084785114922 -0.35392737427715859 0 -0.053017535761778742 -0.36300011974166568 0 -0.048480572590956707 -0.35070572099194702 0 -0.048480572590956707 -0.35070572099194702 0 -0.0623899743876207 -0.34087555356901172 0 -0.0623899743876207 -0.34087555356901172 0 -0.048682268213846559 -0.33671910876778549 0 -0.055143109592024231 -0.32672975278132071 0 -0.068887568968854354 -0.32811957402665232 0 -0.0623899743876207 -0.34087555356901172 0 -0.055143109592024231 -0.32672975278132071 0 -0.048682268213846559 -0.33671910876778549 0 -0.055143109592024231 -0.32672975278132071 0 -0.042655655460554193 -0.32770784842025819 0 -0.048480572590956707 -0.35070572099194702 0 -0.0623899743876207 -0.34087555356901172 0 -0.048682268213846559 -0.33671910876778549 0 -0.068887568968854354 -0.32811957402665232 0 -0.061940493353404603 -0.31158733639820702 0 -0.055143109592024231 -0.32672975278132071 0 -0.061940493353404603 -0.31158733639820702 0 -0.055143109592024231 -0.32672975278132071 0 -0.04553464697236588 -0.31373100233230289 0 -0.055143109592024231 -0.32672975278132071 0 -0.04553464697236588 -0.31373100233230289 0 -0.042655655460554193 -0.32770784842025819 0 -0.042655655460554193 -0.32770784842025819 0 -0.03474202903807698 -0.33757666807638997 0 -0.029580601363584921 -0.31800741641656322 0 -0.04553464697236588 -0.31373100233230289 0 -0.042655655460554193 -0.32770784842025819 0 -0.029580601363584921 -0.31800741641656322 0 -0.048480572590956707 -0.35070572099194702 0 -0.048682268213846559 -0.33671910876778549 0 -0.03474202903807698 -0.33757666807638997 0 -0.048682268213846559 -0.33671910876778549 0 -0.042655655460554193 -0.32770784842025819 0 -0.03474202903807698 -0.33757666807638997 0 -0.03474202903807698 -0.33757666807638997 0 -0.01702999194929684 -0.33096540839197808 0 -0.029580601363584921 -0.31800741641656322 0 -0.03474202903807698 -0.33757666807638997 0 -0.01702999194929684 -0.33096540839197808 0 -0.021384360673768012 -0.34932418923588049 0 -0.0088985459957128116 -0.30660601876018317 0 -0.01702999194929684 -0.33096540839197808 0 -0.029580601363584921 -0.31800741641656322 0 -0.0088985459957128116 -0.30660601876018317 0 -0.01702999194929684 -0.33096540839197808 0 0.0096481461508169282 -0.32059718432254158 0 -0.01702999194929684 -0.33096540839197808 0 -0.021384360673768012 -0.34932418923588049 0 0.001851480826797145 -0.34248198528569201 0 -0.01702999194929684 -0.33096540839197808 0 0.001851480826797145 -0.34248198528569201 0 0.0096481461508169282 -0.32059718432254158 0 -0.01702999194929684 -0.33096540839197808 0 0.001851480826797145 -0.34248198528569201 0 -0.00016034541594564481 -0.35905415536001412 0 -0.021384360673768012 -0.34932418923588049 0 -0.015751029800829059 -0.36833683643150189 0 -0.00016034541594564481 -0.35905415536001412 0 -0.021384360673768012 -0.34932418923588049 0 0.001851480826797145 -0.34248198528569201 0 -0.03582117561878715 -0.3749218745686862 0 -0.021384360673768012 -0.34932418923588049 0 -0.015751029800829059 -0.36833683643150189 0 -0.03582117561878715 -0.3749218745686862 0 -0.021384360673768012 -0.34932418923588049 0 -0.00016034541594564481 -0.35905415536001412 0 -0.015751029800829059 -0.36833683643150189 0 -0.0017967946481693259 -0.37376702826922092 0 -0.015751029800829059 -0.36833683643150189 0 -0.0017967946481693259 -0.37376702826922092 0 -0.01959247264747517 -0.38461693472370773 0 -0.0017967946481693259 -0.37376702826922092 0 -0.0033272595925888941 -0.39598474572276809 0 -0.01959247264747517 -0.38461693472370773 0 -0.0033272595925888941 -0.39598474572276809 0 -0.02357967032478037 -0.40224502525539402 0 -0.01959247264747517 -0.38461693472370773 0 -0.0033272595925888941 -0.39598474572276809 0 -0.02357967032478037 -0.40224502525539402 0 -0.01328600379044829 -0.41657507412561301 0 -0.02357967032478037 -0.40224502525539402 0 -0.01959247264747517 -0.38461693472370773 0 -0.033554634780006101 -0.39415882596571489 0 -0.03582117561878715 -0.3749218745686862 0 -0.01959247264747517 -0.38461693472370773 0 -0.033554634780006101 -0.39415882596571489 0 -0.03582117561878715 -0.3749218745686862 0 -0.015751029800829059 -0.36833683643150189 0 -0.01959247264747517 -0.38461693472370773 0 -0.03582117561878715 -0.3749218745686862 0 -0.050257990563806303 -0.40051955990149191 0 -0.03582117561878715 -0.3749218745686862 0 -0.033554634780006101 -0.39415882596571489 0 -0.050257990563806303 -0.40051955990149191 0 -0.03582117561878715 -0.3749218745686862 0 -0.050257990563806303 -0.40051955990149191 0 -0.052235095176033863 -0.38516523095066663 0 -0.03582117561878715 -0.3749218745686862 0 -0.051625711750929497 -0.37442146323786202 0 -0.052235095176033863 -0.38516523095066663 0 -0.033554634780006101 -0.39415882596571489 0 -0.050257990563806303 -0.40051955990149191 0 -0.038272970563016727 -0.40908247785419738 0 -0.02357967032478037 -0.40224502525539402 0 -0.033554634780006101 -0.39415882596571489 0 -0.038272970563016727 -0.40908247785419738 0 -0.050257990563806303 -0.40051955990149191 0 -0.05994280149827827 -0.39256955261801002 0 -0.0669337267244597 -0.40107051703939472 0 -0.050257990563806303 -0.40051955990149191 0 -0.05994280149827827 -0.39256955261801002 0 -0.052235095176033863 -0.38516523095066663 0 -0.050257990563806303 -0.40051955990149191 0 -0.0669337267244597 -0.40107051703939472 0 -0.069068687614797578 -0.40767473507232999 0 -0.05994280149827827 -0.39256955261801002 0 -0.060147658664862443 -0.381180833304404 0 -0.052235095176033863 -0.38516523095066663 0 -0.06338055142727704 -0.36989550897170348 0 -0.051625711750929497 -0.37442146323786202 0 -0.060147658664862443 -0.381180833304404 0 -0.051625711750929497 -0.37442146323786202 0 -0.060147658664862443 -0.381180833304404 0 -0.052235095176033863 -0.38516523095066663 0 -0.049332640151400653 -0.42532232490084793 0 -0.055727275033087109 -0.42963135426442151 0 -0.05494536746603744 -0.42135643043363352 0 -0.049332640151400653 -0.42532232490084793 0 -0.049089142380012003 -0.43262917854073152 0 -0.055727275033087109 -0.42963135426442151 0 -0.049089142380012003 -0.43262917854073152 0 -0.055727275033087109 -0.42963135426442151 0 -0.058471541710698627 -0.43887968691460438 0 -0.062464121283815927 -0.42939712265273811 0 -0.055727275033087109 -0.42963135426442151 0 -0.058471541710698627 -0.43887968691460438 0 -0.062464121283815927 -0.42939712265273811 0 -0.055727275033087109 -0.42963135426442151 0 -0.05494536746603744 -0.42135643043363352 0 -0.062464121283815927 -0.42939712265273811 0 -0.05494536746603744 -0.42135643043363352 0 -0.06469480550882617 -0.42611724523429712 0 -0.050257990563806303 -0.40051955990149191 0 -0.05494536746603744 -0.42135643043363352 0 -0.06469480550882617 -0.42611724523429712 0 -0.050257990563806303 -0.40051955990149191 0 -0.06469480550882617 -0.42611724523429712 0 -0.050257990563806303 -0.40051955990149191 0 -0.05494536746603744 -0.42135643043363352 0 -0.047125441294219923 -0.41695117473986348 0 -0.050257990563806303 -0.40051955990149191 0 -0.068205600771886116 -0.42095516179149017 0 -0.06469480550882617 -0.42611724523429712 0 -0.049332640151400653 -0.42532232490084793 0 -0.05494536746603744 -0.42135643043363352 0 -0.047125441294219923 -0.41695117473986348 0 -0.050257990563806303 -0.40051955990149191 0 -0.047125441294219923 -0.41695117473986348 0 -0.038272970563016727 -0.40908247785419738 0 -0.038272970563016727 -0.40908247785419738 0 -0.039775974583646803 -0.42604348652558938 0 -0.0294918004211462 -0.41760575627710672 0 -0.047125441294219923 -0.41695117473986348 0 -0.038272970563016727 -0.40908247785419738 0 -0.039775974583646803 -0.42604348652558938 0 -0.049089142380012003 -0.43262917854073152 0 -0.039775974583646803 -0.42604348652558938 0 -0.041441353667039472 -0.4422987252600819 0 -0.039775974583646803 -0.42604348652558938 0 -0.022739811798446689 -0.43563191546248198 0 -0.041441353667039472 -0.4422987252600819 0 -0.049332640151400653 -0.42532232490084793 0 -0.047125441294219923 -0.41695117473986348 0 -0.039775974583646803 -0.42604348652558938 0 -0.049332640151400653 -0.42532232490084793 0 -0.049089142380012003 -0.43262917854073152 0 -0.039775974583646803 -0.42604348652558938 0 -0.022739811798446689 -0.43563191546248198 0 -0.0294918004211462 -0.41760575627710672 0 -0.01328600379044829 -0.41657507412561301 0 -0.039775974583646803 -0.42604348652558938 0 -0.022739811798446689 -0.43563191546248198 0 -0.0294918004211462 -0.41760575627710672 0 -0.02357967032478037 -0.40224502525539402 0 -0.0294918004211462 -0.41760575627710672 0 -0.01328600379044829 -0.41657507412561301 0 -0.02357967032478037 -0.40224502525539402 0 -0.038272970563016727 -0.40908247785419738 0 -0.0294918004211462 -0.41760575627710672 0 -0.0033272595925888941 -0.39598474572276809 0 -0.01328600379044829 -0.41657507412561301 0 0.005803058972465215 -0.41467922602276353 0 -0.01328600379044829 -0.41657507412561301 0 0.005803058972465215 -0.41467922602276353 0 0.0020425619738814252 -0.43644278707211959 0 -0.022739811798446689 -0.43563191546248198 0 -0.01328600379044829 -0.41657507412561301 0 0.0020425619738814252 -0.43644278707211959 0 -0.022739811798446689 -0.43563191546248198 0 -0.0077591932673332894 -0.4560817609030326 0 0.0020425619738814252 -0.43644278707211959 0 -0.0077591932673332894 -0.4560817609030326 0 -0.029293788740198549 -0.45772346812508569 0 -0.015929266910485001 -0.47635768049574839 0 -0.022739811798446689 -0.43563191546248198 0 -0.0077591932673332894 -0.4560817609030326 0 -0.029293788740198549 -0.45772346812508569 0 -0.022739811798446689 -0.43563191546248198 0 -0.029293788740198549 -0.45772346812508569 0 -0.041441353667039472 -0.4422987252600819 0 -0.0059214349440480096 -0.5 0 -0.001559218297712473 -0.48630381278426621 0 -0.01460533516807096 -0.4902434612587302 0 -0.001559218297712473 -0.48630381278426621 0 -0.01460533516807096 -0.4902434612587302 0 -0.014617685410010701 -0.47893403624589348 0 -0.014617685410010701 -0.47893403624589348 0 0.0083802861623239536 -0.47592182648919418 0 -0.0077591932673332894 -0.4560817609030326 0 -0.015929266910485001 -0.47635768049574839 0 0.0083802861623239536 -0.47592182648919418 0 -0.015929266910485001 -0.47635768049574839 0 0.0083802861623239536 -0.47592182648919418 0 -0.001559218297712473 -0.48630381278426621 0 -0.014617685410010701 -0.47893403624589348 0 0.0083802861623239536 -0.47592182648919418 0 -0.014617685410010701 -0.47893403624589348 0 -0.015929266910485001 -0.47635768049574839 0 0.0083802861623239536 -0.47592182648919418 0 -0.014617685410010701 -0.47893403624589348 0 -0.015929266910485001 -0.47635768049574839 0 -0.037615656982345251 -0.48194624600259278 0 -0.029293788740198549 -0.45772346812508569 0 -0.015929266910485001 -0.47635768049574839 0 -0.040238819983293941 -0.47679353450230261 0 -0.014617685410010701 -0.47893403624589348 0 -0.037615656982345251 -0.48194624600259278 0 -0.015929266910485001 -0.47635768049574839 0 -0.040238819983293941 -0.47679353450230261 0 -0.014617685410010701 -0.47893403624589348 0 -0.02551624180986007 -0.48413258051317548 0 -0.037615656982345251 -0.48194624600259278 0 -0.02551624180986007 -0.48413258051317548 0 -0.030468365730920849 -0.48556578143177209 0 -0.037615656982345251 -0.48194624600259278 0 -0.014617685410010701 -0.47893403624589348 0 -0.02551624180986007 -0.48413258051317548 0 -0.018988507520979369 -0.485288545797745 0 -0.0059214349440480096 -0.5 0 -0.01460533516807096 -0.4902434612587302 0 -0.034494979914857123 -0.5 0 -0.01460533516807096 -0.4902434612587302 0 -0.025890993405044169 -0.48892829308787428 0 -0.034494979914857123 -0.5 0 -0.01460533516807096 -0.4902434612587302 0 -0.018988507520979369 -0.485288545797745 0 -0.025890993405044169 -0.48892829308787428 0 -0.01460533516807096 -0.4902434612587302 0 -0.014617685410010701 -0.47893403624589348 0 -0.018988507520979369 -0.485288545797745 0 -0.02551624180986007 -0.48413258051317548 0 -0.030468365730920849 -0.48556578143177209 0 -0.025890993405044169 -0.48892829308787428 0 -0.02551624180986007 -0.48413258051317548 0 -0.018988507520979369 -0.485288545797745 0 -0.025890993405044169 -0.48892829308787428 0 -0.030468365730920849 -0.48556578143177209 0 -0.025890993405044169 -0.48892829308787428 0 -0.034035303743621251 -0.48872268700890248 0 -0.034494979914857123 -0.5 0 -0.04269870854272758 -0.48941250473452669 0 -0.048924939549239883 -0.49319692295223222 0 -0.034494979914857123 -0.5 0 -0.034035303743621251 -0.48872268700890248 0 -0.04269870854272758 -0.48941250473452669 0 -0.025890993405044169 -0.48892829308787428 0 -0.034494979914857123 -0.5 0 -0.034035303743621251 -0.48872268700890248 0 -0.034035303743621251 -0.48872268700890248 0 -0.04269870854272758 -0.48941250473452669 0 -0.037615656982345251 -0.48194624600259278 0 -0.030468365730920849 -0.48556578143177209 0 -0.034035303743621251 -0.48872268700890248 0 -0.037615656982345251 -0.48194624600259278 0 -0.015929266910485001 -0.47635768049574839 0 -0.040238819983293941 -0.47679353450230261 0 -0.037615656982345251 -0.48194624600259278 0 -0.040238819983293941 -0.47679353450230261 0 -0.037615656982345251 -0.48194624600259278 0 -0.060613628554679833 -0.4849584557592922 0 -0.040238819983293941 -0.47679353450230261 0 -0.064548373056102948 -0.47722938850885688 0 -0.040238819983293941 -0.47679353450230261 0 -0.060613628554679833 -0.4849584557592922 0 -0.064548373056102948 -0.47722938850885688 0 -0.040238819983293941 -0.47679353450230261 0 -0.048307343001622732 -0.45881963492073541 0 -0.064548373056102948 -0.47722938850885688 0 -0.037615656982345251 -0.48194624600259278 0 -0.060613628554679833 -0.4849584557592922 0 -0.04269870854272758 -0.48941250473452669 0 -0.060613628554679833 -0.4849584557592922 0 -0.048924939549239883 -0.49319692295223222 0 -0.04269870854272758 -0.48941250473452669 0 -0.037615656982345251 -0.48194624600259278 0 -0.060613628554679833 -0.4849584557592922 0 -0.034494979914857123 -0.5 0 -0.048924939549239883 -0.49319692295223222 0 -0.063068524885666166 -0.500000000000002 0 -0.060613628554679833 -0.4849584557592922 0 -0.048924939549239883 -0.49319692295223222 0 -0.063068524885666166 -0.500000000000002 0 -0.029293788740198549 -0.45772346812508569 0 -0.041441353667039472 -0.4422987252600819 0 -0.048307343001622732 -0.45881963492073541 0 -0.029293788740198549 -0.45772346812508569 0 -0.040238819983293941 -0.47679353450230261 0 -0.048307343001622732 -0.45881963492073541 0 -0.048307343001622732 -0.45881963492073541 0 -0.066045201412887708 -0.45419750073687137 0 -0.064548373056102948 -0.47722938850885688 0 -0.048307343001622732 -0.45881963492073541 0 -0.058471541710698627 -0.43887968691460438 0 -0.066045201412887708 -0.45419750073687137 0 -0.041441353667039472 -0.4422987252600819 0 -0.048307343001622732 -0.45881963492073541 0 -0.058471541710698627 -0.43887968691460438 0 -0.049089142380012003 -0.43262917854073152 0 -0.041441353667039472 -0.4422987252600819 0 -0.058471541710698627 -0.43887968691460438 0 -0.058471541710698627 -0.43887968691460438 0 -0.066045201412887708 -0.45419750073687137 0 -0.06754202976966657 -0.43116561296488531 0 -0.078607462702507985 -0.45078555485406929 0 -0.06754202976966657 -0.43116561296488531 0 -0.081325449288912013 -0.43610151378575512 0 -0.066045201412887708 -0.45419750073687137 0 -0.078607462702507985 -0.45078555485406929 0 -0.06754202976966657 -0.43116561296488531 0 -0.066045201412887708 -0.45419750073687137 0 -0.06754202976966657 -0.43116561296488531 0 -0.078607462702507985 -0.45078555485406929 0 -0.06754202976966657 -0.43116561296488531 0 -0.066045201412887708 -0.45419750073687137 0 -0.075071302057231018 -0.46634868438719818 0 -0.064548373056102948 -0.47722938850885688 0 -0.066045201412887708 -0.45419750073687137 0 -0.064548373056102948 -0.47722938850885688 0 -0.066045201412887708 -0.45419750073687137 0 -0.081235019935728972 -0.45956586993642612 0 -0.078607462702507985 -0.45078555485406929 0 -0.066045201412887708 -0.45419750073687137 0 -0.075071302057231018 -0.46634868438719818 0 -0.081235019935728972 -0.45956586993642612 0 -0.081235019935728972 -0.45956586993642612 0 -0.093388007344966467 -0.46121158943139301 0 -0.092264942988794382 -0.44539715871237762 0 -0.075071302057231018 -0.46634868438719818 0 -0.081235019935728972 -0.45956586993642612 0 -0.086250930520110958 -0.46835847317609069 0 -0.081235019935728972 -0.45956586993642612 0 -0.093388007344966467 -0.46121158943139301 0 -0.086250930520110958 -0.46835847317609069 0 -0.092264942988794382 -0.44539715871237762 0 -0.078607462702507985 -0.45078555485406929 0 -0.081325449288912013 -0.43610151378575512 0 -0.081235019935728972 -0.45956586993642612 0 -0.092264942988794382 -0.44539715871237762 0 -0.078607462702507985 -0.45078555485406929 0 -0.063068524885666166 -0.500000000000002 0 -0.064548373056102948 -0.47722938850885688 0 -0.075059545189385707 -0.48317051333907229 0 -0.063068524885666166 -0.500000000000002 0 -0.064548373056102948 -0.47722938850885688 0 -0.060613628554679833 -0.4849584557592922 0 -0.063068524885666166 -0.500000000000002 0 -0.064548373056102948 -0.47722938850885688 0 -0.063068524885666166 -0.500000000000002 0 -0.075059545189385707 -0.48317051333907229 0 -0.087684237306545953 -0.5 0 -0.064548373056102948 -0.47722938850885688 0 -0.075059545189385707 -0.48317051333907229 0 -0.085197425719362369 -0.47759961219449482 0 -0.064548373056102948 -0.47722938850885688 0 -0.085197425719362369 -0.47759961219449482 0 -0.075071302057231018 -0.46634868438719818 0 -0.064548373056102948 -0.47722938850885688 0 -0.085197425719362369 -0.47759961219449482 0 -0.075059545189385707 -0.48317051333907229 0 -0.091159296033768281 -0.48792751728442291 0 -0.1001846018631026 -0.47740576154082609 0 -0.075059545189385707 -0.48317051333907229 0 -0.085197425719362369 -0.47759961219449482 0 -0.1001846018631026 -0.47740576154082609 0 -0.075059545189385707 -0.48317051333907229 0 -0.1001846018631026 -0.47740576154082609 0 -0.093388007344966467 -0.46121158943139301 0 -0.086250930520110958 -0.46835847317609069 0 -0.1001846018631026 -0.47740576154082609 0 -0.075071302057231018 -0.46634868438719818 0 -0.086250930520110958 -0.46835847317609069 0 -0.085197425719362369 -0.47759961219449482 0 -0.086250930520110958 -0.46835847317609069 0 -0.085197425719362369 -0.47759961219449482 0 -0.1001846018631026 -0.47740576154082609 0 -0.075059545189385707 -0.48317051333907229 0 -0.091159296033768281 -0.48792751728442291 0 -0.087684237306545953 -0.5 0 -0.091159296033768281 -0.48792751728442291 0 -0.087684237306545953 -0.5 0 -0.1017087997760389 -0.49113379425779308 0 -0.087684237306545953 -0.5 0 -0.1017087997760389 -0.49113379425779308 0 -0.1122999497274257 -0.5 0 -0.091159296033768281 -0.48792751728442291 0 -0.1017087997760389 -0.49113379425779308 0 -0.1001846018631026 -0.47740576154082609 0 -0.12530965853681961 -0.47164100974257989 0 -0.1017087997760389 -0.49113379425779308 0 -0.1001846018631026 -0.47740576154082609 0 -0.12530965853681961 -0.47164100974257989 0 -0.1001846018631026 -0.47740576154082609 0 -0.1113164948139438 -0.46236750529588089 0 -0.12530965853681961 -0.47164100974257989 0 -0.1001846018631026 -0.47740576154082609 0 -0.12530965853681961 -0.47164100974257989 0 -0.1017087997760389 -0.49113379425779308 0 -0.1122999497274257 -0.5 0 -0.12530965853681961 -0.47164100974257989 0 -0.1369156621483055 -0.5 0 -0.1122999497274257 -0.5 0 -0.092264942988794382 -0.44539715871237762 0 -0.1090258195318094 -0.44849963113690439 0 -0.10818783936316891 -0.43234983914707559 0 -0.093388007344966467 -0.46121158943139301 0 -0.092264942988794382 -0.44539715871237762 0 -0.1090258195318094 -0.44849963113690439 0 -0.093388007344966467 -0.46121158943139301 0 -0.1001846018631026 -0.47740576154082609 0 -0.1113164948139438 -0.46236750529588089 0 -0.093388007344966467 -0.46121158943139301 0 -0.1090258195318094 -0.44849963113690439 0 -0.1113164948139438 -0.46236750529588089 0 -0.1263704279512412 -0.45384477781721411 0 -0.1090258195318094 -0.44849963113690439 0 -0.1113164948139438 -0.46236750529588089 0 -0.1263704279512412 -0.45384477781721411 0 -0.12530965853681961 -0.47164100974257989 0 -0.1113164948139438 -0.46236750529588089 0 -0.1263704279512412 -0.45384477781721411 0 -0.12785528126184131 -0.43423334613222148 0 -0.1090258195318094 -0.44849963113690439 0 -0.12785528126184131 -0.43423334613222148 0 -0.1090258195318094 -0.44849963113690439 0 -0.10818783936316891 -0.43234983914707559 0 -0.12785528126184131 -0.43423334613222148 0 -0.1084246793524327 -0.41231112817629711 0 -0.12785528126184131 -0.43423334613222148 0 -0.10818783936316891 -0.43234983914707559 0 -0.1084246793524327 -0.41231112817629711 0 -0.10818783936316891 -0.43234983914707559 0 -0.1084246793524327 -0.41231112817629711 0 -0.09097821675735529 -0.4264905036969171 0 -0.092264942988794382 -0.44539715871237762 0 -0.10818783936316891 -0.43234983914707559 0 -0.09097821675735529 -0.4264905036969171 0 -0.13405172194854639 -0.40495918722912622 0 -0.12785528126184131 -0.43423334613222148 0 -0.1084246793524327 -0.41231112817629711 0 -0.13405172194854639 -0.40495918722912622 0 -0.1084246793524327 -0.41231112817629711 0 -0.12184318444793869 -0.39004665188686521 0 -0.1084246793524327 -0.41231112817629711 0 -0.12184318444793869 -0.39004665188686521 0 -0.1058445419750101 -0.3894292795161266 0 -0.12184318444793869 -0.39004665188686521 0 -0.1110086771929964 -0.37975839217213858 0 -0.1058445419750101 -0.3894292795161266 0 -0.1223443229586418 -0.37774968827619082 0 -0.12184318444793869 -0.39004665188686521 0 -0.1110086771929964 -0.37975839217213858 0 -0.108270726303062 -0.36787568972131118 0 -0.1223443229586418 -0.37774968827619082 0 -0.1110086771929964 -0.37975839217213858 0 -0.099534060164535615 -0.37489148977357989 0 -0.1058445419750101 -0.3894292795161266 0 -0.088994077443023456 -0.39038891022037342 0 -0.099534060164535615 -0.37489148977357989 0 -0.1110086771929964 -0.37975839217213858 0 -0.1058445419750101 -0.3894292795161266 0 -0.099534060164535615 -0.37489148977357989 0 -0.088994077443023456 -0.39038891022037342 0 -0.1084246793524327 -0.41231112817629711 0 -0.1058445419750101 -0.3894292795161266 0 -0.088994077443023456 -0.39038891022037342 0 -0.1084246793524327 -0.41231112817629711 0 -0.088994077443023456 -0.39038891022037342 0 -0.1084246793524327 -0.41231112817629711 0 -0.078599839107454217 -0.40567203600593138 0 -0.088994077443023456 -0.39038891022037342 0 -0.078599839107454217 -0.40567203600593138 0 -0.088994077443023456 -0.39038891022037342 0 -0.078720171723802551 -0.39718514765014729 0 -0.078599839107454217 -0.40567203600593138 0 -0.088994077443023456 -0.39038891022037342 0 -0.078720171723802551 -0.39718514765014729 0 -0.088994077443023456 -0.39038891022037342 0 -0.085352154267365948 -0.38627997761973909 0 -0.099534060164535615 -0.37489148977357989 0 -0.086883246726674052 -0.37752043415137337 0 -0.085352154267365948 -0.38627997761973909 0 -0.099534060164535615 -0.37489148977357989 0 -0.085352154267365948 -0.38627997761973909 0 -0.099534060164535615 -0.37489148977357989 0 -0.088994077443023456 -0.39038891022037342 0 -0.085352154267365948 -0.38627997761973909 0 -0.088994077443023456 -0.39038891022037342 0 -0.085352154267365948 -0.38627997761973909 0 -0.079058574465290452 -0.38568355532196219 0 -0.085352154267365948 -0.38627997761973909 0 -0.074376241021173614 -0.38999750689010998 0 -0.079058574465290452 -0.38568355532196219 0 -0.082793835132854293 -0.38339360127745892 0 -0.074983510356179534 -0.38209882737230488 0 -0.079058574465290452 -0.38568355532196219 0 -0.082793835132854293 -0.38339360127745892 0 -0.085352154267365948 -0.38627997761973909 0 -0.082793835132854293 -0.38339360127745892 0 -0.085352154267365948 -0.38627997761973909 0 -0.086883246726674052 -0.37752043415137337 0 -0.082793835132854293 -0.38339360127745892 0 -0.085352154267365948 -0.38627997761973909 0 -0.086883246726674052 -0.37752043415137337 0 -0.082793835132854293 -0.38339360127745892 0 -0.080862286381920598 -0.37671559809126159 0 -0.082793835132854293 -0.38339360127745892 0 -0.080862286381920598 -0.37671559809126159 0 -0.074983510356179534 -0.38209882737230488 0 -0.074725818027394142 -0.37279217160240902 0 -0.080862286381920598 -0.37671559809126159 0 -0.074983510356179534 -0.38209882737230488 0 -0.074725818027394142 -0.37279217160240902 0 -0.074983510356179534 -0.38209882737230488 0 -0.068346854420577446 -0.37855013513939167 0 -0.074983510356179534 -0.38209882737230488 0 -0.067702878101260397 -0.38580714337141803 0 -0.068346854420577446 -0.37855013513939167 0 -0.074983510356179534 -0.38209882737230488 0 -0.074376241021173614 -0.38999750689010998 0 -0.067702878101260397 -0.38580714337141803 0 -0.079058574465290452 -0.38568355532196219 0 -0.074983510356179534 -0.38209882737230488 0 -0.074376241021173614 -0.38999750689010998 0 -0.05994280149827827 -0.39256955261801002 0 -0.060147658664862443 -0.381180833304404 0 -0.067702878101260397 -0.38580714337141803 0 -0.074376241021173614 -0.38999750689010998 0 -0.067702878101260397 -0.38580714337141803 0 -0.067238911836292992 -0.39236117997973308 0 -0.05994280149827827 -0.39256955261801002 0 -0.067702878101260397 -0.38580714337141803 0 -0.067238911836292992 -0.39236117997973308 0 -0.060147658664862443 -0.381180833304404 0 -0.067702878101260397 -0.38580714337141803 0 -0.068346854420577446 -0.37855013513939167 0 -0.06338055142727704 -0.36989550897170348 0 -0.060147658664862443 -0.381180833304404 0 -0.068346854420577446 -0.37855013513939167 0 -0.085352154267365948 -0.38627997761973909 0 -0.074376241021173614 -0.38999750689010998 0 -0.0669337267244597 -0.40107051703939472 0 -0.078720171723802551 -0.39718514765014729 0 -0.085352154267365948 -0.38627997761973909 0 -0.0669337267244597 -0.40107051703939472 0 -0.085352154267365948 -0.38627997761973909 0 -0.0669337267244597 -0.40107051703939472 0 -0.078599839107454217 -0.40567203600593138 0 -0.073721061076709449 -0.40251429736529809 0 -0.069068687614797578 -0.40767473507232999 0 -0.078720171723802551 -0.39718514765014729 0 -0.073721061076709449 -0.40251429736529809 0 -0.0669337267244597 -0.40107051703939472 0 -0.078720171723802551 -0.39718514765014729 0 -0.078599839107454217 -0.40567203600593138 0 -0.073721061076709449 -0.40251429736529809 0 -0.05994280149827827 -0.39256955261801002 0 -0.067238911836292992 -0.39236117997973308 0 -0.0669337267244597 -0.40107051703939472 0 -0.074376241021173614 -0.38999750689010998 0 -0.067238911836292992 -0.39236117997973308 0 -0.0669337267244597 -0.40107051703939472 0 -0.073721061076709449 -0.40251429736529809 0 -0.0669337267244597 -0.40107051703939472 0 -0.069068687614797578 -0.40767473507232999 0 -0.078599839107454217 -0.40567203600593138 0 -0.068205600771886116 -0.42095516179149017 0 -0.077234594226234257 -0.42666873870052591 0 -0.050257990563806303 -0.40051955990149191 0 -0.069068687614797578 -0.40767473507232999 0 -0.068205600771886116 -0.42095516179149017 0 -0.078599839107454217 -0.40567203600593138 0 -0.068205600771886116 -0.42095516179149017 0 -0.078599839107454217 -0.40567203600593138 0 -0.069068687614797578 -0.40767473507232999 0 -0.068205600771886116 -0.42095516179149017 0 -0.069068687614797578 -0.40767473507232999 0 -0.068205600771886116 -0.42095516179149017 0 -0.068205600771886116 -0.42095516179149017 0 -0.06469480550882617 -0.42611724523429712 0 -0.06754202976966657 -0.43116561296488531 0 -0.068205600771886116 -0.42095516179149017 0 -0.06754202976966657 -0.43116561296488531 0 -0.062464121283815927 -0.42939712265273811 0 -0.06469480550882617 -0.42611724523429712 0 -0.06754202976966657 -0.43116561296488531 0 -0.06469480550882617 -0.42611724523429712 0 -0.06754202976966657 -0.43116561296488531 0 -0.062464121283815927 -0.42939712265273811 0 -0.06469480550882617 -0.42611724523429712 0 -0.068205600771886116 -0.42095516179149017 0 -0.06469480550882617 -0.42611724523429712 0 -0.062464121283815927 -0.42939712265273811 0 -0.058471541710698627 -0.43887968691460438 0 -0.06754202976966657 -0.43116561296488531 0 -0.06754202976966657 -0.43116561296488531 0 -0.077234594226234257 -0.42666873870052591 0 -0.081325449288912013 -0.43610151378575512 0 -0.068205600771886116 -0.42095516179149017 0 -0.06754202976966657 -0.43116561296488531 0 -0.077234594226234257 -0.42666873870052591 0 -0.092264942988794382 -0.44539715871237762 0 -0.081325449288912013 -0.43610151378575512 0 -0.09097821675735529 -0.4264905036969171 0 -0.077234594226234257 -0.42666873870052591 0 -0.081325449288912013 -0.43610151378575512 0 -0.09097821675735529 -0.4264905036969171 0 -0.1084246793524327 -0.41231112817629711 0 -0.078599839107454217 -0.40567203600593138 0 -0.09097821675735529 -0.4264905036969171 0 -0.078599839107454217 -0.40567203600593138 0 -0.077234594226234257 -0.42666873870052591 0 -0.09097821675735529 -0.4264905036969171 0 -0.083607124588235951 -0.088105930262401377 0 -0.092788880017415601 -0.07840516537710035 0 -0.075542884781150066 -0.074873484960288506 0 -0.083607124588235951 -0.088105930262401377 0 -0.084984414579577117 -0.099443444310078025 0 -0.095642147348571183 -0.093641009986248913 0 -0.083607124588235951 -0.088105930262401377 0 -0.092788880017415601 -0.07840516537710035 0 -0.095642147348571183 -0.093641009986248913 0 -0.092788880017415601 -0.07840516537710035 0 -0.075542884781150066 -0.074873484960288506 0 -0.086877843553230416 -0.061647397457384359 0 -0.063597461622629359 -0.084208095886413328 0 -0.068108720449511745 -0.060431621398092827 0 -0.075542884781150066 -0.074873484960288506 0 -0.063597461622629359 -0.084208095886413328 0 -0.068108720449511745 -0.060431621398092827 0 -0.075542884781150066 -0.074873484960288506 0 -0.086877843553230416 -0.061647397457384359 0 -0.068108720449511745 -0.060431621398092827 0 -0.063597461622629359 -0.084208095886413328 0 -0.068108720449511745 -0.060431621398092827 0 -0.056484451081606067 -0.068497088591451136 0 -0.063597461622629359 -0.084208095886413328 0 -0.068733298594088707 -0.093691087016448876 0 -0.063272551133818453 -0.10024221525934961 0 -0.075542884781150066 -0.074873484960288506 0 -0.063597461622629359 -0.084208095886413328 0 -0.073224091335350502 -0.087107519501919126 0 -0.083607124588235951 -0.088105930262401377 0 -0.075542884781150066 -0.074873484960288506 0 -0.073224091335350502 -0.087107519501919126 0 -0.073224091335350502 -0.087107519501919126 0 -0.068733298594088707 -0.093691087016448876 0 -0.076121159397593299 -0.095631765862436574 0 -0.083607124588235951 -0.088105930262401377 0 -0.073224091335350502 -0.087107519501919126 0 -0.076121159397593299 -0.095631765862436574 0 -0.063597461622629359 -0.084208095886413328 0 -0.073224091335350502 -0.087107519501919126 0 -0.068733298594088707 -0.093691087016448876 0 -0.068733298594088707 -0.093691087016448876 0 -0.063272551133818453 -0.10024221525934961 0 -0.069950565731590614 -0.1019322454080748 0 -0.063998496544944633 -0.1076560151872737 0 -0.071813163668218383 -0.1108882480165817 0 -0.058796188458866472 -0.1095130835340711 0 -0.063998496544944633 -0.1076560151872737 0 -0.068695077012997666 -0.1067522479198809 0 -0.071813163668218383 -0.1108882480165817 0 -0.063272551133818453 -0.10024221525934961 0 -0.065461352981996485 -0.10432512570258221 0 -0.069950565731590614 -0.1019322454080748 0 -0.063272551133818453 -0.10024221525934961 0 -0.065461352981996485 -0.10432512570258221 0 -0.061390074486631037 -0.1050429047383318 0 -0.065461352981996485 -0.10432512570258221 0 -0.063998496544944633 -0.1076560151872737 0 -0.061390074486631037 -0.1050429047383318 0 -0.065461352981996485 -0.10432512570258221 0 -0.063998496544944633 -0.1076560151872737 0 -0.068695077012997666 -0.1067522479198809 0 -0.065461352981996485 -0.10432512570258221 0 -0.068695077012997666 -0.1067522479198809 0 -0.069950565731590614 -0.1019322454080748 0 -0.069950565731590614 -0.1019322454080748 0 -0.072795655045455682 -0.10707419981652259 0 -0.076968197710189368 -0.1039967519148938 0 -0.068695077012997666 -0.1067522479198809 0 -0.069950565731590614 -0.1019322454080748 0 -0.072795655045455682 -0.10707419981652259 0 -0.072795655045455682 -0.10707419981652259 0 -0.076992460142820282 -0.10877166915690691 0 -0.071813163668218383 -0.1108882480165817 0 -0.068695077012997666 -0.1067522479198809 0 -0.072795655045455682 -0.10707419981652259 0 -0.071813163668218383 -0.1108882480165817 0 -0.072795655045455682 -0.10707419981652259 0 -0.076992460142820282 -0.10877166915690691 0 -0.076968197710189368 -0.1039967519148938 0 -0.068733298594088707 -0.093691087016448876 0 -0.069950565731590614 -0.1019322454080748 0 -0.076121159397593299 -0.095631765862436574 0 -0.069950565731590614 -0.1019322454080748 0 -0.076968197710189368 -0.1039967519148938 0 -0.076121159397593299 -0.095631765862436574 0 -0.071813163668218383 -0.1108882480165817 0 -0.081208194369374723 -0.11979059602120511 0 -0.058796188458866472 -0.1095130835340711 0 -0.081208194369374723 -0.11979059602120511 0 -0.058796188458866472 -0.1095130835340711 0 -0.067451631278283977 -0.121002024074214 0 -0.081208194369374723 -0.11979059602120511 0 -0.058796188458866472 -0.1095130835340711 0 -0.071813163668218383 -0.1108882480165817 0 -0.081208194369374723 -0.11979059602120511 0 -0.080128071651729221 -0.11320802716086879 0 -0.076992460142820282 -0.10877166915690691 0 -0.071813163668218383 -0.1108882480165817 0 -0.080128071651729221 -0.11320802716086879 0 -0.067451631278283977 -0.121002024074214 0 -0.081208194369374723 -0.11979059602120511 0 -0.074803413204227995 -0.12613233323205669 0 -0.081208194369374723 -0.11979059602120511 0 -0.087123413334285055 -0.1171435408327588 0 -0.103620200279883 -0.1300681085083388 0 -0.081208194369374723 -0.11979059602120511 0 -0.103620200279883 -0.1300681085083388 0 -0.081208194369374723 -0.11979059602120511 0 -0.080388249440251594 -0.12776675217401481 0 -0.074803413204227995 -0.12613233323205669 0 -0.080128071651729221 -0.11320802716086879 0 -0.087123413334285055 -0.1171435408327588 0 -0.083257212638508771 -0.1086911188756675 0 -0.081208194369374723 -0.11979059602120511 0 -0.080128071651729221 -0.11320802716086879 0 -0.087123413334285055 -0.1171435408327588 0 -0.076992460142820282 -0.10877166915690691 0 -0.080128071651729221 -0.11320802716086879 0 -0.083257212638508771 -0.1086911188756675 0 -0.087123413334285055 -0.1171435408327588 0 -0.083257212638508771 -0.1086911188756675 0 -0.095322184268341437 -0.1055150994644018 0 -0.083607124588235951 -0.088105930262401377 0 -0.076121159397593299 -0.095631765862436574 0 -0.084984414579577117 -0.099443444310078025 0 -0.076968197710189368 -0.1039967519148938 0 -0.076121159397593299 -0.095631765862436574 0 -0.084984414579577117 -0.099443444310078025 0 -0.076968197710189368 -0.1039967519148938 0 -0.084984414579577117 -0.099443444310078025 0 -0.083257212638508771 -0.1086911188756675 0 -0.076992460142820282 -0.10877166915690691 0 -0.076968197710189368 -0.1039967519148938 0 -0.083257212638508771 -0.1086911188756675 0 -0.084984414579577117 -0.099443444310078025 0 -0.083257212638508771 -0.1086911188756675 0 -0.095322184268341437 -0.1055150994644018 0 -0.084984414579577117 -0.099443444310078025 0 -0.095322184268341437 -0.1055150994644018 0 -0.095642147348571183 -0.093641009986248913 0 -0.095322184268341437 -0.1055150994644018 0 -0.1090606879846175 -0.1008218898698231 0 -0.11124242208071219 -0.1136514913899826 0 -0.095322184268341437 -0.1055150994644018 0 -0.1090606879846175 -0.1008218898698231 0 -0.095642147348571183 -0.093641009986248913 0 -0.1090606879846175 -0.1008218898698231 0 -0.1059928302749842 -0.086814862741594223 0 -0.095642147348571183 -0.093641009986248913 0 -0.087123413334285055 -0.1171435408327588 0 -0.11124242208071219 -0.1136514913899826 0 -0.087123413334285055 -0.1171435408327588 0 -0.11124242208071219 -0.1136514913899826 0 -0.103620200279883 -0.1300681085083388 0 -0.087123413334285055 -0.1171435408327588 0 -0.095322184268341437 -0.1055150994644018 0 -0.11124242208071219 -0.1136514913899826 0 -0.11124242208071219 -0.1136514913899826 0 -0.123807084897888 -0.1198263474223524 0 -0.13536143082713939 -0.1101594419472056 0 -0.11124242208071219 -0.1136514913899826 0 -0.103620200279883 -0.1300681085083388 0 -0.11731480522525881 -0.12575735360650811 0 -0.11124242208071219 -0.1136514913899826 0 -0.13536143082713939 -0.1101594419472056 0 -0.123807084897888 -0.1198263474223524 0 -0.11731480522525881 -0.12575735360650811 0 -0.1271445290896307 -0.12739656560378079 0 -0.11124242208071219 -0.1136514913899826 0 -0.123807084897888 -0.1198263474223524 0 -0.11731480522525881 -0.12575735360650811 0 -0.11124242208071219 -0.1136514913899826 0 -0.12078948991564339 -0.1027831787187536 0 -0.13536143082713939 -0.1101594419472056 0 -0.1090606879846175 -0.1008218898698231 0 -0.11124242208071219 -0.1136514913899826 0 -0.12078948991564339 -0.1027831787187536 0 -0.1090606879846175 -0.1008218898698231 0 -0.12078948991564339 -0.1027831787187536 0 -0.12302359211449181 -0.087233410844133052 0 -0.12302359211449181 -0.087233410844133052 0 -0.1059928302749842 -0.086814862741594223 0 -0.1106857534018424 -0.064307379741061488 0 -0.1090606879846175 -0.1008218898698231 0 -0.12302359211449181 -0.087233410844133052 0 -0.1059928302749842 -0.086814862741594223 0 -0.092788880017415601 -0.07840516537710035 0 -0.1059928302749842 -0.086814862741594223 0 -0.095642147348571183 -0.093641009986248913 0 -0.092788880017415601 -0.07840516537710035 0 -0.1059928302749842 -0.086814862741594223 0 -0.1106857534018424 -0.064307379741061488 0 -0.092788880017415601 -0.07840516537710035 0 -0.1106857534018424 -0.064307379741061488 0 -0.086877843553230416 -0.061647397457384359 0 -0.12302359211449181 -0.087233410844133052 0 -0.1106857534018424 -0.064307379741061488 0 -0.1263464710666205 -0.070376330425090852 0 -0.1106857534018424 -0.064307379741061488 0 -0.12341172703331001 -0.059839067757549061 0 -0.1263464710666205 -0.070376330425090852 0 -0.12302359211449181 -0.087233410844133052 0 -0.1106857534018424 -0.064307379741061488 0 -0.1106857534018424 -0.064307379741061488 0 -0.1162594855230239 -0.053734210259957303 0 -0.10323979472759889 -0.044638415316711803 0 -0.1162594855230239 -0.053734210259957303 0 -0.10323979472759889 -0.044638415316711803 0 -0.1264006912276846 -0.046572554429438077 0 -0.1106857534018424 -0.064307379741061488 0 -0.12341172703331001 -0.059839067757549061 0 -0.1162594855230239 -0.053734210259957303 0 -0.12341172703331001 -0.059839067757549061 0 -0.1162594855230239 -0.053734210259957303 0 -0.1264006912276846 -0.046572554429438077 0 -0.11272663579709399 -0.037010500558471958 0 -0.10323979472759889 -0.044638415316711803 0 -0.1264006912276846 -0.046572554429438077 0 -0.11272663579709399 -0.037010500558471958 0 -0.1219845089949701 -0.028185139382169159 0 -0.1264006912276846 -0.046572554429438077 0 -0.10323979472759889 -0.044638415316711803 0 -0.1264006912276846 -0.046572554429438077 0 -0.11272663579709399 -0.037010500558471958 0 -0.1219845089949701 -0.028185139382169159 0 -0.10703824242768489 -0.028918694038371821 0 -0.11272663579709399 -0.037010500558471958 0 -0.10323979472759889 -0.044638415316711803 0 -0.1047075978462612 -0.036881148456179819 0 -0.10323979472759889 -0.044638415316711803 0 -0.1047075978462612 -0.036881148456179819 0 -0.098347914689193031 -0.041381348637990083 0 -0.11272663579709399 -0.037010500558471958 0 -0.1047075978462612 -0.036881148456179819 0 -0.10703824242768489 -0.028918694038371821 0 -0.1047075978462612 -0.036881148456179819 0 -0.099171537296566206 -0.034864327180595907 0 -0.10703824242768489 -0.028918694038371821 0 -0.099171537296566206 -0.034864327180595907 0 -0.098347914689193031 -0.041381348637990083 0 -0.09099155256430666 -0.038038687521558479 0 -0.099171537296566206 -0.034864327180595907 0 -0.094772378955385289 -0.029101757248879381 0 -0.09099155256430666 -0.038038687521558479 0 -0.1047075978462612 -0.036881148456179819 0 -0.099171537296566206 -0.034864327180595907 0 -0.098347914689193031 -0.041381348637990083 0 -0.1106857534018424 -0.064307379741061488 0 -0.10323979472759889 -0.044638415316711803 0 -0.098347914689193031 -0.041381348637990083 0 -0.1106857534018424 -0.064307379741061488 0 -0.098347914689193031 -0.041381348637990083 0 -0.091043725876728113 -0.04883347380263104 0 -0.1106857534018424 -0.064307379741061488 0 -0.086877843553230416 -0.061647397457384359 0 -0.091043725876728113 -0.04883347380263104 0 -0.1106857534018424 -0.064307379741061488 0 -0.098347914689193031 -0.041381348637990083 0 -0.12654774670833069 -0.016121824567551839 0 -0.1195650939264682 0.0016894564454279679 0 -0.1133016681770765 -0.013614618796471941 0 -0.12654774670833069 -0.016121824567551839 0 -0.1195650939264682 0.0016894564454279679 0 -0.1133016681770765 -0.013614618796471941 0 -0.1061499072299716 -0.0040736423931422034 0 -0.1119989086322951 0.00066333237648008722 0 -0.1133016681770765 -0.013614618796471941 0 -0.1119989086322951 0.00066333237648008722 0 -0.1195650939264682 0.0016894564454279679 0 -0.1133016681770765 -0.013614618796471941 0 -0.1195650939264682 0.0016894564454279679 0 -0.1133016681770765 -0.013614618796471941 0 -0.10703824242768489 -0.028918694038371821 0 -0.1133016681770765 -0.013614618796471941 0 -0.1219845089949701 -0.028185139382169159 0 -0.12654774670833069 -0.016121824567551839 0 -0.1133016681770765 -0.013614618796471941 0 -0.1219845089949701 -0.028185139382169159 0 -0.10703824242768489 -0.028918694038371821 0 -0.10703824242768489 -0.028918694038371821 0 -0.094772378955385289 -0.029101757248879381 0 -0.099235353596513476 -0.01938915603414346 0 -0.099171537296566206 -0.034864327180595907 0 -0.10703824242768489 -0.028918694038371821 0 -0.094772378955385289 -0.029101757248879381 0 -0.094772378955385289 -0.029101757248879381 0 -0.099235353596513476 -0.01938915603414346 0 -0.091339750754897434 -0.022283024421743639 0 -0.1133016681770765 -0.013614618796471941 0 -0.10703824242768489 -0.028918694038371821 0 -0.099235353596513476 -0.01938915603414346 0 -0.1133016681770765 -0.013614618796471941 0 -0.099833378249854082 -0.0095130268116398586 0 -0.1061499072299716 -0.0040736423931422034 0 -0.1133016681770765 -0.013614618796471941 0 -0.099235353596513476 -0.01938915603414346 0 -0.099833378249854082 -0.0095130268116398586 0 -0.099235353596513476 -0.01938915603414346 0 -0.099833378249854082 -0.0095130268116398586 0 -0.090673394486815148 -0.012720983796641969 0 -0.099833378249854082 -0.0095130268116398586 0 -0.09356679494665994 -0.0042983887732841548 0 -0.090673394486815148 -0.012720983796641969 0 -0.099450143409077318 -0.00040143133860372459 0 -0.09356679494665994 -0.0042983887732841548 0 -0.092227756543309419 0.00423836554477922 0 -0.099833378249854082 -0.0095130268116398586 0 -0.099450143409077318 -0.00040143133860372459 0 -0.09356679494665994 -0.0042983887732841548 0 -0.099833378249854082 -0.0095130268116398586 0 -0.099450143409077318 -0.00040143133860372459 0 -0.1061499072299716 -0.0040736423931422034 0 -0.099450143409077318 -0.00040143133860372459 0 -0.1061499072299716 -0.0040736423931422034 0 -0.105358158110386 0.0033847776135997949 0 -0.1061499072299716 -0.0040736423931422034 0 -0.105358158110386 0.0033847776135997949 0 -0.1119989086322951 0.00066333237648008722 0 -0.085701472699934569 -0.0021704362983969768 0 -0.08142277690128065 -0.0095466927238512383 0 -0.074297532179188081 -0.00034498519096071108 0 -0.085701472699934569 -0.0021704362983969768 0 -0.09356679494665994 -0.0042983887732841548 0 -0.090673394486815148 -0.012720983796641969 0 -0.085701472699934569 -0.0021704362983969768 0 -0.09356679494665994 -0.0042983887732841548 0 -0.092227756543309419 0.00423836554477922 0 -0.085701472699934569 -0.0021704362983969768 0 -0.090673394486815148 -0.012720983796641969 0 -0.08142277690128065 -0.0095466927238512383 0 -0.090673394486815148 -0.012720983796641969 0 -0.08142277690128065 -0.0095466927238512383 0 -0.083614234258565956 -0.02184616151343444 0 -0.08142277690128065 -0.0095466927238512383 0 -0.083614234258565956 -0.02184616151343444 0 -0.076376503069368787 -0.016370895107025291 0 -0.090673394486815148 -0.012720983796641969 0 -0.083614234258565956 -0.02184616151343444 0 -0.091339750754897434 -0.022283024421743639 0 -0.099235353596513476 -0.01938915603414346 0 -0.090673394486815148 -0.012720983796641969 0 -0.091339750754897434 -0.022283024421743639 0 -0.083614234258565956 -0.02184616151343444 0 -0.091339750754897434 -0.022283024421743639 0 -0.085182063644112765 -0.030695731056946049 0 -0.094772378955385289 -0.029101757248879381 0 -0.091339750754897434 -0.022283024421743639 0 -0.085182063644112765 -0.030695731056946049 0 -0.083614234258565956 -0.02184616151343444 0 -0.085182063644112765 -0.030695731056946049 0 -0.071746005592217665 -0.029113979970191661 0 -0.071746005592217665 -0.029113979970191661 0 -0.067312168036264011 -0.015922425045751299 0 -0.056369463548748201 -0.0194426915104422 0 -0.083614234258565956 -0.02184616151343444 0 -0.071746005592217665 -0.029113979970191661 0 -0.076376503069368787 -0.016370895107025291 0 -0.071746005592217665 -0.029113979970191661 0 -0.067312168036264011 -0.015922425045751299 0 -0.076376503069368787 -0.016370895107025291 0 -0.067312168036264011 -0.015922425045751299 0 -0.076376503069368787 -0.016370895107025291 0 -0.072630669944282536 -0.0090680103302853247 0 -0.08142277690128065 -0.0095466927238512383 0 -0.076376503069368787 -0.016370895107025291 0 -0.072630669944282536 -0.0090680103302853247 0 -0.067312168036264011 -0.015922425045751299 0 -0.072630669944282536 -0.0090680103302853247 0 -0.062436411198129718 -0.0046985190703956198 0 -0.072630669944282536 -0.0090680103302853247 0 -0.074297532179188081 -0.00034498519096071108 0 -0.062436411198129718 -0.0046985190703956198 0 -0.08142277690128065 -0.0095466927238512383 0 -0.072630669944282536 -0.0090680103302853247 0 -0.074297532179188081 -0.00034498519096071108 0 -0.086877843553230416 -0.061647397457384359 0 -0.091043725876728113 -0.04883347380263104 0 -0.078628459739303699 -0.043790775665868753 0 -0.091043725876728113 -0.04883347380263104 0 -0.09099155256430666 -0.038038687521558479 0 -0.078628459739303699 -0.043790775665868753 0 -0.098347914689193031 -0.041381348637990083 0 -0.091043725876728113 -0.04883347380263104 0 -0.09099155256430666 -0.038038687521558479 0 -0.094772378955385289 -0.029101757248879381 0 -0.085182063644112765 -0.030695731056946049 0 -0.09099155256430666 -0.038038687521558479 0 -0.085182063644112765 -0.030695731056946049 0 -0.09099155256430666 -0.038038687521558479 0 -0.078628459739303699 -0.043790775665868753 0 -0.085182063644112765 -0.030695731056946049 0 -0.071746005592217665 -0.029113979970191661 0 -0.078628459739303699 -0.043790775665868753 0 -0.071746005592217665 -0.029113979970191661 0 -0.078628459739303699 -0.043790775665868753 0 -0.062645762233156488 -0.044658435400245833 0 -0.071746005592217665 -0.029113979970191661 0 -0.062645762233156488 -0.044658435400245833 0 -0.053374893162518408 -0.031779901250993788 0 -0.086877843553230416 -0.061647397457384359 0 -0.078628459739303699 -0.043790775665868753 0 -0.068108720449511745 -0.060431621398092827 0 -0.078628459739303699 -0.043790775665868753 0 -0.062645762233156488 -0.044658435400245833 0 -0.068108720449511745 -0.060431621398092827 0 -0.062645762233156488 -0.044658435400245833 0 -0.068108720449511745 -0.060431621398092827 0 -0.055978400535288617 -0.055763500692954743 0 -0.068108720449511745 -0.060431621398092827 0 -0.055978400535288617 -0.055763500692954743 0 -0.056484451081606067 -0.068497088591451136 0 -0.055978400535288617 -0.055763500692954743 0 -0.043609597711011777 -0.058499573173166758 0 -0.056484451081606067 -0.068497088591451136 0 -0.055978400535288617 -0.055763500692954743 0 -0.050098631987402553 -0.045096000744962478 0 -0.043609597711011777 -0.058499573173166758 0 -0.062645762233156488 -0.044658435400245833 0 -0.055978400535288617 -0.055763500692954743 0 -0.050098631987402553 -0.045096000744962478 0 -0.062645762233156488 -0.044658435400245833 0 -0.053374893162518408 -0.031779901250993788 0 -0.050098631987402553 -0.045096000744962478 0 -0.053374893162518408 -0.031779901250993788 0 -0.035871295168631273 -0.033757074572384187 0 -0.035871295168631273 -0.033757074572384187 0 -0.032551921171406359 -0.034132024780525877 0 -0.043609597711011777 -0.058499573173166758 0 -0.050098631987402553 -0.045096000744962478 0 -0.035871295168631273 -0.033757074572384187 0 -0.043609597711011777 -0.058499573173166758 0 -0.035871295168631273 -0.033757074572384187 0 -0.043609597711011777 -0.058499573173166758 0 -0.053374893162518408 -0.031779901250993788 0 -0.050098631987402553 -0.045096000744962478 0 -0.035871295168631273 -0.033757074572384187 0 -0.035871295168631273 -0.033757074572384187 0 -0.032551921171406359 -0.034132024780525877 0 -0.032922736798101621 -0.030062560971036111 0 -0.032551921171406359 -0.034132024780525877 0 -0.032922736798101621 -0.030062560971036111 0 -0.035871295168631273 -0.033757074572384187 0 -0.032551921171406359 -0.034132024780525877 0 -0.032551921171406359 -0.034132024780525877 0 -0.043609597711011777 -0.058499573173166758 0 -0.030112819858092998 -0.060899598225691132 0 -0.032551921171406359 -0.034132024780525877 0 -0.030112819858092998 -0.060899598225691132 0 -0.062436411198129718 -0.0046985190703956198 0 -0.049063020525450557 -0.0094484613833612993 0 -0.047826914617203078 0.001469151039970934 0 -0.062436411198129718 -0.0046985190703956198 0 -0.049063020525450557 -0.0094484613833612993 0 -0.056369463548748201 -0.0194426915104422 0 -0.067312168036264011 -0.015922425045751299 0 -0.062436411198129718 -0.0046985190703956198 0 -0.056369463548748201 -0.0194426915104422 0 -0.071746005592217665 -0.029113979970191661 0 -0.053374893162518408 -0.031779901250993788 0 -0.056369463548748201 -0.0194426915104422 0 -0.049063020525450557 -0.0094484613833612993 0 -0.056369463548748201 -0.0194426915104422 0 -0.043647551755021198 -0.018311208862384461 0 -0.053374893162518408 -0.031779901250993788 0 -0.056369463548748201 -0.0194426915104422 0 -0.043647551755021198 -0.018311208862384461 0 -0.035871295168631273 -0.033757074572384187 0 -0.027931048851053901 -0.0083688796385876091 0 -0.035871295168631273 -0.033757074572384187 0 -0.032922736798101621 -0.030062560971036111 0 -0.027931048851053901 -0.0083688796385876091 0 -0.053374893162518408 -0.031779901250993788 0 -0.035871295168631273 -0.033757074572384187 0 -0.043647551755021198 -0.018311208862384461 0 -0.035871295168631273 -0.033757074572384187 0 -0.043647551755021198 -0.018311208862384461 0 -0.027931048851053901 -0.0083688796385876091 0 -0.040432499405923722 -0.0058239416191065898 0 -0.027931048851053901 -0.0083688796385876091 0 -0.036611074460176238 0.009443777896756704 0 -0.043647551755021198 -0.018311208862384461 0 -0.040432499405923722 -0.0058239416191065898 0 -0.027931048851053901 -0.0083688796385876091 0 -0.049063020525450557 -0.0094484613833612993 0 -0.043647551755021198 -0.018311208862384461 0 -0.040432499405923722 -0.0058239416191065898 0 -0.049063020525450557 -0.0094484613833612993 0 -0.040432499405923722 -0.0058239416191065898 0 -0.047826914617203078 0.001469151039970934 0 -0.01667222954211801 -0.003018651556297432 0 -0.027931048851053901 -0.0083688796385876091 0 -0.018028612652532021 0.0044234363244373886 0 -0.01667222954211801 -0.003018651556297432 0 -0.027931048851053901 -0.0083688796385876091 0 -0.02582408940075576 -0.01809926431001985 0 -0.01667222954211801 -0.003018651556297432 0 -0.02582408940075576 -0.01809926431001985 0 -0.01342537613682538 -0.01155261994843405 0 -0.01667222954211801 -0.003018651556297432 0 -0.02582408940075576 -0.01809926431001985 0 -0.032922736798101621 -0.030062560971036111 0 -0.027931048851053901 -0.0083688796385876091 0 -0.02582408940075576 -0.01809926431001985 0 -0.032551921171406359 -0.034132024780525877 0 -0.032922736798101621 -0.030062560971036111 0 -0.02582408940075576 -0.01809926431001985 0 -0.032551921171406359 -0.034132024780525877 0 -0.02582408940075576 -0.01809926431001985 0 -0.003314385603862581 -0.037434641495532432 0 -0.0071414846043795308 -0.019119771314087691 0 -0.003314385603862581 -0.037434641495532432 0 0.0083878754145421119 -0.02018330378721013 0 -0.02582408940075576 -0.01809926431001985 0 -0.0071414846043795308 -0.019119771314087691 0 -0.01342537613682538 -0.01155261994843405 0 -0.02582408940075576 -0.01809926431001985 0 -0.0071414846043795308 -0.019119771314087691 0 -0.003314385603862581 -0.037434641495532432 0 -0.0071414846043795308 -0.019119771314087691 0 -0.01342537613682538 -0.01155261994843405 0 -0.0040637010000482386 -0.0059727926133312454 0 -0.0071414846043795308 -0.019119771314087691 0 -0.0040637010000482386 -0.0059727926133312454 0 0.0083878754145421119 -0.02018330378721013 0 -0.01667222954211801 -0.003018651556297432 0 -0.01342537613682538 -0.01155261994843405 0 -0.0040637010000482386 -0.0059727926133312454 0 -0.030112819858092998 -0.060899598225691132 0 -0.02097004410374044 -0.047357794546627301 0 -0.01208150450470089 -0.057692569968730893 0 -0.032551921171406359 -0.034132024780525877 0 -0.030112819858092998 -0.060899598225691132 0 -0.02097004410374044 -0.047357794546627301 0 -0.032551921171406359 -0.034132024780525877 0 -0.02097004410374044 -0.047357794546627301 0 -0.003314385603862581 -0.037434641495532432 0 -0.032551921171406359 -0.034132024780525877 0 -0.003314385603862581 -0.037434641495532432 0 -0.003314385603862581 -0.037434641495532432 0 -0.01208150450470089 -0.057692569968730893 0 0.0063456604897870542 -0.056665138065186929 0 -0.01208150450470089 -0.057692569968730893 0 -0.0019047174400742891 -0.072071791944647356 0 0.0063456604897870542 -0.056665138065186929 0 -0.02097004410374044 -0.047357794546627301 0 -0.003314385603862581 -0.037434641495532432 0 -0.01208150450470089 -0.057692569968730893 0 -0.0019047174400742891 -0.072071791944647356 0 -0.010894012334813531 -0.086567958999258232 0 -0.01746763705839123 -0.073242264264599677 0 -0.01208150450470089 -0.057692569968730893 0 -0.0019047174400742891 -0.072071791944647356 0 -0.01746763705839123 -0.073242264264599677 0 -0.010894012334813531 -0.086567958999258232 0 -0.0051599679916239016 -0.098500557996298033 0 0.0067789116749813619 -0.088875342084001996 0 -0.0019047174400742891 -0.072071791944647356 0 -0.010894012334813531 -0.086567958999258232 0 0.0067789116749813619 -0.088875342084001996 0 -0.010894012334813531 -0.086567958999258232 0 -0.02767371854478053 -0.087667171670856442 0 -0.01746763705839123 -0.073242264264599677 0 -0.010894012334813531 -0.086567958999258232 0 -0.02767371854478053 -0.087667171670856442 0 -0.01550486344862936 -0.099523166717061587 0 -0.030112819858092998 -0.060899598225691132 0 -0.02767371854478053 -0.087667171670856442 0 -0.030112819858092998 -0.060899598225691132 0 -0.01208150450470089 -0.057692569968730893 0 -0.01746763705839123 -0.073242264264599677 0 -0.030112819858092998 -0.060899598225691132 0 -0.02767371854478053 -0.087667171670856442 0 -0.01746763705839123 -0.073242264264599677 0 -0.030112819858092998 -0.060899598225691132 0 -0.02767371854478053 -0.087667171670856442 0 -0.038270292813318382 -0.075523681576919355 0 -0.043609597711011777 -0.058499573173166758 0 -0.030112819858092998 -0.060899598225691132 0 -0.038270292813318382 -0.075523681576919355 0 -0.043609597711011777 -0.058499573173166758 0 -0.038270292813318382 -0.075523681576919355 0 -0.051347900253390033 -0.083242071773949933 0 -0.02767371854478053 -0.087667171670856442 0 -0.038270292813318382 -0.075523681576919355 0 -0.04061638907328146 -0.088701318647284005 0 -0.02767371854478053 -0.087667171670856442 0 -0.04061638907328146 -0.088701318647284005 0 -0.03629224915142451 -0.099193412989388344 0 -0.038270292813318382 -0.075523681576919355 0 -0.04061638907328146 -0.088701318647284005 0 -0.051347900253390033 -0.083242071773949933 0 -0.063597461622629359 -0.084208095886413328 0 -0.051347900253390033 -0.083242071773949933 0 -0.056484451081606067 -0.068497088591451136 0 -0.063597461622629359 -0.084208095886413328 0 -0.051347900253390033 -0.083242071773949933 0 -0.059086202795758408 -0.10798457037473611 0 -0.04061638907328146 -0.088701318647284005 0 -0.051347900253390033 -0.083242071773949933 0 -0.049497784603493862 -0.097880255225305982 0 -0.043609597711011777 -0.058499573173166758 0 -0.051347900253390033 -0.083242071773949933 0 -0.056484451081606067 -0.068497088591451136 0 -0.043609597711011777 -0.058499573173166758 0 -0.051347900253390033 -0.083242071773949933 0 -0.058796188458866472 -0.1095130835340711 0 -0.042508293227084222 -0.11533501004131259 0 -0.055504924908303922 -0.12685960406133359 0 -0.067451631278283977 -0.121002024074214 0 -0.058796188458866472 -0.1095130835340711 0 -0.055504924908303922 -0.12685960406133359 0 -0.058796188458866472 -0.1095130835340711 0 -0.055504924908303922 -0.12685960406133359 0 -0.042508293227084222 -0.11533501004131259 0 -0.055504924908303922 -0.12685960406133359 0 -0.042807111707630137 -0.13075576817730011 0 -0.051347900253390033 -0.083242071773949933 0 -0.059086202795758408 -0.10798457037473611 0 -0.058796188458866472 -0.1095130835340711 0 -0.059086202795758408 -0.10798457037473611 0 -0.049497784603493862 -0.097880255225305982 0 -0.051347900253390033 -0.083242071773949933 0 -0.059086202795758408 -0.10798457037473611 0 -0.049497784603493862 -0.097880255225305982 0 -0.063597461622629359 -0.084208095886413328 0 -0.063272551133818453 -0.10024221525934961 0 -0.059086202795758408 -0.10798457037473611 0 -0.058796188458866472 -0.1095130835340711 0 -0.049497784603493862 -0.097880255225305982 0 -0.03629224915142451 -0.099193412989388344 0 -0.063998496544944633 -0.1076560151872737 0 -0.058796188458866472 -0.1095130835340711 0 -0.060773538639938611 -0.1080015890984703 0 -0.058796188458866472 -0.1095130835340711 0 -0.03629224915142451 -0.099193412989388344 0 -0.063597461622629359 -0.084208095886413328 0 -0.059086202795758408 -0.10798457037473611 0 -0.058796188458866472 -0.1095130835340711 0 -0.060773538639938611 -0.1080015890984703 0 -0.059086202795758408 -0.10798457037473611 0 -0.058796188458866472 -0.1095130835340711 0 -0.059086202795758408 -0.10798457037473611 0 -0.060773538639938611 -0.1080015890984703 0 -0.059086202795758408 -0.10798457037473611 0 -0.061390074486631037 -0.1050429047383318 0 -0.063998496544944633 -0.1076560151872737 0 -0.060773538639938611 -0.1080015890984703 0 -0.061390074486631037 -0.1050429047383318 0 -0.063272551133818453 -0.10024221525934961 0 -0.059086202795758408 -0.10798457037473611 0 -0.061390074486631037 -0.1050429047383318 0 -0.058796188458866472 -0.1095130835340711 0 -0.03629224915142451 -0.099193412989388344 0 -0.042508293227084222 -0.11533501004131259 0 -0.04061638907328146 -0.088701318647284005 0 -0.049497784603493862 -0.097880255225305982 0 -0.03629224915142451 -0.099193412989388344 0 -0.03629224915142451 -0.099193412989388344 0 -0.042508293227084222 -0.11533501004131259 0 -0.02523461723146805 -0.1144347451160217 0 -0.042508293227084222 -0.11533501004131259 0 -0.033560622473511922 -0.12405625309998081 0 -0.02523461723146805 -0.1144347451160217 0 -0.042508293227084222 -0.11533501004131259 0 -0.033560622473511922 -0.12405625309998081 0 -0.042807111707630137 -0.13075576817730011 0 -0.033560622473511922 -0.12405625309998081 0 -0.02523461723146805 -0.1144347451160217 0 -0.023272419894103578 -0.130312750635385 0 -0.02523461723146805 -0.1144347451160217 0 -0.01201198595792654 -0.1230543912030342 0 -0.023272419894103578 -0.130312750635385 0 -0.02767371854478053 -0.087667171670856442 0 -0.02523461723146805 -0.1144347451160217 0 -0.01550486344862936 -0.099523166717061587 0 -0.02767371854478053 -0.087667171670856442 0 -0.03629224915142451 -0.099193412989388344 0 -0.02523461723146805 -0.1144347451160217 0 -0.02767371854478053 -0.087667171670856442 0 -0.02523461723146805 -0.1144347451160217 0 -0.02523461723146805 -0.1144347451160217 0 -0.01550486344862936 -0.099523166717061587 0 -0.0085620011404608093 -0.1104453998028736 0 -0.010894012334813531 -0.086567958999258232 0 -0.01550486344862936 -0.099523166717061587 0 -0.0051599679916239016 -0.098500557996298033 0 -0.01550486344862936 -0.099523166717061587 0 -0.0051599679916239016 -0.098500557996298033 0 -0.0085620011404608093 -0.1104453998028736 0 -0.0051599679916239016 -0.098500557996298033 0 -0.0085620011404608093 -0.1104453998028736 0 0.0033433695816099951 -0.1044055319074582 0 -0.02523461723146805 -0.1144347451160217 0 -0.01201198595792654 -0.1230543912030342 0 -0.0085620011404608093 -0.1104453998028736 0 -0.01201198595792654 -0.1230543912030342 0 -0.0085620011404608093 -0.1104453998028736 0 0.0056030651199572906 -0.1221440163211721 0 -0.006850710005279358 -0.14222568930940019 0 0.0056030651199572906 -0.1221440163211721 0 -0.01093089456795752 -0.13191398425875611 0 -0.006850710005279358 -0.14222568930940019 0 0.0056030651199572906 -0.1221440163211721 0 -0.01201198595792654 -0.1230543912030342 0 -0.01093089456795752 -0.13191398425875611 0 0.0056030651199572906 -0.1221440163211721 0 -0.01093089456795752 -0.13191398425875611 0 -0.01812242210243542 -0.14183307382478921 0 -0.006850710005279358 -0.14222568930940019 0 -0.01201198595792654 -0.1230543912030342 0 -0.01093089456795752 -0.13191398425875611 0 -0.023272419894103578 -0.130312750635385 0 -0.023272419894103578 -0.130312750635385 0 -0.02810827481250908 -0.1415147540081432 0 -0.01812242210243542 -0.14183307382478921 0 -0.01093089456795752 -0.13191398425875611 0 -0.023272419894103578 -0.130312750635385 0 -0.01812242210243542 -0.14183307382478921 0 -0.023272419894103578 -0.130312750635385 0 -0.02810827481250908 -0.1415147540081432 0 -0.034080243665205651 -0.13394709775084551 0 -0.033560622473511922 -0.12405625309998081 0 -0.023272419894103578 -0.130312750635385 0 -0.034080243665205651 -0.13394709775084551 0 -0.021605219070760882 -0.14966316850935321 0 -0.006850710005279358 -0.14222568930940019 0 -0.019793847655100449 -0.16309645782026749 0 -0.021605219070760882 -0.14966316850935321 0 -0.025771913005948499 -0.1580894517194695 0 -0.03125109504740816 -0.1514984677136231 0 -0.02810827481250908 -0.1415147540081432 0 -0.021605219070760882 -0.14966316850935321 0 -0.03125109504740816 -0.1514984677136231 0 -0.02810827481250908 -0.1415147540081432 0 -0.01812242210243542 -0.14183307382478921 0 -0.021605219070760882 -0.14966316850935321 0 -0.006850710005279358 -0.14222568930940019 0 -0.019793847655100449 -0.16309645782026749 0 -0.006850710005279358 -0.14222568930940019 0 -0.01300831189858918 -0.16374014303043569 0 0.0046603684621628104 -0.1426266423866292 0 -0.001672999716826632 -0.15908307441973141 0 -0.01300831189858918 -0.16374014303043569 0 0.0046603684621628104 -0.1426266423866292 0 -0.01300831189858918 -0.16374014303043569 0 0.0046603684621628104 -0.1426266423866292 0 -0.01812242210243542 -0.14183307382478921 0 -0.021605219070760882 -0.14966316850935321 0 -0.006850710005279358 -0.14222568930940019 0 -0.01812242210243542 -0.14183307382478921 0 -0.006850710005279358 -0.14222568930940019 0 -0.006850710005279358 -0.14222568930940019 0 0.0046603684621628104 -0.1426266423866292 0 -0.001672999716826632 -0.15908307441973141 0 -0.0021974887681538891 -0.1710032044305812 0 0.0038534333372737331 -0.1589623078312796 0 -0.006850710005279358 -0.14222568930940019 0 -0.01300831189858918 -0.16374014303043569 0 -0.019793847655100449 -0.16309645782026749 0 -0.0021974887681538891 -0.1710032044305812 0 -0.01300831189858918 -0.16374014303043569 0 -0.01158566158253028 -0.1800302841835934 0 -0.001672999716826632 -0.15908307441973141 0 -0.0021974887681538891 -0.1710032044305812 0 -0.01300831189858918 -0.16374014303043569 0 -0.01300831189858918 -0.16374014303043569 0 -0.01158566158253028 -0.1800302841835934 0 -0.020565115449530592 -0.18468308455336799 0 -0.0021974887681538891 -0.1710032044305812 0 -0.01158566158253028 -0.1800302841835934 0 0.0037036872983158189 -0.18532614146338761 0 -0.019793847655100449 -0.16309645782026749 0 -0.029541183741271189 -0.1717417260814669 0 -0.032736985304919392 -0.18396722633113599 0 -0.01300831189858918 -0.16374014303043569 0 -0.03067699225934449 -0.18485364367423959 0 -0.03067699225934449 -0.18485364367423959 0 -0.019793847655100449 -0.16309645782026749 0 -0.032736985304919392 -0.18396722633113599 0 -0.019793847655100449 -0.16309645782026749 0 -0.032736985304919392 -0.18396722633113599 0 -0.01300831189858918 -0.16374014303043569 0 -0.020565115449530592 -0.18468308455336799 0 -0.03067699225934449 -0.18485364367423959 0 -0.01158566158253028 -0.1800302841835934 0 -0.020565115449530592 -0.18468308455336799 0 -0.02309782078493702 -0.19447412876297929 0 -0.020565115449530592 -0.18468308455336799 0 -0.03067699225934449 -0.18485364367423959 0 -0.02621451560194505 -0.18875340250497419 0 -0.01300831189858918 -0.16374014303043569 0 -0.03067699225934449 -0.18485364367423959 0 -0.019793847655100449 -0.16309645782026749 0 -0.021605219070760882 -0.14966316850935321 0 -0.019793847655100449 -0.16309645782026749 0 -0.025771913005948499 -0.1580894517194695 0 -0.019793847655100449 -0.16309645782026749 0 -0.029541183741271189 -0.1717417260814669 0 -0.02744317172183566 -0.16433553724595659 0 -0.02744317172183566 -0.16433553724595659 0 -0.030812773380997749 -0.1611123031845462 0 -0.031296140825860408 -0.16763774742403301 0 -0.029541183741271189 -0.1717417260814669 0 -0.02744317172183566 -0.16433553724595659 0 -0.031296140825860408 -0.16763774742403301 0 -0.02744317172183566 -0.16433553724595659 0 -0.030812773380997749 -0.1611123031845462 0 -0.025771913005948499 -0.1580894517194695 0 -0.030812773380997749 -0.1611123031845462 0 -0.025771913005948499 -0.1580894517194695 0 -0.03125109504740816 -0.1514984677136231 0 -0.019793847655100449 -0.16309645782026749 0 -0.02744317172183566 -0.16433553724595659 0 -0.025771913005948499 -0.1580894517194695 0 -0.030812773380997749 -0.1611123031845462 0 -0.036987896330961993 -0.15778996798669079 0 -0.03125109504740816 -0.1514984677136231 0 -0.036987896330961993 -0.15778996798669079 0 -0.036158019950952573 -0.16576289558797 0 -0.043082835280264513 -0.16273198714090131 0 -0.030812773380997749 -0.1611123031845462 0 -0.036987896330961993 -0.15778996798669079 0 -0.036158019950952573 -0.16576289558797 0 -0.030812773380997749 -0.1611123031845462 0 -0.031296140825860408 -0.16763774742403301 0 -0.036158019950952573 -0.16576289558797 0 -0.031296140825860408 -0.16763774742403301 0 -0.036158019950952573 -0.16576289558797 0 -0.034614323535649243 -0.17265297645036301 0 -0.029541183741271189 -0.1717417260814669 0 -0.031296140825860408 -0.16763774742403301 0 -0.034614323535649243 -0.17265297645036301 0 -0.036158019950952573 -0.16576289558797 0 -0.041654511869640941 -0.17103673211743509 0 -0.034614323535649243 -0.17265297645036301 0 -0.041654511869640941 -0.17103673211743509 0 -0.043082835280264513 -0.16273198714090131 0 -0.052873040206447862 -0.16921722372916179 0 -0.036158019950952573 -0.16576289558797 0 -0.041654511869640941 -0.17103673211743509 0 -0.043082835280264513 -0.16273198714090131 0 -0.036987896330961993 -0.15778996798669079 0 -0.043082835280264513 -0.16273198714090131 0 -0.043162211848349973 -0.15196249531459241 0 -0.043082835280264513 -0.16273198714090131 0 -0.050528373043019617 -0.15727218231735349 0 -0.043162211848349973 -0.15196249531459241 0 -0.037005781285103262 -0.18427169287991629 0 -0.034807363636254862 -0.18729200301107321 0 -0.041720086537691152 -0.18600059019803619 0 -0.03067699225934449 -0.18485364367423959 0 -0.034807363636254862 -0.18729200301107321 0 -0.032736985304919392 -0.18396722633113599 0 -0.037005781285103262 -0.18427169287991629 0 -0.034807363636254862 -0.18729200301107321 0 -0.032736985304919392 -0.18396722633113599 0 -0.037005781285103262 -0.18427169287991629 0 -0.032736985304919392 -0.18396722633113599 0 -0.035367440107092467 -0.1814044545563393 0 -0.032736985304919392 -0.18396722633113599 0 -0.035367440107092467 -0.1814044545563393 0 -0.033409175250622383 -0.17801908709344419 0 -0.037005781285103262 -0.18427169287991629 0 -0.038008715178451079 -0.17902907266176629 0 -0.041720086537691152 -0.18600059019803619 0 -0.037005781285103262 -0.18427169287991629 0 -0.035367440107092467 -0.1814044545563393 0 -0.038008715178451079 -0.17902907266176629 0 -0.041654511869640941 -0.17103673211743509 0 -0.038008715178451079 -0.17902907266176629 0 -0.034614323535649243 -0.17265297645036301 0 -0.029541183741271189 -0.1717417260814669 0 -0.032736985304919392 -0.18396722633113599 0 -0.033409175250622383 -0.17801908709344419 0 -0.038008715178451079 -0.17902907266176629 0 -0.033409175250622383 -0.17801908709344419 0 -0.034614323535649243 -0.17265297645036301 0 -0.035367440107092467 -0.1814044545563393 0 -0.038008715178451079 -0.17902907266176629 0 -0.033409175250622383 -0.17801908709344419 0 -0.029541183741271189 -0.1717417260814669 0 -0.033409175250622383 -0.17801908709344419 0 -0.034614323535649243 -0.17265297645036301 0 -0.041654511869640941 -0.17103673211743509 0 -0.038008715178451079 -0.17902907266176629 0 -0.046411251632304661 -0.17754302429297769 0 -0.038008715178451079 -0.17902907266176629 0 -0.046411251632304661 -0.17754302429297769 0 -0.041720086537691152 -0.18600059019803619 0 -0.046411251632304661 -0.17754302429297769 0 -0.041720086537691152 -0.18600059019803619 0 -0.057738853375498167 -0.18320149273389899 0 -0.041654511869640941 -0.17103673211743509 0 -0.046411251632304661 -0.17754302429297769 0 -0.052873040206447862 -0.16921722372916179 0 -0.046411251632304661 -0.17754302429297769 0 -0.057738853375498167 -0.18320149273389899 0 -0.052873040206447862 -0.16921722372916179 0 -0.057738853375498167 -0.18320149273389899 0 -0.052873040206447862 -0.16921722372916179 0 -0.068110868203381691 -0.17103611072788441 0 -0.043082835280264513 -0.16273198714090131 0 -0.050528373043019617 -0.15727218231735349 0 -0.052873040206447862 -0.16921722372916179 0 -0.052873040206447862 -0.16921722372916179 0 -0.061310116522295191 -0.15824308081351629 0 -0.068110868203381691 -0.17103611072788441 0 -0.050528373043019617 -0.15727218231735349 0 -0.052873040206447862 -0.16921722372916179 0 -0.061310116522295191 -0.15824308081351629 0 -0.061310116522295191 -0.15824308081351629 0 -0.052213661357740547 -0.144206124588596 0 -0.06563788412359052 -0.1425526683778687 0 -0.050528373043019617 -0.15727218231735349 0 -0.061310116522295191 -0.15824308081351629 0 -0.052213661357740547 -0.144206124588596 0 -0.050528373043019617 -0.15727218231735349 0 -0.052213661357740547 -0.144206124588596 0 -0.043162211848349973 -0.15196249531459241 0 -0.052213661357740547 -0.144206124588596 0 -0.055504924908303922 -0.12685960406133359 0 -0.06563788412359052 -0.1425526683778687 0 -0.052213661357740547 -0.144206124588596 0 -0.055504924908303922 -0.12685960406133359 0 -0.052213661357740547 -0.144206124588596 0 -0.055504924908303922 -0.12685960406133359 0 -0.042807111707630137 -0.13075576817730011 0 -0.052213661357740547 -0.144206124588596 0 -0.042807111707630137 -0.13075576817730011 0 -0.039024711292900617 -0.1423825726322126 0 -0.033560622473511922 -0.12405625309998081 0 -0.042807111707630137 -0.13075576817730011 0 -0.034080243665205651 -0.13394709775084551 0 -0.02810827481250908 -0.1415147540081432 0 -0.034080243665205651 -0.13394709775084551 0 -0.039024711292900617 -0.1423825726322126 0 -0.042807111707630137 -0.13075576817730011 0 -0.034080243665205651 -0.13394709775084551 0 -0.039024711292900617 -0.1423825726322126 0 -0.02810827481250908 -0.1415147540081432 0 -0.039024711292900617 -0.1423825726322126 0 -0.03125109504740816 -0.1514984677136231 0 -0.036987896330961993 -0.15778996798669079 0 -0.03125109504740816 -0.1514984677136231 0 -0.043162211848349973 -0.15196249531459241 0 -0.039024711292900617 -0.1423825726322126 0 -0.03125109504740816 -0.1514984677136231 0 -0.043162211848349973 -0.15196249531459241 0 -0.052213661357740547 -0.144206124588596 0 -0.039024711292900617 -0.1423825726322126 0 -0.043162211848349973 -0.15196249531459241 0 -0.024230883729688641 -0.24906623804860559 0 -0.02055103672003819 -0.22897629851001661 0 -0.024230883729688641 -0.24906623804860559 0 -0.02055103672003819 -0.22897629851001661 0 -0.03807963019285459 -0.24205692138918439 0 -0.010819040425910659 -0.25557293657412511 0 -0.024230883729688641 -0.24906623804860559 0 -0.02055103672003819 -0.22897629851001661 0 -0.02055103672003819 -0.22897629851001661 0 0.0030378723775897828 -0.24038974811497629 0 -0.010819040425910659 -0.25557293657412511 0 -0.02055103672003819 -0.22897629851001661 0 0.0030378723775897828 -0.24038974811497629 0 -0.010819040425910659 -0.25557293657412511 0 0.0030378723775897828 -0.24038974811497629 0 -0.0017146979285968689 -0.2201291090249857 0 -0.02055103672003819 -0.22897629851001661 0 0.0030378723775897828 -0.24038974811497629 0 -0.02055103672003819 -0.22897629851001661 0 -0.01606834915128489 -0.20450329134680489 0 -0.02898779355603593 -0.21236849270525901 0 -0.01606834915128489 -0.20450329134680489 0 -0.02309782078493702 -0.19447412876297929 0 -0.02055103672003819 -0.22897629851001661 0 -0.02898779355603593 -0.21236849270525901 0 -0.01606834915128489 -0.20450329134680489 0 -0.0017146979285968689 -0.2201291090249857 0 -0.02055103672003819 -0.22897629851001661 0 -0.01606834915128489 -0.20450329134680489 0 -0.0017146979285968689 -0.2201291090249857 0 -0.01606834915128489 -0.20450329134680489 0 0.010998487786589651 -0.2039049364373606 0 -0.01158566158253028 -0.1800302841835934 0 -0.01606834915128489 -0.20450329134680489 0 0.0037036872983158189 -0.18532614146338761 0 -0.01606834915128489 -0.20450329134680489 0 0.010998487786589651 -0.2039049364373606 0 0.0037036872983158189 -0.18532614146338761 0 -0.01158566158253028 -0.1800302841835934 0 -0.01606834915128489 -0.20450329134680489 0 -0.01158566158253028 -0.1800302841835934 0 -0.01606834915128489 -0.20450329134680489 0 -0.02309782078493702 -0.19447412876297929 0 -0.020565115449530592 -0.18468308455336799 0 -0.02309782078493702 -0.19447412876297929 0 -0.02621451560194505 -0.18875340250497419 0 -0.02898779355603593 -0.21236849270525901 0 -0.02309782078493702 -0.19447412876297929 0 -0.036553778449979382 -0.19978448459187129 0 -0.02309782078493702 -0.19447412876297929 0 -0.030518133913968098 -0.1910027530293098 0 -0.036553778449979382 -0.19978448459187129 0 -0.03067699225934449 -0.18485364367423959 0 -0.030518133913968098 -0.1910027530293098 0 -0.02621451560194505 -0.18875340250497419 0 -0.02309782078493702 -0.19447412876297929 0 -0.030518133913968098 -0.1910027530293098 0 -0.02621451560194505 -0.18875340250497419 0 -0.036923161079126167 -0.19178154082917681 0 -0.036553778449979382 -0.19978448459187129 0 -0.041355333480525433 -0.19355839722338389 0 -0.030518133913968098 -0.1910027530293098 0 -0.036923161079126167 -0.19178154082917681 0 -0.036553778449979382 -0.19978448459187129 0 -0.034807363636254862 -0.18729200301107321 0 -0.041720086537691152 -0.18600059019803619 0 -0.036923161079126167 -0.19178154082917681 0 -0.034807363636254862 -0.18729200301107321 0 -0.030518133913968098 -0.1910027530293098 0 -0.036923161079126167 -0.19178154082917681 0 -0.03067699225934449 -0.18485364367423959 0 -0.034807363636254862 -0.18729200301107321 0 -0.030518133913968098 -0.1910027530293098 0 -0.036553778449979382 -0.19978448459187129 0 -0.041355333480525433 -0.19355839722338389 0 -0.050224307855305003 -0.1966669732744514 0 -0.041720086537691152 -0.18600059019803619 0 -0.041355333480525433 -0.19355839722338389 0 -0.050224307855305003 -0.1966669732744514 0 -0.041720086537691152 -0.18600059019803619 0 -0.036923161079126167 -0.19178154082917681 0 -0.041355333480525433 -0.19355839722338389 0 -0.041720086537691152 -0.18600059019803619 0 -0.057738853375498167 -0.18320149273389899 0 -0.050224307855305003 -0.1966669732744514 0 -0.057738853375498167 -0.18320149273389899 0 -0.050224307855305003 -0.1966669732744514 0 -0.069105178102381121 -0.20548346789687791 0 -0.050224307855305003 -0.1966669732744514 0 -0.044828107411209593 -0.21722988320344711 0 -0.069105178102381121 -0.20548346789687791 0 -0.044828107411209593 -0.21722988320344711 0 -0.069105178102381121 -0.20548346789687791 0 -0.02898779355603593 -0.21236849270525901 0 -0.036553778449979382 -0.19978448459187129 0 -0.044828107411209593 -0.21722988320344711 0 -0.036553778449979382 -0.19978448459187129 0 -0.050224307855305003 -0.1966669732744514 0 -0.044828107411209593 -0.21722988320344711 0 -0.044828107411209593 -0.21722988320344711 0 -0.056830740504242742 -0.24007254315402429 0 -0.0769248451276663 -0.23030150412477651 0 -0.044828107411209593 -0.21722988320344711 0 -0.056830740504242742 -0.24007254315402429 0 -0.03807963019285459 -0.24205692138918439 0 -0.02055103672003819 -0.22897629851001661 0 -0.02898779355603593 -0.21236849270525901 0 -0.044828107411209593 -0.21722988320344711 0 -0.02055103672003819 -0.22897629851001661 0 -0.044828107411209593 -0.21722988320344711 0 -0.03807963019285459 -0.24205692138918439 0 -0.02055103672003819 -0.22897629851001661 0 -0.044828107411209593 -0.21722988320344711 0 -0.047599741957801339 -0.25941783140469582 0 -0.056830740504242742 -0.24007254315402429 0 -0.03807963019285459 -0.24205692138918439 0 -0.03444644217127648 -0.25622442691896169 0 -0.024230883729688641 -0.24906623804860559 0 -0.03807963019285459 -0.24205692138918439 0 -0.091748393042932544 -0.24861226008115139 0 -0.0769248451276663 -0.23030150412477651 0 -0.1033133534484633 -0.2370856768048234 0 -0.091748393042932544 -0.24861226008115139 0 -0.075066728641418501 -0.24741653209891179 0 -0.0769248451276663 -0.23030150412477651 0 -0.056830740504242742 -0.24007254315402429 0 -0.075066728641418501 -0.24741653209891179 0 -0.0769248451276663 -0.23030150412477651 0 -0.064922654965187232 -0.26030735454800252 0 -0.056830740504242742 -0.24007254315402429 0 -0.075066728641418501 -0.24741653209891179 0 -0.0769248451276663 -0.23030150412477651 0 -0.097581414743016306 -0.2162101656342002 0 -0.1033133534484633 -0.2370856768048234 0 -0.044828107411209593 -0.21722988320344711 0 -0.0769248451276663 -0.23030150412477651 0 -0.069105178102381121 -0.20548346789687791 0 -0.069105178102381121 -0.20548346789687791 0 -0.093382248793552641 -0.19373705259030879 0 -0.097581414743016306 -0.2162101656342002 0 -0.0769248451276663 -0.23030150412477651 0 -0.069105178102381121 -0.20548346789687791 0 -0.097581414743016306 -0.2162101656342002 0 -0.057738853375498167 -0.18320149273389899 0 -0.069105178102381121 -0.20548346789687791 0 -0.075640139055045241 -0.1870665395123019 0 -0.069105178102381121 -0.20548346789687791 0 -0.093382248793552641 -0.19373705259030879 0 -0.075640139055045241 -0.1870665395123019 0 -0.069105178102381121 -0.20548346789687791 0 -0.093382248793552641 -0.19373705259030879 0 -0.093382248793552641 -0.19373705259030879 0 -0.1097802578273636 -0.2002211572598353 0 -0.1101503361381069 -0.1783824405548832 0 -0.124493035267251 -0.19143418698341591 0 -0.1097802578273636 -0.2002211572598353 0 -0.1101503361381069 -0.1783824405548832 0 -0.124493035267251 -0.19143418698341591 0 -0.1097802578273636 -0.2002211572598353 0 -0.12232531932628379 -0.21360902552232319 0 -0.1097802578273636 -0.2002211572598353 0 -0.12232531932628379 -0.21360902552232319 0 -0.097581414743016306 -0.2162101656342002 0 -0.12232531932628379 -0.21360902552232319 0 -0.097581414743016306 -0.2162101656342002 0 -0.1120109628118687 -0.22599234186168449 0 -0.093382248793552641 -0.19373705259030879 0 -0.1097802578273636 -0.2002211572598353 0 -0.097581414743016306 -0.2162101656342002 0 -0.097581414743016306 -0.2162101656342002 0 -0.1120109628118687 -0.22599234186168449 0 -0.1033133534484633 -0.2370856768048234 0 -0.12232531932628379 -0.21360902552232319 0 -0.1120109628118687 -0.22599234186168449 0 -0.1241812669046308 -0.23345839604857391 0 -0.1120109628118687 -0.22599234186168449 0 -0.1241812669046308 -0.23345839604857391 0 -0.1033133534484633 -0.2370856768048234 0 -0.1241812669046308 -0.23345839604857391 0 -0.11835882043479951 -0.24860760241583349 0 -0.1033133534484633 -0.2370856768048234 0 -0.10405054464961171 -0.259602327016632 0 -0.091748393042932544 -0.24861226008115139 0 -0.1033133534484633 -0.2370856768048234 0 -0.10405054464961171 -0.259602327016632 0 -0.11835882043479951 -0.24860760241583349 0 -0.1033133534484633 -0.2370856768048234 0 -0.079733277890887938 -0.14373916771173181 0 -0.090262699144125227 -0.14897812776713509 0 -0.089200311079580069 -0.13193782222381181 0 -0.079733277890887938 -0.14373916771173181 0 -0.090262699144125227 -0.14897812776713509 0 -0.075320386694660735 -0.1567425806205171 0 -0.081208194369374723 -0.11979059602120511 0 -0.089200311079580069 -0.13193782222381181 0 -0.103620200279883 -0.1300681085083388 0 -0.089200311079580069 -0.13193782222381181 0 -0.080388249440251594 -0.12776675217401481 0 -0.076341079107823603 -0.13320625721898549 0 -0.081208194369374723 -0.11979059602120511 0 -0.089200311079580069 -0.13193782222381181 0 -0.080388249440251594 -0.12776675217401481 0 -0.079733277890887938 -0.14373916771173181 0 -0.089200311079580069 -0.13193782222381181 0 -0.076341079107823603 -0.13320625721898549 0 -0.055504924908303922 -0.12685960406133359 0 -0.067717629986607825 -0.12956682110039541 0 -0.06563788412359052 -0.1425526683778687 0 -0.079733277890887938 -0.14373916771173181 0 -0.076341079107823603 -0.13320625721898549 0 -0.06563788412359052 -0.1425526683778687 0 -0.076341079107823603 -0.13320625721898549 0 -0.074803413204227995 -0.12613233323205669 0 -0.067717629986607825 -0.12956682110039541 0 -0.080388249440251594 -0.12776675217401481 0 -0.076341079107823603 -0.13320625721898549 0 -0.074803413204227995 -0.12613233323205669 0 -0.067451631278283977 -0.121002024074214 0 -0.055504924908303922 -0.12685960406133359 0 -0.067717629986607825 -0.12956682110039541 0 -0.067451631278283977 -0.121002024074214 0 -0.074803413204227995 -0.12613233323205669 0 -0.067717629986607825 -0.12956682110039541 0 -0.076341079107823603 -0.13320625721898549 0 -0.067717629986607825 -0.12956682110039541 0 -0.06563788412359052 -0.1425526683778687 0 -0.061310116522295191 -0.15824308081351629 0 -0.06563788412359052 -0.1425526683778687 0 -0.075320386694660735 -0.1567425806205171 0 -0.079733277890887938 -0.14373916771173181 0 -0.06563788412359052 -0.1425526683778687 0 -0.075320386694660735 -0.1567425806205171 0 -0.068110868203381691 -0.17103611072788441 0 -0.075320386694660735 -0.1567425806205171 0 -0.085782673366343015 -0.17174574695791081 0 -0.061310116522295191 -0.15824308081351629 0 -0.068110868203381691 -0.17103611072788441 0 -0.075320386694660735 -0.1567425806205171 0 -0.068110868203381691 -0.17103611072788441 0 -0.075640139055045241 -0.1870665395123019 0 -0.085782673366343015 -0.17174574695791081 0 -0.057738853375498167 -0.18320149273389899 0 -0.068110868203381691 -0.17103611072788441 0 -0.075640139055045241 -0.1870665395123019 0 -0.093382248793552641 -0.19373705259030879 0 -0.075640139055045241 -0.1870665395123019 0 -0.085782673366343015 -0.17174574695791081 0 -0.090262699144125227 -0.14897812776713509 0 -0.075320386694660735 -0.1567425806205171 0 -0.085782673366343015 -0.17174574695791081 0 -0.085782673366343015 -0.17174574695791081 0 -0.1101503361381069 -0.1783824405548832 0 -0.1059074397783676 -0.156045683976688 0 -0.090262699144125227 -0.14897812776713509 0 -0.085782673366343015 -0.17174574695791081 0 -0.1059074397783676 -0.156045683976688 0 -0.085782673366343015 -0.17174574695791081 0 -0.1059074397783676 -0.156045683976688 0 -0.093382248793552641 -0.19373705259030879 0 -0.085782673366343015 -0.17174574695791081 0 -0.1101503361381069 -0.1783824405548832 0 -0.1101503361381069 -0.1783824405548832 0 -0.13046311922212989 -0.161714555094575 0 -0.12684585429501419 -0.17749342082597719 0 -0.124493035267251 -0.19143418698341591 0 -0.1101503361381069 -0.1783824405548832 0 -0.12684585429501419 -0.17749342082597719 0 -0.1101503361381069 -0.1783824405548832 0 -0.1059074397783676 -0.156045683976688 0 -0.13046311922212989 -0.161714555094575 0 -0.1059074397783676 -0.156045683976688 0 -0.12603220619039371 -0.14034562099546721 0 -0.1059074397783676 -0.156045683976688 0 -0.12603220619039371 -0.14034562099546721 0 -0.13046311922212989 -0.161714555094575 0 -0.1059074397783676 -0.156045683976688 0 -0.103620200279883 -0.1300681085083388 0 -0.12603220619039371 -0.14034562099546721 0 -0.090262699144125227 -0.14897812776713509 0 -0.1059074397783676 -0.156045683976688 0 -0.103620200279883 -0.1300681085083388 0 -0.090262699144125227 -0.14897812776713509 0 -0.089200311079580069 -0.13193782222381181 0 -0.103620200279883 -0.1300681085083388 0 -0.103620200279883 -0.1300681085083388 0 -0.11731480522525881 -0.12575735360650811 0 -0.12603220619039371 -0.14034562099546721 0 -0.103620200279883 -0.1300681085083388 0 -0.12603220619039371 -0.14034562099546721 0 -0.11731480522525881 -0.12575735360650811 0 -0.1271445290896307 -0.12739656560378079 0 -0.12603220619039371 -0.14034562099546721 0 -0.12603220619039371 -0.14034562099546721 0 -0.14138014932488849 -0.12837213176779161 0 -0.1490289608889919 -0.1508912827502556 0 -0.1271445290896307 -0.12739656560378079 0 -0.12603220619039371 -0.14034562099546721 0 -0.14138014932488849 -0.12837213176779161 0 -0.12603220619039371 -0.14034562099546721 0 -0.14138014932488849 -0.12837213176779161 0 -0.1271445290896307 -0.12739656560378079 0 -0.14138014932488849 -0.12837213176779161 0 -0.1341359262092654 -0.12004944849727971 0 -0.14138014932488849 -0.12837213176779161 0 -0.1490289608889919 -0.1508912827502556 0 -0.16168141400342889 -0.1355571512817336 0 -0.14138014932488849 -0.12837213176779161 0 -0.16168141400342889 -0.1355571512817336 0 -0.15672809245938549 -0.11639864254011879 0 -0.12603220619039371 -0.14034562099546721 0 -0.1490289608889919 -0.1508912827502556 0 -0.13046311922212989 -0.161714555094575 0 -0.12603220619039371 -0.14034562099546721 0 -0.1490289608889919 -0.1508912827502556 0 -0.13046311922212989 -0.161714555094575 0 -0.12684585429501419 -0.17749342082597719 0 -0.14310821357951711 -0.1772301844679969 0 -0.124493035267251 -0.19143418698341591 0 -0.12684585429501419 -0.17749342082597719 0 -0.14310821357951711 -0.1772301844679969 0 -0.14310821357951711 -0.1772301844679969 0 -0.14939166292459199 -0.16512631635638711 0 -0.15833536727437841 -0.17428010637395011 0 -0.14310821357951711 -0.1772301844679969 0 -0.15833536727437841 -0.17428010637395011 0 -0.15550771232351671 -0.1875740172052846 0 -0.13046311922212989 -0.161714555094575 0 -0.14310821357951711 -0.1772301844679969 0 -0.14939166292459199 -0.16512631635638711 0 -0.1490289608889919 -0.1508912827502556 0 -0.13046311922212989 -0.161714555094575 0 -0.14939166292459199 -0.16512631635638711 0 -0.1490289608889919 -0.1508912827502556 0 -0.14939166292459199 -0.16512631635638711 0 -0.16362896216236389 -0.16157150347773999 0 -0.1490289608889919 -0.1508912827502556 0 -0.16362896216236389 -0.16157150347773999 0 -0.17202571558759161 -0.16143694450504051 0 -0.16362896216236389 -0.16157150347773999 0 -0.1679644137654574 -0.1700579758002625 0 -0.15833536727437841 -0.17428010637395011 0 -0.14939166292459199 -0.16512631635638711 0 -0.16362896216236389 -0.16157150347773999 0 -0.15833536727437841 -0.17428010637395011 0 -0.16362896216236389 -0.16157150347773999 0 -0.1679644137654574 -0.1700579758002625 0 -0.17202571558759161 -0.16143694450504051 0 -0.16362896216236389 -0.16157150347773999 0 -0.17202571558759161 -0.16143694450504051 0 -0.15833536727437841 -0.17428010637395011 0 -0.1704112388908231 -0.18412064093602951 0 -0.15550771232351671 -0.1875740172052846 0 -0.1679644137654574 -0.1700579758002625 0 -0.15833536727437841 -0.17428010637395011 0 -0.1704112388908231 -0.18412064093602951 0 -0.1704112388908231 -0.18412064093602951 0 -0.18263327190163611 -0.16630127003265319 0 -0.1704112388908231 -0.18412064093602951 0 -0.18263327190163611 -0.16630127003265319 0 -0.18851983146028151 -0.18666736504061479 0 -0.1679644137654574 -0.1700579758002625 0 -0.1704112388908231 -0.18412064093602951 0 -0.18263327190163611 -0.16630127003265319 0 -0.17202571558759161 -0.16143694450504051 0 -0.18612460441246079 -0.1612110081341194 0 -0.17202571558759161 -0.16143694450504051 0 -0.18263327190163611 -0.16630127003265319 0 -0.1679644137654574 -0.1700579758002625 0 -0.17202571558759161 -0.16143694450504051 0 -0.18263327190163611 -0.16630127003265319 0 -0.17202571558759161 -0.16143694450504051 0 -0.18263327190163611 -0.16630127003265319 0 -0.18612460441246079 -0.1612110081341194 0 -0.18263327190163611 -0.16630127003265319 0 -0.18612460441246079 -0.1612110081341194 0 -0.17202571558759161 -0.16143694450504051 0 -0.18612460441246079 -0.1612110081341194 0 -0.17825225161070971 -0.1453006527599946 0 -0.18612460441246079 -0.1612110081341194 0 -0.17825225161070971 -0.1453006527599946 0 -0.19669962209411809 -0.14579293798060339 0 -0.17825225161070971 -0.1453006527599946 0 -0.19669962209411809 -0.14579293798060339 0 -0.18200136611758011 -0.12338675518360349 0 -0.17825225161070971 -0.1453006527599946 0 -0.16168141400342889 -0.1355571512817336 0 -0.18200136611758011 -0.12338675518360349 0 -0.16168141400342889 -0.1355571512817336 0 -0.18200136611758011 -0.12338675518360349 0 -0.15672809245938549 -0.11639864254011879 0 -0.17825225161070971 -0.1453006527599946 0 -0.16168141400342889 -0.1355571512817336 0 -0.16524708552268069 -0.1482965078242556 0 -0.17202571558759161 -0.16143694450504051 0 -0.17825225161070971 -0.1453006527599946 0 -0.16524708552268069 -0.1482965078242556 0 -0.1490289608889919 -0.1508912827502556 0 -0.16168141400342889 -0.1355571512817336 0 -0.16524708552268069 -0.1482965078242556 0 -0.1490289608889919 -0.1508912827502556 0 -0.17202571558759161 -0.16143694450504051 0 -0.1490289608889919 -0.1508912827502556 0 -0.17202571558759161 -0.16143694450504051 0 -0.16524708552268069 -0.1482965078242556 0 -0.15417977530362681 -0.25762297062000938 0 -0.1517762630223069 -0.24017059545733349 0 -0.1379647103721692 -0.25019231396180308 0 -0.15417977530362681 -0.25762297062000938 0 -0.1517762630223069 -0.24017059545733349 0 -0.1379647103721692 -0.25019231396180308 0 -0.1517762630223069 -0.24017059545733349 0 -0.14237116976778511 -0.2325741579138671 0 -0.1379647103721692 -0.25019231396180308 0 -0.1241812669046308 -0.23345839604857391 0 -0.14237116976778511 -0.2325741579138671 0 -0.1379647103721692 -0.25019231396180308 0 -0.1241812669046308 -0.23345839604857391 0 -0.11835882043479951 -0.24860760241583349 0 -0.12232531932628379 -0.21360902552232319 0 -0.1241812669046308 -0.23345839604857391 0 -0.13608599573529909 -0.22207375090921691 0 -0.1241812669046308 -0.23345839604857391 0 -0.13608599573529909 -0.22207375090921691 0 -0.14237116976778511 -0.2325741579138671 0 -0.1517762630223069 -0.24017059545733349 0 -0.1493727507409863 -0.22271822029465779 0 -0.1517762630223069 -0.24017059545733349 0 -0.14237116976778511 -0.2325741579138671 0 -0.1493727507409863 -0.22271822029465779 0 -0.13608599573529909 -0.22207375090921691 0 -0.1493727507409863 -0.22271822029465779 0 -0.14123758932919919 -0.21621551241605291 0 -0.13608599573529909 -0.22207375090921691 0 -0.14237116976778511 -0.2325741579138671 0 -0.1493727507409863 -0.22271822029465779 0 -0.1493727507409863 -0.22271822029465779 0 -0.15483213868889789 -0.2173365831426384 0 -0.16322952636983759 -0.21927101595854581 0 -0.1493727507409863 -0.22271822029465779 0 -0.14624048216025209 -0.19997420238132729 0 -0.1493727507409863 -0.22271822029465779 0 -0.1435186221564102 -0.20926317919182541 0 -0.14624048216025209 -0.19997420238132729 0 -0.1493727507409863 -0.22271822029465779 0 -0.1534713900251185 -0.21041791082465841 0 -0.14624048216025209 -0.19997420238132729 0 -0.1493727507409863 -0.22271822029465779 0 -0.15483213868889789 -0.2173365831426384 0 -0.1534713900251185 -0.21041791082465841 0 -0.15483213868889789 -0.2173365831426384 0 -0.1534713900251185 -0.21041791082465841 0 -0.15986852667169019 -0.21177206244766181 0 -0.1534713900251185 -0.21041791082465841 0 -0.14624048216025209 -0.19997420238132729 0 -0.15818920588001459 -0.20194001183940899 0 -0.1435186221564102 -0.20926317919182541 0 -0.13496471143382119 -0.2013531859249385 0 -0.14624048216025209 -0.19997420238132729 0 -0.1493727507409863 -0.22271822029465779 0 -0.1435186221564102 -0.20926317919182541 0 -0.14123758932919919 -0.21621551241605291 0 -0.13608599573529909 -0.22207375090921691 0 -0.14123758932919919 -0.21621551241605291 0 -0.13637293134731959 -0.21236981265141899 0 -0.1435186221564102 -0.20926317919182541 0 -0.14123758932919919 -0.21621551241605291 0 -0.13637293134731959 -0.21236981265141899 0 -0.12232531932628379 -0.21360902552232319 0 -0.13608599573529909 -0.22207375090921691 0 -0.13637293134731959 -0.21236981265141899 0 -0.12232531932628379 -0.21360902552232319 0 -0.13637293134731959 -0.21236981265141899 0 -0.13496471143382119 -0.2013531859249385 0 -0.1435186221564102 -0.20926317919182541 0 -0.13637293134731959 -0.21236981265141899 0 -0.13496471143382119 -0.2013531859249385 0 -0.124493035267251 -0.19143418698341591 0 -0.12232531932628379 -0.21360902552232319 0 -0.13496471143382119 -0.2013531859249385 0 -0.124493035267251 -0.19143418698341591 0 -0.14310821357951711 -0.1772301844679969 0 -0.13496471143382119 -0.2013531859249385 0 -0.14310821357951711 -0.1772301844679969 0 -0.14624048216025209 -0.19997420238132729 0 -0.15550771232351671 -0.1875740172052846 0 -0.14310821357951711 -0.1772301844679969 0 -0.13496471143382119 -0.2013531859249385 0 -0.14624048216025209 -0.19997420238132729 0 -0.14310821357951711 -0.1772301844679969 0 -0.14624048216025209 -0.19997420238132729 0 -0.14624048216025209 -0.19997420238132729 0 -0.15550771232351671 -0.1875740172052846 0 -0.15818920588001459 -0.20194001183940899 0 -0.1704112388908231 -0.18412064093602951 0 -0.15550771232351671 -0.1875740172052846 0 -0.15818920588001459 -0.20194001183940899 0 -0.1704112388908231 -0.18412064093602951 0 -0.15818920588001459 -0.20194001183940899 0 -0.1765049559477771 -0.20125761355503219 0 -0.1704112388908231 -0.18412064093602951 0 -0.15818920588001459 -0.20194001183940899 0 -0.1765049559477771 -0.20125761355503219 0 -0.19381662393359339 -0.20078250842165629 0 -0.18851983146028151 -0.18666736504061479 0 -0.1704112388908231 -0.18412064093602951 0 -0.1765049559477771 -0.20125761355503219 0 -0.18851983146028151 -0.18666736504061479 0 -0.1765049559477771 -0.20125761355503219 0 -0.1681922242266832 -0.2102603496974359 0 -0.1763137950581814 -0.21881572896354681 0 -0.1765049559477771 -0.20125761355503219 0 -0.1763137950581814 -0.21881572896354681 0 -0.19223796268902779 -0.21626073099067691 0 -0.15818920588001459 -0.20194001183940899 0 -0.1765049559477771 -0.20125761355503219 0 -0.1681922242266832 -0.2102603496974359 0 -0.1681922242266832 -0.2102603496974359 0 -0.16322952636983759 -0.21927101595854581 0 -0.1763137950581814 -0.21881572896354681 0 -0.1534713900251185 -0.21041791082465841 0 -0.15818920588001459 -0.20194001183940899 0 -0.15986852667169019 -0.21177206244766181 0 -0.15818920588001459 -0.20194001183940899 0 -0.1681922242266832 -0.2102603496974359 0 -0.15986852667169019 -0.21177206244766181 0 -0.1681922242266832 -0.2102603496974359 0 -0.15986852667169019 -0.21177206244766181 0 -0.16322952636983759 -0.21927101595854581 0 -0.15483213868889789 -0.2173365831426384 0 -0.15986852667169019 -0.21177206244766181 0 -0.16322952636983759 -0.21927101595854581 0 -0.1493727507409863 -0.22271822029465779 0 -0.17051572868093681 -0.23674023641211461 0 -0.1517762630223069 -0.24017059545733349 0 -0.1493727507409863 -0.22271822029465779 0 -0.17051572868093681 -0.23674023641211461 0 -0.1493727507409863 -0.22271822029465779 0 -0.16322952636983759 -0.21927101595854581 0 -0.17051572868093681 -0.23674023641211461 0 -0.16322952636983759 -0.21927101595854581 0 -0.1763137950581814 -0.21881572896354681 0 -0.17051572868093681 -0.23674023641211461 0 -0.1763137950581814 -0.21881572896354681 0 -0.17051572868093681 -0.23674023641211461 0 -0.1763137950581814 -0.21881572896354681 0 -0.17051572868093681 -0.23674023641211461 0 -0.18951945581764859 -0.23073496260592319 0 -0.1763137950581814 -0.21881572896354681 0 -0.18951945581764859 -0.23073496260592319 0 -0.19223796268902779 -0.21626073099067691 0 -0.19054851346876919 -0.25002597279089323 0 -0.17051572868093681 -0.23674023641211461 0 -0.18951945581764859 -0.23073496260592319 0 -0.19054851346876919 -0.25002597279089323 0 -0.17051572868093681 -0.23674023641211461 0 -0.19054851346876919 -0.25002597279089323 0 -0.1790110501740719 -0.26122880973077051 0 -0.17051572868093681 -0.23674023641211461 0 -0.16297189440145399 -0.26006172066832911 0 -0.17051572868093681 -0.23674023641211461 0 -0.16297189440145399 -0.26006172066832911 0 -0.1517762630223069 -0.24017059545733349 0 -0.17051572868093681 -0.23674023641211461 0 -0.2201308960737243 -0.2501138638709765 0 -0.21592604013177041 -0.24798517953124349 0 -0.21871221090528681 -0.24219291645057001 0 -0.21233791331938501 -0.25133786795721558 0 -0.2124578030627623 -0.24350258017701981 0 -0.21592604013177041 -0.24798517953124349 0 -0.2124578030627623 -0.24350258017701981 0 -0.21592604013177041 -0.24798517953124349 0 -0.21871221090528681 -0.24219291645057001 0 -0.2124578030627623 -0.24350258017701981 0 -0.21871221090528681 -0.24219291645057001 0 -0.21717249654418991 -0.23325237081984929 0 -0.2124578030627623 -0.24350258017701981 0 -0.20275903678392529 -0.23750713418174921 0 -0.21717249654418991 -0.23325237081984929 0 -0.2124578030627623 -0.24350258017701981 0 -0.2053414975709994 -0.2494664977315596 0 -0.20275903678392529 -0.23750713418174921 0 -0.21233791331938501 -0.25133786795721558 0 -0.2124578030627623 -0.24350258017701981 0 -0.2053414975709994 -0.2494664977315596 0 -0.19054851346876919 -0.25002597279089323 0 -0.2053414975709994 -0.2494664977315596 0 -0.20275903678392529 -0.23750713418174921 0 -0.19054851346876919 -0.25002597279089323 0 -0.20275903678392529 -0.23750713418174921 0 -0.18951945581764859 -0.23073496260592319 0 -0.20275903678392529 -0.23750713418174921 0 -0.18951945581764859 -0.23073496260592319 0 -0.20474169822505109 -0.22505997229655869 0 -0.18951945581764859 -0.23073496260592319 0 -0.20474169822505109 -0.22505997229655869 0 -0.19223796268902779 -0.21626073099067691 0 -0.20275903678392529 -0.23750713418174921 0 -0.20474169822505109 -0.22505997229655869 0 -0.21717249654418991 -0.23325237081984929 0 -0.20474169822505109 -0.22505997229655869 0 -0.21717249654418991 -0.23325237081984929 0 -0.2194456258113571 -0.21835581837047491 0 -0.21819326775688619 -0.2041814010597108 0 -0.206118997242036 -0.20969309896536331 0 -0.2194456258113571 -0.21835581837047491 0 -0.20474169822505109 -0.22505997229655869 0 -0.206118997242036 -0.20969309896536331 0 -0.2194456258113571 -0.21835581837047491 0 -0.1765049559477771 -0.20125761355503219 0 -0.19223796268902779 -0.21626073099067691 0 -0.19381662393359339 -0.20078250842165629 0 -0.20474169822505109 -0.22505997229655869 0 -0.206118997242036 -0.20969309896536331 0 -0.19223796268902779 -0.21626073099067691 0 -0.206118997242036 -0.20969309896536331 0 -0.19223796268902779 -0.21626073099067691 0 -0.19381662393359339 -0.20078250842165629 0 -0.206118997242036 -0.20969309896536331 0 -0.19381662393359339 -0.20078250842165629 0 -0.2067945249876125 -0.1927121101179381 0 -0.19381662393359339 -0.20078250842165629 0 -0.2067945249876125 -0.1927121101179381 0 -0.18851983146028151 -0.18666736504061479 0 -0.2067945249876125 -0.1927121101179381 0 -0.22512394726744731 -0.19188968343523269 0 -0.2163149142014836 -0.18174671925777461 0 -0.21819326775688619 -0.2041814010597108 0 -0.2067945249876125 -0.1927121101179381 0 -0.22512394726744731 -0.19188968343523269 0 -0.21819326775688619 -0.2041814010597108 0 -0.206118997242036 -0.20969309896536331 0 -0.2067945249876125 -0.1927121101179381 0 -0.21819326775688619 -0.2041814010597108 0 -0.22512394726744731 -0.19188968343523269 0 -0.23338660399675479 -0.20641106997354841 0 -0.22512394726744731 -0.19188968343523269 0 -0.2388493956621292 -0.19279673626995389 0 -0.23338660399675479 -0.20641106997354841 0 -0.2388493956621292 -0.19279673626995389 0 -0.2479353623451053 -0.2016099449396688 0 -0.25508499748992292 -0.18596856851653851 0 -0.2388493956621292 -0.19279673626995389 0 -0.2479353623451053 -0.2016099449396688 0 -0.23338660399675479 -0.20641106997354841 0 -0.23338788668371499 -0.21950212289962609 0 -0.25077074245064329 -0.21654178284017181 0 -0.23338660399675479 -0.20641106997354841 0 -0.23338788668371499 -0.21950212289962609 0 -0.25077074245064329 -0.21654178284017181 0 -0.2479353623451053 -0.2016099449396688 0 -0.23338660399675479 -0.20641106997354841 0 -0.25077074245064329 -0.21654178284017181 0 -0.23338660399675479 -0.20641106997354841 0 -0.2194456258113571 -0.21835581837047491 0 -0.23338788668371499 -0.21950212289962609 0 -0.21819326775688619 -0.2041814010597108 0 -0.23338660399675479 -0.20641106997354841 0 -0.2194456258113571 -0.21835581837047491 0 -0.2194456258113571 -0.21835581837047491 0 -0.22623846913499299 -0.22742165907903289 0 -0.23338788668371499 -0.21950212289962609 0 -0.21717249654418991 -0.23325237081984929 0 -0.2194456258113571 -0.21835581837047491 0 -0.22623846913499299 -0.22742165907903289 0 -0.21717249654418991 -0.23325237081984929 0 -0.22623846913499299 -0.22742165907903289 0 -0.22437879040875891 -0.23877087241937631 0 -0.22623846913499299 -0.22742165907903289 0 -0.23338788668371499 -0.21950212289962609 0 -0.23570232741202829 -0.23407744861986449 0 -0.22623846913499299 -0.22742165907903289 0 -0.23570232741202829 -0.23407744861986449 0 -0.22437879040875891 -0.23877087241937631 0 -0.23338788668371499 -0.21950212289962609 0 -0.23570232741202829 -0.23407744861986449 0 -0.25077074245064329 -0.21654178284017181 0 -0.23570232741202829 -0.23407744861986449 0 -0.24993741167882261 -0.2367248466315954 0 -0.25077074245064329 -0.21654178284017181 0 -0.23570232741202829 -0.23407744861986449 0 -0.25077074245064329 -0.21654178284017181 0 -0.23570232741202829 -0.23407744861986449 0 -0.24993741167882261 -0.2367248466315954 0 -0.23754331725094441 -0.24910643326123699 0 -0.2484888610175276 -0.25598132161872211 0 -0.24993741167882261 -0.2367248466315954 0 -0.23754331725094441 -0.24910643326123699 0 -0.22063391237341529 -0.25161311439955902 0 -0.23570232741202829 -0.23407744861986449 0 -0.22437879040875891 -0.23877087241937631 0 -0.22063391237341529 -0.25161311439955902 0 -0.23570232741202829 -0.23407744861986449 0 -0.22063391237341529 -0.25161311439955902 0 -0.23570232741202829 -0.23407744861986449 0 -0.23754331725094441 -0.24910643326123699 0 -0.21871221090528681 -0.24219291645057001 0 -0.21717249654418991 -0.23325237081984929 0 -0.22437879040875891 -0.23877087241937631 0 -0.2201308960737243 -0.2501138638709765 0 -0.21871221090528681 -0.24219291645057001 0 -0.22437879040875891 -0.23877087241937631 0 -0.2201308960737243 -0.2501138638709765 0 -0.22063391237341529 -0.25161311439955902 0 -0.22437879040875891 -0.23877087241937631 0 -0.21547631855897539 -0.14521806857734171 0 -0.19669962209411809 -0.14579293798060339 0 -0.21386747348335841 -0.1607664253563709 0 -0.21547631855897539 -0.14521806857734171 0 -0.21386747348335841 -0.1607664253563709 0 -0.225993105992077 -0.15094984422659349 0 -0.21547631855897539 -0.14521806857734171 0 -0.2072746397757749 -0.1303748678270869 0 -0.19669962209411809 -0.14579293798060339 0 -0.21547631855897539 -0.14521806857734171 0 -0.2072746397757749 -0.1303748678270869 0 -0.2330182893717182 -0.13749304039403831 0 -0.2072746397757749 -0.1303748678270869 0 -0.19669962209411809 -0.14579293798060339 0 -0.18200136611758011 -0.12338675518360349 0 -0.2072746397757749 -0.1303748678270869 0 -0.19669962209411809 -0.14579293798060339 0 -0.2072746397757749 -0.1303748678270869 0 -0.18200136611758011 -0.12338675518360349 0 -0.18612460441246079 -0.1612110081341194 0 -0.19669962209411809 -0.14579293798060339 0 -0.21386747348335841 -0.1607664253563709 0 -0.18612460441246079 -0.1612110081341194 0 -0.19669962209411809 -0.14579293798060339 0 -0.18263327190163611 -0.16630127003265319 0 -0.18612460441246079 -0.1612110081341194 0 -0.19947409305155969 -0.17402399464521431 0 -0.18612460441246079 -0.1612110081341194 0 -0.21386747348335841 -0.1607664253563709 0 -0.18612460441246079 -0.1612110081341194 0 -0.19947409305155969 -0.17402399464521431 0 -0.21386747348335841 -0.1607664253563709 0 -0.18263327190163611 -0.16630127003265319 0 -0.19947409305155969 -0.17402399464521431 0 -0.18263327190163611 -0.16630127003265319 0 -0.18851983146028151 -0.18666736504061479 0 -0.19947409305155969 -0.17402399464521431 0 -0.2067945249876125 -0.1927121101179381 0 -0.18851983146028151 -0.18666736504061479 0 -0.19947409305155969 -0.17402399464521431 0 -0.19947409305155969 -0.17402399464521431 0 -0.2163149142014836 -0.18174671925777461 0 -0.21386747348335841 -0.1607664253563709 0 -0.2067945249876125 -0.1927121101179381 0 -0.19947409305155969 -0.17402399464521431 0 -0.2163149142014836 -0.18174671925777461 0 -0.19947409305155969 -0.17402399464521431 0 -0.2163149142014836 -0.18174671925777461 0 -0.21386747348335841 -0.1607664253563709 0 -0.2338255072580363 -0.17677567239239869 0 -0.24161034255425601 -0.16032184257862331 0 -0.21386747348335841 -0.1607664253563709 0 -0.24161034255425601 -0.16032184257862331 0 -0.225993105992077 -0.15094984422659349 0 -0.21386747348335841 -0.1607664253563709 0 -0.24161034255425601 -0.16032184257862331 0 -0.2163149142014836 -0.18174671925777461 0 -0.21386747348335841 -0.1607664253563709 0 -0.2338255072580363 -0.17677567239239869 0 -0.22512394726744731 -0.19188968343523269 0 -0.2388493956621292 -0.19279673626995389 0 -0.2338255072580363 -0.17677567239239869 0 -0.22512394726744731 -0.19188968343523269 0 -0.2163149142014836 -0.18174671925777461 0 -0.2338255072580363 -0.17677567239239869 0 -0.2388493956621292 -0.19279673626995389 0 -0.2338255072580363 -0.17677567239239869 0 -0.25508499748992292 -0.18596856851653851 0 -0.2338255072580363 -0.17677567239239869 0 -0.25508499748992292 -0.18596856851653851 0 -0.25396177481208382 -0.17019558441461549 0 -0.2338255072580363 -0.17677567239239869 0 -0.24161034255425601 -0.16032184257862331 0 -0.25396177481208382 -0.17019558441461549 0 -0.2330182893717182 -0.13749304039403831 0 -0.25876193896766142 -0.14461121296098969 0 -0.24161034255425601 -0.16032184257862331 0 -0.2330182893717182 -0.13749304039403831 0 -0.25876193896766142 -0.14461121296098969 0 -0.24161034255425601 -0.16032184257862331 0 -0.225993105992077 -0.15094984422659349 0 -0.2330182893717182 -0.13749304039403831 0 -0.21547631855897539 -0.14521806857734171 0 -0.225993105992077 -0.15094984422659349 0 -0.2330182893717182 -0.13749304039403831 0 -0.2072746397757749 -0.1303748678270869 0 -0.2330182893717182 -0.13749304039403831 0 -0.2180836521900775 -0.1146156401160055 0 -0.2072746397757749 -0.1303748678270869 0 -0.2330182893717182 -0.13749304039403831 0 -0.2330182893717182 -0.13749304039403831 0 -0.25876193896766142 -0.14461121296098969 0 -0.25225956928813797 -0.126622413011758 0 -0.2330182893717182 -0.13749304039403831 0 -0.23619113048889501 -0.1190474466105724 0 -0.25225956928813797 -0.126622413011758 0 -0.23619113048889501 -0.1190474466105724 0 -0.2452555362195579 -0.11258392983501379 0 -0.25225956928813797 -0.126622413011758 0 -0.23619113048889501 -0.1190474466105724 0 -0.2452555362195579 -0.11258392983501379 0 -0.2318109351849296 -0.1075018811322889 0 -0.2398564460583473 -0.099007635711807651 0 -0.22940852063136141 -0.096542916865336406 0 -0.2492275183134364 -0.086621741948598993 0 -0.2452555362195579 -0.11258392983501379 0 -0.2398564460583473 -0.099007635711807651 0 -0.2318109351849296 -0.1075018811322889 0 -0.2318109351849296 -0.1075018811322889 0 -0.22940852063136141 -0.096542916865336406 0 -0.22247308647184549 -0.1061577218559575 0 -0.22940852063136141 -0.096542916865336406 0 -0.22247308647184549 -0.1061577218559575 0 -0.21316378750027379 -0.1062948141753018 0 -0.2398564460583473 -0.099007635711807651 0 -0.2318109351849296 -0.1075018811322889 0 -0.22940852063136141 -0.096542916865336406 0 -0.2330182893717182 -0.13749304039403831 0 -0.23619113048889501 -0.1190474466105724 0 -0.2180836521900775 -0.1146156401160055 0 -0.2318109351849296 -0.1075018811322889 0 -0.22247308647184549 -0.1061577218559575 0 -0.2180836521900775 -0.1146156401160055 0 -0.23619113048889501 -0.1190474466105724 0 -0.2318109351849296 -0.1075018811322889 0 -0.2180836521900775 -0.1146156401160055 0 -0.24776659181916391 -0.072489885990929814 0 -0.2492275183134364 -0.086621741948598993 0 -0.23312772086061731 -0.074570768335179449 0 -0.24776659181916391 -0.072489885990929814 0 -0.23312772086061731 -0.074570768335179449 0 -0.23473930425814279 -0.057106743209672399 0 -0.24776659181916391 -0.072489885990929814 0 -0.24974629169328069 -0.058718313354859948 0 -0.23473930425814279 -0.057106743209672399 0 -0.2492275183134364 -0.086621741948598993 0 -0.21972481946275271 -0.088445236837526822 0 -0.2492275183134364 -0.086621741948598993 0 -0.21972481946275271 -0.088445236837526822 0 -0.23312772086061731 -0.074570768335179449 0 -0.22940852063136141 -0.096542916865336406 0 -0.2492275183134364 -0.086621741948598993 0 -0.21972481946275271 -0.088445236837526822 0 -0.21972481946275271 -0.088445236837526822 0 -0.23312772086061731 -0.074570768335179449 0 -0.22084686391242289 -0.075830347698805339 0 -0.23312772086061731 -0.074570768335179449 0 -0.2218689657216861 -0.065739889600480772 0 -0.23473930425814279 -0.057106743209672399 0 -0.22084686391242289 -0.075830347698805339 0 -0.2218689657216861 -0.065739889600480772 0 -0.21444198265799291 -0.071754841519723389 0 -0.23312772086061731 -0.074570768335179449 0 -0.22084686391242289 -0.075830347698805339 0 -0.2218689657216861 -0.065739889600480772 0 -0.20404300533077799 -0.072694213859208406 0 -0.1992796057084322 -0.063751876405587909 0 -0.20934942283613389 -0.062234791804752762 0 -0.21444198265799291 -0.071754841519723389 0 -0.20404300533077799 -0.072694213859208406 0 -0.20934942283613389 -0.062234791804752762 0 -0.2218689657216861 -0.065739889600480772 0 -0.21444198265799291 -0.071754841519723389 0 -0.20934942283613389 -0.062234791804752762 0 -0.22084686391242289 -0.075830347698805339 0 -0.21444198265799291 -0.071754841519723389 0 -0.21211568599330571 -0.078606487657612037 0 -0.21444198265799291 -0.071754841519723389 0 -0.20404300533077799 -0.072694213859208406 0 -0.21211568599330571 -0.078606487657612037 0 -0.20404300533077799 -0.072694213859208406 0 -0.21211568599330571 -0.078606487657612037 0 -0.19962600306684261 -0.082932420646604083 0 -0.21972481946275271 -0.088445236837526822 0 -0.19022212061206889 -0.09026873172645522 0 -0.21972481946275271 -0.088445236837526822 0 -0.21211568599330571 -0.078606487657612037 0 -0.19962600306684261 -0.082932420646604083 0 -0.21972481946275271 -0.088445236837526822 0 -0.19022212061206889 -0.09026873172645522 0 -0.20041285700165329 -0.10074102849113239 0 -0.21972481946275271 -0.088445236837526822 0 -0.19022212061206889 -0.09026873172645522 0 -0.19962600306684261 -0.082932420646604083 0 -0.21972481946275271 -0.088445236837526822 0 -0.22084686391242289 -0.075830347698805339 0 -0.21211568599330571 -0.078606487657612037 0 -0.19022212061206889 -0.09026873172645522 0 -0.19027752842877829 -0.07149338193815688 0 -0.1846716761296176 -0.090611792108700628 0 -0.19022212061206889 -0.09026873172645522 0 -0.19962600306684261 -0.082932420646604083 0 -0.19027752842877829 -0.07149338193815688 0 -0.19022212061206889 -0.09026873172645522 0 -0.19962600306684261 -0.082932420646604083 0 -0.19027752842877829 -0.07149338193815688 0 -0.1992796057084322 -0.063751876405587909 0 -0.19588338072794181 -0.052374971767613993 0 -0.20404300533077799 -0.072694213859208406 0 -0.19962600306684261 -0.082932420646604083 0 -0.19027752842877829 -0.07149338193815688 0 -0.20404300533077799 -0.072694213859208406 0 -0.19027752842877829 -0.07149338193815688 0 -0.1992796057084322 -0.063751876405587909 0 -0.2180836521900775 -0.1146156401160055 0 -0.21316378750027379 -0.1062948141753018 0 -0.20058992044495219 -0.1140654932782824 0 -0.2072746397757749 -0.1303748678270869 0 -0.2180836521900775 -0.1146156401160055 0 -0.20058992044495219 -0.1140654932782824 0 -0.2072746397757749 -0.1303748678270869 0 -0.2180836521900775 -0.1146156401160055 0 -0.22940852063136141 -0.096542916865336406 0 -0.21972481946275271 -0.088445236837526822 0 -0.20041285700165329 -0.10074102849113239 0 -0.22940852063136141 -0.096542916865336406 0 -0.20041285700165329 -0.10074102849113239 0 -0.22247308647184549 -0.1061577218559575 0 -0.2180836521900775 -0.1146156401160055 0 -0.21316378750027379 -0.1062948141753018 0 -0.22940852063136141 -0.096542916865336406 0 -0.21316378750027379 -0.1062948141753018 0 -0.20041285700165329 -0.10074102849113239 0 -0.21316378750027379 -0.1062948141753018 0 -0.20041285700165329 -0.10074102849113239 0 -0.20058992044495219 -0.1140654932782824 0 -0.20041285700165329 -0.10074102849113239 0 -0.18860533423403261 -0.1107831042674866 0 -0.20058992044495219 -0.1140654932782824 0 -0.2072746397757749 -0.1303748678270869 0 -0.20058992044495219 -0.1140654932782824 0 -0.18200136611758011 -0.12338675518360349 0 -0.18860533423403261 -0.1107831042674866 0 -0.20058992044495219 -0.1140654932782824 0 -0.18200136611758011 -0.12338675518360349 0 -0.18860533423403261 -0.1107831042674866 0 -0.18200136611758011 -0.12338675518360349 0 -0.17141719337194511 -0.10493914011692811 0 -0.15672809245938549 -0.11639864254011879 0 -0.17141719337194511 -0.10493914011692811 0 -0.15338931209954229 -0.1075492910320673 0 -0.18200136611758011 -0.12338675518360349 0 -0.15672809245938549 -0.11639864254011879 0 -0.18200136611758011 -0.12338675518360349 0 -0.15672809245938549 -0.11639864254011879 0 -0.17141719337194511 -0.10493914011692811 0 -0.15672809245938549 -0.11639864254011879 0 -0.17141719337194511 -0.10493914011692811 0 -0.17141719337194511 -0.10493914011692811 0 -0.15338931209954229 -0.1075492910320673 0 -0.17141719337194511 -0.10493914011692811 0 -0.15338931209954229 -0.1075492910320673 0 -0.15279526804819221 -0.096366594526941629 0 -0.17141719337194511 -0.10493914011692811 0 -0.16261942066284821 -0.090991502447298644 0 -0.15279526804819221 -0.096366594526941629 0 -0.17141719337194511 -0.10493914011692811 0 -0.1739024861009435 -0.092847039857089031 0 -0.16261942066284821 -0.090991502447298644 0 -0.19022212061206889 -0.09026873172645522 0 -0.17141719337194511 -0.10493914011692811 0 -0.19022212061206889 -0.09026873172645522 0 -0.17141719337194511 -0.10493914011692811 0 -0.18391379036641989 -0.093196514307918379 0 -0.19022212061206889 -0.09026873172645522 0 -0.20041285700165329 -0.10074102849113239 0 -0.17141719337194511 -0.10493914011692811 0 -0.20041285700165329 -0.10074102849113239 0 -0.17141719337194511 -0.10493914011692811 0 -0.17141719337194511 -0.10493914011692811 0 -0.18391379036641989 -0.093196514307918379 0 -0.1739024861009435 -0.092847039857089031 0 -0.20041285700165329 -0.10074102849113239 0 -0.18860533423403261 -0.1107831042674866 0 -0.17141719337194511 -0.10493914011692811 0 -0.19022212061206889 -0.09026873172645522 0 -0.1846716761296176 -0.090611792108700628 0 -0.19022212061206889 -0.09026873172645522 0 -0.1846716761296176 -0.090611792108700628 0 -0.18391379036641989 -0.093196514307918379 0 -0.1846716761296176 -0.090611792108700628 0 -0.18111629557277301 -0.082677415518885064 0 -0.17910990606520821 -0.090955552499476927 0 -0.19027752842877829 -0.07149338193815688 0 -0.1846716761296176 -0.090611792108700628 0 -0.19027752842877829 -0.07149338193815688 0 -0.1846716761296176 -0.090611792108700628 0 -0.18111629557277301 -0.082677415518885064 0 -0.1846716761296176 -0.090611792108700628 0 -0.18391379036641989 -0.093196514307918379 0 -0.1846716761296176 -0.090611792108700628 0 -0.17910990606520821 -0.090955552499476927 0 -0.1846716761296176 -0.090611792108700628 0 -0.18391379036641989 -0.093196514307918379 0 -0.17910990606520821 -0.090955552499476927 0 -0.18111629557277301 -0.082677415518885064 0 -0.1724521200382961 -0.084152489913823 0 -0.17907024720196449 -0.076173861134267884 0 -0.18111629557277301 -0.082677415518885064 0 -0.1724521200382961 -0.084152489913823 0 -0.17910990606520821 -0.090955552499476927 0 -0.18391379036641989 -0.093196514307918379 0 -0.1739024861009435 -0.092847039857089031 0 -0.17910990606520821 -0.090955552499476927 0 -0.1724521200382961 -0.084152489913823 0 -0.1739024861009435 -0.092847039857089031 0 -0.17910990606520821 -0.090955552499476927 0 -0.19027752842877829 -0.07149338193815688 0 -0.17939534373980159 -0.065611514868281054 0 -0.1836546971350683 -0.059170379886323482 0 -0.19027752842877829 -0.07149338193815688 0 -0.18111629557277301 -0.082677415518885064 0 -0.17907024720196449 -0.076173861134267884 0 -0.19027752842877829 -0.07149338193815688 0 -0.17907024720196449 -0.076173861134267884 0 -0.17939534373980159 -0.065611514868281054 0 -0.17907024720196449 -0.076173861134267884 0 -0.17939534373980159 -0.065611514868281054 0 -0.1712517617053409 -0.070779118727766391 0 -0.1724521200382961 -0.084152489913823 0 -0.17907024720196449 -0.076173861134267884 0 -0.1712517617053409 -0.070779118727766391 0 -0.1712517617053409 -0.070779118727766391 0 -0.16267659980718779 -0.079165537229078806 0 -0.15866028007564201 -0.062469812213696532 0 -0.16267659980718779 -0.079165537229078806 0 -0.15195486916162421 -0.076467122011970562 0 -0.15866028007564201 -0.062469812213696532 0 -0.1724521200382961 -0.084152489913823 0 -0.1712517617053409 -0.070779118727766391 0 -0.16267659980718779 -0.079165537229078806 0 -0.1724521200382961 -0.084152489913823 0 -0.1739024861009435 -0.092847039857089031 0 -0.16261942066284821 -0.090991502447298644 0 -0.1724521200382961 -0.084152489913823 0 -0.16267659980718779 -0.079165537229078806 0 -0.16261942066284821 -0.090991502447298644 0 -0.16267659980718779 -0.079165537229078806 0 -0.16261942066284821 -0.090991502447298644 0 -0.1502479119069659 -0.08684674851518473 0 -0.16261942066284821 -0.090991502447298644 0 -0.1502479119069659 -0.08684674851518473 0 -0.15279526804819221 -0.096366594526941629 0 -0.16267659980718779 -0.079165537229078806 0 -0.1502479119069659 -0.08684674851518473 0 -0.15195486916162421 -0.076467122011970562 0 -0.1502479119069659 -0.08684674851518473 0 -0.15195486916162421 -0.076467122011970562 0 -0.13921244686573689 -0.078181369775190329 0 -0.1502479119069659 -0.08684674851518473 0 -0.14067653652405601 -0.093747000510544978 0 -0.13921244686573689 -0.078181369775190329 0 -0.1502479119069659 -0.08684674851518473 0 -0.14067653652405601 -0.093747000510544978 0 -0.15279526804819221 -0.096366594526941629 0 -0.14759910670947091 -0.066607580711758665 0 -0.13921244686573689 -0.078181369775190329 0 -0.13539883591772139 -0.062320424007520331 0 -0.15195486916162421 -0.076467122011970562 0 -0.14759910670947091 -0.066607580711758665 0 -0.15866028007564201 -0.062469812213696532 0 -0.15195486916162421 -0.076467122011970562 0 -0.14759910670947091 -0.066607580711758665 0 -0.13921244686573689 -0.078181369775190329 0 -0.1263464710666205 -0.070376330425090852 0 -0.13921244686573689 -0.078181369775190329 0 -0.13539883591772139 -0.062320424007520331 0 -0.12341172703331001 -0.059839067757549061 0 -0.1263464710666205 -0.070376330425090852 0 -0.13539883591772139 -0.062320424007520331 0 -0.12302359211449181 -0.087233410844133052 0 -0.14067653652405601 -0.093747000510544978 0 -0.13921244686573689 -0.078181369775190329 0 -0.12302359211449181 -0.087233410844133052 0 -0.1263464710666205 -0.070376330425090852 0 -0.13921244686573689 -0.078181369775190329 0 -0.12302359211449181 -0.087233410844133052 0 -0.13536143082713939 -0.1101594419472056 0 -0.12302359211449181 -0.087233410844133052 0 -0.14067653652405601 -0.093747000510544978 0 -0.13536143082713939 -0.1101594419472056 0 -0.14067653652405601 -0.093747000510544978 0 -0.13536143082713939 -0.1101594419472056 0 -0.14555563687473241 -0.1019555820041899 0 -0.12078948991564339 -0.1027831787187536 0 -0.12302359211449181 -0.087233410844133052 0 -0.13536143082713939 -0.1101594419472056 0 -0.123807084897888 -0.1198263474223524 0 -0.1341359262092654 -0.12004944849727971 0 -0.13536143082713939 -0.1101594419472056 0 -0.123807084897888 -0.1198263474223524 0 -0.1271445290896307 -0.12739656560378079 0 -0.1341359262092654 -0.12004944849727971 0 -0.1341359262092654 -0.12004944849727971 0 -0.13716113506733069 -0.11350363182906879 0 -0.14211688714543211 -0.1190972680768808 0 -0.14138014932488849 -0.12837213176779161 0 -0.1341359262092654 -0.12004944849727971 0 -0.14211688714543211 -0.1190972680768808 0 -0.1341359262092654 -0.12004944849727971 0 -0.13536143082713939 -0.1101594419472056 0 -0.13716113506733069 -0.11350363182906879 0 -0.13536143082713939 -0.1101594419472056 0 -0.13716113506733069 -0.11350363182906879 0 -0.13716113506733069 -0.11350363182906879 0 -0.1406818862529769 -0.1144092039944377 0 -0.14211688714543211 -0.1190972680768808 0 -0.13536143082713939 -0.1101594419472056 0 -0.13716113506733069 -0.11350363182906879 0 -0.1406818862529769 -0.1144092039944377 0 -0.13536143082713939 -0.1101594419472056 0 -0.1406818862529769 -0.1144092039944377 0 -0.14635547665201859 -0.11347062244422219 0 -0.13536143082713939 -0.1101594419472056 0 -0.14635547665201859 -0.11347062244422219 0 -0.15338931209954229 -0.1075492910320673 0 -0.14635547665201859 -0.11347062244422219 0 -0.14211688714543211 -0.1190972680768808 0 -0.15520177634739851 -0.1159766129659391 0 -0.1406818862529769 -0.1144092039944377 0 -0.14635547665201859 -0.11347062244422219 0 -0.14211688714543211 -0.1190972680768808 0 -0.14138014932488849 -0.12837213176779161 0 -0.14211688714543211 -0.1190972680768808 0 -0.15520177634739851 -0.1159766129659391 0 -0.14138014932488849 -0.12837213176779161 0 -0.15672809245938549 -0.11639864254011879 0 -0.14138014932488849 -0.12837213176779161 0 -0.15672809245938549 -0.11639864254011879 0 -0.15520177634739851 -0.1159766129659391 0 -0.15672809245938549 -0.11639864254011879 0 -0.15520177634739851 -0.1159766129659391 0 -0.15338931209954229 -0.1075492910320673 0 -0.14635547665201859 -0.11347062244422219 0 -0.15520177634739851 -0.1159766129659391 0 -0.15338931209954229 -0.1075492910320673 0 -0.15672809245938549 -0.11639864254011879 0 -0.15520177634739851 -0.1159766129659391 0 -0.15338931209954229 -0.1075492910320673 0 -0.15279526804819221 -0.096366594526941629 0 -0.14555563687473241 -0.1019555820041899 0 -0.13536143082713939 -0.1101594419472056 0 -0.15338931209954229 -0.1075492910320673 0 -0.14555563687473241 -0.1019555820041899 0 -0.13536143082713939 -0.1101594419472056 0 -0.15338931209954229 -0.1075492910320673 0 -0.14067653652405601 -0.093747000510544978 0 -0.15279526804819221 -0.096366594526941629 0 -0.14555563687473241 -0.1019555820041899 0 -0.14101236965317929 -0.019784646300842691 0 -0.14782587882515849 -0.03310234919047355 0 -0.1579380092009261 -0.026362825955345549 0 -0.14101236965317929 -0.019784646300842691 0 -0.15315794727226231 -0.01516064861187579 0 -0.1579380092009261 -0.026362825955345549 0 -0.14101236965317929 -0.019784646300842691 0 -0.13353039949019321 -0.033933105580531628 0 -0.14782587882515849 -0.03310234919047355 0 -0.15315794727226231 -0.01516064861187579 0 -0.1540295096882198 -0.0030124739246440132 0 -0.13862178213292189 -0.0053874776188402636 0 -0.14101236965317929 -0.019784646300842691 0 -0.15315794727226231 -0.01516064861187579 0 -0.13862178213292189 -0.0053874776188402636 0 -0.14101236965317929 -0.019784646300842691 0 -0.13090934721974889 -0.0079860053493801438 0 -0.12654774670833069 -0.016121824567551839 0 -0.13090934721974889 -0.0079860053493801438 0 -0.12654774670833069 -0.016121824567551839 0 -0.1195650939264682 0.0016894564454279679 0 -0.14101236965317929 -0.019784646300842691 0 -0.13862178213292189 -0.0053874776188402636 0 -0.13090934721974889 -0.0079860053493801438 0 -0.12879974367784419 -0.00032553470509391001 0 -0.13090934721974889 -0.0079860053493801438 0 -0.1195650939264682 0.0016894564454279679 0 -0.13862178213292189 -0.0053874776188402636 0 -0.12879974367784419 -0.00032553470509391001 0 -0.13090934721974889 -0.0079860053493801438 0 -0.14101236965317929 -0.019784646300842691 0 -0.12654774670833069 -0.016121824567551839 0 -0.13353039949019321 -0.033933105580531628 0 -0.12654774670833069 -0.016121824567551839 0 -0.13353039949019321 -0.033933105580531628 0 -0.1219845089949701 -0.028185139382169159 0 -0.12654774670833069 -0.016121824567551839 0 -0.13353039949019321 -0.033933105580531628 0 -0.1264006912276846 -0.046572554429438077 0 -0.13353039949019321 -0.033933105580531628 0 -0.14956158772777031 -0.048506693542164359 0 -0.1219845089949701 -0.028185139382169159 0 -0.1264006912276846 -0.046572554429438077 0 -0.13353039949019321 -0.033933105580531628 0 -0.12341172703331001 -0.059839067757549061 0 -0.1264006912276846 -0.046572554429438077 0 -0.13539883591772139 -0.062320424007520331 0 -0.1264006912276846 -0.046572554429438077 0 -0.14956158772777031 -0.048506693542164359 0 -0.1264006912276846 -0.046572554429438077 0 -0.13539883591772139 -0.062320424007520331 0 -0.14956158772777031 -0.048506693542164359 0 -0.14759910670947091 -0.066607580711758665 0 -0.14956158772777031 -0.048506693542164359 0 -0.15866028007564201 -0.062469812213696532 0 -0.14759910670947091 -0.066607580711758665 0 -0.13539883591772139 -0.062320424007520331 0 -0.14956158772777031 -0.048506693542164359 0 -0.13353039949019321 -0.033933105580531628 0 -0.14956158772777031 -0.048506693542164359 0 -0.14782587882515849 -0.03310234919047355 0 -0.14956158772777031 -0.048506693542164359 0 -0.14782587882515849 -0.03310234919047355 0 -0.16110171052327071 -0.037986166360132058 0 -0.14782587882515849 -0.03310234919047355 0 -0.16110171052327071 -0.037986166360132058 0 -0.1579380092009261 -0.026362825955345549 0 -0.16110171052327071 -0.037986166360132058 0 -0.17272248422785591 -0.050440832654890633 0 -0.1726044633878315 -0.02847573890430307 0 -0.14956158772777031 -0.048506693542164359 0 -0.16110171052327071 -0.037986166360132058 0 -0.17272248422785591 -0.050440832654890633 0 -0.14956158772777031 -0.048506693542164359 0 -0.17272248422785591 -0.050440832654890633 0 -0.1712517617053409 -0.070779118727766391 0 -0.15866028007564201 -0.062469812213696532 0 -0.17272248422785591 -0.050440832654890633 0 -0.14956158772777031 -0.048506693542164359 0 -0.15866028007564201 -0.062469812213696532 0 -0.17272248422785591 -0.050440832654890633 0 -0.17272248422785591 -0.050440832654890633 0 -0.1836546971350683 -0.059170379886323482 0 -0.19588338072794181 -0.052374971767613993 0 -0.17272248422785591 -0.050440832654890633 0 -0.19588338072794181 -0.052374971767613993 0 -0.17939534373980159 -0.065611514868281054 0 -0.1712517617053409 -0.070779118727766391 0 -0.17272248422785591 -0.050440832654890633 0 -0.17939534373980159 -0.065611514868281054 0 -0.17272248422785591 -0.050440832654890633 0 -0.1836546971350683 -0.059170379886323482 0 -0.17272248422785591 -0.050440832654890633 0 -0.1856276798799445 -0.035544339313579601 0 -0.1726044633878315 -0.02847573890430307 0 -0.17272248422785591 -0.050440832654890633 0 -0.1856276798799445 -0.035544339313579601 0 -0.19588338072794181 -0.052374971767613993 0 -0.1856276798799445 -0.035544339313579601 0 -0.1726044633878315 -0.02847573890430307 0 -0.17868883408983161 -0.01496464299364085 0 -0.1726044633878315 -0.02847573890430307 0 -0.16328375272781431 -0.017595266077961861 0 -0.1579380092009261 -0.026362825955345549 0 -0.1726044633878315 -0.02847573890430307 0 -0.16328375272781431 -0.017595266077961861 0 -0.17868883408983161 -0.01496464299364085 0 -0.15315794727226231 -0.01516064861187579 0 -0.16328375272781431 -0.017595266077961861 0 -0.1579380092009261 -0.026362825955345549 0 -0.16110171052327071 -0.037986166360132058 0 -0.1726044633878315 -0.02847573890430307 0 -0.1579380092009261 -0.026362825955345549 0 -0.1540295096882198 -0.0030124739246440132 0 -0.16328375272781431 -0.017595266077961861 0 -0.17868883408983161 -0.01496464299364085 0 -0.1540295096882198 -0.0030124739246440132 0 -0.16722585307904991 -0.0072875001328783287 0 -0.17868883408983161 -0.01496464299364085 0 -0.1540295096882198 -0.0030124739246440132 0 -0.17868883408983161 -0.01496464299364085 0 -0.1540295096882198 -0.0030124739246440132 0 -0.16722585307904991 -0.0072875001328783287 0 -0.16344558191277461 0.0035484352059621371 0 -0.15315794727226231 -0.01516064861187579 0 -0.1540295096882198 -0.0030124739246440132 0 -0.16328375272781431 -0.017595266077961861 0 -0.16722585307904991 -0.0072875001328783287 0 -0.17868883408983161 -0.01496464299364085 0 -0.17988368744917241 0.0041370613468190518 0 -0.17868883408983161 -0.01496464299364085 0 -0.19381119493734111 -0.0050623917465707699 0 -0.17988368744917241 0.0041370613468190518 0 -0.16722585307904991 -0.0072875001328783287 0 -0.17988368744917241 0.0041370613468190518 0 -0.19381119493734111 -0.0050623917465707699 0 -0.2033481584914445 -0.026916812062635562 0 -0.20995695174839971 -0.0043779342121352122 0 -0.1856276798799445 -0.035544339313579601 0 -0.17868883408983161 -0.01496464299364085 0 -0.2033481584914445 -0.026916812062635562 0 -0.17868883408983161 -0.01496464299364085 0 -0.19381119493734111 -0.0050623917465707699 0 -0.2033481584914445 -0.026916812062635562 0 -0.17868883408983161 -0.01496464299364085 0 -0.2033481584914445 -0.026916812062635562 0 -0.2033481584914445 -0.026916812062635562 0 -0.20995695174839971 -0.0043779342121352122 0 -0.2033481584914445 -0.026916812062635562 0 -0.22719562870682269 -0.038475482172166217 0 -0.22144564636984121 -0.019275878782270311 0 -0.2033481584914445 -0.026916812062635562 0 -0.20995695174839971 -0.0043779342121352122 0 -0.22144564636984121 -0.019275878782270311 0 -0.19381119493734111 -0.0050623917465707699 0 -0.20995695174839971 -0.0043779342121352122 0 -0.20603616115979961 0.0065395622861276646 0 -0.20995695174839971 -0.0043779342121352122 0 -0.22671750981213559 -0.0055790285182428364 0 -0.2194789456520044 0.0040362019280980842 0 -0.19027752842877829 -0.07149338193815688 0 -0.1836546971350683 -0.059170379886323482 0 -0.19588338072794181 -0.052374971767613993 0 -0.19027752842877829 -0.07149338193815688 0 -0.19588338072794181 -0.052374971767613993 0 -0.1992796057084322 -0.063751876405587909 0 -0.19588338072794181 -0.052374971767613993 0 -0.204515774506665 -0.053095852776856869 0 -0.19588338072794181 -0.052374971767613993 0 -0.204515774506665 -0.053095852776856869 0 -0.1856276798799445 -0.035544339313579601 0 -0.2033481584914445 -0.026916812062635562 0 -0.19588338072794181 -0.052374971767613993 0 -0.2033481584914445 -0.026916812062635562 0 -0.19588338072794181 -0.052374971767613993 0 -0.20998201619261611 -0.04480481827173155 0 -0.2033481584914445 -0.026916812062635562 0 -0.19588338072794181 -0.052374971767613993 0 -0.2033481584914445 -0.026916812062635562 0 -0.20998201619261611 -0.04480481827173155 0 -0.22719562870682269 -0.038475482172166217 0 -0.2033481584914445 -0.026916812062635562 0 -0.22719562870682269 -0.038475482172166217 0 -0.20998201619261611 -0.04480481827173155 0 -0.21896713853020661 -0.053160972579385103 0 -0.22719562870682269 -0.038475482172166217 0 -0.19588338072794181 -0.052374971767613993 0 -0.20998201619261611 -0.04480481827173155 0 -0.204515774506665 -0.053095852776856869 0 -0.20998201619261611 -0.04480481827173155 0 -0.204515774506665 -0.053095852776856869 0 -0.21896713853020661 -0.053160972579385103 0 -0.204515774506665 -0.053095852776856869 0 -0.20934942283613389 -0.062234791804752762 0 -0.21896713853020661 -0.053160972579385103 0 -0.2218689657216861 -0.065739889600480772 0 -0.20934942283613389 -0.062234791804752762 0 -0.21896713853020661 -0.053160972579385103 0 -0.1992796057084322 -0.063751876405587909 0 -0.204515774506665 -0.053095852776856869 0 -0.20934942283613389 -0.062234791804752762 0 -0.2218689657216861 -0.065739889600480772 0 -0.21896713853020661 -0.053160972579385103 0 -0.23473930425814279 -0.057106743209672399 0 -0.21896713853020661 -0.053160972579385103 0 -0.22719562870682269 -0.038475482172166217 0 -0.23473930425814279 -0.057106743209672399 0 -0.22719562870682269 -0.038475482172166217 0 -0.2496474270898944 -0.040950600250523807 0 -0.2405214833758077 -0.02732570693583071 0 -0.22719562870682269 -0.038475482172166217 0 -0.2496474270898944 -0.040950600250523807 0 -0.23473930425814279 -0.057106743209672399 0 -0.2496474270898944 -0.040950600250523807 0 -0.24974629169328069 -0.058718313354859948 0 -0.23473930425814279 -0.057106743209672399 0 -0.22671750981213559 -0.0055790285182428364 0 -0.23481039508262691 -0.0144055664492508 0 -0.23710760328496211 0.0027744489919406881 0 -0.20995695174839971 -0.0043779342121352122 0 -0.22671750981213559 -0.0055790285182428364 0 -0.22144564636984121 -0.019275878782270311 0 -0.22671750981213559 -0.0055790285182428364 0 -0.22144564636984121 -0.019275878782270311 0 -0.23481039508262691 -0.0144055664492508 0 -0.22144564636984121 -0.019275878782270311 0 -0.2405214833758077 -0.02732570693583071 0 -0.23481039508262691 -0.0144055664492508 0 -0.22719562870682269 -0.038475482172166217 0 -0.22144564636984121 -0.019275878782270311 0 -0.2405214833758077 -0.02732570693583071 0 -0.23481039508262691 -0.0144055664492508 0 -0.25446273014988752 -0.020291086889509129 0 -0.2496474270898944 -0.040950600250523807 0 -0.2405214833758077 -0.02732570693583071 0 -0.25446273014988752 -0.020291086889509129 0 -0.2405214833758077 -0.02732570693583071 0 -0.23481039508262691 -0.0144055664492508 0 -0.25446273014988752 -0.020291086889509129 0 -0.25446273014988752 -0.020291086889509129 0 -0.23710760328496211 0.0027744489919406881 0 -0.25480652507994328 -0.0058929960684832444 0 -0.25446273014988752 -0.020291086889509129 0 -0.23710760328496211 0.0027744489919406881 0 -0.23481039508262691 -0.0144055664492508 0 -0.25446273014988752 -0.020291086889509129 0 -0.23710760328496211 0.0027744489919406881 0 -0.25480652507994328 -0.0058929960684832444 0 -0.26976557738737422 -0.0052509948471027579 0 -0.24860392296443271 0.0047567696316496919 0 -0.26976557738737422 -0.0052509948471027579 0 -0.24860392296443271 0.0047567696316496919 0 -0.25480652507994328 -0.0058929960684832444 0 -0.25446273014988752 -0.020291086889509129 0 -0.26976557738737422 -0.0052509948471027579 0 -0.25446273014988752 -0.020291086889509129 0 -0.27530807009428548 -0.02653389080604034 0 -0.25446273014988752 -0.020291086889509129 0 -0.26990704167927881 -0.040817086181707929 0 -0.25446273014988752 -0.020291086889509129 0 -0.27530807009428548 -0.02653389080604034 0 -0.26976557738737422 -0.0052509948471027579 0 -0.25446273014988752 -0.020291086889509129 0 -0.27530807009428548 -0.02653389080604034 0 -0.26990704167927881 -0.040817086181707929 0 -0.27530807009428548 -0.02653389080604034 0 -0.26976557738737422 -0.0052509948471027579 0 -0.2909272318103156 -0.015258759325855209 0 -0.26976557738737422 -0.0052509948471027579 0 -0.2909272318103156 -0.015258759325855209 0 -0.26976557738737422 -0.0052509948471027579 0 -0.2909272318103156 -0.015258759325855209 0 -0.28527998823394418 0.0024290452339454649 0 -0.2909272318103156 -0.015258759325855209 0 -0.2972404981886525 -0.004056826750551662 0 -0.28527998823394418 0.0024290452339454649 0 -0.27530807009428548 -0.02653389080604034 0 -0.29615341003868328 -0.032776694722571748 0 -0.27530807009428548 -0.02653389080604034 0 -0.2909272318103156 -0.015258759325855209 0 -0.29615341003868328 -0.032776694722571748 0 -0.2909272318103156 -0.015258759325855209 0 -0.31208888623325698 -0.02526652380460765 0 -0.2909272318103156 -0.015258759325855209 0 -0.31208888623325698 -0.02526652380460765 0 -0.30791646430185449 -0.01218419146286169 0 -0.2909272318103156 -0.015258759325855209 0 -0.31208888623325698 -0.02526652380460765 0 -0.29615341003868328 -0.032776694722571748 0 -0.2909272318103156 -0.015258759325855209 0 -0.30791646430185449 -0.01218419146286169 0 -0.2972404981886525 -0.004056826750551662 0 -0.30791646430185449 -0.01218419146286169 0 -0.30779985458359332 -0.00074477798804285236 0 -0.31954079679743841 -0.0076154716017267782 0 -0.30791646430185449 -0.01218419146286169 0 -0.30779985458359332 -0.00074477798804285236 0 -0.2972404981886525 -0.004056826750551662 0 -0.29875357738044739 -0.054636446899380138 0 -0.31022679246225848 -0.052879124634700493 0 -0.30374843603595081 -0.040240990317882128 0 -0.29875357738044739 -0.054636446899380138 0 -0.30374843603595081 -0.040240990317882128 0 -0.28989872945126222 -0.046737091206360909 0 -0.29875357738044739 -0.054636446899380138 0 -0.30662482567332172 -0.061701758162220337 0 -0.29951014513455831 -0.066361696830501651 0 -0.30662482567332172 -0.061701758162220337 0 -0.31022679246225848 -0.052879124634700493 0 -0.31650969775973042 -0.061033851777965623 0 -0.29875357738044739 -0.054636446899380138 0 -0.30662482567332172 -0.061701758162220337 0 -0.31022679246225848 -0.052879124634700493 0 -0.31022679246225848 -0.052879124634700493 0 -0.30374843603595081 -0.040240990317882128 0 -0.31463712399241012 -0.046169232174673593 0 -0.30374843603595081 -0.040240990317882128 0 -0.31699874998308097 -0.039019498639103783 0 -0.31208888623325698 -0.02526652380460765 0 -0.29615341003868328 -0.032776694722571748 0 -0.31699874998308097 -0.039019498639103783 0 -0.29615341003868328 -0.032776694722571748 0 -0.31699874998308097 -0.039019498639103783 0 -0.30374843603595081 -0.040240990317882128 0 -0.29615341003868328 -0.032776694722571748 0 -0.31699874998308097 -0.039019498639103783 0 -0.30374843603595081 -0.040240990317882128 0 -0.31699874998308097 -0.039019498639103783 0 -0.31463712399241012 -0.046169232174673593 0 -0.30374843603595081 -0.040240990317882128 0 -0.28989872945126222 -0.046737091206360909 0 -0.29615341003868328 -0.032776694722571748 0 -0.27530807009428548 -0.02653389080604034 0 -0.29615341003868328 -0.032776694722571748 0 -0.28281681281587739 -0.036716190729170227 0 -0.28989872945126222 -0.046737091206360909 0 -0.29615341003868328 -0.032776694722571748 0 -0.28281681281587739 -0.036716190729170227 0 -0.28989872945126222 -0.046737091206360909 0 -0.28535135320867028 -0.061343085473906593 0 -0.26990704167927881 -0.040817086181707929 0 -0.29875357738044739 -0.054636446899380138 0 -0.28989872945126222 -0.046737091206360909 0 -0.28535135320867028 -0.061343085473906593 0 -0.29875357738044739 -0.054636446899380138 0 -0.28535135320867028 -0.061343085473906593 0 -0.29951014513455831 -0.066361696830501651 0 -0.28535135320867028 -0.061343085473906593 0 -0.26990704167927881 -0.040817086181707929 0 -0.26336071213902867 -0.055498260564988543 0 -0.28535135320867028 -0.061343085473906593 0 -0.26990704167927881 -0.040817086181707929 0 -0.28989872945126222 -0.046737091206360909 0 -0.28281681281587739 -0.036716190729170227 0 -0.26990704167927881 -0.040817086181707929 0 -0.27530807009428548 -0.02653389080604034 0 -0.28281681281587739 -0.036716190729170227 0 -0.26990704167927881 -0.040817086181707929 0 -0.2496474270898944 -0.040950600250523807 0 -0.25446273014988752 -0.020291086889509129 0 -0.26990704167927881 -0.040817086181707929 0 -0.2496474270898944 -0.040950600250523807 0 -0.26990704167927881 -0.040817086181707929 0 -0.26336071213902867 -0.055498260564988543 0 -0.24974629169328069 -0.058718313354859948 0 -0.26336071213902867 -0.055498260564988543 0 -0.2631049550017337 -0.071570780591685174 0 -0.2496474270898944 -0.040950600250523807 0 -0.24974629169328069 -0.058718313354859948 0 -0.26336071213902867 -0.055498260564988543 0 -0.24776659181916391 -0.072489885990929814 0 -0.24974629169328069 -0.058718313354859948 0 -0.2631049550017337 -0.071570780591685174 0 -0.24776659181916391 -0.072489885990929814 0 -0.2492275183134364 -0.086621741948598993 0 -0.2631049550017337 -0.071570780591685174 0 -0.2492275183134364 -0.086621741948598993 0 -0.2631049550017337 -0.071570780591685174 0 -0.27873021716412039 -0.08479824705967115 0 -0.2492275183134364 -0.086621741948598993 0 -0.27873021716412039 -0.08479824705967115 0 -0.2398564460583473 -0.099007635711807651 0 -0.2492275183134364 -0.086621741948598993 0 -0.26492031842556241 -0.095088483993834322 0 -0.2492275183134364 -0.086621741948598993 0 -0.27873021716412039 -0.08479824705967115 0 -0.26492031842556241 -0.095088483993834322 0 -0.27873021716412039 -0.08479824705967115 0 -0.26492031842556241 -0.095088483993834322 0 -0.29271325654032221 -0.099918895661308044 0 -0.28535135320867028 -0.061343085473906593 0 -0.26336071213902867 -0.055498260564988543 0 -0.2631049550017337 -0.071570780591685174 0 -0.28535135320867028 -0.061343085473906593 0 -0.2631049550017337 -0.071570780591685174 0 -0.27873021716412039 -0.08479824705967115 0 -0.2452555362195579 -0.11258392983501379 0 -0.26615960007747957 -0.1107402727086418 0 -0.25225956928813797 -0.126622413011758 0 -0.2398564460583473 -0.099007635711807651 0 -0.26492031842556241 -0.095088483993834322 0 -0.26615960007747957 -0.1107402727086418 0 -0.2452555362195579 -0.11258392983501379 0 -0.2398564460583473 -0.099007635711807651 0 -0.26615960007747957 -0.1107402727086418 0 -0.2398564460583473 -0.099007635711807651 0 -0.26615960007747957 -0.1107402727086418 0 -0.26492031842556241 -0.095088483993834322 0 -0.26615960007747957 -0.1107402727086418 0 -0.29271325654032221 -0.099918895661308044 0 -0.26615960007747957 -0.1107402727086418 0 -0.29246275409661188 -0.122472909705476 0 -0.27657227811760499 -0.13856860284962061 0 -0.26615960007747957 -0.1107402727086418 0 -0.29246275409661188 -0.122472909705476 0 -0.26615960007747957 -0.1107402727086418 0 -0.29246275409661188 -0.122472909705476 0 -0.29271325654032221 -0.099918895661308044 0 -0.29271325654032221 -0.099918895661308044 0 -0.31068230139107339 -0.096006941922164579 0 -0.31620862279486128 -0.1096671407073689 0 -0.29246275409661188 -0.122472909705476 0 -0.31620862279486128 -0.1096671407073689 0 -0.31876590811574418 -0.13420554670231011 0 -0.29246275409661188 -0.122472909705476 0 -0.29271325654032221 -0.099918895661308044 0 -0.31620862279486128 -0.1096671407073689 0 -0.28535135320867028 -0.061343085473906593 0 -0.30079566473806191 -0.081869084766105299 0 -0.28535135320867028 -0.061343085473906593 0 -0.30079566473806191 -0.081869084766105299 0 -0.29951014513455831 -0.066361696830501651 0 -0.28535135320867028 -0.061343085473906593 0 -0.27873021716412039 -0.08479824705967115 0 -0.30079566473806191 -0.081869084766105299 0 -0.27873021716412039 -0.08479824705967115 0 -0.29271325654032221 -0.099918895661308044 0 -0.30823291601480429 -0.082974752170743293 0 -0.27873021716412039 -0.08479824705967115 0 -0.30079566473806191 -0.081869084766105299 0 -0.30823291601480429 -0.082974752170743293 0 -0.27873021716412039 -0.08479824705967115 0 -0.30823291601480429 -0.082974752170743293 0 -0.29271325654032221 -0.099918895661308044 0 -0.31068230139107339 -0.096006941922164579 0 -0.30823291601480429 -0.082974752170743293 0 -0.30823291601480429 -0.082974752170743293 0 -0.30694274055241161 -0.078065809600521979 0 -0.31555559752129347 -0.075234141431837515 0 -0.30079566473806191 -0.081869084766105299 0 -0.30823291601480429 -0.082974752170743293 0 -0.30694274055241161 -0.078065809600521979 0 -0.3060253046722905 -0.072258108850895938 0 -0.31315427289777148 -0.06778698673373014 0 -0.31555559752129347 -0.075234141431837515 0 -0.3060253046722905 -0.072258108850895938 0 -0.30694274055241161 -0.078065809600521979 0 -0.31555559752129347 -0.075234141431837515 0 -0.30079566473806191 -0.081869084766105299 0 -0.3060253046722905 -0.072258108850895938 0 -0.29951014513455831 -0.066361696830501651 0 -0.30079566473806191 -0.081869084766105299 0 -0.3060253046722905 -0.072258108850895938 0 -0.30694274055241161 -0.078065809600521979 0 -0.30662482567332172 -0.061701758162220337 0 -0.3060253046722905 -0.072258108850895938 0 -0.29951014513455831 -0.066361696830501651 0 -0.30662482567332172 -0.061701758162220337 0 -0.3060253046722905 -0.072258108850895938 0 -0.31315427289777148 -0.06778698673373014 0 -0.30662482567332172 -0.061701758162220337 0 -0.31315427289777148 -0.06778698673373014 0 -0.31650969775973042 -0.061033851777965623 0 -0.31315427289777148 -0.06778698673373014 0 -0.32301681158549739 -0.069213464464252195 0 -0.31650969775973042 -0.061033851777965623 0 -0.32301681158549739 -0.069213464464252195 0 -0.31555559752129347 -0.075234141431837515 0 -0.33773561486548798 -0.081151257281815437 0 -0.32301681158549739 -0.069213464464252195 0 -0.32431030039541331 -0.060924950296694598 0 -0.33560193475069722 -0.059326250178006579 0 -0.32301681158549739 -0.069213464464252195 0 -0.31650969775973042 -0.061033851777965623 0 -0.32431030039541331 -0.060924950296694598 0 -0.31315427289777148 -0.06778698673373014 0 -0.32301681158549739 -0.069213464464252195 0 -0.31555559752129347 -0.075234141431837515 0 -0.30823291601480429 -0.082974752170743293 0 -0.33773561486548798 -0.081151257281815437 0 -0.30823291601480429 -0.082974752170743293 0 -0.33773561486548798 -0.081151257281815437 0 -0.32257925778573032 -0.094308932398622078 0 -0.30823291601480429 -0.082974752170743293 0 -0.31555559752129347 -0.075234141431837515 0 -0.33773561486548798 -0.081151257281815437 0 -0.31068230139107339 -0.096006941922164579 0 -0.30823291601480429 -0.082974752170743293 0 -0.32257925778573032 -0.094308932398622078 0 -0.33773561486548798 -0.081151257281815437 0 -0.3397733245341783 -0.1019946009894057 0 -0.35250337673260801 -0.094732954908098438 0 -0.33773561486548798 -0.081151257281815437 0 -0.3397733245341783 -0.1019946009894057 0 -0.33773561486548798 -0.081151257281815437 0 -0.32257925778573032 -0.094308932398622078 0 -0.3397733245341783 -0.1019946009894057 0 -0.32301681158549739 -0.069213464464252195 0 -0.33773561486548798 -0.081151257281815437 0 -0.33560193475069722 -0.059326250178006579 0 -0.33773561486548798 -0.081151257281815437 0 -0.33560193475069722 -0.059326250178006579 0 -0.33773561486548798 -0.081151257281815437 0 -0.35244732498285702 -0.065172840463567042 0 -0.33560193475069722 -0.059326250178006579 0 -0.31620862279486128 -0.1096671407073689 0 -0.33453486786086462 -0.1202047768093053 0 -0.31876590811574418 -0.13420554670231011 0 -0.31620862279486128 -0.1096671407073689 0 -0.32257925778573032 -0.094308932398622078 0 -0.3397733245341783 -0.1019946009894057 0 -0.31068230139107339 -0.096006941922164579 0 -0.31620862279486128 -0.1096671407073689 0 -0.32257925778573032 -0.094308932398622078 0 -0.31620862279486128 -0.1096671407073689 0 -0.3397733245341783 -0.1019946009894057 0 -0.33453486786086462 -0.1202047768093053 0 -0.3397733245341783 -0.1019946009894057 0 -0.33453486786086462 -0.1202047768093053 0 -0.35243412815884462 -0.1092578311274682 0 -0.33453486786086462 -0.1202047768093053 0 -0.35491780130213768 -0.1235569947363926 0 -0.35243412815884462 -0.1092578311274682 0 -0.35491780130213768 -0.1235569947363926 0 -0.35243412815884462 -0.1092578311274682 0 -0.36684727574022591 -0.115078136427362 0 -0.3397733245341783 -0.1019946009894057 0 -0.35243412815884462 -0.1092578311274682 0 -0.35250337673260801 -0.094732954908098438 0 -0.35243412815884462 -0.1092578311274682 0 -0.35250337673260801 -0.094732954908098438 0 -0.36568910444080061 -0.099752939211701377 0 -0.36568910444080061 -0.099752939211701377 0 -0.37854848298343807 -0.092143764015219051 0 -0.37990165281842692 -0.1085536339877186 0 -0.36568910444080061 -0.099752939211701377 0 -0.36684727574022591 -0.115078136427362 0 -0.37990165281842692 -0.1085536339877186 0 -0.35243412815884462 -0.1092578311274682 0 -0.36568910444080061 -0.099752939211701377 0 -0.36684727574022591 -0.115078136427362 0 -0.36684727574022591 -0.115078136427362 0 -0.3778128652086149 -0.122596574453348 0 -0.37990165281842692 -0.1085536339877186 0 -0.36684727574022591 -0.115078136427362 0 -0.36627791683563959 -0.12431823941426109 0 -0.3778128652086149 -0.122596574453348 0 -0.35491780130213768 -0.1235569947363926 0 -0.36684727574022591 -0.115078136427362 0 -0.36627791683563959 -0.12431823941426109 0 -0.33773561486548798 -0.081151257281815437 0 -0.35244732498285702 -0.065172840463567042 0 -0.36392847171929021 -0.079532336218320301 0 -0.33773561486548798 -0.081151257281815437 0 -0.36392847171929021 -0.079532336218320301 0 -0.33773561486548798 -0.081151257281815437 0 -0.35250337673260801 -0.094732954908098438 0 -0.36392847171929021 -0.079532336218320301 0 -0.35250337673260801 -0.094732954908098438 0 -0.36568910444080061 -0.099752939211701377 0 -0.36392847171929021 -0.079532336218320301 0 -0.36568910444080061 -0.099752939211701377 0 -0.36392847171929021 -0.079532336218320301 0 -0.37854848298343807 -0.092143764015219051 0 -0.35244732498285702 -0.065172840463567042 0 -0.36392847171929021 -0.079532336218320301 0 -0.37567521317190777 -0.056886012536169032 0 -0.34929539040690177 -0.048968346103523838 0 -0.35881578612406939 -0.035164558908531193 0 -0.37567521317190777 -0.056886012536169032 0 -0.35244732498285702 -0.065172840463567042 0 -0.34929539040690177 -0.048968346103523838 0 -0.33560193475069722 -0.059326250178006579 0 -0.35244732498285702 -0.065172840463567042 0 -0.34929539040690177 -0.048968346103523838 0 -0.37567521317190777 -0.056886012536169032 0 -0.35881578612406939 -0.035164558908531193 0 -0.33346825463590563 -0.037501243074197672 0 -0.35881578612406939 -0.035164558908531193 0 -0.34066049296963768 -0.023424051934678749 0 -0.33620193499666312 -0.036670060979244933 0 -0.34929539040690177 -0.048968346103523838 0 -0.35881578612406939 -0.035164558908531193 0 -0.33346825463590563 -0.037501243074197672 0 -0.35881578612406939 -0.035164558908531193 0 -0.38416331761223338 -0.032827874742866373 0 -0.37567521317190777 -0.056886012536169032 0 -0.35881578612406939 -0.035164558908531193 0 -0.38416331761223338 -0.032827874742866373 0 -0.35881578612406939 -0.035164558908531193 0 -0.37282685176606628 -0.017088311957558701 0 -0.35552907365966813 -0.015837840677683439 0 -0.35881578612406939 -0.035164558908531193 0 -0.37282685176606628 -0.017088311957558701 0 -0.38416331761223338 -0.032827874742866373 0 -0.37282685176606628 -0.017088311957558701 0 -0.37147378190201819 0.0046411454033882336 0 -0.37282685176606628 -0.017088311957558701 0 -0.36197407125321268 -0.004390766724155332 0 -0.37147378190201819 0.0046411454033882336 0 -0.37282685176606628 -0.017088311957558701 0 -0.36197407125321268 -0.004390766724155332 0 -0.35552907365966813 -0.015837840677683439 0 -0.36197407125321268 -0.004390766724155332 0 -0.34951862856677279 -0.00030642019435179948 0 -0.35552907365966813 -0.015837840677683439 0 -0.34951862856677279 -0.00030642019435179948 0 -0.35552907365966813 -0.015837840677683439 0 -0.34302814622162048 -0.01125230197909087 0 -0.34951862856677279 -0.00030642019435179948 0 -0.33881477357547979 -0.001256556137510032 0 -0.34302814622162048 -0.01125230197909087 0 -0.35881578612406939 -0.035164558908531193 0 -0.35552907365966813 -0.015837840677683439 0 -0.34066049296963768 -0.023424051934678749 0 -0.35552907365966813 -0.015837840677683439 0 -0.34066049296963768 -0.023424051934678749 0 -0.34302814622162048 -0.01125230197909087 0 -0.34066049296963768 -0.023424051934678749 0 -0.33109574697456767 -0.013233314529716369 0 -0.33325054065619758 -0.035274288283361793 0 -0.33109574697456767 -0.013233314529716369 0 -0.32208324453123088 -0.020025356420466531 0 -0.33325054065619758 -0.035274288283361793 0 -0.33109574697456767 -0.013233314529716369 0 -0.33325054065619758 -0.035274288283361793 0 -0.34066049296963768 -0.023424051934678749 0 -0.34302814622162048 -0.01125230197909087 0 -0.33109574697456767 -0.013233314529716369 0 -0.33881477357547979 -0.001256556137510032 0 -0.34302814622162048 -0.01125230197909087 0 -0.33109574697456767 -0.013233314529716369 0 -0.33109574697456767 -0.013233314529716369 0 -0.33007213335467039 -0.0027629659657771081 0 -0.33881477357547979 -0.001256556137510032 0 -0.33109574697456767 -0.013233314529716369 0 -0.33007213335467039 -0.0027629659657771081 0 -0.33007213335467039 -0.0027629659657771081 0 -0.31954079679743841 -0.0076154716017267782 0 -0.31694133288297072 0.0035041363377617449 0 -0.33109574697456767 -0.013233314529716369 0 -0.31954079679743841 -0.0076154716017267782 0 -0.32208324453123088 -0.020025356420466531 0 -0.33109574697456767 -0.013233314529716369 0 -0.33007213335467039 -0.0027629659657771081 0 -0.31954079679743841 -0.0076154716017267782 0 -0.30791646430185449 -0.01218419146286169 0 -0.31954079679743841 -0.0076154716017267782 0 -0.32208324453123088 -0.020025356420466531 0 -0.30779985458359332 -0.00074477798804285236 0 -0.31954079679743841 -0.0076154716017267782 0 -0.31694133288297072 0.0035041363377617449 0 -0.31208888623325698 -0.02526652380460765 0 -0.32208324453123088 -0.020025356420466531 0 -0.33325054065619758 -0.035274288283361793 0 -0.31208888623325698 -0.02526652380460765 0 -0.33325054065619758 -0.035274288283361793 0 -0.31208888623325698 -0.02526652380460765 0 -0.30791646430185449 -0.01218419146286169 0 -0.32208324453123088 -0.020025356420466531 0 -0.31699874998308097 -0.039019498639103783 0 -0.33346825463590563 -0.037501243074197672 0 -0.33059472909361282 -0.043091249537227358 0 -0.31208888623325698 -0.02526652380460765 0 -0.31699874998308097 -0.039019498639103783 0 -0.33325054065619758 -0.035274288283361793 0 -0.31699874998308097 -0.039019498639103783 0 -0.33346825463590563 -0.037501243074197672 0 -0.31699874998308097 -0.039019498639103783 0 -0.33325054065619758 -0.035274288283361793 0 -0.33346825463590563 -0.037501243074197672 0 -0.31699874998308097 -0.039019498639103783 0 -0.33059472909361282 -0.043091249537227358 0 -0.31699874998308097 -0.039019498639103783 0 -0.3211324145059879 -0.04572540155608236 0 -0.33059472909361282 -0.043091249537227358 0 -0.31699874998308097 -0.039019498639103783 0 -0.3211324145059879 -0.04572540155608236 0 -0.31463712399241012 -0.046169232174673593 0 -0.31022679246225848 -0.052879124634700493 0 -0.31463712399241012 -0.046169232174673593 0 -0.32107922697477198 -0.052981145725599171 0 -0.3211324145059879 -0.04572540155608236 0 -0.31463712399241012 -0.046169232174673593 0 -0.32107922697477198 -0.052981145725599171 0 -0.31022679246225848 -0.052879124634700493 0 -0.31650969775973042 -0.061033851777965623 0 -0.32107922697477198 -0.052981145725599171 0 -0.32431030039541331 -0.060924950296694598 0 -0.32107922697477198 -0.052981145725599171 0 -0.33560193475069722 -0.059326250178006579 0 -0.31650969775973042 -0.061033851777965623 0 -0.32431030039541331 -0.060924950296694598 0 -0.32107922697477198 -0.052981145725599171 0 -0.3211324145059879 -0.04572540155608236 0 -0.32107922697477198 -0.052981145725599171 0 -0.33059472909361282 -0.043091249537227358 0 -0.32107922697477198 -0.052981145725599171 0 -0.33560193475069722 -0.059326250178006579 0 -0.33059472909361282 -0.043091249537227358 0 -0.34929539040690177 -0.048968346103523838 0 -0.33560193475069722 -0.059326250178006579 0 -0.33346825463590563 -0.037501243074197672 0 -0.33560193475069722 -0.059326250178006579 0 -0.33346825463590563 -0.037501243074197672 0 -0.35881578612406939 -0.035164558908531193 0 -0.33620193499666312 -0.036670060979244933 0 -0.33346825463590563 -0.037501243074197672 0 -0.33560193475069722 -0.059326250178006579 0 -0.33346825463590563 -0.037501243074197672 0 -0.33059472909361282 -0.043091249537227358 0 -0.34066049296963768 -0.023424051934678749 0 -0.33620193499666312 -0.036670060979244933 0 -0.33325054065619758 -0.035274288283361793 0 -0.33620193499666312 -0.036670060979244933 0 -0.33325054065619758 -0.035274288283361793 0 -0.33346825463590563 -0.037501243074197672 0 -0.33620193499666312 -0.036670060979244933 0 -0.33325054065619758 -0.035274288283361793 0 -0.33325054065619758 -0.035274288283361793 0 -0.33346825463590563 -0.037501243074197672 0 -0.29674336521112071 -0.25577230774603738 0 -0.30557412098892461 -0.22894421480701829 0 -0.32099492036963639 -0.24418431014163919 0 -0.30557412098892461 -0.22894421480701829 0 -0.28501969298744662 -0.23052425034863891 0 -0.29349061158587969 -0.2092664915053454 0 -0.29674336521112071 -0.25577230774603738 0 -0.30557412098892461 -0.22894421480701829 0 -0.28501969298744662 -0.23052425034863891 0 -0.29674336521112071 -0.25577230774603738 0 -0.28501969298744662 -0.23052425034863891 0 -0.27918139424231853 -0.24793113754157431 0 -0.28501969298744662 -0.23052425034863891 0 -0.27918139424231853 -0.24793113754157431 0 -0.26394184756727629 -0.2397803109452622 0 -0.2484888610175276 -0.25598132161872211 0 -0.24993741167882261 -0.2367248466315954 0 -0.26394184756727629 -0.2397803109452622 0 -0.24993741167882261 -0.2367248466315954 0 -0.26317737437451588 -0.2248617825043151 0 -0.25077074245064329 -0.21654178284017181 0 -0.24993741167882261 -0.2367248466315954 0 -0.26394184756727629 -0.2397803109452622 0 -0.26317737437451588 -0.2248617825043151 0 -0.28501969298744662 -0.23052425034863891 0 -0.26317737437451588 -0.2248617825043151 0 -0.27213067701826149 -0.21290413717275869 0 -0.28501969298744662 -0.23052425034863891 0 -0.26394184756727629 -0.2397803109452622 0 -0.26317737437451588 -0.2248617825043151 0 -0.27213067701826149 -0.21290413717275869 0 -0.2620674375488018 -0.20339540552386051 0 -0.28127031076299458 -0.20204061163430309 0 -0.26317737437451588 -0.2248617825043151 0 -0.27213067701826149 -0.21290413717275869 0 -0.25077074245064329 -0.21654178284017181 0 -0.27213067701826149 -0.21290413717275869 0 -0.25077074245064329 -0.21654178284017181 0 -0.27213067701826149 -0.21290413717275869 0 -0.2620674375488018 -0.20339540552386051 0 -0.25077074245064329 -0.21654178284017181 0 -0.2479353623451053 -0.2016099449396688 0 -0.2620674375488018 -0.20339540552386051 0 -0.25077074245064329 -0.21654178284017181 0 -0.2620674375488018 -0.20339540552386051 0 -0.25077074245064329 -0.21654178284017181 0 -0.2479353623451053 -0.2016099449396688 0 -0.2620674375488018 -0.20339540552386051 0 -0.25508499748992292 -0.18596856851653851 0 -0.2620674375488018 -0.20339540552386051 0 -0.27336413264696052 -0.19024902820754949 0 -0.25508499748992292 -0.18596856851653851 0 -0.2620674375488018 -0.20339540552386051 0 -0.27336413264696052 -0.19024902820754949 0 -0.28127031076299458 -0.20204061163430309 0 -0.2620674375488018 -0.20339540552386051 0 -0.27336413264696052 -0.19024902820754949 0 -0.27336413264696052 -0.19024902820754949 0 -0.28127031076299458 -0.20204061163430309 0 -0.29679681512942652 -0.1856674780703777 0 -0.28127031076299458 -0.20204061163430309 0 -0.29349061158587969 -0.2092664915053454 0 -0.29679681512942652 -0.1856674780703777 0 -0.27213067701826149 -0.21290413717275869 0 -0.29349061158587969 -0.2092664915053454 0 -0.28501969298744662 -0.23052425034863891 0 -0.27213067701826149 -0.21290413717275869 0 -0.29349061158587969 -0.2092664915053454 0 -0.27213067701826149 -0.21290413717275869 0 -0.28127031076299458 -0.20204061163430309 0 -0.29349061158587969 -0.2092664915053454 0 -0.30557412098892461 -0.22894421480701829 0 -0.29349061158587969 -0.2092664915053454 0 -0.31485054615349789 -0.20562884583793209 0 -0.29349061158587969 -0.2092664915053454 0 -0.31485054615349789 -0.20562884583793209 0 -0.29349061158587969 -0.2092664915053454 0 -0.29679681512942652 -0.1856674780703777 0 -0.31485054615349789 -0.20562884583793209 0 -0.29679681512942652 -0.1856674780703777 0 -0.31776557504428499 -0.18224279786785541 0 -0.31485054615349789 -0.20562884583793209 0 -0.29679681512942652 -0.1856674780703777 0 -0.31882462815530588 -0.16130054087594081 0 -0.31776557504428499 -0.18224279786785541 0 -0.29314267066250671 -0.15894633760171639 0 -0.29679681512942652 -0.1856674780703777 0 -0.31882462815530588 -0.16130054087594081 0 -0.29314267066250671 -0.15894633760171639 0 -0.31882462815530588 -0.16130054087594081 0 -0.29314267066250671 -0.15894633760171639 0 -0.28347822876718343 -0.17537704363593951 0 -0.27060929662984012 -0.16664533066411449 0 -0.29314267066250671 -0.15894633760171639 0 -0.28347822876718343 -0.17537704363593951 0 -0.29679681512942652 -0.1856674780703777 0 -0.27336413264696052 -0.19024902820754949 0 -0.28347822876718343 -0.17537704363593951 0 -0.29679681512942652 -0.1856674780703777 0 -0.27336413264696052 -0.19024902820754949 0 -0.25508499748992292 -0.18596856851653851 0 -0.27060929662984012 -0.16664533066411449 0 -0.27336413264696052 -0.19024902820754949 0 -0.28347822876718343 -0.17537704363593951 0 -0.27060929662984012 -0.16664533066411449 0 -0.25508499748992292 -0.18596856851653851 0 -0.25396177481208382 -0.17019558441461549 0 -0.27060929662984012 -0.16664533066411449 0 -0.24161034255425601 -0.16032184257862331 0 -0.25396177481208382 -0.17019558441461549 0 -0.25876193896766142 -0.14461121296098969 0 -0.25396177481208382 -0.17019558441461549 0 -0.27060929662984012 -0.16664533066411449 0 -0.25876193896766142 -0.14461121296098969 0 -0.27060929662984012 -0.16664533066411449 0 -0.25876193896766142 -0.14461121296098969 0 -0.27657227811760499 -0.13856860284962061 0 -0.29314267066250671 -0.15894633760171639 0 -0.27060929662984012 -0.16664533066411449 0 -0.27657227811760499 -0.13856860284962061 0 -0.26615960007747957 -0.1107402727086418 0 -0.25225956928813797 -0.126622413011758 0 -0.27657227811760499 -0.13856860284962061 0 -0.25876193896766142 -0.14461121296098969 0 -0.25225956928813797 -0.126622413011758 0 -0.27657227811760499 -0.13856860284962061 0 -0.29246275409661188 -0.122472909705476 0 -0.27657227811760499 -0.13856860284962061 0 -0.30012273603383882 -0.1405731680026647 0 -0.29314267066250671 -0.15894633760171639 0 -0.27657227811760499 -0.13856860284962061 0 -0.30012273603383882 -0.1405731680026647 0 -0.29314267066250671 -0.15894633760171639 0 -0.30012273603383882 -0.1405731680026647 0 -0.31882462815530588 -0.16130054087594081 0 -0.29246275409661188 -0.122472909705476 0 -0.31876590811574418 -0.13420554670231011 0 -0.29246275409661188 -0.122472909705476 0 -0.30012273603383882 -0.1405731680026647 0 -0.31876590811574418 -0.13420554670231011 0 -0.30012273603383882 -0.1405731680026647 0 -0.31876590811574418 -0.13420554670231011 0 -0.31882462815530588 -0.16130054087594081 0 -0.31876590811574418 -0.13420554670231011 0 -0.34506906213487648 -0.1459381836991443 0 -0.31882462815530588 -0.16130054087594081 0 -0.31876590811574418 -0.13420554670231011 0 -0.34232621315124878 -0.13193727175620931 0 -0.34506906213487648 -0.1459381836991443 0 -0.31876590811574418 -0.13420554670231011 0 -0.34506906213487648 -0.1459381836991443 0 -0.33453486786086462 -0.1202047768093053 0 -0.31876590811574418 -0.13420554670231011 0 -0.34232621315124878 -0.13193727175620931 0 -0.34232621315124878 -0.13193727175620931 0 -0.36553372509158011 -0.13604125203994161 0 -0.34506906213487648 -0.1459381836991443 0 -0.35491780130213768 -0.1235569947363926 0 -0.34232621315124878 -0.13193727175620931 0 -0.36553372509158011 -0.13604125203994161 0 -0.33453486786086462 -0.1202047768093053 0 -0.35491780130213768 -0.1235569947363926 0 -0.34232621315124878 -0.13193727175620931 0 -0.35491780130213768 -0.1235569947363926 0 -0.36627791683563959 -0.12431823941426109 0 -0.36553372509158011 -0.13604125203994161 0 -0.36553372509158011 -0.13604125203994161 0 -0.37827704543822471 -0.1490468056215476 0 -0.3778128652086149 -0.122596574453348 0 -0.36627791683563959 -0.12431823941426109 0 -0.36553372509158011 -0.13604125203994161 0 -0.3778128652086149 -0.122596574453348 0 -0.360714992290738 -0.1521379865870377 0 -0.37018854314090388 -0.1660089474243896 0 -0.37827704543822471 -0.1490468056215476 0 -0.36553372509158011 -0.13604125203994161 0 -0.360714992290738 -0.1521379865870377 0 -0.37827704543822471 -0.1490468056215476 0 -0.360714992290738 -0.1521379865870377 0 -0.34506906213487648 -0.1459381836991443 0 -0.34450658564810488 -0.1636547441501652 0 -0.36553372509158011 -0.13604125203994161 0 -0.360714992290738 -0.1521379865870377 0 -0.34506906213487648 -0.1459381836991443 0 -0.360714992290738 -0.1521379865870377 0 -0.34450658564810488 -0.1636547441501652 0 -0.37018854314090388 -0.1660089474243896 0 -0.34450658564810488 -0.1636547441501652 0 -0.37018854314090388 -0.1660089474243896 0 -0.34450658564810488 -0.1636547441501652 0 -0.3580153830272082 -0.16983232594028169 0 -0.37018854314090388 -0.1660089474243896 0 -0.34450658564810488 -0.1636547441501652 0 -0.3580153830272082 -0.16983232594028169 0 -0.34531344502786149 -0.17775498511061449 0 -0.3580153830272082 -0.16983232594028169 0 -0.36651339765093371 -0.18237163983811189 0 -0.35843396365646762 -0.19557496685373721 0 -0.3580153830272082 -0.16983232594028169 0 -0.37018854314090388 -0.1660089474243896 0 -0.36651339765093371 -0.18237163983811189 0 -0.36651339765093371 -0.18237163983811189 0 -0.37920540589744428 -0.20194726795794701 0 -0.37874122566783452 -0.1754970367897474 0 -0.37018854314090388 -0.1660089474243896 0 -0.36651339765093371 -0.18237163983811189 0 -0.37874122566783452 -0.1754970367897474 0 -0.3580153830272082 -0.16983232594028169 0 -0.35843396365646762 -0.19557496685373721 0 -0.34531344502786149 -0.17775498511061449 0 -0.33359962435163282 -0.1874121476544465 0 -0.35843396365646762 -0.19557496685373721 0 -0.3580153830272082 -0.16983232594028169 0 -0.34531344502786149 -0.17775498511061449 0 -0.35843396365646762 -0.19557496685373721 0 -0.34531344502786149 -0.17775498511061449 0 -0.33359962435163282 -0.1874121476544465 0 -0.33171214323688297 -0.17434232048255549 0 -0.34450658564810488 -0.1636547441501652 0 -0.34531344502786149 -0.17775498511061449 0 -0.33171214323688297 -0.17434232048255549 0 -0.34450658564810488 -0.1636547441501652 0 -0.33171214323688297 -0.17434232048255549 0 -0.31882462815530588 -0.16130054087594081 0 -0.34506906213487648 -0.1459381836991443 0 -0.34450658564810488 -0.1636547441501652 0 -0.31882462815530588 -0.16130054087594081 0 -0.34450658564810488 -0.1636547441501652 0 -0.31882462815530588 -0.16130054087594081 0 -0.33171214323688297 -0.17434232048255549 0 -0.31882462815530588 -0.16130054087594081 0 -0.31776557504428499 -0.18224279786785541 0 -0.33359962435163282 -0.1874121476544465 0 -0.33171214323688297 -0.17434232048255549 0 -0.31776557504428499 -0.18224279786785541 0 -0.33359962435163282 -0.1874121476544465 0 -0.31776557504428499 -0.18224279786785541 0 -0.31485054615349789 -0.20562884583793209 0 -0.31485054615349789 -0.20562884583793209 0 -0.3312259775256266 -0.21560944204121449 0 -0.32242066221371068 -0.22813398249381589 0 -0.31485054615349789 -0.20562884583793209 0 -0.3312259775256266 -0.21560944204121449 0 -0.33669004584352019 -0.20271711139955809 0 -0.3312259775256266 -0.21560944204121449 0 -0.33669004584352019 -0.20271711139955809 0 -0.34462838075345043 -0.2149443373498697 0 -0.33359962435163282 -0.1874121476544465 0 -0.31485054615349789 -0.20562884583793209 0 -0.33669004584352019 -0.20271711139955809 0 -0.33359962435163282 -0.1874121476544465 0 -0.33669004584352019 -0.20271711139955809 0 -0.35843396365646762 -0.19557496685373721 0 -0.36651339765093371 -0.18237163983811189 0 -0.35843396365646762 -0.19557496685373721 0 -0.37920540589744428 -0.20194726795794701 0 -0.35843396365646762 -0.19557496685373721 0 -0.35885254428572699 -0.2213176077671927 0 -0.37920540589744428 -0.20194726795794701 0 -0.35885254428572699 -0.2213176077671927 0 -0.37966958612705398 -0.2283974991261466 0 -0.37920540589744428 -0.20194726795794701 0 -0.33669004584352019 -0.20271711139955809 0 -0.35843396365646762 -0.19557496685373721 0 -0.34462838075345043 -0.2149443373498697 0 -0.35843396365646762 -0.19557496685373721 0 -0.34462838075345043 -0.2149443373498697 0 -0.35885254428572699 -0.2213176077671927 0 -0.35843396365646762 -0.19557496685373721 0 -0.35885254428572699 -0.2213176077671927 0 -0.34462838075345043 -0.2149443373498697 0 -0.34611773090982878 -0.22929567472632381 0 -0.35885254428572699 -0.2213176077671927 0 -0.35885254428572699 -0.2213176077671927 0 -0.35927112491498542 -0.2470602486806481 0 -0.34611773090982878 -0.22929567472632381 0 -0.35885254428572699 -0.2213176077671927 0 -0.35927112491498542 -0.2470602486806481 0 -0.35885254428572699 -0.2213176077671927 0 -0.37314132044407838 -0.2417412535034765 0 -0.37966958612705398 -0.2283974991261466 0 -0.35885254428572699 -0.2213176077671927 0 -0.37314132044407838 -0.2417412535034765 0 -0.35927112491498542 -0.2470602486806481 0 -0.38013376635666379 -0.25484773029434632 0 -0.37314132044407838 -0.2417412535034765 0 -0.35927112491498542 -0.2470602486806481 0 -0.35927112491498542 -0.2470602486806481 0 -0.33957017601599992 -0.23803097313338581 0 -0.34611773090982878 -0.22929567472632381 0 -0.35927112491498542 -0.2470602486806481 0 -0.33957017601599992 -0.23803097313338581 0 -0.34376619378216883 -0.26084677116516142 0 -0.35927112491498542 -0.2470602486806481 0 -0.33957017601599992 -0.23803097313338581 0 -0.3347757626993168 -0.2358336130394261 0 -0.33957017601599992 -0.23803097313338581 0 -0.32099492036963639 -0.24418431014163919 0 -0.32297120194301748 -0.26017618522091401 0 -0.33957017601599992 -0.23803097313338581 0 -0.3347757626993168 -0.2358336130394261 0 -0.33957017601599992 -0.23803097313338581 0 -0.34611773090982878 -0.22929567472632381 0 -0.33957017601599992 -0.23803097313338581 0 -0.33645644835298882 -0.22697467046400591 0 -0.3347757626993168 -0.2358336130394261 0 -0.33957017601599992 -0.23803097313338581 0 -0.33645644835298882 -0.22697467046400591 0 -0.34611773090982878 -0.22929567472632381 0 -0.33957017601599992 -0.23803097313338581 0 -0.3312259775256266 -0.21560944204121449 0 -0.34462838075345043 -0.2149443373498697 0 -0.33645644835298882 -0.22697467046400591 0 -0.34462838075345043 -0.2149443373498697 0 -0.34611773090982878 -0.22929567472632381 0 -0.33645644835298882 -0.22697467046400591 0 -0.3312259775256266 -0.21560944204121449 0 -0.33645644835298882 -0.22697467046400591 0 -0.32242066221371068 -0.22813398249381589 0 -0.3347757626993168 -0.2358336130394261 0 -0.33645644835298882 -0.22697467046400591 0 -0.32242066221371068 -0.22813398249381589 0 -0.30557412098892461 -0.22894421480701829 0 -0.32242066221371068 -0.22813398249381589 0 -0.32099492036963639 -0.24418431014163919 0 -0.30557412098892461 -0.22894421480701829 0 -0.31485054615349789 -0.20562884583793209 0 -0.32242066221371068 -0.22813398249381589 0 -0.32297120194301748 -0.26017618522091401 0 -0.33957017601599992 -0.23803097313338581 0 -0.32099492036963639 -0.24418431014163919 0 -0.3347757626993168 -0.2358336130394261 0 -0.32242066221371068 -0.22813398249381589 0 -0.32099492036963639 -0.24418431014163919 0 -0.42914667813455248 -0.23995147030689731 0 -0.43369945159377638 -0.23186530832387511 0 -0.42167620542799961 -0.23706851710324511 0 -0.42914667813455248 -0.23995147030689731 0 -0.42763257702111179 -0.24781447733042861 0 -0.42167620542799961 -0.23706851710324511 0 -0.42763257702111179 -0.24781447733042861 0 -0.42167620542799961 -0.23706851710324511 0 -0.41770938798862639 -0.24842336549052499 0 -0.42763257702111179 -0.24781447733042861 0 -0.43501339102297698 -0.2392887053614714 0 -0.44136793996712759 -0.24290251275328051 0 -0.42914667813455248 -0.23995147030689731 0 -0.42763257702111179 -0.24781447733042861 0 -0.43501339102297698 -0.2392887053614714 0 -0.42914667813455248 -0.23995147030689731 0 -0.43501339102297698 -0.2392887053614714 0 -0.43369945159377638 -0.23186530832387511 0 -0.43501339102297698 -0.2392887053614714 0 -0.43369945159377638 -0.23186530832387511 0 -0.43997022433568339 -0.23263649142335449 0 -0.43369945159377638 -0.23186530832387511 0 -0.42399401904417688 -0.22068995567278629 0 -0.41222029333139171 -0.22922378956300149 0 -0.43369945159377638 -0.23186530832387511 0 -0.43997022433568339 -0.23263649142335449 0 -0.43369945159377638 -0.23186530832387511 0 -0.41222029333139171 -0.22922378956300149 0 -0.43369945159377638 -0.23186530832387511 0 -0.41222029333139171 -0.22922378956300149 0 -0.42167620542799961 -0.23706851710324511 0 -0.43369945159377638 -0.23186530832387511 0 -0.43800493275623342 -0.21820170596325111 0 -0.43997022433568339 -0.23263649142335449 0 -0.43369945159377638 -0.23186530832387511 0 -0.43800493275623342 -0.21820170596325111 0 -0.43369945159377638 -0.23186530832387511 0 -0.42399401904417688 -0.22068995567278629 0 -0.43800493275623342 -0.21820170596325111 0 -0.41234938172795921 -0.21951008617033901 0 -0.41222029333139171 -0.22922378956300149 0 -0.39647373836284788 -0.22884440553603591 0 -0.42399401904417688 -0.22068995567278629 0 -0.41234938172795921 -0.21951008617033901 0 -0.41222029333139171 -0.22922378956300149 0 -0.41222029333139171 -0.22922378956300149 0 -0.40632621378463329 -0.24161936325408909 0 -0.42167620542799961 -0.23706851710324511 0 -0.40632621378463329 -0.24161936325408909 0 -0.42167620542799961 -0.23706851710324511 0 -0.41770938798862639 -0.24842336549052499 0 -0.40641228759764358 -0.25390226709786939 0 -0.40632621378463329 -0.24161936325408909 0 -0.41770938798862639 -0.24842336549052499 0 -0.39945086494686688 -0.25153957108528269 0 -0.40632621378463329 -0.24161936325408909 0 -0.39311447043894149 -0.24385336561789769 0 -0.39945086494686688 -0.25153957108528269 0 -0.40641228759764358 -0.25390226709786939 0 -0.40632621378463329 -0.24161936325408909 0 -0.40632621378463329 -0.24161936325408909 0 -0.39311447043894149 -0.24385336561789769 0 -0.39647373836284788 -0.22884440553603591 0 -0.39311447043894149 -0.24385336561789769 0 -0.38845461770506801 -0.23365618123113499 0 -0.39647373836284788 -0.22884440553603591 0 -0.39255427972155021 -0.25312428942571569 0 -0.39311447043894149 -0.24385336561789769 0 -0.38750790922318279 -0.2499605689316706 0 -0.39255427972155021 -0.25312428942571569 0 -0.39945086494686688 -0.25153957108528269 0 -0.39311447043894149 -0.24385336561789769 0 -0.39311447043894149 -0.24385336561789769 0 -0.38750790922318279 -0.2499605689316706 0 -0.38577606997018199 -0.24214306904023919 0 -0.38013376635666379 -0.25484773029434632 0 -0.38750790922318279 -0.2499605689316706 0 -0.38577606997018199 -0.24214306904023919 0 -0.38013376635666379 -0.25484773029434632 0 -0.37314132044407838 -0.2417412535034765 0 -0.37966958612705398 -0.2283974991261466 0 -0.38013376635666379 -0.25484773029434632 0 -0.37966958612705398 -0.2283974991261466 0 -0.38013376635666379 -0.25484773029434632 0 -0.38577606997018199 -0.24214306904023919 0 -0.37966958612705398 -0.2283974991261466 0 -0.39311447043894149 -0.24385336561789769 0 -0.38577606997018199 -0.24214306904023919 0 -0.38845461770506801 -0.23365618123113499 0 -0.38577606997018199 -0.24214306904023919 0 -0.37966958612705398 -0.2283974991261466 0 -0.38845461770506801 -0.23365618123113499 0 -0.37966958612705398 -0.2283974991261466 0 -0.38845461770506801 -0.23365618123113499 0 -0.38931035082463777 -0.21964140989885339 0 -0.41222029333139171 -0.22922378956300149 0 -0.40632621378463329 -0.24161936325408909 0 -0.39647373836284788 -0.22884440553603591 0 -0.41234938172795921 -0.21951008617033901 0 -0.39647373836284788 -0.22884440553603591 0 -0.4083257531246916 -0.21066796480283251 0 -0.38931035082463777 -0.21964140989885339 0 -0.39647373836284788 -0.22884440553603591 0 -0.39773631406721999 -0.21612761570793121 0 -0.39647373836284788 -0.22884440553603591 0 -0.4083257531246916 -0.21066796480283251 0 -0.38845461770506801 -0.23365618123113499 0 -0.38931035082463777 -0.21964140989885339 0 -0.39647373836284788 -0.22884440553603591 0 -0.40031441723855721 -0.2100861069257606 0 -0.39773631406721999 -0.21612761570793121 0 -0.4083257531246916 -0.21066796480283251 0 -0.4008731589741239 -0.20467335735835401 0 -0.40410575860117109 -0.19496400672882189 0 -0.4083257531246916 -0.21066796480283251 0 -0.39647373836284788 -0.22884440553603591 0 -0.39773631406721999 -0.21612761570793121 0 -0.4083257531246916 -0.21066796480283251 0 -0.40031441723855721 -0.2100861069257606 0 -0.4008731589741239 -0.20467335735835401 0 -0.4083257531246916 -0.21066796480283251 0 -0.40031441723855721 -0.2100861069257606 0 -0.4008731589741239 -0.20467335735835401 0 -0.39432244278819317 -0.20887548983392479 0 -0.4008731589741239 -0.20467335735835401 0 -0.39432244278819317 -0.20887548983392479 0 -0.39568089966173231 -0.19854016262300711 0 -0.38931035082463777 -0.21964140989885339 0 -0.39432244278819317 -0.20887548983392479 0 -0.39773631406721999 -0.21612761570793121 0 -0.40031441723855721 -0.2100861069257606 0 -0.39432244278819317 -0.20887548983392479 0 -0.39773631406721999 -0.21612761570793121 0 -0.37966958612705398 -0.2283974991261466 0 -0.37920540589744428 -0.20194726795794701 0 -0.38931035082463777 -0.21964140989885339 0 -0.39432244278819317 -0.20887548983392479 0 -0.37920540589744428 -0.20194726795794701 0 -0.37966958612705398 -0.2283974991261466 0 -0.38931035082463777 -0.21964140989885339 0 -0.37920540589744428 -0.20194726795794701 0 -0.37920540589744428 -0.20194726795794701 0 -0.37874122566783452 -0.1754970367897474 0 -0.37920540589744428 -0.20194726795794701 0 -0.39091782528474539 -0.18819584395803929 0 -0.39568089966173231 -0.19854016262300711 0 -0.39432244278819317 -0.20887548983392479 0 -0.37920540589744428 -0.20194726795794701 0 -0.39568089966173231 -0.19854016262300711 0 -0.37920540589744428 -0.20194726795794701 0 -0.39091782528474539 -0.18819584395803929 0 -0.37874122566783452 -0.1754970367897474 0 -0.39091782528474539 -0.18819584395803929 0 -0.39568089966173231 -0.19854016262300711 0 -0.40410575860117109 -0.19496400672882189 0 -0.4008731589741239 -0.20467335735835401 0 -0.39568089966173231 -0.19854016262300711 0 -0.40410575860117109 -0.19496400672882189 0 -0.40410575860117109 -0.19496400672882189 0 -0.42017776788653532 -0.19249152406962911 0 -0.4083257531246916 -0.21066796480283251 0 -0.40410575860117109 -0.19496400672882189 0 -0.42017776788653532 -0.19249152406962911 0 -0.41389781470326931 -0.18153556649834651 0 -0.42017776788653532 -0.19249152406962911 0 -0.4083257531246916 -0.21066796480283251 0 -0.42017776788653532 -0.19249152406962911 0 -0.4083257531246916 -0.21066796480283251 0 -0.4143225334099026 -0.20999802173327831 0 -0.41234938172795921 -0.21951008617033901 0 -0.4083257531246916 -0.21066796480283251 0 -0.4143225334099026 -0.20999802173327831 0 -0.42399401904417688 -0.22068995567278629 0 -0.41234938172795921 -0.21951008617033901 0 -0.41857168084613511 -0.2158401353444403 0 -0.41234938172795921 -0.21951008617033901 0 -0.41857168084613511 -0.2158401353444403 0 -0.4143225334099026 -0.20999802173327831 0 -0.41857168084613511 -0.2158401353444403 0 -0.4143225334099026 -0.20999802173327831 0 -0.42800001231228679 -0.21066292146735749 0 -0.42800001231228679 -0.21066292146735749 0 -0.43535478150468171 -0.19873672420018701 0 -0.43800493275623342 -0.21820170596325111 0 -0.4143225334099026 -0.20999802173327831 0 -0.43535478150468171 -0.19873672420018701 0 -0.4143225334099026 -0.20999802173327831 0 -0.42800001231228679 -0.21066292146735749 0 -0.43535478150468171 -0.19873672420018701 0 -0.43535478150468171 -0.19873672420018701 0 -0.43800493275623342 -0.21820170596325111 0 -0.42399401904417688 -0.22068995567278629 0 -0.41857168084613511 -0.2158401353444403 0 -0.42800001231228679 -0.21066292146735749 0 -0.42399401904417688 -0.22068995567278629 0 -0.42800001231228679 -0.21066292146735749 0 -0.43800493275623342 -0.21820170596325111 0 -0.42017776788653532 -0.19249152406962911 0 -0.43535478150468171 -0.19873672420018701 0 -0.43202978264837932 -0.17431508333642601 0 -0.42017776788653532 -0.19249152406962911 0 -0.4143225334099026 -0.20999802173327831 0 -0.43535478150468171 -0.19873672420018701 0 -0.42017776788653532 -0.19249152406962911 0 -0.43202978264837932 -0.17431508333642601 0 -0.41389781470326931 -0.18153556649834651 0 -0.43535478150468171 -0.19873672420018701 0 -0.43202978264837932 -0.17431508333642601 0 -0.43535478150468171 -0.19873672420018701 0 -0.43202978264837932 -0.17431508333642601 0 -0.44228686408166062 -0.18124563847572389 0 -0.43202978264837932 -0.17431508333642601 0 -0.43813906329950442 -0.16494579213075311 0 -0.44228686408166062 -0.18124563847572389 0 -0.42017776788653532 -0.19249152406962911 0 -0.43202978264837932 -0.17431508333642601 0 -0.43202978264837932 -0.17431508333642601 0 -0.43006781711527658 -0.15990472721083951 0 -0.41554767912080098 -0.16901563176642781 0 -0.43202978264837932 -0.17431508333642601 0 -0.43813906329950442 -0.16494579213075311 0 -0.43202978264837932 -0.17431508333642601 0 -0.43006781711527658 -0.15990472721083951 0 -0.43813906329950442 -0.16494579213075311 0 -0.43202978264837932 -0.17431508333642601 0 -0.43006781711527658 -0.15990472721083951 0 -0.43006781711527658 -0.15990472721083951 0 -0.43813906329950442 -0.16494579213075311 0 -0.43006781711527658 -0.15990472721083951 0 -0.43731958468187809 -0.15285287991260391 0 -0.43813906329950442 -0.16494579213075311 0 -0.43006781711527658 -0.15990472721083951 0 -0.41554767912080098 -0.16901563176642781 0 -0.40436890179484919 -0.1560203277416502 0 -0.41554767912080098 -0.16901563176642781 0 -0.40154653978578142 -0.17890558052873051 0 -0.40325137277020001 -0.16749916925588959 0 -0.41554767912080098 -0.16901563176642781 0 -0.40325137277020001 -0.16749916925588959 0 -0.40436890179484919 -0.1560203277416502 0 -0.43202978264837932 -0.17431508333642601 0 -0.41554767912080098 -0.16901563176642781 0 -0.41389781470326931 -0.18153556649834651 0 -0.40410575860117109 -0.19496400672882189 0 -0.41389781470326931 -0.18153556649834651 0 -0.40154653978578142 -0.17890558052873051 0 -0.41554767912080098 -0.16901563176642781 0 -0.41389781470326931 -0.18153556649834651 0 -0.40154653978578142 -0.17890558052873051 0 -0.39091782528474539 -0.18819584395803929 0 -0.40410575860117109 -0.19496400672882189 0 -0.40154653978578142 -0.17890558052873051 0 -0.40154653978578142 -0.17890558052873051 0 -0.39057963154403441 -0.1775390324733748 0 -0.39111293543777631 -0.1675576686169821 0 -0.39091782528474539 -0.18819584395803929 0 -0.40154653978578142 -0.17890558052873051 0 -0.39057963154403441 -0.1775390324733748 0 -0.39091782528474539 -0.18819584395803929 0 -0.39057963154403441 -0.1775390324733748 0 -0.37874122566783452 -0.1754970367897474 0 -0.39057963154403441 -0.1775390324733748 0 -0.37874122566783452 -0.1754970367897474 0 -0.39111293543777631 -0.1675576686169821 0 -0.37874122566783452 -0.1754970367897474 0 -0.37827704543822471 -0.1490468056215476 0 -0.37874122566783452 -0.1754970367897474 0 -0.39111293543777631 -0.1675576686169821 0 -0.37827704543822471 -0.1490468056215476 0 -0.39476128294575791 -0.15690348459939349 0 -0.39111293543777631 -0.1675576686169821 0 -0.37827704543822471 -0.1490468056215476 0 -0.37018854314090388 -0.1660089474243896 0 -0.37874122566783452 -0.1754970367897474 0 -0.37827704543822471 -0.1490468056215476 0 -0.39476128294575791 -0.15690348459939349 0 -0.39111293543777631 -0.1675576686169821 0 -0.40325137277020001 -0.16749916925588959 0 -0.40154653978578142 -0.17890558052873051 0 -0.39111293543777631 -0.1675576686169821 0 -0.40325137277020001 -0.16749916925588959 0 -0.39476128294575791 -0.15690348459939349 0 -0.40325137277020001 -0.16749916925588959 0 -0.40436890179484919 -0.1560203277416502 0 -0.40436890179484919 -0.1560203277416502 0 -0.40745654095032008 -0.1457823837129624 0 -0.39393961265209632 -0.1472904120461819 0 -0.38936408741437928 -0.1344823650103473 0 -0.40745654095032008 -0.1457823837129624 0 -0.40436890179484919 -0.1560203277416502 0 -0.39393961265209632 -0.1472904120461819 0 -0.40745654095032008 -0.1457823837129624 0 -0.39476128294575791 -0.15690348459939349 0 -0.40436890179484919 -0.1560203277416502 0 -0.39393961265209632 -0.1472904120461819 0 -0.39476128294575791 -0.15690348459939349 0 -0.39393961265209632 -0.1472904120461819 0 -0.37827704543822471 -0.1490468056215476 0 -0.39393961265209632 -0.1472904120461819 0 -0.37827704543822471 -0.1490468056215476 0 -0.38936408741437928 -0.1344823650103473 0 -0.37827704543822471 -0.1490468056215476 0 -0.38305153339249848 -0.13184590129402851 0 -0.3778128652086149 -0.122596574453348 0 -0.37827704543822471 -0.1490468056215476 0 -0.38936408741437928 -0.1344823650103473 0 -0.38305153339249848 -0.13184590129402851 0 -0.37827704543822471 -0.1490468056215476 0 -0.3778128652086149 -0.122596574453348 0 -0.38305153339249848 -0.13184590129402851 0 -0.38675213550877519 -0.1212578600908709 0 -0.3778128652086149 -0.122596574453348 0 -0.38936408741437928 -0.1344823650103473 0 -0.38305153339249848 -0.13184590129402851 0 -0.38675213550877519 -0.1212578600908709 0 -0.38936408741437928 -0.1344823650103473 0 -0.40032915666057101 -0.13203099945630919 0 -0.40745654095032008 -0.1457823837129624 0 -0.38936408741437928 -0.1344823650103473 0 -0.40032915666057101 -0.13203099945630919 0 -0.38675213550877519 -0.1212578600908709 0 -0.40032915666057101 -0.13203099945630919 0 -0.38675213550877519 -0.1212578600908709 0 -0.41372974037046018 -0.12498181042365861 0 -0.38936408741437928 -0.1344823650103473 0 -0.40745654095032008 -0.1457823837129624 0 -0.40745654095032008 -0.1457823837129624 0 -0.41372974037046018 -0.12498181042365861 0 -0.40032915666057101 -0.13203099945630919 0 -0.40745654095032008 -0.1457823837129624 0 -0.41372974037046018 -0.12498181042365861 0 -0.41821200178839668 -0.1360860223334186 0 -0.40745654095032008 -0.1457823837129624 0 -0.41372974037046018 -0.12498181042365861 0 -0.42553493862486802 -0.12661138325614349 0 -0.41372974037046018 -0.12498181042365861 0 -0.41821200178839668 -0.1360860223334186 0 -0.42553493862486802 -0.12661138325614349 0 -0.41372974037046018 -0.12498181042365861 0 -0.43006781711527658 -0.15990472721083951 0 -0.40745654095032008 -0.1457823837129624 0 -0.42780137787007372 -0.1432580552334913 0 -0.43006781711527658 -0.15990472721083951 0 -0.40436890179484919 -0.1560203277416502 0 -0.40745654095032008 -0.1457823837129624 0 -0.41821200178839668 -0.1360860223334186 0 -0.40745654095032008 -0.1457823837129624 0 -0.42780137787007372 -0.1432580552334913 0 -0.43006781711527658 -0.15990472721083951 0 -0.40745654095032008 -0.1457823837129624 0 -0.43006781711527658 -0.15990472721083951 0 -0.42780137787007372 -0.1432580552334913 0 -0.43006781711527658 -0.15990472721083951 0 -0.42780137787007372 -0.1432580552334913 0 -0.43731958468187809 -0.15285287991260391 0 -0.42780137787007372 -0.1432580552334913 0 -0.43581376266771787 -0.13691417707034861 0 -0.43901945651310381 -0.14447730904362441 0 -0.42780137787007372 -0.1432580552334913 0 -0.43731958468187809 -0.15285287991260391 0 -0.43901945651310381 -0.14447730904362441 0 -0.42780137787007372 -0.1432580552334913 0 -0.43581376266771787 -0.13691417707034861 0 -0.42553493862486802 -0.12661138325614349 0 -0.42553493862486802 -0.12661138325614349 0 -0.44278260881222181 -0.12899222719923339 0 -0.42780137787007372 -0.1432580552334913 0 -0.42553493862486802 -0.12661138325614349 0 -0.43581376266771787 -0.13691417707034861 0 -0.42553493862486802 -0.12661138325614349 0 -0.44278260881222181 -0.12899222719923339 0 -0.41821200178839668 -0.1360860223334186 0 -0.42780137787007372 -0.1432580552334913 0 -0.42553493862486802 -0.12661138325614349 0 -0.42553493862486802 -0.12661138325614349 0 -0.44278260881222181 -0.12899222719923339 0 -0.43521521834304222 -0.1211927987874292 0 -0.44278260881222181 -0.12899222719923339 0 -0.4600302789995756 -0.13137307114232261 0 -0.44278260881222181 -0.12899222719923339 0 -0.44529800156778138 -0.14086442888616599 0 -0.4600302789995756 -0.13137307114232261 0 -0.44278260881222181 -0.12899222719923339 0 -0.4600302789995756 -0.13137307114232261 0 -0.45114981008796767 -0.1185666950251905 0 -0.44529800156778138 -0.14086442888616599 0 -0.44886455577806711 -0.14849700411551109 0 -0.4600302789995756 -0.13137307114232261 0 -0.43581376266771787 -0.13691417707034861 0 -0.44278260881222181 -0.12899222719923339 0 -0.44529800156778138 -0.14086442888616599 0 -0.43901945651310381 -0.14447730904362441 0 -0.44529800156778138 -0.14086442888616599 0 -0.44886455577806711 -0.14849700411551109 0 -0.43581376266771787 -0.13691417707034861 0 -0.43901945651310381 -0.14447730904362441 0 -0.44529800156778138 -0.14086442888616599 0 -0.43731958468187809 -0.15285287991260391 0 -0.44886455577806711 -0.14849700411551109 0 -0.43813906329950442 -0.16494579213075311 0 -0.43731958468187809 -0.15285287991260391 0 -0.43901945651310381 -0.14447730904362441 0 -0.44886455577806711 -0.14849700411551109 0 -0.44886455577806711 -0.14849700411551109 0 -0.45549686390528171 -0.16269042099368161 0 -0.44529800156778138 -0.14086442888616599 0 -0.44886455577806711 -0.14849700411551109 0 -0.44886455577806711 -0.14849700411551109 0 -0.46031981576173869 -0.14738460640883491 0 -0.4600302789995756 -0.13137307114232261 0 -0.44886455577806711 -0.14849700411551109 0 -0.46031981576173869 -0.14738460640883491 0 -0.45549686390528171 -0.16269042099368161 0 -0.46031981576173869 -0.14738460640883491 0 -0.45549686390528171 -0.16269042099368161 0 -0.46031981576173869 -0.14738460640883491 0 -0.4600302789995756 -0.13137307114232261 0 -0.46514276761819567 -0.13207879182398821 0 -0.46031981576173869 -0.14738460640883491 0 -0.46514276761819567 -0.13207879182398821 0 -0.47700212451108859 -0.142287433646682 0 -0.44886455577806711 -0.14849700411551109 0 -0.4600302789995756 -0.13137307114232261 0 -0.46031981576173869 -0.14738460640883491 0 -0.46514276761819567 -0.13207879182398821 0 -0.4600302789995756 -0.13137307114232261 0 -0.46514276761819567 -0.13207879182398821 0 -0.47035418806749918 -0.11554015791374039 0 -0.4600302789995756 -0.13137307114232261 0 -0.46514276761819567 -0.13207879182398821 0 -0.46514276761819567 -0.13207879182398821 0 -0.48966705923602538 -0.13546409027430781 0 -0.46514276761819567 -0.13207879182398821 0 -0.47825109857495252 -0.12536561823226619 0 -0.48966705923602538 -0.13546409027430781 0 -0.46514276761819567 -0.13207879182398821 0 -0.48966705923602538 -0.13546409027430781 0 -0.47700212451108859 -0.142287433646682 0 -0.47825109857495252 -0.12536561823226619 0 -0.48966705923602538 -0.13546409027430781 0 -0.48784037937809083 -0.1183794329170286 0 -0.48966705923602538 -0.13546409027430781 0 -0.5 -0.1307385364992355 0 -0.48784037937809083 -0.1183794329170286 0 -0.48966705923602538 -0.13546409027430781 0 -0.5 -0.1307385364992355 0 -0.49038747046436182 -0.1460023907583162 0 -0.5 -0.1307385364992355 0 -0.49038747046436182 -0.1460023907583162 0 -0.5 -0.15805864898203709 0 -0.49038747046436182 -0.1460023907583162 0 -0.47912959430043162 -0.1528677359950685 0 -0.5 -0.15805864898203709 0 -0.48966705923602538 -0.13546409027430781 0 -0.49038747046436182 -0.1460023907583162 0 -0.47700212451108859 -0.142287433646682 0 -0.46031981576173869 -0.14738460640883491 0 -0.47912959430043162 -0.1528677359950685 0 -0.46826703638672867 -0.15960394804437311 0 -0.46031981576173869 -0.14738460640883491 0 -0.47912959430043162 -0.1528677359950685 0 -0.47700212451108859 -0.142287433646682 0 -0.49038747046436182 -0.1460023907583162 0 -0.47912959430043162 -0.1528677359950685 0 -0.47700212451108859 -0.142287433646682 0 -0.47912959430043162 -0.1528677359950685 0 -0.48000142907180782 -0.16338142800370109 0 -0.46826703638672867 -0.15960394804437311 0 -0.48000142907180782 -0.16338142800370109 0 -0.47085508537403897 -0.17248438370905481 0 -0.46826703638672867 -0.15960394804437311 0 -0.48000142907180782 -0.16338142800370109 0 -0.4817554292978396 -0.17389242328797211 0 -0.47085508537403897 -0.17248438370905481 0 -0.48000142907180782 -0.16338142800370109 0 -0.5 -0.15805864898203709 0 -0.4817554292978396 -0.17389242328797211 0 -0.47912959430043162 -0.1528677359950685 0 -0.48000142907180782 -0.16338142800370109 0 -0.5 -0.15805864898203709 0 -0.5 -0.1853787614648387 0 -0.48529579629317621 -0.1847783953701585 0 -0.4817554292978396 -0.17389242328797211 0 -0.5 -0.15805864898203709 0 -0.5 -0.1853787614648387 0 -0.4817554292978396 -0.17389242328797211 0 -0.4817554292978396 -0.17389242328797211 0 -0.46493879722968512 -0.18289655334438421 0 -0.48529579629317621 -0.1847783953701585 0 -0.4817554292978396 -0.17389242328797211 0 -0.47274095956329748 -0.18655712716334261 0 -0.4817554292978396 -0.17389242328797211 0 -0.47274095956329748 -0.18655712716334261 0 -0.46493879722968512 -0.18289655334438421 0 -0.4817554292978396 -0.17389242328797211 0 -0.47085508537403897 -0.17248438370905481 0 -0.46493879722968512 -0.18289655334438421 0 -0.47274095956329748 -0.18655712716334261 0 -0.46493879722968512 -0.18289655334438421 0 -0.46413876267299559 -0.18118444592080851 0 -0.45204868687341487 -0.1736333372566316 0 -0.44592119821192522 -0.193079147232532 0 -0.46413876267299559 -0.18118444592080851 0 -0.45549686390528171 -0.16269042099368161 0 -0.46413876267299559 -0.18118444592080851 0 -0.45549686390528171 -0.16269042099368161 0 -0.45204868687341487 -0.1736333372566316 0 -0.47085508537403897 -0.17248438370905481 0 -0.46413876267299559 -0.18118444592080851 0 -0.45549686390528171 -0.16269042099368161 0 -0.46493879722968512 -0.18289655334438421 0 -0.46413876267299559 -0.18118444592080851 0 -0.44592119821192522 -0.193079147232532 0 -0.46493879722968512 -0.18289655334438421 0 -0.46413876267299559 -0.18118444592080851 0 -0.46413876267299559 -0.18118444592080851 0 -0.45204868687341487 -0.1736333372566316 0 -0.47085508537403897 -0.17248438370905481 0 -0.46493879722968512 -0.18289655334438421 0 -0.46413876267299559 -0.18118444592080851 0 -0.47085508537403897 -0.17248438370905481 0 -0.46826703638672867 -0.15960394804437311 0 -0.45549686390528171 -0.16269042099368161 0 -0.46031981576173869 -0.14738460640883491 0 -0.46826703638672867 -0.15960394804437311 0 -0.45549686390528171 -0.16269042099368161 0 -0.45549686390528171 -0.16269042099368161 0 -0.45204868687341487 -0.1736333372566316 0 -0.45549686390528171 -0.16269042099368161 0 -0.43813906329950442 -0.16494579213075311 0 -0.45204868687341487 -0.1736333372566316 0 -0.44886455577806711 -0.14849700411551109 0 -0.45549686390528171 -0.16269042099368161 0 -0.43813906329950442 -0.16494579213075311 0 -0.44886455577806711 -0.14849700411551109 0 -0.43813906329950442 -0.16494579213075311 0 -0.43813906329950442 -0.16494579213075311 0 -0.45204868687341487 -0.1736333372566316 0 -0.44228686408166062 -0.18124563847572389 0 -0.45204868687341487 -0.1736333372566316 0 -0.44592119821192522 -0.193079147232532 0 -0.45204868687341487 -0.1736333372566316 0 -0.44592119821192522 -0.193079147232532 0 -0.43813906329950442 -0.16494579213075311 0 -0.44228686408166062 -0.18124563847572389 0 -0.45204868687341487 -0.1736333372566316 0 -0.43535478150468171 -0.19873672420018701 0 -0.44228686408166062 -0.18124563847572389 0 -0.44592119821192522 -0.193079147232532 0 -0.43535478150468171 -0.19873672420018701 0 -0.44592119821192522 -0.193079147232532 0 -0.43535478150468171 -0.19873672420018701 0 -0.44592119821192522 -0.193079147232532 0 -0.43800493275623342 -0.21820170596325111 0 -0.44592119821192522 -0.193079147232532 0 -0.43800493275623342 -0.21820170596325111 0 -0.44592119821192522 -0.193079147232532 0 -0.43800493275623342 -0.21820170596325111 0 -0.45469094315640701 -0.20878943217167589 0 -0.43800493275623342 -0.21820170596325111 0 -0.45469094315640701 -0.20878943217167589 0 -0.4501031706232641 -0.22017439076807321 0 -0.45469094315640701 -0.20878943217167589 0 -0.46334925859621051 -0.21700096095336571 0 -0.4501031706232641 -0.22017439076807321 0 -0.45469094315640701 -0.20878943217167589 0 -0.46334925859621051 -0.21700096095336571 0 -0.46797488099280149 -0.21142995518364521 0 -0.46334925859621051 -0.21700096095336571 0 -0.46797488099280149 -0.21142995518364521 0 -0.47204731353048168 -0.22082068136887251 0 -0.45469094315640701 -0.20878943217167589 0 -0.46797488099280149 -0.21142995518364521 0 -0.4612568290994597 -0.1991919130446563 0 -0.46797488099280149 -0.21142995518364521 0 -0.4612568290994597 -0.1991919130446563 0 -0.47381457960131201 -0.20189109896922841 0 -0.44592119821192522 -0.193079147232532 0 -0.45469094315640701 -0.20878943217167589 0 -0.4612568290994597 -0.1991919130446563 0 -0.46493879722968512 -0.18289655334438421 0 -0.44592119821192522 -0.193079147232532 0 -0.4612568290994597 -0.1991919130446563 0 -0.46493879722968512 -0.18289655334438421 0 -0.44592119821192522 -0.193079147232532 0 -0.46493879722968512 -0.18289655334438421 0 -0.4612568290994597 -0.1991919130446563 0 -0.47381457960131201 -0.20189109896922841 0 -0.46493879722968512 -0.18289655334438421 0 -0.47381457960131201 -0.20189109896922841 0 -0.47274095956329748 -0.18655712716334261 0 -0.46493879722968512 -0.18289655334438421 0 -0.47381457960131201 -0.20189109896922841 0 -0.47381457960131201 -0.20189109896922841 0 -0.48668679631156758 -0.19328526956448069 0 -0.48579793447145458 -0.2071902217688554 0 -0.47274095956329748 -0.18655712716334261 0 -0.47381457960131201 -0.20189109896922841 0 -0.48668679631156758 -0.19328526956448069 0 -0.48529579629317621 -0.1847783953701585 0 -0.47274095956329748 -0.18655712716334261 0 -0.48668679631156758 -0.19328526956448069 0 -0.5 -0.1853787614648387 0 -0.48529579629317621 -0.1847783953701585 0 -0.48668679631156758 -0.19328526956448069 0 -0.5 -0.1853787614648387 0 -0.48668679631156758 -0.19328526956448069 0 -0.5 -0.2126988739476402 0 -0.5 -0.2126988739476402 0 -0.48579793447145458 -0.2071902217688554 0 -0.4826903619729388 -0.22088564459407259 0 -0.48668679631156758 -0.19328526956448069 0 -0.5 -0.2126988739476402 0 -0.48579793447145458 -0.2071902217688554 0 -0.46797488099280149 -0.21142995518364521 0 -0.47381457960131201 -0.20189109896922841 0 -0.4826903619729388 -0.22088564459407259 0 -0.47381457960131201 -0.20189109896922841 0 -0.4826903619729388 -0.22088564459407259 0 -0.47381457960131201 -0.20189109896922841 0 -0.48579793447145458 -0.2071902217688554 0 -0.4826903619729388 -0.22088564459407259 0 -0.46797488099280149 -0.21142995518364521 0 -0.47204731353048168 -0.22082068136887251 0 -0.4826903619729388 -0.22088564459407259 0 -0.47204731353048168 -0.22082068136887251 0 -0.47949169212326481 -0.2292136215268514 0 -0.46661148539731911 -0.22466027581970149 0 -0.47949169212326481 -0.2292136215268514 0 -0.47735527271275441 -0.23723412534633981 0 -0.46806599211337402 -0.23609172448134649 0 -0.47949169212326481 -0.2292136215268514 0 -0.46806599211337402 -0.23609172448134649 0 -0.46661148539731911 -0.22466027581970149 0 -0.47949169212326481 -0.2292136215268514 0 -0.47735527271275441 -0.23723412534633981 0 -0.47204731353048168 -0.22082068136887251 0 -0.47949169212326481 -0.2292136215268514 0 -0.4826903619729388 -0.22088564459407259 0 -0.47949169212326481 -0.2292136215268514 0 -0.4826903619729388 -0.22088564459407259 0 -0.49999999999999978 -0.24001898643044181 0 -0.5 -0.2126988739476402 0 -0.4826903619729388 -0.22088564459407259 0 -0.49999999999999978 -0.24001898643044181 0 -0.49999999999999978 -0.24001898643044181 0 -0.47735527271275441 -0.23723412534633981 0 -0.4932475875621487 -0.25840580573030841 0 -0.499999999999999 -0.24401787530533059 0 -0.4782957046309152 -0.2451565447281136 0 -0.49999999999999978 -0.24001898643044181 0 -0.499999999999999 -0.24401787530533059 0 -0.4782957046309152 -0.2451565447281136 0 -0.47949169212326481 -0.2292136215268514 0 -0.49999999999999978 -0.24001898643044181 0 -0.47735527271275441 -0.23723412534633981 0 -0.49999999999999978 -0.24001898643044181 0 -0.4782957046309152 -0.2451565447281136 0 -0.47735527271275441 -0.23723412534633981 0 -0.499999999999999 -0.24401787530533059 0 -0.4782957046309152 -0.2451565447281136 0 -0.47888787600929211 -0.25745611867219048 0 -0.4782957046309152 -0.2451565447281136 0 -0.47520174341083171 -0.24531886278436199 0 -0.4782957046309152 -0.2451565447281136 0 -0.47582755531925869 -0.2429694520005353 0 -0.4782957046309152 -0.2451565447281136 0 -0.47520174341083171 -0.24531886278436199 0 -0.4782957046309152 -0.2451565447281136 0 -0.47735527271275441 -0.23723412534633981 0 -0.47582755531925869 -0.2429694520005353 0 -0.47735527271275441 -0.23723412534633981 0 -0.47582755531925869 -0.2429694520005353 0 -0.47735527271275441 -0.23723412534633981 0 -0.47582755531925869 -0.2429694520005353 0 -0.46806599211337402 -0.23609172448134649 0 -0.47520174341083171 -0.24531886278436199 0 -0.47582755531925869 -0.2429694520005353 0 -0.46806599211337402 -0.23609172448134649 0 -0.47735527271275441 -0.23723412534633981 0 -0.46806599211337402 -0.23609172448134649 0 -0.47582755531925869 -0.2429694520005353 0 -0.46806599211337402 -0.23609172448134649 0 -0.47520174341083171 -0.24531886278436199 0 -0.47582755531925869 -0.2429694520005353 0 -0.4782957046309152 -0.2451565447281136 0 -0.47520174341083171 -0.24531886278436199 0 -0.47582755531925869 -0.2429694520005353 0 -0.46257870568960979 -0.25593059544044777 0 -0.47520174341083171 -0.24531886278436199 0 -0.45141716021597178 -0.24656667005739549 0 -0.46806599211337402 -0.23609172448134649 0 -0.43997022433568339 -0.23263649142335449 0 -0.45141716021597178 -0.24656667005739549 0 -0.47520174341083171 -0.24531886278436199 0 -0.45141716021597178 -0.24656667005739549 0 -0.47520174341083171 -0.24531886278436199 0 -0.46806599211337402 -0.23609172448134649 0 -0.45141716021597178 -0.24656667005739549 0 -0.46806599211337402 -0.23609172448134649 0 -0.43997022433568339 -0.23263649142335449 0 -0.46806599211337402 -0.23609172448134649 0 -0.4501031706232641 -0.22017439076807321 0 -0.46806599211337402 -0.23609172448134649 0 -0.46661148539731911 -0.22466027581970149 0 -0.4501031706232641 -0.22017439076807321 0 -0.46334925859621051 -0.21700096095336571 0 -0.46661148539731911 -0.22466027581970149 0 -0.4501031706232641 -0.22017439076807321 0 -0.46334925859621051 -0.21700096095336571 0 -0.47204731353048168 -0.22082068136887251 0 -0.46661148539731911 -0.22466027581970149 0 -0.46806599211337402 -0.23609172448134649 0 -0.4501031706232641 -0.22017439076807321 0 -0.43997022433568339 -0.23263649142335449 0 -0.43800493275623342 -0.21820170596325111 0 -0.43997022433568339 -0.23263649142335449 0 -0.43800493275623342 -0.21820170596325111 0 -0.4501031706232641 -0.22017439076807321 0 -0.43997022433568339 -0.23263649142335449 0 -0.42763257702111179 -0.24781447733042861 0 -0.44136793996712759 -0.24290251275328051 0 -0.45141716021597178 -0.24656667005739549 0 -0.43997022433568339 -0.23263649142335449 0 -0.44136793996712759 -0.24290251275328051 0 -0.45141716021597178 -0.24656667005739549 0 -0.43997022433568339 -0.23263649142335449 0 -0.44136793996712759 -0.24290251275328051 0 -0.42763257702111179 -0.24781447733042861 0 -0.45141716021597178 -0.24656667005739549 0 -0.43501339102297698 -0.2392887053614714 0 -0.43997022433568339 -0.23263649142335449 0 -0.44136793996712759 -0.24290251275328051 0 -0.4080187835077046 -0.054875143333730579 0 -0.42033153746557639 -0.053550135461688193 0 -0.41540097112337782 -0.03040450051426587 0 -0.4080187835077046 -0.054875143333730579 0 -0.40399408280702293 -0.067416607354873301 0 -0.41619207670247232 -0.064600652305675743 0 -0.4080187835077046 -0.054875143333730579 0 -0.42033153746557639 -0.053550135461688193 0 -0.41619207670247232 -0.064600652305675743 0 -0.4324198088358378 -0.052542302977399792 0 -0.42962604715848918 -0.065328078177368923 0 -0.44671563319324731 -0.048719129720182268 0 -0.42033153746557639 -0.053550135461688193 0 -0.4324198088358378 -0.052542302977399792 0 -0.42962604715848918 -0.065328078177368923 0 -0.42033153746557639 -0.053550135461688193 0 -0.41619207670247232 -0.064600652305675743 0 -0.42962604715848918 -0.065328078177368923 0 -0.4324198088358378 -0.052542302977399792 0 -0.41540097112337782 -0.03040450051426587 0 -0.42033153746557639 -0.053550135461688193 0 -0.4324198088358378 -0.052542302977399792 0 -0.41540097112337782 -0.03040450051426587 0 -0.43568871760700212 -0.040137860567339138 0 -0.43320492005864158 -0.02978354968411092 0 -0.41540097112337782 -0.03040450051426587 0 -0.4324198088358378 -0.052542302977399792 0 -0.43568871760700212 -0.040137860567339138 0 -0.41540097112337782 -0.03040450051426587 0 -0.43320492005864158 -0.02978354968411092 0 -0.42198740527112771 -0.013179096706394861 0 -0.44032915636541797 -0.02095459278641916 0 -0.43320492005864158 -0.02978354968411092 0 -0.42198740527112771 -0.013179096706394861 0 -0.41540097112337782 -0.03040450051426587 0 -0.43593083270112909 -0.0082244292664538435 0 -0.42198740527112771 -0.013179096706394861 0 -0.44032915636541797 -0.02095459278641916 0 -0.43593083270112909 -0.0082244292664538435 0 -0.43531534045472009 0.0027778761619815522 0 -0.42344406803179813 0.0020138751263924291 0 -0.43593083270112909 -0.0082244292664538435 0 -0.42198740527112771 -0.013179096706394861 0 -0.42344406803179813 0.0020138751263924291 0 -0.42198740527112771 -0.013179096706394861 0 -0.42344406803179813 0.0020138751263924291 0 -0.40711235349192793 0.0053479607604310277 0 -0.42198740527112771 -0.013179096706394861 0 -0.39838213341091788 -0.0082666980511320494 0 -0.40711235349192793 0.0053479607604310277 0 -0.42198740527112771 -0.013179096706394861 0 -0.41540097112337782 -0.03040450051426587 0 -0.39838213341091788 -0.0082666980511320494 0 -0.41540097112337782 -0.03040450051426587 0 -0.39838213341091788 -0.0082666980511320494 0 -0.41540097112337782 -0.03040450051426587 0 -0.38946505818476979 -0.01884441508879358 0 -0.38416331761223338 -0.032827874742866373 0 -0.41540097112337782 -0.03040450051426587 0 -0.39838213341091788 -0.0082666980511320494 0 -0.38946505818476979 -0.01884441508879358 0 -0.37282685176606628 -0.017088311957558701 0 -0.3821431144487013 -0.0051826400674848706 0 -0.38946505818476979 -0.01884441508879358 0 -0.37282685176606628 -0.017088311957558701 0 -0.3821431144487013 -0.0051826400674848706 0 -0.37147378190201819 0.0046411454033882336 0 -0.39838213341091788 -0.0082666980511320494 0 -0.3821431144487013 -0.0051826400674848706 0 -0.38946505818476979 -0.01884441508879358 0 -0.37282685176606628 -0.017088311957558701 0 -0.38946505818476979 -0.01884441508879358 0 -0.38416331761223338 -0.032827874742866373 0 -0.38416331761223338 -0.032827874742866373 0 -0.39262220496170969 -0.048732620333114179 0 -0.37567521317190777 -0.056886012536169032 0 -0.4080187835077046 -0.054875143333730579 0 -0.41540097112337782 -0.03040450051426587 0 -0.39262220496170969 -0.048732620333114179 0 -0.41540097112337782 -0.03040450051426587 0 -0.38416331761223338 -0.032827874742866373 0 -0.39262220496170969 -0.048732620333114179 0 -0.4080187835077046 -0.054875143333730579 0 -0.39272567038161982 -0.061803208927188887 0 -0.40399408280702293 -0.067416607354873301 0 -0.4080187835077046 -0.054875143333730579 0 -0.39262220496170969 -0.048732620333114179 0 -0.39272567038161982 -0.061803208927188887 0 -0.39262220496170969 -0.048732620333114179 0 -0.39272567038161982 -0.061803208927188887 0 -0.37567521317190777 -0.056886012536169032 0 -0.39272567038161982 -0.061803208927188887 0 -0.37567521317190777 -0.056886012536169032 0 -0.39012132857309251 -0.077913415154825139 0 -0.36392847171929021 -0.079532336218320301 0 -0.37567521317190777 -0.056886012536169032 0 -0.39012132857309251 -0.077913415154825139 0 -0.36392847171929021 -0.079532336218320301 0 -0.39012132857309251 -0.077913415154825139 0 -0.37854848298343807 -0.092143764015219051 0 -0.39012132857309251 -0.077913415154825139 0 -0.37854848298343807 -0.092143764015219051 0 -0.39544687508897319 -0.098545975091742191 0 -0.36392847171929021 -0.079532336218320301 0 -0.39012132857309251 -0.077913415154825139 0 -0.39544687508897319 -0.098545975091742191 0 -0.41253646112373121 -0.081937026634555571 0 -0.39544687508897319 -0.098545975091742191 0 -0.40783197903422741 -0.098001555780527314 0 -0.41253646112373121 -0.081937026634555571 0 -0.39012132857309251 -0.077913415154825139 0 -0.39544687508897319 -0.098545975091742191 0 -0.41253646112373121 -0.081937026634555571 0 -0.39012132857309251 -0.077913415154825139 0 -0.41631418542689469 -0.076294494091329962 0 -0.39272567038161982 -0.061803208927188887 0 -0.39012132857309251 -0.077913415154825139 0 -0.40399408280702293 -0.067416607354873301 0 -0.39012132857309251 -0.077913415154825139 0 -0.40399408280702293 -0.067416607354873301 0 -0.41631418542689469 -0.076294494091329962 0 -0.38675213550877519 -0.1212578600908709 0 -0.3778128652086149 -0.122596574453348 0 -0.37990165281842692 -0.1085536339877186 0 -0.38675213550877519 -0.1212578600908709 0 -0.37990165281842692 -0.1085536339877186 0 -0.39075938651139702 -0.11081327143409569 0 -0.37854848298343807 -0.092143764015219051 0 -0.37990165281842692 -0.1085536339877186 0 -0.39544687508897319 -0.098545975091742191 0 -0.37990165281842692 -0.1085536339877186 0 -0.39544687508897319 -0.098545975091742191 0 -0.39075938651139702 -0.11081327143409569 0 -0.39544687508897319 -0.098545975091742191 0 -0.40197382118111208 -0.1118773762460302 0 -0.40783197903422741 -0.098001555780527314 0 -0.39544687508897319 -0.098545975091742191 0 -0.39075938651139702 -0.11081327143409569 0 -0.40197382118111208 -0.1118773762460302 0 -0.38675213550877519 -0.1212578600908709 0 -0.40197382118111208 -0.1118773762460302 0 -0.41372974037046018 -0.12498181042365861 0 -0.38675213550877519 -0.1212578600908709 0 -0.41372974037046018 -0.12498181042365861 0 -0.38675213550877519 -0.1212578600908709 0 -0.39075938651139702 -0.11081327143409569 0 -0.40197382118111208 -0.1118773762460302 0 -0.40197382118111208 -0.1118773762460302 0 -0.41372974037046018 -0.12498181042365861 0 -0.42137075874309299 -0.099645845149781351 0 -0.41372974037046018 -0.12498181042365861 0 -0.42137075874309299 -0.099645845149781351 0 -0.42463498937671312 -0.1200013847918079 0 -0.41372974037046018 -0.12498181042365861 0 -0.42137075874309299 -0.099645845149781351 0 -0.42553493862486802 -0.12661138325614349 0 -0.41372974037046018 -0.12498181042365861 0 -0.42463498937671312 -0.1200013847918079 0 -0.40197382118111208 -0.1118773762460302 0 -0.42137075874309299 -0.099645845149781351 0 -0.40783197903422741 -0.098001555780527314 0 -0.42137075874309299 -0.099645845149781351 0 -0.43408599762426969 -0.087317078554663918 0 -0.43969139322562129 -0.09799426345569473 0 -0.42137075874309299 -0.099645845149781351 0 -0.43251795266017617 -0.10994625239414831 0 -0.43969139322562129 -0.09799426345569473 0 -0.42137075874309299 -0.099645845149781351 0 -0.43251795266017617 -0.10994625239414831 0 -0.42463498937671312 -0.1200013847918079 0 -0.43251795266017617 -0.10994625239414831 0 -0.43521521834304222 -0.1211927987874292 0 -0.42463498937671312 -0.1200013847918079 0 -0.43251795266017617 -0.10994625239414831 0 -0.43521521834304222 -0.1211927987874292 0 -0.44167740361241142 -0.1108969697860282 0 -0.42553493862486802 -0.12661138325614349 0 -0.43521521834304222 -0.1211927987874292 0 -0.42463498937671312 -0.1200013847918079 0 -0.42553493862486802 -0.12661138325614349 0 -0.42463498937671312 -0.1200013847918079 0 -0.41253646112373121 -0.081937026634555571 0 -0.42962604715848918 -0.065328078177368923 0 -0.41631418542689469 -0.076294494091329962 0 -0.41253646112373121 -0.081937026634555571 0 -0.42962604715848918 -0.065328078177368923 0 -0.41631418542689469 -0.076294494091329962 0 -0.41619207670247232 -0.064600652305675743 0 -0.42962604715848918 -0.065328078177368923 0 -0.40399408280702293 -0.067416607354873301 0 -0.41631418542689469 -0.076294494091329962 0 -0.41619207670247232 -0.064600652305675743 0 -0.39012132857309251 -0.077913415154825139 0 -0.41631418542689469 -0.076294494091329962 0 -0.41253646112373121 -0.081937026634555571 0 -0.42137075874309299 -0.099645845149781351 0 -0.41253646112373121 -0.081937026634555571 0 -0.42901177711572591 -0.074309879875903984 0 -0.42137075874309299 -0.099645845149781351 0 -0.40783197903422741 -0.098001555780527314 0 -0.41253646112373121 -0.081937026634555571 0 -0.42137075874309299 -0.099645845149781351 0 -0.43408599762426969 -0.087317078554663918 0 -0.43039771032330842 -0.076795447947420853 0 -0.42137075874309299 -0.099645845149781351 0 -0.42901177711572591 -0.074309879875903984 0 -0.42137075874309299 -0.099645845149781351 0 -0.43039771032330842 -0.076795447947420853 0 -0.42901177711572591 -0.074309879875903984 0 -0.43408599762426969 -0.087317078554663918 0 -0.43604862551671042 -0.080555229457087457 0 -0.43039771032330842 -0.076795447947420853 0 -0.43039771032330842 -0.076795447947420853 0 -0.44044857060482018 -0.069495393066497588 0 -0.43847401069349412 -0.076148898670062248 0 -0.43039771032330842 -0.076795447947420853 0 -0.42962604715848918 -0.065328078177368923 0 -0.44710146477565688 -0.054452814605208358 0 -0.43604862551671042 -0.080555229457087457 0 -0.43039771032330842 -0.076795447947420853 0 -0.43847401069349412 -0.076148898670062248 0 -0.41253646112373121 -0.081937026634555571 0 -0.42901177711572591 -0.074309879875903984 0 -0.42962604715848918 -0.065328078177368923 0 -0.43039771032330842 -0.076795447947420853 0 -0.42901177711572591 -0.074309879875903984 0 -0.42962604715848918 -0.065328078177368923 0 -0.43039771032330842 -0.076795447947420853 0 -0.44044857060482018 -0.069495393066497588 0 -0.44338564895704491 -0.064053113656094618 0 -0.43039771032330842 -0.076795447947420853 0 -0.44710146477565688 -0.054452814605208358 0 -0.43039771032330842 -0.076795447947420853 0 -0.44338564895704491 -0.064053113656094618 0 -0.44710146477565688 -0.054452814605208358 0 -0.44044857060482018 -0.069495393066497588 0 -0.44338564895704491 -0.064053113656094618 0 -0.44684608282494293 -0.06752907126393265 0 -0.44044857060482018 -0.069495393066497588 0 -0.44684608282494293 -0.06752907126393265 0 -0.44309312490096753 -0.073013765529874125 0 -0.44338564895704491 -0.064053113656094618 0 -0.44684608282494293 -0.06752907126393265 0 -0.44962612319134221 -0.060910903559138127 0 -0.44684608282494293 -0.06752907126393265 0 -0.44884669268350841 -0.073266314844361885 0 -0.45522398945001119 -0.06660380595041196 0 -0.44684608282494293 -0.06752907126393265 0 -0.45522398945001119 -0.06660380595041196 0 -0.44962612319134221 -0.060910903559138127 0 -0.44884669268350841 -0.073266314844361885 0 -0.44294392954271078 -0.081306067676573932 0 -0.45608475034356988 -0.078954422429932197 0 -0.44684608282494293 -0.06752907126393265 0 -0.44884669268350841 -0.073266314844361885 0 -0.44309312490096753 -0.073013765529874125 0 -0.44884669268350841 -0.073266314844361885 0 -0.44309312490096753 -0.073013765529874125 0 -0.44294392954271078 -0.081306067676573932 0 -0.44309312490096753 -0.073013765529874125 0 -0.43847401069349412 -0.076148898670062248 0 -0.44294392954271078 -0.081306067676573932 0 -0.44044857060482018 -0.069495393066497588 0 -0.44309312490096753 -0.073013765529874125 0 -0.43847401069349412 -0.076148898670062248 0 -0.43604862551671042 -0.080555229457087457 0 -0.43847401069349412 -0.076148898670062248 0 -0.44294392954271078 -0.081306067676573932 0 -0.44294392954271078 -0.081306067676573932 0 -0.45214951507538748 -0.089493415298147139 0 -0.43969139322562129 -0.09799426345569473 0 -0.43408599762426969 -0.087317078554663918 0 -0.44294392954271078 -0.081306067676573932 0 -0.43969139322562129 -0.09799426345569473 0 -0.43408599762426969 -0.087317078554663918 0 -0.43604862551671042 -0.080555229457087457 0 -0.44294392954271078 -0.081306067676573932 0 -0.44294392954271078 -0.081306067676573932 0 -0.45214951507538748 -0.089493415298147139 0 -0.45608475034356988 -0.078954422429932197 0 -0.45214951507538748 -0.089493415298147139 0 -0.45608475034356988 -0.078954422429932197 0 -0.46337283448962902 -0.087316142537657709 0 -0.45214951507538748 -0.089493415298147139 0 -0.46337283448962902 -0.087316142537657709 0 -0.45683916269305808 -0.103404945322389 0 -0.45608475034356988 -0.078954422429932197 0 -0.46337283448962902 -0.087316142537657709 0 -0.47039409312080838 -0.075725819423531723 0 -0.45522398945001119 -0.06660380595041196 0 -0.47039409312080838 -0.075725819423531723 0 -0.46630386979057731 -0.061029809711835872 0 -0.44884669268350841 -0.073266314844361885 0 -0.45608475034356988 -0.078954422429932197 0 -0.45522398945001119 -0.06660380595041196 0 -0.45608475034356988 -0.078954422429932197 0 -0.45522398945001119 -0.06660380595041196 0 -0.47039409312080838 -0.075725819423531723 0 -0.44278260881222181 -0.12899222719923339 0 -0.43521521834304222 -0.1211927987874292 0 -0.45114981008796767 -0.1185666950251905 0 -0.43521521834304222 -0.1211927987874292 0 -0.45114981008796767 -0.1185666950251905 0 -0.44167740361241142 -0.1108969697860282 0 -0.45114981008796767 -0.1185666950251905 0 -0.44167740361241142 -0.1108969697860282 0 -0.45683916269305808 -0.103404945322389 0 -0.44167740361241142 -0.1108969697860282 0 -0.43969139322562129 -0.09799426345569473 0 -0.45683916269305808 -0.103404945322389 0 -0.45214951507538748 -0.089493415298147139 0 -0.43969139322562129 -0.09799426345569473 0 -0.45683916269305808 -0.103404945322389 0 -0.43251795266017617 -0.10994625239414831 0 -0.44167740361241142 -0.1108969697860282 0 -0.43969139322562129 -0.09799426345569473 0 -0.46337283448962902 -0.087316142537657709 0 -0.45683916269305808 -0.103404945322389 0 -0.47776564105062352 -0.09201964007731217 0 -0.45683916269305808 -0.103404945322389 0 -0.47035418806749918 -0.11554015791374039 0 -0.47776564105062352 -0.09201964007731217 0 -0.46514276761819567 -0.13207879182398821 0 -0.47035418806749918 -0.11554015791374039 0 -0.4600302789995756 -0.13137307114232261 0 -0.47035418806749918 -0.11554015791374039 0 -0.4600302789995756 -0.13137307114232261 0 -0.45114981008796767 -0.1185666950251905 0 -0.47035418806749918 -0.11554015791374039 0 -0.45114981008796767 -0.1185666950251905 0 -0.45683916269305808 -0.103404945322389 0 -0.47035418806749918 -0.11554015791374039 0 -0.47035418806749918 -0.11554015791374039 0 -0.48823093116748822 -0.1058655685855734 0 -0.48784037937809083 -0.1183794329170286 0 -0.47825109857495252 -0.12536561823226619 0 -0.47035418806749918 -0.11554015791374039 0 -0.48784037937809083 -0.1183794329170286 0 -0.46514276761819567 -0.13207879182398821 0 -0.47825109857495252 -0.12536561823226619 0 -0.47035418806749918 -0.11554015791374039 0 -0.47035418806749918 -0.11554015791374039 0 -0.48399893047406589 -0.09461436119002993 0 -0.48823093116748822 -0.1058655685855734 0 -0.47035418806749918 -0.11554015791374039 0 -0.48399893047406589 -0.09461436119002993 0 -0.47035418806749918 -0.11554015791374039 0 -0.47776564105062352 -0.09201964007731217 0 -0.47035418806749918 -0.11554015791374039 0 -0.48399893047406589 -0.09461436119002993 0 -0.47776564105062352 -0.09201964007731217 0 -0.48399893047406589 -0.09461436119002993 0 -0.49305746541038847 -0.094999166331417279 0 -0.48823093116748822 -0.1058655685855734 0 -0.49305746541038847 -0.094999166331417279 0 -0.5 -0.10341842401643379 0 -0.48823093116748822 -0.1058655685855734 0 -0.5 -0.10341842401643379 0 -0.48823093116748822 -0.1058655685855734 0 -0.48784037937809083 -0.1183794329170286 0 -0.5 -0.1307385364992355 0 -0.5 -0.10341842401643379 0 -0.48784037937809083 -0.1183794329170286 0 -0.47039409312080838 -0.075725819423531723 0 -0.48517709403374931 -0.068499122240884266 0 -0.46630386979057731 -0.061029809711835872 0 -0.46337283448962902 -0.087316142537657709 0 -0.47039409312080838 -0.075725819423531723 0 -0.47776564105062352 -0.09201964007731217 0 -0.47776564105062352 -0.09201964007731217 0 -0.48614633460976753 -0.08220542199363623 0 -0.48517709403374931 -0.068499122240884266 0 -0.47776564105062352 -0.09201964007731217 0 -0.48517709403374931 -0.068499122240884266 0 -0.47039409312080838 -0.075725819423531723 0 -0.47776564105062352 -0.09201964007731217 0 -0.48517709403374931 -0.068499122240884266 0 -0.48399893047406589 -0.09461436119002993 0 -0.47776564105062352 -0.09201964007731217 0 -0.48614633460976753 -0.08220542199363623 0 -0.48399893047406589 -0.09461436119002993 0 -0.48614633460976753 -0.08220542199363623 0 -0.4976436728806316 -0.073688564466318593 0 -0.49305746541038847 -0.094999166331417279 0 -0.5 -0.10341842401643379 0 -0.5 -0.076098311533632002 0 -0.48399893047406589 -0.09461436119002993 0 -0.49305746541038847 -0.094999166331417279 0 -0.5 -0.076098311533632002 0 -0.48399893047406589 -0.09461436119002993 0 -0.4976436728806316 -0.073688564466318593 0 -0.48399893047406589 -0.09461436119002993 0 -0.5 -0.076098311533632002 0 -0.4976436728806316 -0.073688564466318593 0 -0.4976436728806316 -0.073688564466318593 0 -0.48517709403374931 -0.068499122240884266 0 -0.5 -0.048778199050830362 0 -0.5 -0.076098311533632002 0 -0.4976436728806316 -0.073688564466318593 0 -0.5 -0.048778199050830362 0 -0.48614633460976753 -0.08220542199363623 0 -0.4976436728806316 -0.073688564466318593 0 -0.48517709403374931 -0.068499122240884266 0 -0.48517709403374931 -0.068499122240884266 0 -0.5 -0.048778199050830362 0 -0.49258854701687488 -0.044978604404456439 0 -0.48517709403374931 -0.068499122240884266 0 -0.49258854701687488 -0.044978604404456439 0 -0.47778261154913348 -0.054744321555061377 0 -0.48517709403374931 -0.068499122240884266 0 -0.49258854701687488 -0.044978604404456439 0 -0.49258854701687488 -0.044978604404456439 0 -0.4863959136138456 -0.031560208283910429 0 -0.50000000000000033 -0.021458086568028618 0 -0.5 -0.048778199050830362 0 -0.49258854701687488 -0.044978604404456439 0 -0.50000000000000033 -0.021458086568028618 0 -0.49258854701687488 -0.044978604404456439 0 -0.4863959136138456 -0.031560208283910429 0 -0.47668415439656042 -0.043033440303720631 0 -0.49258854701687488 -0.044978604404456439 0 -0.50000000000000033 -0.021458086568028618 0 -0.4863959136138456 -0.031560208283910429 0 -0.47668415439656042 -0.043033440303720631 0 -0.47601329219817029 -0.02024545532342726 0 -0.47668415439656042 -0.043033440303720631 0 -0.46380521922800533 -0.03211018126299571 0 -0.47601329219817029 -0.02024545532342726 0 -0.47668415439656042 -0.043033440303720631 0 -0.47601329219817029 -0.02024545532342726 0 -0.49258854701687488 -0.044978604404456439 0 -0.47668415439656042 -0.043033440303720631 0 -0.47778261154913348 -0.054744321555061377 0 -0.47668415439656042 -0.043033440303720631 0 -0.47778261154913348 -0.054744321555061377 0 -0.46205710613317108 -0.048270950649437087 0 -0.48517709403374931 -0.068499122240884266 0 -0.47778261154913348 -0.054744321555061377 0 -0.46630386979057731 -0.061029809711835872 0 -0.46630386979057731 -0.061029809711835872 0 -0.45604846788949632 -0.058191469014055017 0 -0.46205710613317108 -0.048270950649437087 0 -0.47778261154913348 -0.054744321555061377 0 -0.46630386979057731 -0.061029809711835872 0 -0.46205710613317108 -0.048270950649437087 0 -0.45522398945001119 -0.06660380595041196 0 -0.46630386979057731 -0.061029809711835872 0 -0.45604846788949632 -0.058191469014055017 0 -0.45522398945001119 -0.06660380595041196 0 -0.45604846788949632 -0.058191469014055017 0 -0.44962612319134221 -0.060910903559138127 0 -0.45604846788949632 -0.058191469014055017 0 -0.46205710613317108 -0.048270950649437087 0 -0.44710146477565688 -0.054452814605208358 0 -0.46205710613317108 -0.048270950649437087 0 -0.46380521922800533 -0.03211018126299571 0 -0.44710146477565688 -0.054452814605208358 0 -0.47668415439656042 -0.043033440303720631 0 -0.46205710613317108 -0.048270950649437087 0 -0.46380521922800533 -0.03211018126299571 0 -0.46380521922800533 -0.03211018126299571 0 -0.44671563319324731 -0.048719129720182268 0 -0.46380521922800533 -0.03211018126299571 0 -0.44710146477565688 -0.054452814605208358 0 -0.46380521922800533 -0.03211018126299571 0 -0.4468684357934315 -0.032927651934435448 0 -0.44671563319324731 -0.048719129720182268 0 -0.43568871760700212 -0.040137860567339138 0 -0.4468684357934315 -0.032927651934435448 0 -0.44671563319324731 -0.048719129720182268 0 -0.46380521922800533 -0.03211018126299571 0 -0.44710146477565688 -0.054452814605208358 0 -0.44671563319324731 -0.048719129720182268 0 -0.43568871760700212 -0.040137860567339138 0 -0.43320492005864158 -0.02978354968411092 0 -0.4468684357934315 -0.032927651934435448 0 -0.42962604715848918 -0.065328078177368923 0 -0.44710146477565688 -0.054452814605208358 0 -0.44671563319324731 -0.048719129720182268 0 -0.4324198088358378 -0.052542302977399792 0 -0.43568871760700212 -0.040137860567339138 0 -0.44671563319324731 -0.048719129720182268 0 -0.42962604715848918 -0.065328078177368923 0 -0.44671563319324731 -0.048719129720182268 0 -0.45604846788949632 -0.058191469014055017 0 -0.44962612319134221 -0.060910903559138127 0 -0.44710146477565688 -0.054452814605208358 0 -0.44338564895704491 -0.064053113656094618 0 -0.44962612319134221 -0.060910903559138127 0 -0.44710146477565688 -0.054452814605208358 0 -0.44423665078742403 -0.0007541330951054406 0 -0.45348821553532609 -0.019222061608300239 0 -0.44864546248745968 0.007865066108162155 0 -0.43593083270112909 -0.0082244292664538435 0 -0.44423665078742403 -0.0007541330951054406 0 -0.45348821553532609 -0.019222061608300239 0 -0.45348821553532609 -0.019222061608300239 0 -0.44864546248745968 0.007865066108162155 0 -0.43593083270112909 -0.0082244292664538435 0 -0.44423665078742403 -0.0007541330951054406 0 -0.43531534045472009 0.0027778761619815522 0 -0.43593083270112909 -0.0082244292664538435 0 -0.44032915636541797 -0.02095459278641916 0 -0.45348821553532609 -0.019222061608300239 0 -0.43320492005864158 -0.02978354968411092 0 -0.4468684357934315 -0.032927651934435448 0 -0.44032915636541797 -0.02095459278641916 0 -0.4468684357934315 -0.032927651934435448 0 -0.44032915636541797 -0.02095459278641916 0 -0.45348821553532609 -0.019222061608300239 0 -0.46380521922800533 -0.03211018126299571 0 -0.45348821553532609 -0.019222061608300239 0 -0.46373326656002822 -0.01687706102056883 0 -0.46380521922800533 -0.03211018126299571 0 -0.46373326656002822 -0.01687706102056883 0 -0.47588683794530839 -0.015950031282873239 0 -0.46380521922800533 -0.03211018126299571 0 -0.4468684357934315 -0.032927651934435448 0 -0.45348821553532609 -0.019222061608300239 0 -0.46093000220709152 -0.0039109829753317497 0 -0.47588683794530839 -0.015950031282873239 0 -0.46671729583139387 0.0024634920995487172 0 -0.45348821553532609 -0.019222061608300239 0 -0.46093000220709152 -0.0039109829753317497 0 -0.44864546248745968 0.007865066108162155 0 -0.46373326656002822 -0.01687706102056883 0 -0.46093000220709152 -0.0039109829753317497 0 -0.47588683794530839 -0.015950031282873239 0 -0.45348821553532609 -0.019222061608300239 0 -0.46373326656002822 -0.01687706102056883 0 -0.46093000220709152 -0.0039109829753317497 0 -0.47588683794530839 -0.015950031282873239 0 -0.47527127200917529 0.0049596389008207363 0 -0.47588683794530839 -0.015950031282873239 0 -0.47527127200917529 0.0049596389008207363 0 -0.46671729583139387 0.0024634920995487172 0 -0.47588683794530839 -0.015950031282873239 0 -0.48538992218717608 -0.0032388813769071451 0 -0.47527127200917529 0.0049596389008207363 0 -0.47601329219817029 -0.02024545532342726 0 -0.48595979869474132 -0.0105786902306632 0 -0.47588683794530839 -0.015950031282873239 0 -0.48538992218717608 -0.0032388813769071451 0 -0.47588683794530839 -0.015950031282873239 0 -0.48538992218717608 -0.0032388813769071451 0 -0.48595979869474132 -0.0105786902306632 0 -0.47601329219817029 -0.02024545532342726 0 -0.47588683794530839 -0.015950031282873239 0 -0.48595979869474132 -0.0105786902306632 0 -0.46380521922800533 -0.03211018126299571 0 -0.47588683794530839 -0.015950031282873239 0 -0.46380521922800533 -0.03211018126299571 0 -0.47601329219817029 -0.02024545532342726 0 -0.47588683794530839 -0.015950031282873239 0 -0.46380521922800533 -0.03211018126299571 0 -0.47601329219817029 -0.02024545532342726 0 -0.47601329219817029 -0.02024545532342726 0 -0.47588683794530839 -0.015950031282873239 0 -0.47601329219817029 -0.02024545532342726 0 -0.48793515847793961 -0.02181586421679222 0 -0.48595979869474132 -0.0105786902306632 0 -0.4863959136138456 -0.031560208283910429 0 -0.47601329219817029 -0.02024545532342726 0 -0.48793515847793961 -0.02181586421679222 0 -0.4863959136138456 -0.031560208283910429 0 -0.48793515847793961 -0.02181586421679222 0 -0.50000000000000033 -0.021458086568028618 0 -0.48793515847793961 -0.02181586421679222 0 -0.48595979869474132 -0.0105786902306632 0 -0.49200092414723079 -0.015389132210660079 0 -0.48793515847793961 -0.02181586421679222 0 -0.50000000000000033 -0.021458086568028618 0 -0.49200092414723079 -0.015389132210660079 0 -0.50000000000000033 -0.021458086568028618 0 -0.49200092414723079 -0.015389132210660079 0 -0.49999999999999972 -0.01507652939324646 0 -0.48538992218717608 -0.0032388813769071451 0 -0.49999999999999972 -0.01507652939324646 0 -0.5 0.003154329343803719 0 -0.48538992218717608 -0.0032388813769071451 0 -0.48595979869474132 -0.0105786902306632 0 -0.49200092414723079 -0.015389132210660079 0 -0.48538992218717608 -0.0032388813769071451 0 -0.49999999999999972 -0.01507652939324646 0 -0.48538992218717608 -0.0032388813769071451 0 -0.49200092414723079 -0.015389132210660079 0 -0.49999999999999972 -0.01507652939324646 0 -0.48538992218717608 -0.0032388813769071451 0 -0.5 0.003154329343803719 0 -0.49543326445425279 0.01019490768193961 0 -0.5 0.003154329343803719 0 -0.49543326445425279 0.01019490768193961 0 -0.50000000000000144 0.02138518808085382 0 -0.48538992218717608 -0.0032388813769071451 0 -0.49543326445425279 0.01019490768193961 0 -0.48538992218717608 -0.0032388813769071451 0 -0.48622313998578298 0.0066093761825687927 0 -0.49543326445425279 0.01019490768193961 0 -0.48622313998578298 0.0066093761825687927 0 -0.48933393598518737 0.012240450984688889 0 -0.49543326445425279 0.01019490768193961 0 -0.48933393598518737 0.012240450984688889 0 -0.48435534634838978 0.016314723975708809 0 -0.48212542797981922 0.01195395215028093 0 -0.48622313998578298 0.0066093761825687927 0 -0.48933393598518737 0.012240450984688889 0 -0.48212542797981922 0.01195395215028093 0 -0.48933393598518737 0.012240450984688889 0 -0.49543326445425279 0.01019490768193961 0 -0.50000000000000144 0.02138518808085382 0 -0.50000000000000144 0.02138518808085382 0 -0.48258725340567521 0.016800929917155379 0 -0.48933393598518737 0.012240450984688889 0 -0.50000000000000144 0.02138518808085382 0 -0.48435534634838978 0.016314723975708809 0 -0.50000000000000144 0.02138518808085382 0 -0.48435534634838978 0.016314723975708809 0 -0.48258725340567521 0.016800929917155379 0 -0.50000000000000144 0.02138518808085382 0 -0.48653723482323619 0.03021313580120686 0 -0.48258725340567521 0.016800929917155379 0 -0.50000000000000144 0.02138518808085382 0 -0.48653723482323619 0.03021313580120686 0 -0.5 0.036572385602543778 0 -0.48435534634838978 0.016314723975708809 0 -0.48258725340567521 0.016800929917155379 0 -0.48653723482323619 0.03021313580120686 0 -0.48258725340567521 0.016800929917155379 0 -0.47486011789126631 0.01892580644751829 0 -0.48258725340567521 0.016800929917155379 0 -0.4749816201447033 0.014798592940743011 0 -0.48258725340567521 0.016800929917155379 0 -0.47486011789126631 0.01892580644751829 0 -0.48258725340567521 0.016800929917155379 0 -0.47486011789126631 0.01892580644751829 0 -0.4749816201447033 0.014798592940743011 0 -0.47486011789126631 0.01892580644751829 0 -0.4749816201447033 0.014798592940743011 0 -0.4749816201447033 0.014798592940743011 0 -0.47527127200917529 0.0049596389008207363 0 -0.46603500780084423 0.0124432160648098 0 -0.4749816201447033 0.014798592940743011 0 -0.47527127200917529 0.0049596389008207363 0 -0.4749816201447033 0.014798592940743011 0 -0.46603500780084423 0.0124432160648098 0 -0.47486011789126631 0.01892580644751829 0 -0.4749816201447033 0.014798592940743011 0 -0.46603500780084423 0.0124432160648098 0 -0.47527127200917529 0.0049596389008207363 0 -0.46603500780084423 0.0124432160648098 0 -0.47527127200917529 0.0049596389008207363 0 -0.46671729583139387 0.0024634920995487172 0 -0.46603500780084423 0.0124432160648098 0 -0.48538992218717608 -0.0032388813769071451 0 -0.47527127200917529 0.0049596389008207363 0 -0.48538992218717608 -0.0032388813769071451 0 -0.48622313998578298 0.0066093761825687927 0 -0.47527127200917529 0.0049596389008207363 0 -0.48622313998578298 0.0066093761825687927 0 -0.47527127200917529 0.0049596389008207363 0 -0.48212542797981922 0.01195395215028093 0 -0.4749816201447033 0.014798592940743011 0 -0.47527127200917529 0.0049596389008207363 0 -0.48212542797981922 0.01195395215028093 0 -0.48435534634838978 0.016314723975708809 0 -0.48258725340567521 0.016800929917155379 0 -0.48212542797981922 0.01195395215028093 0 -0.48258725340567521 0.016800929917155379 0 -0.4749816201447033 0.014798592940743011 0 -0.48212542797981922 0.01195395215028093 0 -0.50000000000000333 0.051759583124233691 0 -0.47871196727662779 0.069131995845671798 0 -0.50000000000000333 0.051759583124233691 0 -0.48774910080465878 0.044091094502152033 0 -0.47871196727662779 0.069131995845671798 0 -0.50000000000000333 0.051759583124233691 0 -0.48774910080465878 0.044091094502152033 0 -0.5 0.036572385602543778 0 -0.48653723482323619 0.03021313580120686 0 -0.48774910080465878 0.044091094502152033 0 -0.5 0.036572385602543778 0 -0.48653723482323619 0.03021313580120686 0 -0.47486011789126631 0.01892580644751829 0 -0.4740956719303519 0.044892663899493028 0 -0.47486011789126631 0.01892580644751829 0 -0.4740956719303519 0.044892663899493028 0 -0.47486011789126631 0.01892580644751829 0 -0.4740956719303519 0.044892663899493028 0 -0.46350011876493852 0.032537751144848623 0 -0.48653723482323619 0.03021313580120686 0 -0.48774910080465878 0.044091094502152033 0 -0.4740956719303519 0.044892663899493028 0 -0.4740956719303519 0.044892663899493028 0 -0.46186219931323741 0.058640364115961387 0 -0.47871196727662779 0.069131995845671798 0 -0.48774910080465878 0.044091094502152033 0 -0.4740956719303519 0.044892663899493028 0 -0.47871196727662779 0.069131995845671798 0 -0.4740956719303519 0.044892663899493028 0 -0.46186219931323741 0.058640364115961387 0 -0.45565499069430859 0.040402643970305581 0 -0.4740956719303519 0.044892663899493028 0 -0.45565499069430859 0.040402643970305581 0 -0.46350011876493852 0.032537751144848623 0 -0.45565499069430859 0.040402643970305581 0 -0.46350011876493852 0.032537751144848623 0 -0.44938969454382732 0.025929890262077801 0 -0.44009507844328039 0.055690206547963618 0 -0.44477151211613519 0.02953335838696108 0 -0.45565499069430859 0.040402643970305581 0 -0.44009507844328039 0.055690206547963618 0 -0.44477151211613519 0.02953335838696108 0 -0.45565499069430859 0.040402643970305581 0 -0.44938969454382732 0.025929890262077801 0 -0.44477151211613519 0.02953335838696108 0 -0.46186219931323741 0.058640364115961387 0 -0.45565499069430859 0.040402643970305581 0 -0.44009507844328039 0.055690206547963618 0 -0.46186219931323741 0.058640364115961387 0 -0.44009507844328039 0.055690206547963618 0 -0.44846882942250271 0.071260774429637214 0 -0.46603500780084423 0.0124432160648098 0 -0.44938969454382732 0.025929890262077801 0 -0.44864546248745968 0.007865066108162155 0 -0.46603500780084423 0.0124432160648098 0 -0.44864546248745968 0.007865066108162155 0 -0.46058194208169762 0.0047151978242974272 0 -0.46603500780084423 0.0124432160648098 0 -0.44864546248745968 0.007865066108162155 0 -0.46093000220709152 -0.0039109829753317497 0 -0.46058194208169762 0.0047151978242974272 0 -0.44864546248745968 0.007865066108162155 0 -0.46093000220709152 -0.0039109829753317497 0 -0.46058194208169762 0.0047151978242974272 0 -0.46671729583139387 0.0024634920995487172 0 -0.46058194208169762 0.0047151978242974272 0 -0.46671729583139387 0.0024634920995487172 0 -0.46603500780084423 0.0124432160648098 0 -0.47486011789126631 0.01892580644751829 0 -0.46603500780084423 0.0124432160648098 0 -0.44938969454382732 0.025929890262077801 0 -0.46603500780084423 0.0124432160648098 0 -0.44938969454382732 0.025929890262077801 0 -0.47486011789126631 0.01892580644751829 0 -0.46350011876493852 0.032537751144848623 0 -0.44938969454382732 0.025929890262077801 0 -0.47486011789126631 0.01892580644751829 0 -0.44938969454382732 0.025929890262077801 0 -0.44938969454382732 0.025929890262077801 0 -0.44521028016167657 0.02707918284465765 0 -0.44864546248745968 0.007865066108162155 0 -0.44521028016167657 0.02707918284465765 0 -0.44864546248745968 0.007865066108162155 0 -0.44521028016167657 0.02707918284465765 0 -0.44277986279560289 0.0158837396686765 0 -0.44864546248745968 0.007865066108162155 0 -0.44477151211613519 0.02953335838696108 0 -0.44521028016167657 0.02707918284465765 0 -0.42367888681374638 0.033000077114687193 0 -0.44938969454382732 0.025929890262077801 0 -0.44521028016167657 0.02707918284465765 0 -0.44938969454382732 0.025929890262077801 0 -0.44477151211613519 0.02953335838696108 0 -0.44521028016167657 0.02707918284465765 0 -0.44938969454382732 0.025929890262077801 0 -0.44477151211613519 0.02953335838696108 0 -0.44477151211613519 0.02953335838696108 0 -0.44521028016167657 0.02707918284465765 0 -0.44521028016167657 0.02707918284465765 0 -0.43865194886269948 0.024712076771159469 0 -0.44065522270043039 0.021439488127511851 0 -0.44521028016167657 0.02707918284465765 0 -0.44277986279560289 0.0158837396686765 0 -0.44065522270043039 0.021439488127511851 0 -0.43865194886269948 0.024712076771159469 0 -0.44065522270043039 0.021439488127511851 0 -0.4359787989817433 0.018082953225555282 0 -0.44277986279560289 0.0158837396686765 0 -0.44065522270043039 0.021439488127511851 0 -0.4359787989817433 0.018082953225555282 0 -0.44277986279560289 0.0158837396686765 0 -0.43939012380175319 0.01295986161250352 0 -0.4359787989817433 0.018082953225555282 0 -0.44277986279560289 0.0158837396686765 0 -0.4437527517262817 0.0110886801641843 0 -0.44864546248745968 0.007865066108162155 0 -0.43939012380175319 0.01295986161250352 0 -0.44017474261175799 0.0086001503919385467 0 -0.4437527517262817 0.0110886801641843 0 -0.43939012380175319 0.01295986161250352 0 -0.44017474261175799 0.0086001503919385467 0 -0.43426446289337989 0.01114378461216298 0 -0.44017474261175799 0.0086001503919385467 0 -0.4437527517262817 0.0110886801641843 0 -0.44400067184553987 0.0082451816445319182 0 -0.44277986279560289 0.0158837396686765 0 -0.43939012380175319 0.01295986161250352 0 -0.4437527517262817 0.0110886801641843 0 -0.4437527517262817 0.0110886801641843 0 -0.44400067184553987 0.0082451816445319182 0 -0.44864546248745968 0.007865066108162155 0 -0.44423665078742403 -0.0007541330951054406 0 -0.44864546248745968 0.007865066108162155 0 -0.44318890808733041 0.0049282981787776761 0 -0.44017474261175799 0.0086001503919385467 0 -0.44318890808733041 0.0049282981787776761 0 -0.43531534045472009 0.0027778761619815522 0 -0.44423665078742403 -0.0007541330951054406 0 -0.44318890808733041 0.0049282981787776761 0 -0.43531534045472009 0.0027778761619815522 0 -0.44400067184553987 0.0082451816445319182 0 -0.44864546248745968 0.007865066108162155 0 -0.44318890808733041 0.0049282981787776761 0 -0.44017474261175799 0.0086001503919385467 0 -0.44400067184553987 0.0082451816445319182 0 -0.44318890808733041 0.0049282981787776761 0 -0.44017474261175799 0.0086001503919385467 0 -0.43531534045472009 0.0027778761619815522 0 -0.43426446289337989 0.01114378461216298 0 -0.43531534045472009 0.0027778761619815522 0 -0.43426446289337989 0.01114378461216298 0 -0.4263371681339499 0.01211220465998279 0 -0.43426446289337989 0.01114378461216298 0 -0.4263371681339499 0.01211220465998279 0 -0.4359787989817433 0.018082953225555282 0 -0.43939012380175319 0.01295986161250352 0 -0.43426446289337989 0.01114378461216298 0 -0.4359787989817433 0.018082953225555282 0 -0.43531534045472009 0.0027778761619815522 0 -0.4263371681339499 0.01211220465998279 0 -0.42344406803179813 0.0020138751263924291 0 -0.42344406803179813 0.0020138751263924291 0 -0.40711235349192793 0.0053479607604310277 0 -0.41584242410458921 0.01515934679458392 0 -0.40711235349192793 0.0053479607604310277 0 -0.41584242410458921 0.01515934679458392 0 -0.40165479443467661 0.022489232987134969 0 -0.4263371681339499 0.01211220465998279 0 -0.42344406803179813 0.0020138751263924291 0 -0.41584242410458921 0.01515934679458392 0 -0.41584242410458921 0.01515934679458392 0 -0.42367888681374638 0.033000077114687193 0 -0.40165479443467661 0.022489232987134969 0 -0.44521028016167657 0.02707918284465765 0 -0.42367888681374638 0.033000077114687193 0 -0.44521028016167657 0.02707918284465765 0 -0.43865194886269948 0.024712076771159469 0 -0.42367888681374638 0.033000077114687193 0 -0.41584242410458921 0.01515934679458392 0 -0.42792485666028118 0.02064674768024264 0 -0.42367888681374638 0.033000077114687193 0 -0.4263371681339499 0.01211220465998279 0 -0.41584242410458921 0.01515934679458392 0 -0.42792485666028118 0.02064674768024264 0 -0.43865194886269948 0.024712076771159469 0 -0.42792485666028118 0.02064674768024264 0 -0.4359787989817433 0.018082953225555282 0 -0.4263371681339499 0.01211220465998279 0 -0.42792485666028118 0.02064674768024264 0 -0.4359787989817433 0.018082953225555282 0 -0.43865194886269948 0.024712076771159469 0 -0.42792485666028118 0.02064674768024264 0 -0.42367888681374638 0.033000077114687193 0 -0.43865194886269948 0.024712076771159469 0 -0.42367888681374638 0.033000077114687193 0 -0.44009507844328039 0.055690206547963618 0 -0.44477151211613519 0.02953335838696108 0 -0.42367888681374638 0.033000077114687193 0 -0.44009507844328039 0.055690206547963618 0 -0.41915354805448413 0.056558340972495812 0 -0.42739390772310809 0.068538313677642931 0 -0.44009507844328039 0.055690206547963618 0 -0.42367888681374638 0.033000077114687193 0 -0.41915354805448413 0.056558340972495812 0 -0.41915354805448413 0.056558340972495812 0 -0.40504634015813568 0.043313702515930808 0 -0.40433503759992578 0.060401714394172697 0 -0.42367888681374638 0.033000077114687193 0 -0.40504634015813568 0.043313702515930808 0 -0.39622326449383499 0.040550068619986279 0 -0.42367888681374638 0.033000077114687193 0 -0.40504634015813568 0.043313702515930808 0 -0.42367888681374638 0.033000077114687193 0 -0.39622326449383499 0.040550068619986279 0 -0.40165479443467661 0.022489232987134969 0 -0.42367888681374638 0.033000077114687193 0 -0.39622326449383499 0.040550068619986279 0 -0.42367888681374638 0.033000077114687193 0 -0.41915354805448413 0.056558340972495812 0 -0.40504634015813568 0.043313702515930808 0 -0.40504634015813568 0.043313702515930808 0 -0.39622326449383499 0.040550068619986279 0 -0.38641379350252542 0.053627327917174783 0 -0.40504634015813568 0.043313702515930808 0 -0.38641379350252542 0.053627327917174783 0 -0.40433503759992578 0.060401714394172697 0 -0.38641379350252542 0.053627327917174783 0 -0.39571437861469572 0.07090572362641849 0 -0.40504634015813568 0.043313702515930808 0 -0.40433503759992578 0.060401714394172697 0 -0.38641379350252542 0.053627327917174783 0 -0.38641379350252542 0.053627327917174783 0 -0.3760816295596035 0.064207970313993334 0 -0.36778124684691488 0.063940953318418564 0 -0.38641379350252542 0.053627327917174783 0 -0.36778124684691488 0.063940953318418564 0 -0.39622326449383499 0.040550068619986279 0 -0.38641379350252542 0.053627327917174783 0 -0.36876764217392288 0.048100060125282167 0 -0.39622326449383499 0.040550068619986279 0 -0.36876764217392288 0.048100060125282167 0 -0.39622326449383499 0.040550068619986279 0 -0.3836259417677727 0.0302762137817486 0 -0.36876764217392288 0.048100060125282167 0 -0.3836259417677727 0.0302762137817486 0 -0.381363295698458 0.01387110441200177 0 -0.37012071203797009 0.02637060276433513 0 -0.3836259417677727 0.0302762137817486 0 -0.381363295698458 0.01387110441200177 0 -0.40165479443467661 0.022489232987134969 0 -0.3821431144487013 -0.0051826400674848706 0 -0.381363295698458 0.01387110441200177 0 -0.37147378190201819 0.0046411454033882336 0 -0.39838213341091788 -0.0082666980511320494 0 -0.381363295698458 0.01387110441200177 0 -0.39838213341091788 -0.0082666980511320494 0 -0.3821431144487013 -0.0051826400674848706 0 -0.381363295698458 0.01387110441200177 0 -0.39838213341091788 -0.0082666980511320494 0 -0.40711235349192793 0.0053479607604310277 0 -0.381363295698458 0.01387110441200177 0 -0.40711235349192793 0.0053479607604310277 0 -0.381363295698458 0.01387110441200177 0 -0.40165479443467661 0.022489232987134969 0 -0.39622326449383499 0.040550068619986279 0 -0.3836259417677727 0.0302762137817486 0 -0.40165479443467661 0.022489232987134969 0 -0.40121720456069621 0.1030856768562082 0 -0.39641339695437822 0.11750291113452629 0 -0.38054751812655152 0.1014212848729293 0 -0.40121720456069621 0.1030856768562082 0 -0.38054751812655152 0.1014212848729293 0 -0.39034999980074792 0.087880716689812302 0 -0.40121720456069621 0.1030856768562082 0 -0.39641339695437822 0.11750291113452629 0 -0.41462920390813363 0.1120858441608473 0 -0.39641339695437822 0.11750291113452629 0 -0.38054751812655152 0.1014212848729293 0 -0.37381417397412392 0.1167180513043872 0 -0.39641339695437822 0.11750291113452629 0 -0.39291075565827233 0.13420581406732071 0 -0.37381417397412392 0.1167180513043872 0 -0.38054751812655152 0.1014212848729293 0 -0.39034999980074792 0.087880716689812302 0 -0.37313865407702163 0.08644003925618568 0 -0.39034999980074792 0.087880716689812302 0 -0.37987154503301312 0.075620863096035051 0 -0.39571437861469572 0.07090572362641849 0 -0.39034999980074792 0.087880716689812302 0 -0.37987154503301312 0.075620863096035051 0 -0.37313865407702163 0.08644003925618568 0 -0.3760816295596035 0.064207970313993334 0 -0.39571437861469572 0.07090572362641849 0 -0.38641379350252542 0.053627327917174783 0 -0.3760816295596035 0.064207970313993334 0 -0.39571437861469572 0.07090572362641849 0 -0.3760816295596035 0.064207970313993334 0 -0.37987154503301312 0.075620863096035051 0 -0.39571437861469572 0.07090572362641849 0 -0.3760816295596035 0.064207970313993334 0 -0.37987154503301312 0.075620863096035051 0 -0.37205637473515563 0.069182155195043907 0 -0.39571437861469572 0.07090572362641849 0 -0.41534712766978787 0.077603476938843619 0 -0.40433503759992578 0.060401714394172697 0 -0.39571437861469572 0.07090572362641849 0 -0.41534712766978787 0.077603476938843619 0 -0.39034999980074792 0.087880716689812302 0 -0.39571437861469572 0.07090572362641849 0 -0.40427827269448291 0.087002018075595905 0 -0.39571437861469572 0.07090572362641849 0 -0.40427827269448291 0.087002018075595905 0 -0.41534712766978787 0.077603476938843619 0 -0.40121720456069621 0.1030856768562082 0 -0.39034999980074792 0.087880716689812302 0 -0.40427827269448291 0.087002018075595905 0 -0.40427827269448291 0.087002018075595905 0 -0.41534712766978787 0.077603476938843619 0 -0.41876265282648673 0.095534496266696939 0 -0.41915354805448413 0.056558340972495812 0 -0.41534712766978787 0.077603476938843619 0 -0.42739390772310809 0.068538313677642931 0 -0.41915354805448413 0.056558340972495812 0 -0.40433503759992578 0.060401714394172697 0 -0.41534712766978787 0.077603476938843619 0 -0.44009507844328039 0.055690206547963618 0 -0.42739390772310809 0.068538313677642931 0 -0.43497987672487998 0.084301230251268677 0 -0.41534712766978787 0.077603476938843619 0 -0.42739390772310809 0.068538313677642931 0 -0.43497987672487998 0.084301230251268677 0 -0.41534712766978787 0.077603476938843619 0 -0.43497987672487998 0.084301230251268677 0 -0.41876265282648673 0.095534496266696939 0 -0.41534712766978787 0.077603476938843619 0 -0.43497987672487998 0.084301230251268677 0 -0.43497987672487998 0.084301230251268677 0 -0.41876265282648673 0.095534496266696939 0 -0.43026337768142559 0.1106821773493102 0 -0.43497987672487998 0.084301230251268677 0 -0.43613590182987377 0.10387682128854479 0 -0.43026337768142559 0.1106821773493102 0 -0.43497987672487998 0.084301230251268677 0 -0.43026337768142559 0.1106821773493102 0 -0.43613590182987377 0.10387682128854479 0 -0.43026337768142559 0.1106821773493102 0 -0.43767602456834598 0.11168905130461 0 -0.40121720456069621 0.1030856768562082 0 -0.40427827269448291 0.087002018075595905 0 -0.41876265282648673 0.095534496266696939 0 -0.41876265282648673 0.095534496266696939 0 -0.41462920390813363 0.1120858441608473 0 -0.43026337768142559 0.1106821773493102 0 -0.40121720456069621 0.1030856768562082 0 -0.41876265282648673 0.095534496266696939 0 -0.41462920390813363 0.1120858441608473 0 -0.41462920390813363 0.1120858441608473 0 -0.4291099291152643 0.11919909628543419 0 -0.41257263020508361 0.12844236305368861 0 -0.39641339695437822 0.11750291113452629 0 -0.41462920390813363 0.1120858441608473 0 -0.41257263020508361 0.12844236305368861 0 -0.4291099291152643 0.11919909628543419 0 -0.44563567771408458 0.1180108897957558 0 -0.43260653716037201 0.13372981046643509 0 -0.4291099291152643 0.11919909628543419 0 -0.44563567771408458 0.1180108897957558 0 -0.43767602456834598 0.11168905130461 0 -0.41462920390813363 0.1120858441608473 0 -0.4291099291152643 0.11919909628543419 0 -0.43026337768142559 0.1106821773493102 0 -0.4291099291152643 0.11919909628543419 0 -0.43026337768142559 0.1106821773493102 0 -0.43767602456834598 0.11168905130461 0 -0.44563567771408458 0.1180108897957558 0 -0.44723523650108171 0.1066762718040048 0 -0.45843296473473483 0.10430076433458881 0 -0.44563567771408458 0.1180108897957558 0 -0.43767602456834598 0.11168905130461 0 -0.44723523650108171 0.1066762718040048 0 -0.43613590182987377 0.10387682128854479 0 -0.45742393455325081 0.08650440856710831 0 -0.43613590182987377 0.10387682128854479 0 -0.44723523650108171 0.1066762718040048 0 -0.45742393455325081 0.08650440856710831 0 -0.43613590182987377 0.10387682128854479 0 -0.43767602456834598 0.11168905130461 0 -0.44723523650108171 0.1066762718040048 0 -0.45843296473473483 0.10430076433458881 0 -0.45742393455325081 0.08650440856710831 0 -0.47025589796782491 0.09440017257565439 0 -0.44723523650108171 0.1066762718040048 0 -0.45843296473473483 0.10430076433458881 0 -0.45742393455325081 0.08650440856710831 0 -0.45843296473473483 0.10430076433458881 0 -0.45568881006006012 0.13175687700843339 0 -0.44563567771408458 0.1180108897957558 0 -0.45843296473473483 0.10430076433458881 0 -0.45568881006006012 0.13175687700843339 0 -0.45843296473473483 0.10430076433458881 0 -0.477638870732289 0.11705513884804999 0 -0.45568881006006012 0.13175687700843339 0 -0.44009507844328039 0.055690206547963618 0 -0.43497987672487998 0.084301230251268677 0 -0.44009507844328039 0.055690206547963618 0 -0.43497987672487998 0.084301230251268677 0 -0.44846882942250271 0.071260774429637214 0 -0.44846882942250271 0.071260774429637214 0 -0.44978451024755928 0.080826191771188036 0 -0.4594730328224973 0.073124670092928279 0 -0.43497987672487998 0.084301230251268677 0 -0.43613590182987377 0.10387682128854479 0 -0.4485768777146652 0.088939875514997657 0 -0.43613590182987377 0.10387682128854479 0 -0.4485768777146652 0.088939875514997657 0 -0.45742393455325081 0.08650440856710831 0 -0.44978451024755928 0.080826191771188036 0 -0.4485768777146652 0.088939875514997657 0 -0.45742393455325081 0.08650440856710831 0 -0.43497987672487998 0.084301230251268677 0 -0.44846882942250271 0.071260774429637214 0 -0.44978451024755928 0.080826191771188036 0 -0.43497987672487998 0.084301230251268677 0 -0.44978451024755928 0.080826191771188036 0 -0.4485768777146652 0.088939875514997657 0 -0.43497987672487998 0.084301230251268677 0 -0.4485768777146652 0.088939875514997657 0 -0.44978451024755928 0.080826191771188036 0 -0.45742393455325081 0.08650440856710831 0 -0.4594730328224973 0.073124670092928279 0 -0.45742393455325081 0.08650440856710831 0 -0.4594730328224973 0.073124670092928279 0 -0.47871196727662779 0.069131995845671798 0 -0.45742393455325081 0.08650440856710831 0 -0.47871196727662779 0.069131995845671798 0 -0.46186219931323741 0.058640364115961387 0 -0.4594730328224973 0.073124670092928279 0 -0.47871196727662779 0.069131995845671798 0 -0.46186219931323741 0.058640364115961387 0 -0.44846882942250271 0.071260774429637214 0 -0.4594730328224973 0.073124670092928279 0 -0.47871196727662779 0.069131995845671798 0 -0.47025589796782491 0.09440017257565439 0 -0.48483347336834037 0.094074945981742458 0 -0.45742393455325081 0.08650440856710831 0 -0.47871196727662779 0.069131995845671798 0 -0.47025589796782491 0.09440017257565439 0 -0.47871196727662779 0.069131995845671798 0 -0.5 0.080064690949532058 0 -0.48483347336834037 0.094074945981742458 0 -0.50000000000000333 0.051759583124233691 0 -0.47871196727662779 0.069131995845671798 0 -0.5 0.080064690949532058 0 -0.477638870732289 0.11705513884804999 0 -0.47025589796782491 0.09440017257565439 0 -0.48483347336834037 0.094074945981742458 0 -0.45843296473473483 0.10430076433458881 0 -0.477638870732289 0.11705513884804999 0 -0.47025589796782491 0.09440017257565439 0 -0.5 0.080064690949532058 0 -0.5 0.1083697987748304 0 -0.48483347336834037 0.094074945981742458 0 -0.477638870732289 0.11705513884804999 0 -0.5 0.1083697987748304 0 -0.48483347336834037 0.094074945981742458 0 -0.477638870732289 0.11705513884804999 0 -0.5 0.1083697987748304 0 -0.5 0.13667490660012879 0 -0.477638870732289 0.11705513884804999 0 -0.5 0.13667490660012879 0 -0.47634388164810959 0.14795752928418091 0 -0.477638870732289 0.11705513884804999 0 -0.47634388164810959 0.14795752928418091 0 -0.45568881006006012 0.13175687700843339 0 -0.5 0.13667490660012879 0 -0.47634388164810959 0.14795752928418091 0 -0.5 0.1649800144254272 0 -0.5 0.1649800144254272 0 -0.5 0.19328512225072561 0 -0.48225004087122619 0.1880443168724206 0 -0.46987592708689252 0.17474323459780219 0 -0.48225004087122619 0.1880443168724206 0 -0.46250064952390818 0.19793300748592779 0 -0.5 0.1649800144254272 0 -0.46987592708689252 0.17474323459780219 0 -0.48225004087122619 0.1880443168724206 0 -0.47634388164810959 0.14795752928418091 0 -0.5 0.1649800144254272 0 -0.46987592708689252 0.17474323459780219 0 -0.47634388164810959 0.14795752928418091 0 -0.46987592708689252 0.17474323459780219 0 -0.45294465538538548 0.15921298968227821 0 -0.46987592708689252 0.17474323459780219 0 -0.45020050071071571 0.18666910235612319 0 -0.45294465538538548 0.15921298968227821 0 -0.46987592708689252 0.17474323459780219 0 -0.45020050071071571 0.18666910235612319 0 -0.46250064952390818 0.19793300748592779 0 -0.45020050071071571 0.18666910235612319 0 -0.45294465538538548 0.15921298968227821 0 -0.45020050071071571 0.18666910235612319 0 -0.43110391902656919 0.1691813395931876 0 -0.45020050071071571 0.18666910235612319 0 -0.4378318111775919 0.1952053723401258 0 -0.43110391902656919 0.1691813395931876 0 -0.45294465538538548 0.15921298968227821 0 -0.43644457269163572 0.15098547125178691 0 -0.43110391902656919 0.1691813395931876 0 -0.45020050071071571 0.18666910235612319 0 -0.45294465538538548 0.15921298968227821 0 -0.43110391902656919 0.1691813395931876 0 -0.45294465538538548 0.15921298968227821 0 -0.45568881006006012 0.13175687700843339 0 -0.43644457269163572 0.15098547125178691 0 -0.44563567771408458 0.1180108897957558 0 -0.45568881006006012 0.13175687700843339 0 -0.43260653716037201 0.13372981046643509 0 -0.45568881006006012 0.13175687700843339 0 -0.43260653716037201 0.13372981046643509 0 -0.43644457269163572 0.15098547125178691 0 -0.45294465538538548 0.15921298968227821 0 -0.45568881006006012 0.13175687700843339 0 -0.47634388164810959 0.14795752928418091 0 -0.45294465538538548 0.15921298968227821 0 -0.45568881006006012 0.13175687700843339 0 -0.48066091075530543 0.24366123148070881 0 -0.46278852649577651 0.24018664853999649 0 -0.47110336905253619 0.25826468494226101 0 -0.48066091075530543 0.24366123148070881 0 -0.48388246707259708 0.22861031416240529 0 -0.46278852649577651 0.24018664853999649 0 -0.48066091075530543 0.24366123148070881 0 -0.5 0.24989533790132251 0 -0.48388246707259708 0.22861031416240529 0 -0.5 0.24989533790132251 0 -0.5 0.22159023007602399 0 -0.48388246707259708 0.22861031416240529 0 -0.5 0.22159023007602399 0 -0.48388246707259708 0.22861031416240529 0 -0.47887362774533021 0.2092802056022201 0 -0.48388246707259708 0.22861031416240529 0 -0.46733589359004651 0.22296693412254279 0 -0.46278852649577651 0.24018664853999649 0 -0.48388246707259708 0.22861031416240529 0 -0.47887362774533021 0.2092802056022201 0 -0.46733589359004651 0.22296693412254279 0 -0.47887362774533021 0.2092802056022201 0 -0.46112866153700149 0.2111869096505973 0 -0.46733589359004651 0.22296693412254279 0 -0.5 0.22159023007602399 0 -0.47887362774533021 0.2092802056022201 0 -0.5 0.19328512225072561 0 -0.47887362774533021 0.2092802056022201 0 -0.5 0.19328512225072561 0 -0.48225004087122619 0.1880443168724206 0 -0.47887362774533021 0.2092802056022201 0 -0.48225004087122619 0.1880443168724206 0 -0.46250064952390818 0.19793300748592779 0 -0.45020050071071571 0.18666910235612319 0 -0.46250064952390818 0.19793300748592779 0 -0.44793952061969777 0.20929090451074639 0 -0.45020050071071571 0.18666910235612319 0 -0.46250064952390818 0.19793300748592779 0 -0.45020050071071571 0.18666910235612319 0 -0.44793952061969777 0.20929090451074639 0 -0.45020050071071571 0.18666910235612319 0 -0.4378318111775919 0.1952053723401258 0 -0.44793952061969777 0.20929090451074639 0 -0.44793952061969777 0.20929090451074639 0 -0.44567854052868461 0.23191270666537009 0 -0.42840601614861512 0.2109016463768755 0 -0.44793952061969777 0.20929090451074639 0 -0.46112866153700149 0.2111869096505973 0 -0.44567854052868461 0.23191270666537009 0 -0.4378318111775919 0.1952053723401258 0 -0.44793952061969777 0.20929090451074639 0 -0.42840601614861512 0.2109016463768755 0 -0.47887362774533021 0.2092802056022201 0 -0.46250064952390818 0.19793300748592779 0 -0.46112866153700149 0.2111869096505973 0 -0.46250064952390818 0.19793300748592779 0 -0.44793952061969777 0.20929090451074639 0 -0.46112866153700149 0.2111869096505973 0 -0.46112866153700149 0.2111869096505973 0 -0.46733589359004651 0.22296693412254279 0 -0.44567854052868461 0.23191270666537009 0 -0.46733589359004651 0.22296693412254279 0 -0.44567854052868461 0.23191270666537009 0 -0.46278852649577651 0.24018664853999649 0 -0.44793952061969777 0.20929090451074639 0 -0.44567854052868461 0.23191270666537009 0 -0.44567854052868461 0.23191270666537009 0 -0.43907384032152968 0.24815821867747409 0 -0.46278852649577651 0.24018664853999649 0 -0.42508913708336871 0.22995631990354229 0 -0.40541891423375742 0.24167011368318231 0 -0.41919383790749482 0.25502993091800108 0 -0.44567854052868461 0.23191270666537009 0 -0.43907384032152968 0.24815821867747409 0 -0.42508913708336871 0.22995631990354229 0 -0.43907384032152968 0.24815821867747409 0 -0.42508913708336871 0.22995631990354229 0 -0.41919383790749482 0.25502993091800108 0 -0.42508913708336871 0.22995631990354229 0 -0.41919383790749482 0.25502993091800108 0 -0.44567854052868461 0.23191270666537009 0 -0.42508913708336871 0.22995631990354229 0 -0.42840601614861512 0.2109016463768755 0 -0.42508913708336871 0.22995631990354229 0 -0.40701406779867888 0.2168970030888909 0 -0.42840601614861512 0.2109016463768755 0 -0.42508913708336871 0.22995631990354229 0 -0.40701406779867888 0.2168970030888909 0 -0.40541891423375742 0.24167011368318231 0 -0.40701406779867888 0.2168970030888909 0 -0.42840601614861512 0.2109016463768755 0 -0.41026230270298453 0.19982961721716469 0 -0.4378318111775919 0.1952053723401258 0 -0.42840601614861512 0.2109016463768755 0 -0.4239415447234578 0.19130075959006071 0 -0.42840601614861512 0.2109016463768755 0 -0.4239415447234578 0.19130075959006071 0 -0.41026230270298453 0.19982961721716469 0 -0.4239415447234578 0.19130075959006071 0 -0.41026230270298453 0.19982961721716469 0 -0.40657022772599882 0.1792467707742629 0 -0.41026230270298453 0.19982961721716469 0 -0.3923612620383235 0.19924101219947879 0 -0.40657022772599882 0.1792467707742629 0 -0.3923612620383235 0.19924101219947879 0 -0.38544354484086069 0.180025307577733 0 -0.36856737340239298 0.1923234897369494 0 -0.3923612620383235 0.19924101219947879 0 -0.37767966706662343 0.21310542944541699 0 -0.36856737340239298 0.1923234897369494 0 -0.3923612620383235 0.19924101219947879 0 -0.37767966706662343 0.21310542944541699 0 -0.39178708633099252 0.2149516156662975 0 -0.40701406779867888 0.2168970030888909 0 -0.41026230270298453 0.19982961721716469 0 -0.3923612620383235 0.19924101219947879 0 -0.40701406779867888 0.2168970030888909 0 -0.3923612620383235 0.19924101219947879 0 -0.39178708633099252 0.2149516156662975 0 -0.40701406779867888 0.2168970030888909 0 -0.39009334842034432 0.2305630179314033 0 -0.40541891423375742 0.24167011368318231 0 -0.40701406779867888 0.2168970030888909 0 -0.39178708633099252 0.2149516156662975 0 -0.39009334842034432 0.2305630179314033 0 -0.37767966706662343 0.21310542944541699 0 -0.39009334842034432 0.2305630179314033 0 -0.37026980444998381 0.22748331846288941 0 -0.39009334842034432 0.2305630179314033 0 -0.3734291426064843 0.24361466712641069 0 -0.37026980444998381 0.22748331846288941 0 -0.37767966706662343 0.21310542944541699 0 -0.39178708633099252 0.2149516156662975 0 -0.39009334842034432 0.2305630179314033 0 -0.39009334842034432 0.2305630179314033 0 -0.38878942418543988 0.2480786302863425 0 -0.3734291426064843 0.24361466712641069 0 -0.38878942418543988 0.2480786302863425 0 -0.3734291426064843 0.24361466712641069 0 -0.38018080483092531 0.25233920989092129 0 -0.39009334842034432 0.2305630179314033 0 -0.38878942418543988 0.2480786302863425 0 -0.40541891423375742 0.24167011368318231 0 -0.38878942418543988 0.2480786302863425 0 -0.40541891423375742 0.24167011368318231 0 -0.40015400882939561 0.25668931779519988 0 -0.41200733734242079 0.15169357683025411 0 -0.41257263020508361 0.12844236305368861 0 -0.43260653716037201 0.13372981046643509 0 -0.4291099291152643 0.11919909628543419 0 -0.41257263020508361 0.12844236305368861 0 -0.43260653716037201 0.13372981046643509 0 -0.41200733734242079 0.15169357683025411 0 -0.43260653716037201 0.13372981046643509 0 -0.43644457269163572 0.15098547125178691 0 -0.41200733734242079 0.15169357683025411 0 -0.43644457269163572 0.15098547125178691 0 -0.43110391902656919 0.1691813395931876 0 -0.4378318111775919 0.1952053723401258 0 -0.4239415447234578 0.19130075959006071 0 -0.43110391902656919 0.1691813395931876 0 -0.4239415447234578 0.19130075959006071 0 -0.43110391902656919 0.1691813395931876 0 -0.40657022772599882 0.1792467707742629 0 -0.41200733734242079 0.15169357683025411 0 -0.43110391902656919 0.1691813395931876 0 -0.40657022772599882 0.1792467707742629 0 -0.41200733734242079 0.15169357683025411 0 -0.43110391902656919 0.1691813395931876 0 -0.41200733734242079 0.15169357683025411 0 -0.40657022772599882 0.1792467707742629 0 -0.39305024370207148 0.1628178325099077 0 -0.40657022772599882 0.1792467707742629 0 -0.39305024370207148 0.1628178325099077 0 -0.38544354484086069 0.180025307577733 0 -0.3923612620383235 0.19924101219947879 0 -0.40657022772599882 0.1792467707742629 0 -0.38544354484086069 0.180025307577733 0 -0.39305024370207148 0.1628178325099077 0 -0.38544354484086069 0.180025307577733 0 -0.37004296696205019 0.16544125331106571 0 -0.39305024370207148 0.1628178325099077 0 -0.38137205417575132 0.14856841626747741 0 -0.37004296696205019 0.16544125331106571 0 -0.39305024370207148 0.1628178325099077 0 -0.38137205417575132 0.14856841626747741 0 -0.39291075565827233 0.13420581406732071 0 -0.41200733734242079 0.15169357683025411 0 -0.39305024370207148 0.1628178325099077 0 -0.39291075565827233 0.13420581406732071 0 -0.41200733734242079 0.15169357683025411 0 -0.39291075565827233 0.13420581406732071 0 -0.41200733734242079 0.15169357683025411 0 -0.41257263020508361 0.12844236305368861 0 -0.39291075565827233 0.13420581406732071 0 -0.39641339695437822 0.11750291113452629 0 -0.41257263020508361 0.12844236305368861 0 -0.39291075565827233 0.13420581406732071 0 -0.39291075565827233 0.13420581406732071 0 -0.37381417397412392 0.1167180513043872 0 -0.38137205417575132 0.14856841626747741 0 -0.39291075565827233 0.13420581406732071 0 -0.36577969738975791 0.13884561860793179 0 -0.39291075565827233 0.13420581406732071 0 -0.36577969738975791 0.13884561860793179 0 -0.37381417397412392 0.1167180513043872 0 -0.36577969738975791 0.13884561860793179 0 -0.34022053869913887 0.13033972171057889 0 -0.35560492087798778 0.1181017583417612 0 -0.36577969738975791 0.13884561860793179 0 -0.34491557743367401 0.16093612346306829 0 -0.34022053869913887 0.13033972171057889 0 -0.38137205417575132 0.14856841626747741 0 -0.36577969738975791 0.13884561860793179 0 -0.37004296696205019 0.16544125331106571 0 -0.36577969738975791 0.13884561860793179 0 -0.37004296696205019 0.16544125331106571 0 -0.34491557743367401 0.16093612346306829 0 -0.38544354484086069 0.180025307577733 0 -0.37004296696205019 0.16544125331106571 0 -0.36856737340239298 0.1923234897369494 0 -0.37004296696205019 0.16544125331106571 0 -0.35555964189634959 0.17828559794270649 0 -0.36856737340239298 0.1923234897369494 0 -0.35555964189634959 0.17828559794270649 0 -0.34491557743367401 0.16093612346306829 0 -0.33798110514652913 0.18501241736102531 0 -0.35555964189634959 0.17828559794270649 0 -0.33798110514652913 0.18501241736102531 0 -0.3508729186294951 0.1961168721361525 0 -0.37004296696205019 0.16544125331106571 0 -0.35555964189634959 0.17828559794270649 0 -0.34491557743367401 0.16093612346306829 0 -0.34491557743367401 0.16093612346306829 0 -0.32243660322326623 0.17229233238071759 0 -0.3257035558519572 0.1515488667521801 0 -0.34491557743367401 0.16093612346306829 0 -0.33798110514652913 0.18501241736102531 0 -0.32243660322326623 0.17229233238071759 0 -0.33798110514652913 0.18501241736102531 0 -0.32243660322326623 0.17229233238071759 0 -0.31615736789218668 0.19515962456648331 0 -0.32243660322326623 0.17229233238071759 0 -0.31615736789218668 0.19515962456648331 0 -0.30154253595641539 0.18216183513247999 0 -0.32243660322326623 0.17229233238071759 0 -0.3257035558519572 0.1515488667521801 0 -0.30875144127498588 0.15901683849301809 0 -0.3257035558519572 0.1515488667521801 0 -0.31596034659355637 0.1358718418535563 0 -0.30875144127498588 0.15901683849301809 0 -0.31596034659355637 0.1358718418535563 0 -0.34022053869913887 0.13033972171057889 0 -0.32596379540719028 0.1193342238200255 0 -0.3257035558519572 0.1515488667521801 0 -0.31596034659355637 0.1358718418535563 0 -0.34022053869913887 0.13033972171057889 0 -0.34491557743367401 0.16093612346306829 0 -0.3257035558519572 0.1515488667521801 0 -0.34022053869913887 0.13033972171057889 0 -0.35717261521517157 0.23448739476543329 0 -0.34971195047777359 0.24819366877491381 0 -0.36128033055929742 0.25511628690186772 0 -0.35717261521517157 0.23448739476543329 0 -0.34971195047777359 0.24819366877491381 0 -0.3401611055005469 0.24127581452547561 0 -0.35717261521517157 0.23448739476543329 0 -0.36128033055929742 0.25511628690186772 0 -0.34971195047777359 0.24819366877491381 0 -0.3401611055005469 0.24127581452547561 0 -0.34308868467317588 0.25390253283794129 0 -0.35717261521517157 0.23448739476543329 0 -0.3734291426064843 0.24361466712641069 0 -0.37026980444998381 0.22748331846288941 0 -0.35717261521517157 0.23448739476543329 0 -0.3734291426064843 0.24361466712641069 0 -0.36128033055929742 0.25511628690186772 0 -0.35717261521517157 0.23448739476543329 0 -0.37026980444998381 0.22748331846288941 0 -0.35306489987104578 0.213858502628999 0 -0.35717261521517157 0.23448739476543329 0 -0.35306489987104578 0.213858502628999 0 -0.3393229737144568 0.22542194349501671 0 -0.35717261521517157 0.23448739476543329 0 -0.35306489987104578 0.213858502628999 0 -0.35717261521517157 0.23448739476543329 0 -0.3393229737144568 0.22542194349501671 0 -0.3401611055005469 0.24127581452547561 0 -0.35306489987104578 0.213858502628999 0 -0.3508729186294951 0.1961168721361525 0 -0.33113383101598692 0.20791423494469941 0 -0.37767966706662343 0.21310542944541699 0 -0.37026980444998381 0.22748331846288941 0 -0.35306489987104578 0.213858502628999 0 -0.37767966706662343 0.21310542944541699 0 -0.35306489987104578 0.213858502628999 0 -0.36856737340239298 0.1923234897369494 0 -0.35306489987104578 0.213858502628999 0 -0.36856737340239298 0.1923234897369494 0 -0.3508729186294951 0.1961168721361525 0 -0.35555964189634959 0.17828559794270649 0 -0.36856737340239298 0.1923234897369494 0 -0.3508729186294951 0.1961168721361525 0 -0.33798110514652913 0.18501241736102531 0 -0.31615736789218668 0.19515962456648331 0 -0.33113383101598692 0.20791423494469941 0 -0.33798110514652913 0.18501241736102531 0 -0.3508729186294951 0.1961168721361525 0 -0.33113383101598692 0.20791423494469941 0 -0.33798110514652913 0.18501241736102531 0 -0.31615736789218668 0.19515962456648331 0 -0.31422334262587182 0.21840696620275549 0 -0.33113383101598692 0.20791423494469941 0 -0.31114191160715182 0.20749970969567791 0 -0.31615736789218668 0.19515962456648331 0 -0.33113383101598692 0.20791423494469941 0 -0.31114191160715182 0.20749970969567791 0 -0.31422334262587182 0.21840696620275549 0 -0.33113383101598692 0.20791423494469941 0 -0.32579389967956912 0.22406338227414141 0 -0.35306489987104578 0.213858502628999 0 -0.33113383101598692 0.20791423494469941 0 -0.3393229737144568 0.22542194349501671 0 -0.33113383101598692 0.20791423494469941 0 -0.3393229737144568 0.22542194349501671 0 -0.32579389967956912 0.22406338227414141 0 -0.3393229737144568 0.22542194349501671 0 -0.32579389967956912 0.22406338227414141 0 -0.32844660510390261 0.2374789926796744 0 -0.31422334262587182 0.21840696620275549 0 -0.32579389967956912 0.22406338227414141 0 -0.31558088427778191 0.22965952047579299 0 -0.32579389967956912 0.22406338227414141 0 -0.31558088427778191 0.22965952047579299 0 -0.32844660510390261 0.2374789926796744 0 -0.31558088427778191 0.22965952047579299 0 -0.31393164562622022 0.2419869163233693 0 -0.32844660510390261 0.2374789926796744 0 -0.31393164562622022 0.2419869163233693 0 -0.32497928784552199 0.24817505909587351 0 -0.31848232090602768 0.2536350737327836 0 -0.31393164562622022 0.2419869163233693 0 -0.30874994762413299 0.24955977154890691 0 -0.31848232090602768 0.2536350737327836 0 -0.31393164562622022 0.2419869163233693 0 -0.32497928784552199 0.24817505909587351 0 -0.32844660510390261 0.2374789926796744 0 -0.32497928784552199 0.24817505909587351 0 -0.32844660510390261 0.2374789926796744 0 -0.33475869207343439 0.2516473974976447 0 -0.3393229737144568 0.22542194349501671 0 -0.32844660510390261 0.2374789926796744 0 -0.3401611055005469 0.24127581452547561 0 -0.32844660510390261 0.2374789926796744 0 -0.3401611055005469 0.24127581452547561 0 -0.33475869207343439 0.2516473974976447 0 -0.3401611055005469 0.24127581452547561 0 -0.34308868467317588 0.25390253283794129 0 -0.33475869207343439 0.2516473974976447 0 -0.30046542147852079 0.24463347923818471 0 -0.272045278621739 0.24463782651653271 0 -0.27448136157065861 0.24963672867382861 0 -0.28926256587503468 0.23440115012053239 0 -0.30046542147852079 0.24463347923818471 0 -0.272045278621739 0.24463782651653271 0 -0.30046542147852079 0.24463347923818471 0 -0.272045278621739 0.24463782651653271 0 -0.31393164562622022 0.2419869163233693 0 -0.30046542147852079 0.24463347923818471 0 -0.30227399291622092 0.22899209002754231 0 -0.28926256587503468 0.23440115012053239 0 -0.30046542147852079 0.24463347923818471 0 -0.30227399291622092 0.22899209002754231 0 -0.31393164562622022 0.2419869163233693 0 -0.30046542147852079 0.24463347923818471 0 -0.30874994762413299 0.24955977154890691 0 -0.31558088427778191 0.22965952047579299 0 -0.31393164562622022 0.2419869163233693 0 -0.30227399291622092 0.22899209002754231 0 -0.31422334262587182 0.21840696620275549 0 -0.31558088427778191 0.22965952047579299 0 -0.30227399291622092 0.22899209002754231 0 -0.31422334262587182 0.21840696620275549 0 -0.30227399291622092 0.22899209002754231 0 -0.30081502570657248 0.21720730305080571 0 -0.30227399291622092 0.22899209002754231 0 -0.29254633942671038 0.2263270489387102 0 -0.30081502570657248 0.21720730305080571 0 -0.29254633942671038 0.2263270489387102 0 -0.29050172997198798 0.2176095773504618 0 -0.30081502570657248 0.21720730305080571 0 -0.28926256587503468 0.23440115012053239 0 -0.30227399291622092 0.22899209002754231 0 -0.29254633942671038 0.2263270489387102 0 -0.28926256587503468 0.23440115012053239 0 -0.29254633942671038 0.2263270489387102 0 -0.27891391491110529 0.22696029238513599 0 -0.29254633942671038 0.2263270489387102 0 -0.29050172997198798 0.2176095773504618 0 -0.27891391491110529 0.22696029238513599 0 -0.28578255120047191 0.2092827582537394 0 -0.29050172997198798 0.2176095773504618 0 -0.27891391491110529 0.22696029238513599 0 -0.28578255120047191 0.2092827582537394 0 -0.27891391491110529 0.22696029238513599 0 -0.28766219845576207 0.20444518539202841 0 -0.28578255120047191 0.2092827582537394 0 -0.27238218394387359 0.20457045738010091 0 -0.28766219845576207 0.20444518539202841 0 -0.28578255120047191 0.2092827582537394 0 -0.28578255120047191 0.2092827582537394 0 -0.29433363063784462 0.20530683177194181 0 -0.29050172997198798 0.2176095773504618 0 -0.28578255120047191 0.2092827582537394 0 -0.29433363063784462 0.20530683177194181 0 -0.28766219845576207 0.20444518539202841 0 -0.28578255120047191 0.2092827582537394 0 -0.29433363063784462 0.20530683177194181 0 -0.29433363063784462 0.20530683177194181 0 -0.29050172997198798 0.2176095773504618 0 -0.29433363063784462 0.20530683177194181 0 -0.29050172997198798 0.2176095773504618 0 -0.30081502570657248 0.21720730305080571 0 -0.29433363063784462 0.20530683177194181 0 -0.30081502570657248 0.21720730305080571 0 -0.31114191160715182 0.20749970969567791 0 -0.31422334262587182 0.21840696620275549 0 -0.30081502570657248 0.21720730305080571 0 -0.31114191160715182 0.20749970969567791 0 -0.31615736789218668 0.19515962456648331 0 -0.29433363063784462 0.20530683177194181 0 -0.31114191160715182 0.20749970969567791 0 -0.31615736789218668 0.19515962456648331 0 -0.29433363063784462 0.20530683177194181 0 -0.31615736789218668 0.19515962456648331 0 -0.29433363063784462 0.20530683177194181 0 -0.30154253595641539 0.18216183513247999 0 -0.29433363063784462 0.20530683177194181 0 -0.30154253595641539 0.18216183513247999 0 -0.29433363063784462 0.20530683177194181 0 -0.29072297729699148 0.19656778147151049 0 -0.30154253595641539 0.18216183513247999 0 -0.29072297729699148 0.19656778147151049 0 -0.27169949281025069 0.1890250345757592 0 -0.28752296336403921 0.18150596364003399 0 -0.28766219845576207 0.20444518539202841 0 -0.29072297729699148 0.19656778147151049 0 -0.27169949281025069 0.1890250345757592 0 -0.28766219845576207 0.20444518539202841 0 -0.29072297729699148 0.19656778147151049 0 -0.28766219845576207 0.20444518539202841 0 -0.29433363063784462 0.20530683177194181 0 -0.29072297729699148 0.19656778147151049 0 -0.28766219845576207 0.20444518539202841 0 -0.27169949281025069 0.1890250345757592 0 -0.27238218394387359 0.20457045738010091 0 -0.27169949281025069 0.1890250345757592 0 -0.25545390498132942 0.19952510780207949 0 -0.27238218394387359 0.20457045738010091 0 -0.28766219845576207 0.20444518539202841 0 -0.27169949281025069 0.1890250345757592 0 -0.25545390498132942 0.19952510780207949 0 -0.26183130113136183 0.22041917794430579 0 -0.24530879694021659 0.21591510619379961 0 -0.25545390498132942 0.19952510780207949 0 -0.27238218394387359 0.20457045738010091 0 -0.26183130113136183 0.22041917794430579 0 -0.28578255120047191 0.2092827582537394 0 -0.27238218394387359 0.20457045738010091 0 -0.26183130113136183 0.22041917794430579 0 -0.28578255120047191 0.2092827582537394 0 -0.26183130113136183 0.22041917794430579 0 -0.27891391491110529 0.22696029238513599 0 -0.26652809688752749 0.23270149710022359 0 -0.26183130113136183 0.22041917794430579 0 -0.28578255120047191 0.2092827582537394 0 -0.27891391491110529 0.22696029238513599 0 -0.26183130113136183 0.22041917794430579 0 -0.26183130113136183 0.22041917794430579 0 -0.25059828646462368 0.234254882215297 0 -0.23788005106225171 0.23155559763487199 0 -0.26652809688752749 0.23270149710022359 0 -0.26183130113136183 0.22041917794430579 0 -0.25059828646462368 0.234254882215297 0 -0.26652809688752749 0.23270149710022359 0 -0.25059828646462368 0.234254882215297 0 -0.26101456708527898 0.24463951382590729 0 -0.25059828646462368 0.234254882215297 0 -0.26101456708527898 0.24463951382590729 0 -0.25059828646462368 0.234254882215297 0 -0.26101456708527898 0.24463951382590729 0 -0.2458317757582171 0.2446418362568786 0 -0.26101456708527898 0.24463951382590729 0 -0.2562248113956862 0.25264095397355368 0 -0.2458317757582171 0.2446418362568786 0 -0.26101456708527898 0.24463951382590729 0 -0.2458317757582171 0.2446418362568786 0 -0.26101456708527898 0.24463951382590729 0 -0.26896489532231771 0.25256568564594778 0 -0.2562248113956862 0.25264095397355368 0 -0.26101456708527898 0.24463951382590729 0 -0.26896489532231771 0.25256568564594778 0 -0.272045278621739 0.24463782651653271 0 -0.27448136157065861 0.24963672867382861 0 -0.26896489532231771 0.25256568564594778 0 -0.26101456708527898 0.24463951382590729 0 -0.272045278621739 0.24463782651653271 0 -0.26101456708527898 0.24463951382590729 0 -0.272045278621739 0.24463782651653271 0 -0.26896489532231771 0.25256568564594778 0 -0.27891391491110529 0.22696029238513599 0 -0.272045278621739 0.24463782651653271 0 -0.272045278621739 0.24463782651653271 0 -0.26896489532231771 0.25256568564594778 0 -0.27891391491110529 0.22696029238513599 0 -0.26652809688752749 0.23270149710022359 0 -0.272045278621739 0.24463782651653271 0 -0.28926256587503468 0.23440115012053239 0 -0.27891391491110529 0.22696029238513599 0 -0.272045278621739 0.24463782651653271 0 -0.26652809688752749 0.23270149710022359 0 -0.26101456708527898 0.24463951382590729 0 -0.272045278621739 0.24463782651653271 0 -0.29767380758585049 0.13973473637452499 0 -0.2911058827000626 0.15729392406586759 0 -0.27985497594387299 0.14537465675298281 0 -0.2911058827000626 0.15729392406586759 0 -0.27998223580727982 0.1565827344505317 0 -0.27985497594387299 0.14537465675298281 0 -0.28475516892242819 0.13404525857474531 0 -0.29767380758585049 0.13973473637452499 0 -0.29291664873857848 0.1216601989624003 0 -0.28475516892242819 0.13404525857474531 0 -0.29767380758585049 0.13973473637452499 0 -0.27985497594387299 0.14537465675298281 0 -0.28475516892242819 0.13404525857474531 0 -0.27917847212057212 0.12518097984688031 0 -0.29291664873857848 0.1216601989624003 0 -0.29767380758585049 0.13973473637452499 0 -0.29291664873857848 0.1216601989624003 0 -0.30953615088753061 0.1169383712385309 0 -0.31596034659355637 0.1358718418535563 0 -0.29767380758585049 0.13973473637452499 0 -0.30953615088753061 0.1169383712385309 0 -0.31596034659355637 0.1358718418535563 0 -0.30875144127498588 0.15901683849301809 0 -0.31596034659355637 0.1358718418535563 0 -0.29767380758585049 0.13973473637452499 0 -0.30875144127498588 0.15901683849301809 0 -0.29767380758585049 0.13973473637452499 0 -0.30875144127498588 0.15901683849301809 0 -0.2911058827000626 0.15729392406586759 0 -0.32243660322326623 0.17229233238071759 0 -0.30875144127498588 0.15901683849301809 0 -0.30154253595641539 0.18216183513247999 0 -0.30875144127498588 0.15901683849301809 0 -0.2911058827000626 0.15729392406586759 0 -0.29370308939698458 0.16976735114365241 0 -0.30875144127498588 0.15901683849301809 0 -0.30154253595641539 0.18216183513247999 0 -0.30875144127498588 0.15901683849301809 0 -0.30154253595641539 0.18216183513247999 0 -0.29370308939698458 0.16976735114365241 0 -0.29072297729699148 0.19656778147151049 0 -0.30154253595641539 0.18216183513247999 0 -0.28752296336403921 0.18150596364003399 0 -0.30154253595641539 0.18216183513247999 0 -0.28752296336403921 0.18150596364003399 0 -0.29370308939698458 0.16976735114365241 0 -0.28752296336403921 0.18150596364003399 0 -0.29370308939698458 0.16976735114365241 0 -0.27959262368942001 0.1688581943868625 0 -0.2911058827000626 0.15729392406586759 0 -0.29370308939698458 0.16976735114365241 0 -0.27959262368942001 0.1688581943868625 0 -0.2911058827000626 0.15729392406586759 0 -0.27998223580727982 0.1565827344505317 0 -0.27959262368942001 0.1688581943868625 0 -0.27998223580727982 0.1565827344505317 0 -0.27959262368942001 0.1688581943868625 0 -0.2687112506178771 0.15783039269959731 0 -0.27959262368942001 0.1688581943868625 0 -0.26641721165673959 0.17024719215028669 0 -0.2687112506178771 0.15783039269959731 0 -0.27169949281025069 0.1890250345757592 0 -0.28752296336403921 0.18150596364003399 0 -0.27959262368942001 0.1688581943868625 0 -0.27169949281025069 0.1890250345757592 0 -0.27959262368942001 0.1688581943868625 0 -0.26641721165673959 0.17024719215028669 0 -0.27169949281025069 0.1890250345757592 0 -0.26641721165673959 0.17024719215028669 0 -0.25573678716474157 0.17360488375948779 0 -0.27169949281025069 0.1890250345757592 0 -0.25545390498132942 0.19952510780207949 0 -0.25573678716474157 0.17360488375948779 0 -0.25545390498132942 0.19952510780207949 0 -0.25573678716474157 0.17360488375948779 0 -0.2418993069338779 0.1889922423145152 0 -0.27169949281025069 0.1890250345757592 0 -0.25573678716474157 0.17360488375948779 0 -0.25573678716474157 0.17360488375948779 0 -0.25634590400140878 0.16191745532972679 0 -0.23977408151923521 0.15818473294321339 0 -0.26641721165673959 0.17024719215028669 0 -0.2687112506178771 0.15783039269959731 0 -0.25634590400140878 0.16191745532972679 0 -0.26641721165673959 0.17024719215028669 0 -0.25573678716474157 0.17360488375948779 0 -0.25634590400140878 0.16191745532972679 0 -0.25634590400140878 0.16191745532972679 0 -0.26106398264085962 0.14677362957853621 0 -0.24602255006612481 0.1470321805782657 0 -0.25634590400140878 0.16191745532972679 0 -0.24602255006612481 0.1470321805782657 0 -0.26106398264085962 0.14677362957853621 0 -0.25406439867483188 0.13267872147919099 0 -0.24602255006612481 0.1470321805782657 0 -0.2687112506178771 0.15783039269959731 0 -0.25634590400140878 0.16191745532972679 0 -0.26106398264085962 0.14677362957853621 0 -0.2687112506178771 0.15783039269959731 0 -0.26106398264085962 0.14677362957853621 0 -0.27155266879214918 0.14743811481270999 0 -0.27998223580727982 0.1565827344505317 0 -0.2687112506178771 0.15783039269959731 0 -0.27155266879214918 0.14743811481270999 0 -0.26106398264085962 0.14677362957853621 0 -0.27155266879214918 0.14743811481270999 0 -0.27088569607718532 0.13627100712188689 0 -0.27155266879214918 0.14743811481270999 0 -0.27985497594387299 0.14537465675298281 0 -0.27088569607718532 0.13627100712188689 0 -0.27998223580727982 0.1565827344505317 0 -0.27155266879214918 0.14743811481270999 0 -0.27985497594387299 0.14537465675298281 0 -0.27917847212057212 0.12518097984688031 0 -0.27088569607718532 0.13627100712188689 0 -0.27098584497965472 0.12688331599009051 0 -0.28475516892242819 0.13404525857474531 0 -0.27917847212057212 0.12518097984688031 0 -0.27088569607718532 0.13627100712188689 0 -0.28475516892242819 0.13404525857474531 0 -0.27985497594387299 0.14537465675298281 0 -0.27088569607718532 0.13627100712188689 0 -0.25406439867483188 0.13267872147919099 0 -0.26210624728353837 0.11832526238011599 0 -0.27098584497965472 0.12688331599009051 0 -0.25406439867483188 0.13267872147919099 0 -0.26587951610631222 0.1202544025608889 0 -0.27088569607718532 0.13627100712188689 0 -0.27098584497965472 0.12688331599009051 0 -0.25406439867483188 0.13267872147919099 0 -0.26106398264085962 0.14677362957853621 0 -0.27088569607718532 0.13627100712188689 0 -0.25406439867483188 0.13267872147919099 0 -0.25406439867483188 0.13267872147919099 0 -0.24602255006612481 0.1470321805782657 0 -0.25406439867483188 0.13267872147919099 0 -0.25441116082307419 0.1265357146924084 0 -0.26210624728353837 0.11832526238011599 0 -0.25441116082307419 0.1265357146924084 0 -0.26210624728353837 0.11832526238011599 0 -0.24365292380718279 0.1208865883448486 0 -0.26210624728353837 0.11832526238011599 0 -0.243468526753504 0.10879644870654499 0 -0.25406439867483188 0.13267872147919099 0 -0.26210624728353837 0.11832526238011599 0 -0.26587951610631222 0.1202544025608889 0 -0.26210624728353837 0.11832526238011599 0 -0.26587951610631222 0.1202544025608889 0 -0.26210624728353837 0.11832526238011599 0 -0.2537717784829327 0.095964561695398201 0 -0.243468526753504 0.10879644870654499 0 -0.26210624728353837 0.11832526238011599 0 -0.2537717784829327 0.095964561695398201 0 -0.27343204081487871 0.098110468229353806 0 -0.26210624728353837 0.11832526238011599 0 -0.27343204081487871 0.098110468229353806 0 -0.2766583535516377 0.1115707698530758 0 -0.27343204081487871 0.098110468229353806 0 -0.2766583535516377 0.1115707698530758 0 -0.2909389892298212 0.1031344083379727 0 -0.26210624728353837 0.11832526238011599 0 -0.27343204081487871 0.098110468229353806 0 -0.26587951610631222 0.1202544025608889 0 -0.2766583535516377 0.1115707698530758 0 -0.2734439129787426 0.1202479307515634 0 -0.27098584497965472 0.12688331599009051 0 -0.26587951610631222 0.1202544025608889 0 -0.2734439129787426 0.1202479307515634 0 -0.26210624728353837 0.11832526238011599 0 -0.26587951610631222 0.1202544025608889 0 -0.2766583535516377 0.1115707698530758 0 -0.27917847212057212 0.12518097984688031 0 -0.2766583535516377 0.1115707698530758 0 -0.2734439129787426 0.1202479307515634 0 -0.27917847212057212 0.12518097984688031 0 -0.27098584497965472 0.12688331599009051 0 -0.2734439129787426 0.1202479307515634 0 -0.2766583535516377 0.1115707698530758 0 -0.29291664873857848 0.1216601989624003 0 -0.2909389892298212 0.1031344083379727 0 -0.27917847212057212 0.12518097984688031 0 -0.2766583535516377 0.1115707698530758 0 -0.29291664873857848 0.1216601989624003 0 -0.2909389892298212 0.1031344083379727 0 -0.30953615088753061 0.1169383712385309 0 -0.3042604805298062 0.090629065205662218 0 -0.29291664873857848 0.1216601989624003 0 -0.2909389892298212 0.1031344083379727 0 -0.30953615088753061 0.1169383712385309 0 -0.30409957896834883 0.066561839665772671 0 -0.30580898911337939 0.05444206080702485 0 -0.31453643256296332 0.072509428267724343 0 -0.29815459711594622 0.074420561755107667 0 -0.30409957896834883 0.066561839665772671 0 -0.29571800362418538 0.058333462812900749 0 -0.29815459711594622 0.074420561755107667 0 -0.30409957896834883 0.066561839665772671 0 -0.3081712825220721 0.077424542203856972 0 -0.30409957896834883 0.066561839665772671 0 -0.3081712825220721 0.077424542203856972 0 -0.31453643256296332 0.072509428267724343 0 -0.3081712825220721 0.077424542203856972 0 -0.3042604805298062 0.090629065205662218 0 -0.31750345895412091 0.083635346863179028 0 -0.29815459711594622 0.074420561755107667 0 -0.3081712825220721 0.077424542203856972 0 -0.3042604805298062 0.090629065205662218 0 -0.2909389892298212 0.1031344083379727 0 -0.3042604805298062 0.090629065205662218 0 -0.28475783434621582 0.07789567407858991 0 -0.29815459711594622 0.074420561755107667 0 -0.3042604805298062 0.090629065205662218 0 -0.28475783434621582 0.07789567407858991 0 -0.3042604805298062 0.090629065205662218 0 -0.28475783434621582 0.07789567407858991 0 -0.27343204081487871 0.098110468229353806 0 -0.2909389892298212 0.1031344083379727 0 -0.28475783434621582 0.07789567407858991 0 -0.29815459711594622 0.074420561755107667 0 -0.28475783434621582 0.07789567407858991 0 -0.29571800362418538 0.058333462812900749 0 -0.28475783434621582 0.07789567407858991 0 -0.27933491237401881 0.055164007039347387 0 -0.29571800362418538 0.058333462812900749 0 -0.28475783434621582 0.07789567407858991 0 -0.29571800362418538 0.058333462812900749 0 -0.28475783434621582 0.07789567407858991 0 -0.26831210480595608 0.067158161607981451 0 -0.2629584421153387 0.081938788083593408 0 -0.28475783434621582 0.07789567407858991 0 -0.26831210480595608 0.067158161607981451 0 -0.28475783434621582 0.07789567407858991 0 -0.26831210480595608 0.067158161607981451 0 -0.27933491237401881 0.055164007039347387 0 -0.27343204081487871 0.098110468229353806 0 -0.28475783434621582 0.07789567407858991 0 -0.2629584421153387 0.081938788083593408 0 -0.27343204081487871 0.098110468229353806 0 -0.28475783434621582 0.07789567407858991 0 -0.2537717784829327 0.095964561695398201 0 -0.27343204081487871 0.098110468229353806 0 -0.2629584421153387 0.081938788083593408 0 -0.2537717784829327 0.095964561695398201 0 -0.2629584421153387 0.081938788083593408 0 -0.24683542196520969 0.082089144996896957 0 -0.26831210480595608 0.067158161607981451 0 -0.2629584421153387 0.081938788083593408 0 -0.25037345346053019 0.069816026369570752 0 -0.26831210480595608 0.067158161607981451 0 -0.25037345346053019 0.069816026369570752 0 -0.25186637526569661 0.056420649137372901 0 -0.2629584421153387 0.081938788083593408 0 -0.25037345346053019 0.069816026369570752 0 -0.24683542196520969 0.082089144996896957 0 -0.26831210480595608 0.067158161607981451 0 -0.25186637526569661 0.056420649137372901 0 -0.26831210480595608 0.067158161607981451 0 -0.25186637526569661 0.056420649137372901 0 -0.26307015112956111 0.050219685488485953 0 -0.25186637526569661 0.056420649137372901 0 -0.26307015112956111 0.050219685488485953 0 -0.2501356657824777 0.046148780166555312 0 -0.26307015112956111 0.050219685488485953 0 -0.2501356657824777 0.046148780166555312 0 -0.25427837431537742 0.035743851304136709 0 -0.26307015112956111 0.050219685488485953 0 -0.25427837431537742 0.035743851304136709 0 -0.27412760529025232 0.040288041924334557 0 -0.27412760529025232 0.040288041924334557 0 -0.27933491237401881 0.055164007039347387 0 -0.29002377504794102 0.037089016323790802 0 -0.25427837431537742 0.035743851304136709 0 -0.27412760529025232 0.040288041924334557 0 -0.27106777196120319 0.025701165967161071 0 -0.26307015112956111 0.050219685488485953 0 -0.27412760529025232 0.040288041924334557 0 -0.27933491237401881 0.055164007039347387 0 -0.26831210480595608 0.067158161607981451 0 -0.26307015112956111 0.050219685488485953 0 -0.27933491237401881 0.055164007039347387 0 -0.25953907979982299 0.01698571796916977 0 -0.2678291607578675 0.0073283628669539892 0 -0.24860392296443271 0.0047567696316496919 0 -0.26976557738737422 -0.0052509948471027579 0 -0.2678291607578675 0.0073283628669539892 0 -0.24860392296443271 0.0047567696316496919 0 -0.25427837431537742 0.035743851304136709 0 -0.25953907979982299 0.01698571796916977 0 -0.27106777196120319 0.025701165967161071 0 -0.25427837431537742 0.035743851304136709 0 -0.25953907979982299 0.01698571796916977 0 -0.23964577810993001 0.021412851421280341 0 -0.25953907979982299 0.01698571796916977 0 -0.27106777196120319 0.025701165967161071 0 -0.279432381489716 0.012558584517059211 0 -0.27412760529025232 0.040288041924334557 0 -0.27106777196120319 0.025701165967161071 0 -0.28269374005944919 0.026311675249724071 0 -0.27106777196120319 0.025701165967161071 0 -0.279432381489716 0.012558584517059211 0 -0.28269374005944919 0.026311675249724071 0 -0.25953907979982299 0.01698571796916977 0 -0.279432381489716 0.012558584517059211 0 -0.2678291607578675 0.0073283628669539892 0 -0.279432381489716 0.012558584517059211 0 -0.28527998823394418 0.0024290452339454649 0 -0.25953907979982299 0.01698571796916977 0 -0.2678291607578675 0.0073283628669539892 0 -0.279432381489716 0.012558584517059211 0 -0.26976557738737422 -0.0052509948471027579 0 -0.2678291607578675 0.0073283628669539892 0 -0.28527998823394418 0.0024290452339454649 0 -0.28527998823394418 0.0024290452339454649 0 -0.29597908056804889 0.020600148390578041 0 -0.28527998823394418 0.0024290452339454649 0 -0.29597908056804889 0.020600148390578041 0 -0.29864240468027509 0.0057494155618949307 0 -0.279432381489716 0.012558584517059211 0 -0.28527998823394418 0.0024290452339454649 0 -0.29597908056804889 0.020600148390578041 0 -0.2972404981886525 -0.004056826750551662 0 -0.28527998823394418 0.0024290452339454649 0 -0.29864240468027509 0.0057494155618949307 0 -0.29597908056804889 0.020600148390578041 0 -0.28269374005944919 0.026311675249724071 0 -0.29002377504794102 0.037089016323790802 0 -0.279432381489716 0.012558584517059211 0 -0.29597908056804889 0.020600148390578041 0 -0.28269374005944919 0.026311675249724071 0 -0.30747969686334559 0.022148407693098199 0 -0.30667817290215338 0.038771251547210631 0 -0.31831661925849258 0.01799842033877461 0 -0.30667817290215338 0.038771251547210631 0 -0.31831661925849258 0.01799842033877461 0 -0.29597908056804889 0.020600148390578041 0 -0.30747969686334559 0.022148407693098199 0 -0.30667817290215338 0.038771251547210631 0 -0.29597908056804889 0.020600148390578041 0 -0.30667817290215338 0.038771251547210631 0 -0.30747969686334559 0.022148407693098199 0 -0.30909432816049692 0.01065692180946513 0 -0.31831661925849258 0.01799842033877461 0 -0.29597908056804889 0.020600148390578041 0 -0.30747969686334559 0.022148407693098199 0 -0.30909432816049692 0.01065692180946513 0 -0.29597908056804889 0.020600148390578041 0 -0.30909432816049692 0.01065692180946513 0 -0.29864240468027509 0.0057494155618949307 0 -0.30779985458359332 -0.00074477798804285236 0 -0.30909432816049692 0.01065692180946513 0 -0.31694133288297072 0.0035041363377617449 0 -0.30779985458359332 -0.00074477798804285236 0 -0.30909432816049692 0.01065692180946513 0 -0.29864240468027509 0.0057494155618949307 0 -0.30779985458359332 -0.00074477798804285236 0 -0.2972404981886525 -0.004056826750551662 0 -0.29864240468027509 0.0057494155618949307 0 -0.27933491237401881 0.055164007039347387 0 -0.29571800362418538 0.058333462812900749 0 -0.29002377504794102 0.037089016323790802 0 -0.27412760529025232 0.040288041924334557 0 -0.28269374005944919 0.026311675249724071 0 -0.29002377504794102 0.037089016323790802 0 -0.29571800362418538 0.058333462812900749 0 -0.29002377504794102 0.037089016323790802 0 -0.30667817290215338 0.038771251547210631 0 -0.29597908056804889 0.020600148390578041 0 -0.29002377504794102 0.037089016323790802 0 -0.30667817290215338 0.038771251547210631 0 -0.29571800362418538 0.058333462812900749 0 -0.30667817290215338 0.038771251547210631 0 -0.30580898911337939 0.05444206080702485 0 -0.29571800362418538 0.058333462812900749 0 -0.30667817290215338 0.038771251547210631 0 -0.30667817290215338 0.038771251547210631 0 -0.30580898911337939 0.05444206080702485 0 -0.32005770385020249 0.061494752705283047 0 -0.30409957896834883 0.066561839665772671 0 -0.29571800362418538 0.058333462812900749 0 -0.30580898911337939 0.05444206080702485 0 -0.30667817290215338 0.038771251547210631 0 -0.32005770385020249 0.061494752705283047 0 -0.328733528922727 0.046299029128039682 0 -0.30667817290215338 0.038771251547210631 0 -0.32005770385020249 0.061494752705283047 0 -0.30580898911337939 0.05444206080702485 0 -0.31719070241124259 0.062283146290304472 0 -0.32005770385020249 0.061494752705283047 0 -0.31719070241124259 0.062283146290304472 0 -0.32005770385020249 0.061494752705283047 0 -0.30667817290215338 0.038771251547210631 0 -0.328733528922727 0.046299029128039682 0 -0.32678615961130969 0.030848632977574741 0 -0.328733528922727 0.046299029128039682 0 -0.34105842827855959 0.035498094385926937 0 -0.34441267301206291 0.054797406415283342 0 -0.328733528922727 0.046299029128039682 0 -0.34105842827855959 0.035498094385926937 0 -0.32678615961130969 0.030848632977574741 0 -0.32005770385020249 0.061494752705283047 0 -0.34441267301206291 0.054797406415283342 0 -0.33943062238907928 0.069649426709327264 0 -0.32005770385020249 0.061494752705283047 0 -0.328733528922727 0.046299029128039682 0 -0.34441267301206291 0.054797406415283342 0 -0.32005770385020249 0.061494752705283047 0 -0.34441267301206291 0.054797406415283342 0 -0.33007213335467039 -0.0027629659657771081 0 -0.31831661925849258 0.01799842033877461 0 -0.32894095329293871 0.0088076592239291519 0 -0.33007213335467039 -0.0027629659657771081 0 -0.31694133288297072 0.0035041363377617449 0 -0.31831661925849258 0.01799842033877461 0 -0.33007213335467039 -0.0027629659657771081 0 -0.31831661925849258 0.01799842033877461 0 -0.30909432816049692 0.01065692180946513 0 -0.31694133288297072 0.0035041363377617449 0 -0.31831661925849258 0.01799842033877461 0 -0.30667817290215338 0.038771251547210631 0 -0.31831661925849258 0.01799842033877461 0 -0.32678615961130969 0.030848632977574741 0 -0.31831661925849258 0.01799842033877461 0 -0.32678615961130969 0.030848632977574741 0 -0.32894095329293871 0.0088076592239291519 0 -0.32678615961130969 0.030848632977574741 0 -0.32894095329293871 0.0088076592239291519 0 -0.32678615961130969 0.030848632977574741 0 -0.33730278358275201 0.021411280645692421 0 -0.32894095329293871 0.0088076592239291519 0 -0.34105842827855959 0.035498094385926937 0 -0.32678615961130969 0.030848632977574741 0 -0.33730278358275201 0.021411280645692421 0 -0.34105842827855959 0.035498094385926937 0 -0.33730278358275201 0.021411280645692421 0 -0.34695595696654791 0.02169467815398355 0 -0.33730278358275201 0.021411280645692421 0 -0.34277241976440398 0.01020733848704773 0 -0.34695595696654791 0.02169467815398355 0 -0.33730278358275201 0.021411280645692421 0 -0.32894095329293871 0.0088076592239291519 0 -0.34277241976440398 0.01020733848704773 0 -0.34951862856677279 -0.00030642019435179948 0 -0.33881477357547979 -0.001256556137510032 0 -0.34277241976440398 0.01020733848704773 0 -0.33881477357547979 -0.001256556137510032 0 -0.32894095329293871 0.0088076592239291519 0 -0.34277241976440398 0.01020733848704773 0 -0.33007213335467039 -0.0027629659657771081 0 -0.32894095329293871 0.0088076592239291519 0 -0.33881477357547979 -0.001256556137510032 0 -0.33007213335467039 -0.0027629659657771081 0 -0.32894095329293871 0.0088076592239291519 0 -0.36197407125321268 -0.004390766724155332 0 -0.34951862856677279 -0.00030642019435179948 0 -0.35831030833044958 0.011867426353667219 0 -0.34951862856677279 -0.00030642019435179948 0 -0.34277241976440398 0.01020733848704773 0 -0.35831030833044958 0.011867426353667219 0 -0.34277241976440398 0.01020733848704773 0 -0.35831030833044958 0.011867426353667219 0 -0.34695595696654791 0.02169467815398355 0 -0.35831030833044958 0.011867426353667219 0 -0.34695595696654791 0.02169467815398355 0 -0.35785718498379948 0.024083371206641731 0 -0.34105842827855959 0.035498094385926937 0 -0.34695595696654791 0.02169467815398355 0 -0.35604176260023063 0.036400777554581022 0 -0.34695595696654791 0.02169467815398355 0 -0.35785718498379948 0.024083371206641731 0 -0.35604176260023063 0.036400777554581022 0 -0.35785718498379948 0.024083371206641731 0 -0.37012071203797009 0.02637060276433513 0 -0.35604176260023063 0.036400777554581022 0 -0.35831030833044958 0.011867426353667219 0 -0.35785718498379948 0.024083371206641731 0 -0.37012071203797009 0.02637060276433513 0 -0.36197407125321268 -0.004390766724155332 0 -0.35831030833044958 0.011867426353667219 0 -0.37147378190201819 0.0046411454033882336 0 -0.381363295698458 0.01387110441200177 0 -0.37012071203797009 0.02637060276433513 0 -0.37147378190201819 0.0046411454033882336 0 -0.35831030833044958 0.011867426353667219 0 -0.37012071203797009 0.02637060276433513 0 -0.37147378190201819 0.0046411454033882336 0 -0.37012071203797009 0.02637060276433513 0 -0.37147378190201819 0.0046411454033882336 0 -0.34441267301206291 0.054797406415283342 0 -0.36876764217392288 0.048100060125282167 0 -0.34441267301206291 0.054797406415283342 0 -0.35604176260023063 0.036400777554581022 0 -0.36876764217392288 0.048100060125282167 0 -0.34105842827855959 0.035498094385926937 0 -0.34441267301206291 0.054797406415283342 0 -0.35604176260023063 0.036400777554581022 0 -0.37012071203797009 0.02637060276433513 0 -0.35604176260023063 0.036400777554581022 0 -0.36876764217392288 0.048100060125282167 0 -0.3836259417677727 0.0302762137817486 0 -0.37012071203797009 0.02637060276433513 0 -0.36876764217392288 0.048100060125282167 0 -0.37012071203797009 0.02637060276433513 0 -0.36876764217392288 0.048100060125282167 0 -0.34441267301206291 0.054797406415283342 0 -0.36876764217392288 0.048100060125282167 0 -0.36778124684691488 0.063940953318418564 0 -0.38641379350252542 0.053627327917174783 0 -0.36876764217392288 0.048100060125282167 0 -0.36778124684691488 0.063940953318418564 0 -0.36876764217392288 0.048100060125282167 0 -0.36778124684691488 0.063940953318418564 0 -0.36778124684691488 0.063940953318418564 0 -0.36300709166543138 0.074068295298519549 0 -0.35170112872637049 0.072841739548470369 0 -0.36778124684691488 0.063940953318418564 0 -0.35170112872637049 0.072841739548470369 0 -0.37205637473515563 0.069182155195043907 0 -0.36778124684691488 0.063940953318418564 0 -0.36300709166543138 0.074068295298519549 0 -0.3760816295596035 0.064207970313993334 0 -0.37205637473515563 0.069182155195043907 0 -0.36778124684691488 0.063940953318418564 0 -0.37205637473515563 0.069182155195043907 0 -0.37188823341085492 0.075108573494756664 0 -0.36300709166543138 0.074068295298519549 0 -0.37987154503301312 0.075620863096035051 0 -0.37205637473515563 0.069182155195043907 0 -0.37188823341085492 0.075108573494756664 0 -0.34441267301206291 0.054797406415283342 0 -0.35170112872637049 0.072841739548470369 0 -0.33943062238907928 0.069649426709327264 0 -0.34441267301206291 0.054797406415283342 0 -0.36778124684691488 0.063940953318418564 0 -0.35170112872637049 0.072841739548470369 0 -0.36300709166543138 0.074068295298519549 0 -0.35170112872637049 0.072841739548470369 0 -0.35586657242461123 0.084255777963141376 0 -0.35586657242461123 0.084255777963141376 0 -0.35471759228997529 0.099230288541453701 0 -0.33562101060582572 0.081742525778521535 0 -0.35170112872637049 0.072841739548470369 0 -0.35586657242461123 0.084255777963141376 0 -0.33562101060582572 0.081742525778521535 0 -0.35471759228997529 0.099230288541453701 0 -0.33562101060582572 0.081742525778521535 0 -0.35586657242461123 0.084255777963141376 0 -0.37313865407702163 0.08644003925618568 0 -0.35471759228997529 0.099230288541453701 0 -0.36300709166543138 0.074068295298519549 0 -0.35586657242461123 0.084255777963141376 0 -0.37313865407702163 0.08644003925618568 0 -0.37188823341085492 0.075108573494756664 0 -0.36300709166543138 0.074068295298519549 0 -0.37313865407702163 0.08644003925618568 0 -0.37987154503301312 0.075620863096035051 0 -0.37188823341085492 0.075108573494756664 0 -0.37313865407702163 0.08644003925618568 0 -0.38054751812655152 0.1014212848729293 0 -0.37381417397412392 0.1167180513043872 0 -0.35471759228997529 0.099230288541453701 0 -0.37381417397412392 0.1167180513043872 0 -0.35471759228997529 0.099230288541453701 0 -0.38054751812655152 0.1014212848729293 0 -0.37313865407702163 0.08644003925618568 0 -0.35471759228997529 0.099230288541453701 0 -0.37381417397412392 0.1167180513043872 0 -0.35560492087798778 0.1181017583417612 0 -0.35471759228997529 0.099230288541453701 0 -0.36577969738975791 0.13884561860793179 0 -0.37381417397412392 0.1167180513043872 0 -0.35560492087798778 0.1181017583417612 0 -0.34022053869913887 0.13033972171057889 0 -0.35560492087798778 0.1181017583417612 0 -0.34033881414232853 0.11015872796472689 0 -0.35471759228997529 0.099230288541453701 0 -0.34033881414232853 0.11015872796472689 0 -0.33874212917847318 0.093227969828773266 0 -0.35560492087798778 0.1181017583417612 0 -0.35471759228997529 0.099230288541453701 0 -0.34033881414232853 0.11015872796472689 0 -0.34033881414232853 0.11015872796472689 0 -0.3237631267133968 0.1033624563327344 0 -0.33874212917847318 0.093227969828773266 0 -0.3237631267133968 0.1033624563327344 0 -0.32386274101498841 0.092426156434647355 0 -0.33874212917847318 0.093227969828773266 0 -0.34022053869913887 0.13033972171057889 0 -0.34033881414232853 0.11015872796472689 0 -0.32596379540719028 0.1193342238200255 0 -0.34033881414232853 0.11015872796472689 0 -0.32596379540719028 0.1193342238200255 0 -0.3237631267133968 0.1033624563327344 0 -0.30953615088753061 0.1169383712385309 0 -0.32596379540719028 0.1193342238200255 0 -0.3237631267133968 0.1033624563327344 0 -0.31596034659355637 0.1358718418535563 0 -0.30953615088753061 0.1169383712385309 0 -0.32596379540719028 0.1193342238200255 0 -0.3042604805298062 0.090629065205662218 0 -0.3237631267133968 0.1033624563327344 0 -0.3042604805298062 0.090629065205662218 0 -0.3237631267133968 0.1033624563327344 0 -0.32386274101498841 0.092426156434647355 0 -0.30953615088753061 0.1169383712385309 0 -0.3042604805298062 0.090629065205662218 0 -0.3237631267133968 0.1033624563327344 0 -0.3042604805298062 0.090629065205662218 0 -0.32386274101498841 0.092426156434647355 0 -0.31750345895412091 0.083635346863179028 0 -0.32386274101498841 0.092426156434647355 0 -0.3258147797806592 0.086850656274454388 0 -0.31750345895412091 0.083635346863179028 0 -0.3258147797806592 0.086850656274454388 0 -0.32421297667858839 0.080778391475094413 0 -0.31750345895412091 0.083635346863179028 0 -0.32421297667858839 0.080778391475094413 0 -0.32771861893853588 0.074505882434539386 0 -0.33111290182085679 0.084237887584699439 0 -0.3258147797806592 0.086850656274454388 0 -0.32421297667858839 0.080778391475094413 0 -0.33111290182085679 0.084237887584699439 0 -0.32421297667858839 0.080778391475094413 0 -0.31750345895412091 0.083635346863179028 0 -0.31453643256296332 0.072509428267724343 0 -0.30580898911337939 0.05444206080702485 0 -0.31453643256296332 0.072509428267724343 0 -0.32771861893853588 0.074505882434539386 0 -0.30580898911337939 0.05444206080702485 0 -0.31719070241124259 0.062283146290304472 0 -0.32771861893853588 0.074505882434539386 0 -0.3081712825220721 0.077424542203856972 0 -0.31750345895412091 0.083635346863179028 0 -0.31453643256296332 0.072509428267724343 0 -0.30580898911337939 0.05444206080702485 0 -0.32771861893853588 0.074505882434539386 0 -0.31719070241124259 0.062283146290304472 0 -0.32005770385020249 0.061494752705283047 0 -0.32771861893853588 0.074505882434539386 0 -0.32005770385020249 0.061494752705283047 0 -0.32771861893853588 0.074505882434539386 0 -0.32421297667858839 0.080778391475094413 0 -0.31453643256296332 0.072509428267724343 0 -0.32771861893853588 0.074505882434539386 0 -0.35170112872637049 0.072841739548470369 0 -0.33562101060582572 0.081742525778521535 0 -0.32005770385020249 0.061494752705283047 0 -0.32771861893853588 0.074505882434539386 0 -0.33943062238907928 0.069649426709327264 0 -0.32771861893853588 0.074505882434539386 0 -0.33562101060582572 0.081742525778521535 0 -0.35170112872637049 0.072841739548470369 0 -0.33943062238907928 0.069649426709327264 0 -0.33562101060582572 0.081742525778521535 0 -0.32771861893853588 0.074505882434539386 0 -0.33943062238907928 0.069649426709327264 0 -0.33562101060582572 0.081742525778521535 0 -0.35471759228997529 0.099230288541453701 0 -0.33874212917847318 0.093227969828773266 0 -0.33562101060582572 0.081742525778521535 0 -0.33874212917847318 0.093227969828773266 0 -0.33287462311385652 0.083262726549915178 0 -0.3258147797806592 0.086850656274454388 0 -0.33874212917847318 0.093227969828773266 0 -0.33111290182085679 0.084237887584699439 0 -0.32386274101498841 0.092426156434647355 0 -0.3258147797806592 0.086850656274454388 0 -0.33874212917847318 0.093227969828773266 0 -0.33874212917847318 0.093227969828773266 0 -0.33111290182085679 0.084237887584699439 0 -0.33287462311385652 0.083262726549915178 0 -0.33874212917847318 0.093227969828773266 0 -0.33562101060582572 0.081742525778521535 0 -0.33287462311385652 0.083262726549915178 0 -0.32771861893853588 0.074505882434539386 0 -0.33562101060582572 0.081742525778521535 0 -0.33287462311385652 0.083262726549915178 0 -0.32771861893853588 0.074505882434539386 0 -0.33111290182085679 0.084237887584699439 0 -0.33287462311385652 0.083262726549915178 0 -0.32771861893853588 0.074505882434539386 0 -0.33287462311385652 0.083262726549915178 0 -0.33111290182085679 0.084237887584699439 0 -0.33287462311385652 0.083262726549915178 0 -0.33562101060582572 0.081742525778521535 0 -0.33287462311385652 0.083262726549915178 0 -0.39222255982279819 0.48231034484248791 0 -0.4100056195322978 0.46876680421336581 0 -0.40698816055146741 0.5 0 -0.39222255982279819 0.48231034484248791 0 -0.39060898701769092 0.4625918504835716 0 -0.4100056195322978 0.46876680421336581 0 -0.39222255982279819 0.48231034484248791 0 -0.38023750520401478 0.5 0 -0.40698816055146741 0.5 0 -0.39222255982279819 0.48231034484248791 0 -0.38023750520401478 0.5 0 -0.3732725268085203 0.48019306951550211 0 -0.39222255982279819 0.48231034484248791 0 -0.39060898701769092 0.4625918504835716 0 -0.3732725268085203 0.48019306951550211 0 -0.39060898701769092 0.4625918504835716 0 -0.37053214896882142 0.45923328227207161 0 -0.3732725268085203 0.48019306951550211 0 -0.39060898701769092 0.4625918504835716 0 -0.39302479441777022 0.44237989162062302 0 -0.37053214896882142 0.45923328227207161 0 -0.39302479441777022 0.44237989162062302 0 -0.37072554411125602 0.44147586445686993 0 -0.37053214896882142 0.45923328227207161 0 -0.39302479441777022 0.44237989162062302 0 -0.37053214896882142 0.45923328227207161 0 -0.39302479441777022 0.44237989162062302 0 -0.38482884097687969 0.43012740432301882 0 -0.37072554411125602 0.44147586445686993 0 -0.39302479441777022 0.44237989162062302 0 -0.40248986165694661 0.45401238571375158 0 -0.41210729628047449 0.44463841792083691 0 -0.39060898701769092 0.4625918504835716 0 -0.39302479441777022 0.44237989162062302 0 -0.40248986165694661 0.45401238571375158 0 -0.39060898701769092 0.4625918504835716 0 -0.40248986165694661 0.45401238571375158 0 -0.4100056195322978 0.46876680421336581 0 -0.40248986165694661 0.45401238571375158 0 -0.42150245951537912 0.45899091928433888 0 -0.4100056195322978 0.46876680421336581 0 -0.41210729628047449 0.44463841792083691 0 -0.43022626038476153 0.44477215353320593 0 -0.41551743986671907 0.42552650096917433 0 -0.42150245951537912 0.45899091928433888 0 -0.41210729628047449 0.44463841792083691 0 -0.43022626038476153 0.44477215353320593 0 -0.40248986165694661 0.45401238571375158 0 -0.42150245951537912 0.45899091928433888 0 -0.41210729628047449 0.44463841792083691 0 -0.39302479441777022 0.44237989162062302 0 -0.41210729628047449 0.44463841792083691 0 -0.41551743986671907 0.42552650096917433 0 -0.42150245951537912 0.45899091928433888 0 -0.42916403599628522 0.47857881866423108 0 -0.4450216832415092 0.46317693566064178 0 -0.42150245951537912 0.45899091928433888 0 -0.43022626038476153 0.44477215353320593 0 -0.4450216832415092 0.46317693566064178 0 -0.42150245951537912 0.45899091928433888 0 -0.42916403599628522 0.47857881866423108 0 -0.4100056195322978 0.46876680421336581 0 -0.42916403599628522 0.47857881866423108 0 -0.4100056195322978 0.46876680421336581 0 -0.40698816055146741 0.5 0 -0.42916403599628522 0.47857881866423108 0 -0.40698816055146741 0.5 0 -0.43373881589891983 0.50000000000000211 0 -0.43373881589891983 0.50000000000000211 0 -0.45692307754428862 0.48272217629666297 0 -0.47256631961575951 0.48498041557885913 0 -0.43373881589891983 0.50000000000000211 0 -0.45692307754428862 0.48272217629666297 0 -0.43373881589891983 0.50000000000000211 0 -0.5 0.5 0 -0.47256631961575951 0.48498041557885913 0 -0.42916403599628522 0.47857881866423108 0 -0.43373881589891983 0.50000000000000211 0 -0.45692307754428862 0.48272217629666297 0 -0.42916403599628522 0.47857881866423108 0 -0.45692307754428862 0.48272217629666297 0 -0.4450216832415092 0.46317693566064178 0 -0.45692307754428862 0.48272217629666297 0 -0.48010733918965642 0.46544435259332262 0 -0.45692307754428862 0.48272217629666297 0 -0.45987513576153882 0.46793528741219559 0 -0.4450216832415092 0.46317693566064178 0 -0.45692307754428862 0.48272217629666297 0 -0.48010733918965642 0.46544435259332262 0 -0.45987513576153882 0.46793528741219559 0 -0.5 0.5 0 -0.47256631961575951 0.48498041557885913 0 -0.48303903788037222 0.46872643200312092 0 -0.5 0.5 0 -0.49999999999999889 0.45872665708270183 0 -0.48303903788037222 0.46872643200312092 0 -0.47256631961575951 0.48498041557885913 0 -0.48010733918965642 0.46544435259332262 0 -0.48303903788037222 0.46872643200312092 0 -0.47256631961575951 0.48498041557885913 0 -0.48303903788037222 0.46872643200312092 0 -0.45692307754428862 0.48272217629666297 0 -0.47256631961575951 0.48498041557885913 0 -0.48010733918965642 0.46544435259332262 0 -0.4971535693504826 0.44682024137546661 0 -0.4935117561449866 0.45247244842738371 0 -0.48125489555111561 0.44779737943753189 0 -0.4971535693504826 0.44682024137546661 0 -0.48125489555111561 0.44779737943753189 0 -0.47990452504965742 0.43684161472961319 0 -0.50000000000000022 0.44240249272054832 0 -0.4971535693504826 0.44682024137546661 0 -0.50000000000000022 0.44240249272054832 0 -0.4971535693504826 0.44682024137546661 0 -0.50000000000000067 0.45104012796767962 0 -0.4971535693504826 0.44682024137546661 0 -0.49825452328199332 0.45142545288317432 0 -0.4935117561449866 0.45247244842738371 0 -0.49825452328199332 0.45142545288317432 0 -0.4971535693504826 0.44682024137546661 0 -0.4935117561449866 0.45247244842738371 0 -0.4971535693504826 0.44682024137546661 0 -0.4935117561449866 0.45247244842738371 0 -0.49825452328199332 0.45142545288317432 0 -0.4971535693504826 0.44682024137546661 0 -0.50000000000000067 0.45104012796767962 0 -0.49825452328199332 0.45142545288317432 0 -0.50000000000000067 0.45104012796767962 0 -0.49825452328199332 0.45142545288317432 0 -0.4935117561449866 0.45247244842738371 0 -0.48010733918965642 0.46544435259332262 0 -0.48303903788037222 0.46872643200312092 0 -0.4935117561449866 0.45247244842738371 0 -0.48303903788037222 0.46872643200312092 0 -0.50000000000000067 0.45104012796767962 0 -0.49825452328199332 0.45142545288317432 0 -0.49999999999999889 0.45872665708270183 0 -0.4935117561449866 0.45247244842738371 0 -0.49999999999999889 0.45872665708270183 0 -0.48303903788037222 0.46872643200312092 0 -0.49825452328199332 0.45142545288317432 0 -0.49999999999999889 0.45872665708270183 0 -0.4935117561449866 0.45247244842738371 0 -0.49825452328199332 0.45142545288317432 0 -0.49999999999999889 0.45872665708270183 0 -0.48010733918965642 0.46544435259332262 0 -0.46926671969324801 0.45782469204401338 0 -0.45987513576153882 0.46793528741219559 0 -0.4935117561449866 0.45247244842738371 0 -0.46926671969324801 0.45782469204401338 0 -0.4935117561449866 0.45247244842738371 0 -0.48010733918965642 0.46544435259332262 0 -0.46926671969324801 0.45782469204401338 0 -0.46926671969324801 0.45782469204401338 0 -0.48125489555111561 0.44779737943753189 0 -0.46569600116130561 0.44498390485468831 0 -0.4935117561449866 0.45247244842738371 0 -0.46926671969324801 0.45782469204401338 0 -0.48125489555111561 0.44779737943753189 0 -0.48125489555111561 0.44779737943753189 0 -0.46569600116130561 0.44498390485468831 0 -0.47990452504965742 0.43684161472961319 0 -0.46569600116130561 0.44498390485468831 0 -0.4450216832415092 0.46317693566064178 0 -0.45258753625257298 0.43912476401541078 0 -0.46926671969324801 0.45782469204401338 0 -0.4450216832415092 0.46317693566064178 0 -0.46926671969324801 0.45782469204401338 0 -0.46569600116130561 0.44498390485468831 0 -0.4450216832415092 0.46317693566064178 0 -0.46926671969324801 0.45782469204401338 0 -0.45987513576153882 0.46793528741219559 0 -0.4450216832415092 0.46317693566064178 0 -0.43022626038476153 0.44477215353320593 0 -0.4450216832415092 0.46317693566064178 0 -0.45258753625257298 0.43912476401541078 0 -0.43022626038476153 0.44477215353320593 0 -0.45258753625257298 0.43912476401541078 0 -0.4389456074442335 0.43057578537697883 0 -0.4389456074442335 0.43057578537697883 0 -0.44833356540295788 0.41917497376007129 0 -0.43011943378155088 0.41721309474357637 0 -0.45258753625257298 0.43912476401541078 0 -0.4389456074442335 0.43057578537697883 0 -0.44833356540295788 0.41917497376007129 0 -0.44833356540295788 0.41917497376007129 0 -0.43905262901781139 0.40172325547053911 0 -0.43011943378155088 0.41721309474357637 0 -0.44833356540295788 0.41917497376007129 0 -0.46208538633062618 0.39901554017001212 0 -0.43905262901781139 0.40172325547053911 0 -0.44833356540295788 0.41917497376007129 0 -0.46614064717973069 0.42513804324091908 0 -0.46208538633062618 0.39901554017001212 0 -0.46569600116130561 0.44498390485468831 0 -0.45258753625257298 0.43912476401541078 0 -0.46614064717973069 0.42513804324091908 0 -0.45258753625257298 0.43912476401541078 0 -0.44833356540295788 0.41917497376007129 0 -0.46614064717973069 0.42513804324091908 0 -0.46614064717973069 0.42513804324091908 0 -0.47990452504965742 0.43684161472961319 0 -0.49059772067879598 0.41939759553926748 0 -0.46569600116130561 0.44498390485468831 0 -0.46614064717973069 0.42513804324091908 0 -0.47990452504965742 0.43684161472961319 0 -0.46614064717973069 0.42513804324091908 0 -0.49059772067879598 0.41939759553926748 0 -0.46208538633062618 0.39901554017001212 0 -0.5 0.41266914273783251 0 -0.49059772067879598 0.41939759553926748 0 -0.48404187200710641 0.39197494970306901 0 -0.4971535693504826 0.44682024137546661 0 -0.49059772067879598 0.41939759553926748 0 -0.4971535693504826 0.44682024137546661 0 -0.47990452504965742 0.43684161472961319 0 -0.49059772067879598 0.41939759553926748 0 -0.50000000000000022 0.44240249272054832 0 -0.4971535693504826 0.44682024137546661 0 -0.49059772067879598 0.41939759553926748 0 -0.50000000000000022 0.44240249272054832 0 -0.5 0.41266914273783251 0 -0.49059772067879598 0.41939759553926748 0 -0.5 0.38293579275511669 0 -0.48404187200710641 0.39197494970306901 0 -0.47748602333541662 0.36455230386687049 0 -0.49059772067879598 0.41939759553926748 0 -0.48404187200710641 0.39197494970306901 0 -0.5 0.41266914273783251 0 -0.5 0.38293579275511669 0 -0.48404187200710641 0.39197494970306901 0 -0.49059772067879598 0.41939759553926748 0 -0.48404187200710641 0.39197494970306901 0 -0.46208538633062618 0.39901554017001212 0 -0.48404187200710641 0.39197494970306901 0 -0.47748602333541662 0.36455230386687049 0 -0.48404187200710641 0.39197494970306901 0 -0.4617664306710681 0.37985904627991041 0 -0.47748602333541662 0.36455230386687049 0 -0.48404187200710641 0.39197494970306901 0 -0.4617664306710681 0.37985904627991041 0 -0.46208538633062618 0.39901554017001212 0 -0.4617664306710681 0.37985904627991041 0 -0.46208538633062618 0.39901554017001212 0 -0.44379947279063803 0.38277421916731103 0 -0.46208538633062618 0.39901554017001212 0 -0.43905262901781139 0.40172325547053911 0 -0.44379947279063803 0.38277421916731103 0 -0.4617664306710681 0.37985904627991041 0 -0.44379947279063803 0.38277421916731103 0 -0.4480989559670352 0.36239316140700562 0 -0.42720397860352999 0.3895048912489768 0 -0.41635503063845869 0.37772258446819401 0 -0.42859860498667107 0.367051750174895 0 -0.44379947279063803 0.38277421916731103 0 -0.42720397860352999 0.3895048912489768 0 -0.42859860498667107 0.367051750174895 0 -0.42720397860352999 0.3895048912489768 0 -0.41635503063845869 0.37772258446819401 0 -0.41104065184354932 0.39185655185427598 0 -0.41635503063845869 0.37772258446819401 0 -0.41104065184354932 0.39185655185427598 0 -0.40395775215764218 0.37771631081701379 0 -0.42720397860352999 0.3895048912489768 0 -0.41104065184354932 0.39185655185427598 0 -0.42277393719756567 0.40265681373328671 0 -0.41152227020346988 0.40398353814486798 0 -0.41104065184354932 0.39185655185427598 0 -0.40023283496632522 0.40303019673874191 0 -0.41152227020346988 0.40398353814486798 0 -0.41104065184354932 0.39185655185427598 0 -0.42277393719756567 0.40265681373328671 0 -0.43905262901781139 0.40172325547053911 0 -0.44379947279063803 0.38277421916731103 0 -0.42720397860352999 0.3895048912489768 0 -0.43905262901781139 0.40172325547053911 0 -0.42720397860352999 0.3895048912489768 0 -0.42277393719756567 0.40265681373328671 0 -0.43905262901781139 0.40172325547053911 0 -0.42277393719756567 0.40265681373328671 0 -0.43011943378155088 0.41721309474357637 0 -0.43011943378155088 0.41721309474357637 0 -0.42203438853312442 0.41993561211331681 0 -0.42054568630952061 0.41243032911539051 0 -0.43011943378155088 0.41721309474357637 0 -0.42203438853312442 0.41993561211331681 0 -0.42784155232261339 0.42776087035325061 0 -0.42277393719756567 0.40265681373328671 0 -0.43011943378155088 0.41721309474357637 0 -0.42054568630952061 0.41243032911539051 0 -0.43022626038476153 0.44477215353320593 0 -0.4389456074442335 0.43057578537697883 0 -0.42784155232261339 0.42776087035325061 0 -0.43022626038476153 0.44477215353320593 0 -0.41522954767554338 0.42390117513597392 0 -0.43022626038476153 0.44477215353320593 0 -0.42784155232261339 0.42776087035325061 0 -0.41522954767554338 0.42390117513597392 0 -0.4389456074442335 0.43057578537697883 0 -0.43011943378155088 0.41721309474357637 0 -0.42784155232261339 0.42776087035325061 0 -0.43022626038476153 0.44477215353320593 0 -0.41522954767554338 0.42390117513597392 0 -0.41551743986671907 0.42552650096917433 0 -0.42203438853312442 0.41993561211331681 0 -0.42784155232261339 0.42776087035325061 0 -0.41522954767554338 0.42390117513597392 0 -0.41551743986671907 0.42552650096917433 0 -0.40817600067796023 0.42452959091477099 0 -0.40580924444834893 0.43081797150025131 0 -0.41522954767554338 0.42390117513597392 0 -0.40817600067796023 0.42452959091477099 0 -0.40500903817469552 0.41749919866491858 0 -0.41522954767554338 0.42390117513597392 0 -0.41551743986671907 0.42552650096917433 0 -0.40817600067796023 0.42452959091477099 0 -0.41522954767554338 0.42390117513597392 0 -0.41391294553759672 0.41265617024965823 0 -0.40023283496632522 0.40303019673874191 0 -0.41522954767554338 0.42390117513597392 0 -0.40500903817469552 0.41749919866491858 0 -0.40023283496632522 0.40303019673874191 0 -0.41522954767554338 0.42390117513597392 0 -0.40023283496632522 0.40303019673874191 0 -0.41152227020346988 0.40398353814486798 0 -0.42054568630952061 0.41243032911539051 0 -0.41391294553759672 0.41265617024965823 0 -0.41152227020346988 0.40398353814486798 0 -0.42277393719756567 0.40265681373328671 0 -0.42054568630952061 0.41243032911539051 0 -0.42203438853312442 0.41993561211331681 0 -0.42054568630952061 0.41243032911539051 0 -0.41391294553759672 0.41265617024965823 0 -0.42203438853312442 0.41993561211331681 0 -0.41522954767554338 0.42390117513597392 0 -0.41391294553759672 0.41265617024965823 0 -0.41152227020346988 0.40398353814486798 0 -0.41391294553759672 0.41265617024965823 0 -0.40023283496632522 0.40303019673874191 0 -0.39182536545163749 0.41863829188788049 0 -0.38311837071093252 0.41022686394830671 0 -0.40023283496632522 0.40303019673874191 0 -0.40500903817469552 0.41749919866491858 0 -0.39182536545163749 0.41863829188788049 0 -0.40023283496632522 0.40303019673874191 0 -0.40500903817469552 0.41749919866491858 0 -0.40023283496632522 0.40303019673874191 0 -0.40500903817469552 0.41749919866491858 0 -0.39182536545163749 0.41863829188788049 0 -0.39912969794590442 0.42432249145816808 0 -0.40580924444834893 0.43081797150025131 0 -0.38482884097687969 0.43012740432301882 0 -0.39302479441777022 0.44237989162062302 0 -0.41551743986671907 0.42552650096917433 0 -0.40580924444834893 0.43081797150025131 0 -0.39912969794590442 0.42432249145816808 0 -0.38482884097687969 0.43012740432301882 0 -0.39302479441777022 0.44237989162062302 0 -0.41551743986671907 0.42552650096917433 0 -0.40580924444834893 0.43081797150025131 0 -0.39302479441777022 0.44237989162062302 0 -0.40580924444834893 0.43081797150025131 0 -0.38482884097687969 0.43012740432301882 0 -0.40817600067796023 0.42452959091477099 0 -0.40580924444834893 0.43081797150025131 0 -0.39912969794590442 0.42432249145816808 0 -0.40817600067796023 0.42452959091477099 0 -0.40500903817469552 0.41749919866491858 0 -0.39912969794590442 0.42432249145816808 0 -0.39182536545163749 0.41863829188788049 0 -0.39912969794590442 0.42432249145816808 0 -0.38482884097687969 0.43012740432301882 0 -0.39182536545163749 0.41863829188788049 0 -0.38482884097687969 0.43012740432301882 0 -0.37573923407219639 0.42038084685478938 0 -0.39182536545163749 0.41863829188788049 0 -0.38311837071093252 0.41022686394830671 0 -0.37573923407219639 0.42038084685478938 0 -0.38311837071093252 0.41022686394830671 0 -0.37573923407219639 0.42038084685478938 0 -0.37450694124740658 0.41194961007014808 0 -0.38311837071093252 0.41022686394830671 0 -0.37547448528555388 0.40325488883490351 0 -0.37450694124740658 0.41194961007014808 0 -0.38311837071093252 0.41022686394830671 0 -0.38274959694843569 0.39725540550994182 0 -0.40023283496632522 0.40303019673874191 0 -0.38274959694843569 0.39725540550994182 0 -0.38366880107877588 0.37997797188512611 0 -0.40023283496632522 0.40303019673874191 0 -0.38311837071093252 0.41022686394830671 0 -0.37547448528555388 0.40325488883490351 0 -0.38274959694843569 0.39725540550994182 0 -0.37547448528555388 0.40325488883490351 0 -0.38274959694843569 0.39725540550994182 0 -0.37035526324158952 0.39162591291943949 0 -0.38274959694843569 0.39725540550994182 0 -0.38366880107877588 0.37997797188512611 0 -0.37035526324158952 0.39162591291943949 0 -0.38366880107877588 0.37997797188512611 0 -0.37671925149940749 0.37030625902685332 0 -0.37035526324158952 0.39162591291943949 0 -0.38366880107877588 0.37997797188512611 0 -0.37035526324158952 0.39162591291943949 0 -0.38366880107877588 0.37997797188512611 0 -0.37671925149940749 0.37030625902685332 0 -0.38366880107877588 0.37997797188512611 0 -0.39542478788853358 0.38846472718170949 0 -0.39061674081073883 0.37389925762467818 0 -0.38366880107877588 0.37997797188512611 0 -0.39061674081073883 0.37389925762467818 0 -0.38366880107877588 0.37997797188512611 0 -0.39542478788853358 0.38846472718170949 0 -0.40023283496632522 0.40303019673874191 0 -0.39542478788853358 0.38846472718170949 0 -0.39061674081073883 0.37389925762467818 0 -0.39542478788853358 0.38846472718170949 0 -0.40395775215764218 0.37771631081701379 0 -0.39061674081073883 0.37389925762467818 0 -0.41104065184354932 0.39185655185427598 0 -0.39542478788853358 0.38846472718170949 0 -0.40395775215764218 0.37771631081701379 0 -0.38366880107877588 0.37997797188512611 0 -0.40023283496632522 0.40303019673874191 0 -0.41104065184354932 0.39185655185427598 0 -0.39542478788853358 0.38846472718170949 0 -0.40023283496632522 0.40303019673874191 0 -0.39542478788853358 0.38846472718170949 0 -0.40023283496632522 0.40303019673874191 0 -0.39801048800760458 0.34670961763741659 0 -0.41106046166055671 0.34034147155248651 0 -0.40899464609658798 0.35782052936162739 0 -0.39801048800760458 0.34670961763741659 0 -0.39061674081073883 0.37389925762467818 0 -0.40899464609658798 0.35782052936162739 0 -0.40395775215764218 0.37771631081701379 0 -0.39061674081073883 0.37389925762467818 0 -0.40899464609658798 0.35782052936162739 0 -0.39061674081073883 0.37389925762467818 0 -0.40899464609658798 0.35782052936162739 0 -0.39061674081073883 0.37389925762467818 0 -0.37671925149940749 0.37030625902685332 0 -0.38275551371642552 0.35008450247137129 0 -0.39061674081073883 0.37389925762467818 0 -0.38275551371642552 0.35008450247137129 0 -0.37671925149940749 0.37030625902685332 0 -0.38275551371642552 0.35008450247137129 0 -0.38366880107877588 0.37997797188512611 0 -0.39061674081073883 0.37389925762467818 0 -0.37671925149940749 0.37030625902685332 0 -0.37671925149940749 0.37030625902685332 0 -0.38275551371642552 0.35008450247137129 0 -0.36722707383268122 0.35709596161926438 0 -0.39801048800760458 0.34670961763741659 0 -0.39061674081073883 0.37389925762467818 0 -0.38275551371642552 0.35008450247137129 0 -0.39801048800760458 0.34670961763741659 0 -0.38275551371642552 0.35008450247137129 0 -0.38710164963499538 0.3355247468904094 0 -0.38275551371642552 0.35008450247137129 0 -0.37640747204533043 0.33085378234506552 0 -0.38710164963499538 0.3355247468904094 0 -0.38275551371642552 0.35008450247137129 0 -0.37640747204533043 0.33085378234506552 0 -0.38275551371642552 0.35008450247137129 0 -0.37640747204533043 0.33085378234506552 0 -0.36981473277461457 0.34304677337264228 0 -0.37640747204533043 0.33085378234506552 0 -0.38710164963499538 0.3355247468904094 0 -0.38521464066454703 0.32527688729816162 0 -0.38275551371642552 0.35008450247137129 0 -0.38710164963499538 0.3355247468904094 0 -0.38999234493580071 0.31389090566272332 0 -0.38081580295938339 0.30602588371499051 0 -0.37258005959352269 0.31779573958284818 0 -0.38521464066454703 0.32527688729816162 0 -0.38999234493580071 0.31389090566272332 0 -0.37258005959352269 0.31779573958284818 0 -0.37640747204533043 0.33085378234506552 0 -0.38521464066454703 0.32527688729816162 0 -0.37258005959352269 0.31779573958284818 0 -0.38999234493580071 0.31389090566272332 0 -0.3999916771130857 0.32831926200976158 0 -0.40667513448336279 0.30827389542223382 0 -0.38521464066454703 0.32527688729816162 0 -0.38999234493580071 0.31389090566272332 0 -0.3999916771130857 0.32831926200976158 0 -0.39801048800760458 0.34670961763741659 0 -0.3999916771130857 0.32831926200976158 0 -0.41106046166055671 0.34034147155248651 0 -0.39801048800760458 0.34670961763741659 0 -0.38710164963499538 0.3355247468904094 0 -0.3999916771130857 0.32831926200976158 0 -0.38710164963499538 0.3355247468904094 0 -0.38521464066454703 0.32527688729816162 0 -0.3999916771130857 0.32831926200976158 0 -0.3999916771130857 0.32831926200976158 0 -0.41106046166055671 0.34034147155248651 0 -0.42057057038897189 0.32680959015010469 0 -0.41106046166055671 0.34034147155248651 0 -0.42057057038897189 0.32680959015010469 0 -0.42737255138243813 0.34174180109857749 0 -0.3999916771130857 0.32831926200976158 0 -0.42057057038897189 0.32680959015010469 0 -0.40667513448336279 0.30827389542223382 0 -0.42057057038897189 0.32680959015010469 0 -0.42878124573941262 0.31331022025030247 0 -0.40667513448336279 0.30827389542223382 0 -0.42057057038897189 0.32680959015010469 0 -0.42878124573941262 0.31331022025030247 0 -0.445750456668288 0.32566307283552781 0 -0.42737255138243813 0.34174180109857749 0 -0.445750456668288 0.32566307283552781 0 -0.42057057038897189 0.32680959015010469 0 -0.42737255138243813 0.34174180109857749 0 -0.445750456668288 0.32566307283552781 0 -0.42737255138243813 0.34174180109857749 0 -0.42859860498667107 0.367051750174895 0 -0.4480989559670352 0.36239316140700562 0 -0.42737255138243813 0.34174180109857749 0 -0.40899464609658798 0.35782052936162739 0 -0.42737255138243813 0.34174180109857749 0 -0.40899464609658798 0.35782052936162739 0 -0.42859860498667107 0.367051750174895 0 -0.41106046166055671 0.34034147155248651 0 -0.42737255138243813 0.34174180109857749 0 -0.40899464609658798 0.35782052936162739 0 -0.41635503063845869 0.37772258446819401 0 -0.40899464609658798 0.35782052936162739 0 -0.42859860498667107 0.367051750174895 0 -0.41635503063845869 0.37772258446819401 0 -0.40395775215764218 0.37771631081701379 0 -0.40899464609658798 0.35782052936162739 0 -0.44379947279063803 0.38277421916731103 0 -0.42859860498667107 0.367051750174895 0 -0.4480989559670352 0.36239316140700562 0 -0.42737255138243813 0.34174180109857749 0 -0.4480989559670352 0.36239316140700562 0 -0.45324703045816372 0.34393695384104789 0 -0.45324703045816372 0.34393695384104789 0 -0.47748602333541662 0.36455230386687049 0 -0.47093017466372689 0.33712965803067219 0 -0.4480989559670352 0.36239316140700562 0 -0.45324703045816372 0.34393695384104789 0 -0.47748602333541662 0.36455230386687049 0 -0.4617664306710681 0.37985904627991041 0 -0.4480989559670352 0.36239316140700562 0 -0.47748602333541662 0.36455230386687049 0 -0.47748602333541662 0.36455230386687049 0 -0.47093017466372689 0.33712965803067219 0 -0.47748602333541662 0.36455230386687049 0 -0.48731668491041857 0.34108512958689657 0 -0.47093017466372689 0.33712965803067219 0 -0.47748602333541662 0.36455230386687049 0 -0.5 0.35320244277240082 0 -0.48731668491041857 0.34108512958689657 0 -0.5 0.38293579275511669 0 -0.47748602333541662 0.36455230386687049 0 -0.5 0.35320244277240082 0 -0.49593753481385472 0.3254482717778574 0 -0.48358508119773658 0.33031017534539792 0 -0.48015593040294652 0.31757764198616539 0 -0.4982384573869244 0.32228724125090219 0 -0.48015593040294652 0.31757764198616539 0 -0.49492156798123832 0.3074504847749443 0 -0.49593753481385472 0.3254482717778574 0 -0.48015593040294652 0.31757764198616539 0 -0.5 0.32346909278968489 0 -0.4982384573869244 0.32228724125090219 0 -0.49492156798123832 0.3074504847749443 0 -0.4982384573869244 0.32228724125090219 0 -0.49593753481385472 0.3254482717778574 0 -0.48015593040294652 0.31757764198616539 0 -0.4982384573869244 0.32228724125090219 0 -0.49492156798123832 0.3074504847749443 0 -0.5 0.32346909278968489 0 -0.4982384573869244 0.32228724125090219 0 -0.49593753481385472 0.3254482717778574 0 -0.49593753481385472 0.3254482717778574 0 -0.48731668491041857 0.34108512958689657 0 -0.48358508119773658 0.33031017534539792 0 -0.5 0.35320244277240082 0 -0.5 0.32346909278968489 0 -0.49593753481385472 0.3254482717778574 0 -0.5 0.35320244277240082 0 -0.49593753481385472 0.3254482717778574 0 -0.48731668491041857 0.34108512958689657 0 -0.48358508119773658 0.33031017534539792 0 -0.47093017466372689 0.33712965803067219 0 -0.48015593040294652 0.31757764198616539 0 -0.48731668491041857 0.34108512958689657 0 -0.48358508119773658 0.33031017534539792 0 -0.47093017466372689 0.33712965803067219 0 -0.48015593040294652 0.31757764198616539 0 -0.46430752645985018 0.30942759453177471 0 -0.47093017466372689 0.33712965803067219 0 -0.48015593040294652 0.31757764198616539 0 -0.46430752645985018 0.30942759453177471 0 -0.47093017466372689 0.33712965803067219 0 -0.445750456668288 0.32566307283552781 0 -0.46430752645985018 0.30942759453177471 0 -0.47093017466372689 0.33712965803067219 0 -0.46430752645985018 0.30942759453177471 0 -0.445750456668288 0.32566307283552781 0 -0.45015592731075749 0.31103291834262331 0 -0.46430752645985018 0.30942759453177471 0 -0.445750456668288 0.32566307283552781 0 -0.46430752645985018 0.30942759453177471 0 -0.45324703045816372 0.34393695384104789 0 -0.47093017466372689 0.33712965803067219 0 -0.445750456668288 0.32566307283552781 0 -0.42737255138243813 0.34174180109857749 0 -0.45324703045816372 0.34393695384104789 0 -0.445750456668288 0.32566307283552781 0 -0.42878124573941262 0.31331022025030247 0 -0.445750456668288 0.32566307283552781 0 -0.44146971273890873 0.31056221266021378 0 -0.445750456668288 0.32566307283552781 0 -0.44146971273890873 0.31056221266021378 0 -0.45015592731075749 0.31103291834262331 0 -0.44146971273890873 0.31056221266021378 0 -0.44558945627706997 0.30033858859430451 0 -0.4332398738728685 0.3034713083542237 0 -0.44558945627706997 0.30033858859430451 0 -0.44996226972297187 0.29692557003636072 0 -0.44073306134546669 0.29408190876738372 0 -0.44558945627706997 0.30033858859430451 0 -0.44996226972297187 0.29692557003636072 0 -0.45646066842119409 0.30054324401106802 0 -0.44146971273890873 0.31056221266021378 0 -0.44558945627706997 0.30033858859430451 0 -0.45015592731075749 0.31103291834262331 0 -0.44558945627706997 0.30033858859430451 0 -0.44073306134546669 0.29408190876738372 0 -0.42705055060000191 0.2910928326161325 0 -0.44069116873931652 0.28580926021483288 0 -0.46264372583085728 0.28874316664900701 0 -0.44069116873931652 0.28580926021483288 0 -0.45146777029195861 0.29209054533317969 0 -0.46264372583085728 0.28874316664900701 0 -0.44069116873931652 0.28580926021483288 0 -0.44073306134546669 0.29408190876738372 0 -0.45146777029195861 0.29209054533317969 0 -0.44996226972297187 0.29692557003636072 0 -0.44073306134546669 0.29408190876738372 0 -0.45146777029195861 0.29209054533317969 0 -0.44996226972297187 0.29692557003636072 0 -0.45146777029195861 0.29209054533317969 0 -0.45451744499905078 0.29542948062800278 0 -0.46017907156007848 0.29215856313140309 0 -0.46264372583085728 0.28874316664900701 0 -0.46430752645985018 0.30942759453177471 0 -0.44069116873931652 0.28580926021483288 0 -0.46264372583085728 0.28874316664900701 0 -0.46319180018641237 0.27334626713588012 0 -0.45146777029195861 0.29209054533317969 0 -0.46017907156007848 0.29215856313140309 0 -0.46264372583085728 0.28874316664900701 0 -0.46017907156007848 0.29215856313140309 0 -0.45451744499905078 0.29542948062800278 0 -0.45646066842119409 0.30054324401106802 0 -0.45146777029195861 0.29209054533317969 0 -0.46017907156007848 0.29215856313140309 0 -0.45451744499905078 0.29542948062800278 0 -0.46017907156007848 0.29215856313140309 0 -0.46430752645985018 0.30942759453177471 0 -0.44558945627706997 0.30033858859430451 0 -0.46430752645985018 0.30942759453177471 0 -0.46017907156007848 0.29215856313140309 0 -0.46430752645985018 0.30942759453177471 0 -0.45646066842119409 0.30054324401106802 0 -0.44558945627706997 0.30033858859430451 0 -0.45015592731075749 0.31103291834262331 0 -0.46430752645985018 0.30942759453177471 0 -0.44558945627706997 0.30033858859430451 0 -0.46430752645985018 0.30942759453177471 0 -0.45646066842119409 0.30054324401106802 0 -0.44996226972297187 0.29692557003636072 0 -0.45451744499905078 0.29542948062800278 0 -0.45646066842119409 0.30054324401106802 0 -0.46430752645985018 0.30942759453177471 0 -0.48459628292239809 0.29167707308318302 0 -0.46430752645985018 0.30942759453177471 0 -0.47999338538900332 0.30474225581158709 0 -0.48459628292239809 0.29167707308318302 0 -0.48015593040294652 0.31757764198616539 0 -0.46430752645985018 0.30942759453177471 0 -0.47999338538900332 0.30474225581158709 0 -0.46264372583085728 0.28874316664900701 0 -0.48459628292239809 0.29167707308318302 0 -0.47781697530561879 0.27819076430783662 0 -0.46264372583085728 0.28874316664900701 0 -0.46430752645985018 0.30942759453177471 0 -0.48459628292239809 0.29167707308318302 0 -0.46264372583085728 0.28874316664900701 0 -0.48459628292239809 0.29167707308318302 0 -0.48459628292239809 0.29167707308318302 0 -0.49028301105971778 0.28670178591069589 0 -0.47781697530561879 0.27819076430783662 0 -0.47999338538900332 0.30474225581158709 0 -0.48459628292239809 0.29167707308318302 0 -0.49160467857555262 0.29261372829898641 0 -0.48459628292239809 0.29167707308318302 0 -0.49160467857555262 0.29261372829898641 0 -0.48459628292239809 0.29167707308318302 0 -0.49028301105971778 0.28670178591069589 0 -0.48459628292239809 0.29167707308318302 0 -0.49160467857555262 0.29261372829898641 0 -0.49028301105971778 0.28670178591069589 0 -0.49160467857555262 0.29261372829898641 0 -0.49028301105971778 0.28670178591069589 0 -0.49028301105971778 0.28670178591069589 0 -0.49999999999999872 0.27820044572662089 0 -0.49028301105971778 0.28670178591069589 0 -0.49999999999998562 0.29373574280696951 0 -0.49999999999999872 0.27820044572662089 0 -0.49160467857555262 0.29261372829898641 0 -0.49999999999998562 0.29373574280696951 0 -0.49160467857555262 0.29261372829898641 0 -0.49028301105971778 0.28670178591069589 0 -0.49999999999998562 0.29373574280696951 0 -0.49160467857555262 0.29261372829898641 0 -0.49492156798123832 0.3074504847749443 0 -0.49160467857555262 0.29261372829898641 0 -0.49999999999998562 0.29373574280696951 0 -0.49492156798123832 0.3074504847749443 0 -0.5 0.32346909278968489 0 -0.49999999999998562 0.29373574280696951 0 -0.49492156798123832 0.3074504847749443 0 -0.48015593040294652 0.31757764198616539 0 -0.47999338538900332 0.30474225581158709 0 -0.49492156798123832 0.3074504847749443 0 -0.47999338538900332 0.30474225581158709 0 -0.49160467857555262 0.29261372829898641 0 -0.49492156798123832 0.3074504847749443 0 -0.5 0.24989533790132251 0 -0.48547196090750749 0.26518150869570328 0 -0.49999999999999872 0.27820044572662089 0 -0.48066091075530543 0.24366123148070881 0 -0.5 0.24989533790132251 0 -0.48547196090750749 0.26518150869570328 0 -0.49028301105971778 0.28670178591069589 0 -0.48547196090750749 0.26518150869570328 0 -0.49028301105971778 0.28670178591069589 0 -0.48547196090750749 0.26518150869570328 0 -0.49999999999999872 0.27820044572662089 0 -0.49028301105971778 0.28670178591069589 0 -0.48547196090750749 0.26518150869570328 0 -0.47781697530561879 0.27819076430783662 0 -0.48547196090750749 0.26518150869570328 0 -0.47781697530561879 0.27819076430783662 0 -0.47110336905253619 0.25826468494226101 0 -0.47781697530561879 0.27819076430783662 0 -0.47110336905253619 0.25826468494226101 0 -0.46319180018641237 0.27334626713588012 0 -0.48066091075530543 0.24366123148070881 0 -0.48547196090750749 0.26518150869570328 0 -0.47110336905253619 0.25826468494226101 0 -0.48066091075530543 0.24366123148070881 0 -0.48547196090750749 0.26518150869570328 0 -0.46278852649577651 0.24018664853999649 0 -0.47110336905253619 0.25826468494226101 0 -0.45140292658278969 0.26243466859130349 0 -0.47110336905253619 0.25826468494226101 0 -0.46319180018641237 0.27334626713588012 0 -0.45140292658278969 0.26243466859130349 0 -0.46264372583085728 0.28874316664900701 0 -0.47781697530561879 0.27819076430783662 0 -0.46319180018641237 0.27334626713588012 0 -0.44069116873931652 0.28580926021483288 0 -0.45140292658278969 0.26243466859130349 0 -0.43029007333106473 0.26942903744663133 0 -0.44069116873931652 0.28580926021483288 0 -0.46319180018641237 0.27334626713588012 0 -0.45140292658278969 0.26243466859130349 0 -0.43907384032152968 0.24815821867747409 0 -0.46278852649577651 0.24018664853999649 0 -0.45140292658278969 0.26243466859130349 0 -0.43907384032152968 0.24815821867747409 0 -0.45140292658278969 0.26243466859130349 0 -0.43029007333106473 0.26942903744663133 0 -0.43907384032152968 0.24815821867747409 0 -0.41919383790749482 0.25502993091800108 0 -0.43029007333106473 0.26942903744663133 0 -0.41919383790749482 0.25502993091800108 0 -0.40754395311500968 0.2655206697458018 0 -0.40015400882939561 0.25668931779519988 0 -0.40541891423375742 0.24167011368318231 0 -0.41919383790749482 0.25502993091800108 0 -0.40015400882939561 0.25668931779519988 0 -0.41919383790749482 0.25502993091800108 0 -0.40754395311500968 0.2655206697458018 0 -0.41329853873162109 0.2801035419324599 0 -0.41919383790749482 0.25502993091800108 0 -0.41329853873162109 0.2801035419324599 0 -0.43029007333106473 0.26942903744663133 0 -0.41329853873162109 0.2801035419324599 0 -0.43029007333106473 0.26942903744663133 0 -0.41873861164777559 0.28287535378065848 0 -0.41919383790749482 0.25502993091800108 0 -0.41329853873162109 0.2801035419324599 0 -0.41329853873162109 0.2801035419324599 0 -0.41283242247689977 0.28208600580914012 0 -0.44069116873931652 0.28580926021483288 0 -0.43029007333106473 0.26942903744663133 0 -0.41873861164777559 0.28287535378065848 0 -0.44069116873931652 0.28580926021483288 0 -0.44073306134546669 0.29408190876738372 0 -0.41873861164777559 0.28287535378065848 0 -0.44069116873931652 0.28580926021483288 0 -0.41873861164777559 0.28287535378065848 0 -0.44073306134546669 0.29408190876738372 0 -0.42705055060000191 0.2910928326161325 0 -0.41873861164777559 0.28287535378065848 0 -0.44073306134546669 0.29408190876738372 0 -0.41873861164777559 0.28287535378065848 0 -0.44558945627706997 0.30033858859430451 0 -0.42705055060000191 0.2910928326161325 0 -0.42705055060000191 0.2910928326161325 0 -0.41873861164777559 0.28287535378065848 0 -0.42121963980338689 0.2968516027054483 0 -0.42878124573941262 0.31331022025030247 0 -0.4332398738728685 0.3034713083542237 0 -0.42121963980338689 0.2968516027054483 0 -0.44558945627706997 0.30033858859430451 0 -0.42705055060000191 0.2910928326161325 0 -0.4332398738728685 0.3034713083542237 0 -0.42878124573941262 0.31331022025030247 0 -0.44146971273890873 0.31056221266021378 0 -0.4332398738728685 0.3034713083542237 0 -0.42705055060000191 0.2910928326161325 0 -0.4332398738728685 0.3034713083542237 0 -0.42121963980338689 0.2968516027054483 0 -0.42878124573941262 0.31331022025030247 0 -0.40667513448336279 0.30827389542223382 0 -0.42121963980338689 0.2968516027054483 0 -0.40667513448336279 0.30827389542223382 0 -0.42121963980338689 0.2968516027054483 0 -0.41283242247689977 0.28208600580914012 0 -0.40667513448336279 0.30827389542223382 0 -0.41283242247689977 0.28208600580914012 0 -0.41873861164777559 0.28287535378065848 0 -0.42121963980338689 0.2968516027054483 0 -0.41283242247689977 0.28208600580914012 0 -0.41329853873162109 0.2801035419324599 0 -0.41873861164777559 0.28287535378065848 0 -0.41873861164777559 0.28287535378065848 0 -0.41283242247689977 0.28208600580914012 0 -0.41329853873162109 0.2801035419324599 0 -0.41873861164777559 0.28287535378065848 0 -0.41283242247689977 0.28208600580914012 0 -0.40667513448336279 0.30827389542223382 0 -0.41283242247689977 0.28208600580914012 0 -0.39831688565977191 0.29012631229296371 0 -0.41283242247689977 0.28208600580914012 0 -0.39831688565977191 0.29012631229296371 0 -0.38911023419016111 0.27891559242372183 0 -0.39831688565977191 0.29012631229296371 0 -0.3909403085838013 0.299958660865424 0 -0.38798712170681232 0.28881187481599663 0 -0.39831688565977191 0.29012631229296371 0 -0.38798712170681232 0.28881187481599663 0 -0.38911023419016111 0.27891559242372183 0 -0.40667513448336279 0.30827389542223382 0 -0.39831688565977191 0.29012631229296371 0 -0.3909403085838013 0.299958660865424 0 -0.38999234493580071 0.31389090566272332 0 -0.40667513448336279 0.30827389542223382 0 -0.3909403085838013 0.299958660865424 0 -0.38999234493580071 0.31389090566272332 0 -0.3909403085838013 0.299958660865424 0 -0.38081580295938339 0.30602588371499051 0 -0.3909403085838013 0.299958660865424 0 -0.38081580295938339 0.30602588371499051 0 -0.3801680257854877 0.29313299949047039 0 -0.38081580295938339 0.30602588371499051 0 -0.3801680257854877 0.29313299949047039 0 -0.37006323765848059 0.29922393020594201 0 -0.3801680257854877 0.29313299949047039 0 -0.3814001543148392 0.28192580900740349 0 -0.36567301096923172 0.27717626983032673 0 -0.38798712170681232 0.28881187481599663 0 -0.3814001543148392 0.28192580900740349 0 -0.38911023419016111 0.27891559242372183 0 -0.38798712170681232 0.28881187481599663 0 -0.3801680257854877 0.29313299949047039 0 -0.3814001543148392 0.28192580900740349 0 -0.3909403085838013 0.299958660865424 0 -0.38798712170681232 0.28881187481599663 0 -0.3801680257854877 0.29313299949047039 0 -0.3814001543148392 0.28192580900740349 0 -0.38911023419016111 0.27891559242372183 0 -0.36538804590342228 0.27574517903830209 0 -0.38911023419016111 0.27891559242372183 0 -0.37884410183507627 0.27009406715194623 0 -0.36538804590342228 0.27574517903830209 0 -0.38911023419016111 0.27891559242372183 0 -0.36538804590342228 0.27574517903830209 0 -0.37884410183507627 0.27009406715194623 0 -0.39236375113660488 0.26943690323298791 0 -0.37142896354158822 0.25877026453351648 0 -0.38911023419016111 0.27891559242372183 0 -0.37884410183507627 0.27009406715194623 0 -0.39236375113660488 0.26943690323298791 0 -0.38707568899018879 0.25889327761741548 0 -0.39236375113660488 0.26943690323298791 0 -0.37142896354158822 0.25877026453351648 0 -0.39236375113660488 0.26943690323298791 0 -0.37142896354158822 0.25877026453351648 0 -0.38018080483092531 0.25233920989092129 0 -0.38707568899018879 0.25889327761741548 0 -0.37142896354158822 0.25877026453351648 0 -0.3734291426064843 0.24361466712641069 0 -0.38018080483092531 0.25233920989092129 0 -0.37142896354158822 0.25877026453351648 0 -0.38878942418543988 0.2480786302863425 0 -0.38018080483092531 0.25233920989092129 0 -0.38707568899018879 0.25889327761741548 0 -0.38707568899018879 0.25889327761741548 0 -0.40015400882939561 0.25668931779519988 0 -0.39236375113660488 0.26943690323298791 0 -0.38878942418543988 0.2480786302863425 0 -0.38707568899018879 0.25889327761741548 0 -0.40015400882939561 0.25668931779519988 0 -0.40754395311500968 0.2655206697458018 0 -0.40015400882939561 0.25668931779519988 0 -0.39236375113660488 0.26943690323298791 0 -0.41329853873162109 0.2801035419324599 0 -0.38911023419016111 0.27891559242372183 0 -0.39236375113660488 0.26943690323298791 0 -0.41283242247689977 0.28208600580914012 0 -0.38911023419016111 0.27891559242372183 0 -0.41329853873162109 0.2801035419324599 0 -0.41283242247689977 0.28208600580914012 0 -0.38911023419016111 0.27891559242372183 0 -0.40754395311500968 0.2655206697458018 0 -0.41329853873162109 0.2801035419324599 0 -0.39236375113660488 0.26943690323298791 0 -0.41329853873162109 0.2801035419324599 0 -0.39236375113660488 0.26943690323298791 0 -0.35739848431597337 0.274677393356213 0 -0.34808560795784549 0.28369566624498421 0 -0.33941682434416132 0.27227418776752288 0 -0.35739848431597337 0.274677393356213 0 -0.34600847707946819 0.26287408467210333 0 -0.32975944340086838 0.26633050512875128 0 -0.35739848431597337 0.274677393356213 0 -0.33941682434416132 0.27227418776752288 0 -0.35739848431597337 0.274677393356213 0 -0.34600847707946819 0.26287408467210333 0 -0.35652831428259057 0.26494893075749781 0 -0.34600847707946819 0.26287408467210333 0 -0.35127826677210788 0.25709583982327883 0 -0.35652831428259057 0.26494893075749781 0 -0.34600847707946819 0.26287408467210333 0 -0.35127826677210788 0.25709583982327883 0 -0.34308868467317588 0.25390253283794129 0 -0.34971195047777359 0.24819366877491381 0 -0.35127826677210788 0.25709583982327883 0 -0.34308868467317588 0.25390253283794129 0 -0.34971195047777359 0.24819366877491381 0 -0.35127826677210788 0.25709583982327883 0 -0.36128033055929742 0.25511628690186772 0 -0.35127826677210788 0.25709583982327883 0 -0.35652831428259057 0.26494893075749781 0 -0.36128033055929742 0.25511628690186772 0 -0.36128033055929742 0.25511628690186772 0 -0.36923536045984601 0.26493144940640878 0 -0.36538804590342228 0.27574517903830209 0 -0.35652831428259057 0.26494893075749781 0 -0.36128033055929742 0.25511628690186772 0 -0.36538804590342228 0.27574517903830209 0 -0.36128033055929742 0.25511628690186772 0 -0.36538804590342228 0.27574517903830209 0 -0.3734291426064843 0.24361466712641069 0 -0.36128033055929742 0.25511628690186772 0 -0.37142896354158822 0.25877026453351648 0 -0.37884410183507627 0.27009406715194623 0 -0.36923536045984601 0.26493144940640878 0 -0.37142896354158822 0.25877026453351648 0 -0.36128033055929742 0.25511628690186772 0 -0.36923536045984601 0.26493144940640878 0 -0.37142896354158822 0.25877026453351648 0 -0.3814001543148392 0.28192580900740349 0 -0.36567301096923172 0.27717626983032673 0 -0.37884410183507627 0.27009406715194623 0 -0.36923536045984601 0.26493144940640878 0 -0.36538804590342228 0.27574517903830209 0 -0.3814001543148392 0.28192580900740349 0 -0.36567301096923172 0.27717626983032673 0 -0.36538804590342228 0.27574517903830209 0 -0.35739848431597337 0.274677393356213 0 -0.35652831428259057 0.26494893075749781 0 -0.36538804590342228 0.27574517903830209 0 -0.35739848431597337 0.274677393356213 0 -0.36538804590342228 0.27574517903830209 0 -0.35739848431597337 0.274677393356213 0 -0.36567301096923172 0.27717626983032673 0 -0.35953542034404412 0.2858422872013282 0 -0.35739848431597337 0.274677393356213 0 -0.36567301096923172 0.27717626983032673 0 -0.36538804590342228 0.27574517903830209 0 -0.35739848431597337 0.274677393356213 0 -0.36567301096923172 0.27717626983032673 0 -0.36567301096923172 0.27717626983032673 0 -0.36538804590342228 0.27574517903830209 0 -0.36567301096923172 0.27717626983032673 0 -0.35953542034404412 0.2858422872013282 0 -0.37006323765848059 0.29922393020594201 0 -0.36567301096923172 0.27717626983032673 0 -0.37006323765848059 0.29922393020594201 0 -0.3801680257854877 0.29313299949047039 0 -0.36567301096923172 0.27717626983032673 0 -0.37006323765848059 0.29922393020594201 0 -0.35953542034404412 0.2858422872013282 0 -0.37006323765848059 0.29922393020594201 0 -0.35645676081868821 0.2944381763691758 0 -0.37006323765848059 0.29922393020594201 0 -0.35741513815780612 0.30801474498501308 0 -0.37258005959352269 0.31779573958284818 0 -0.38081580295938339 0.30602588371499051 0 -0.37006323765848059 0.29922393020594201 0 -0.37258005959352269 0.31779573958284818 0 -0.37006323765848059 0.29922393020594201 0 -0.35741513815780612 0.30801474498501308 0 -0.35645676081868821 0.2944381763691758 0 -0.35741513815780612 0.30801474498501308 0 -0.3479167703869171 0.2995888175597704 0 -0.34166778498161671 0.31246416139569477 0 -0.35741513815780612 0.30801474498501308 0 -0.3479167703869171 0.2995888175597704 0 -0.35645676081868821 0.2944381763691758 0 -0.3479167703869171 0.2995888175597704 0 -0.35645676081868821 0.2944381763691758 0 -0.34808560795784549 0.28369566624498421 0 -0.3479167703869171 0.2995888175597704 0 -0.34808560795784549 0.28369566624498421 0 -0.33684697633493532 0.29257614258526199 0 -0.35739848431597337 0.274677393356213 0 -0.35953542034404412 0.2858422872013282 0 -0.34808560795784549 0.28369566624498421 0 -0.35953542034404412 0.2858422872013282 0 -0.35645676081868821 0.2944381763691758 0 -0.34808560795784549 0.28369566624498421 0 -0.34808560795784549 0.28369566624498421 0 -0.33684697633493532 0.29257614258526199 0 -0.33941682434416132 0.27227418776752288 0 -0.33684697633493532 0.29257614258526199 0 -0.32328271541110282 0.28635070427886072 0 -0.33941682434416132 0.27227418776752288 0 -0.33684697633493532 0.29257614258526199 0 -0.32553908928144593 0.30680816637832731 0 -0.32328271541110282 0.28635070427886072 0 -0.33684697633493532 0.29257614258526199 0 -0.34166778498161671 0.31246416139569477 0 -0.32553908928144593 0.30680816637832731 0 -0.3479167703869171 0.2995888175597704 0 -0.33684697633493532 0.29257614258526199 0 -0.34166778498161671 0.31246416139569477 0 -0.32553908928144593 0.30680816637832731 0 -0.31410474469032668 0.29756838130256652 0 -0.32328271541110282 0.28635070427886072 0 -0.32553908928144593 0.30680816637832731 0 -0.31410474469032668 0.29756838130256652 0 -0.30780566849742103 0.30823815107292307 0 -0.32553908928144593 0.30680816637832731 0 -0.30780566849742103 0.30823815107292307 0 -0.31458584904702469 0.31954051275494177 0 -0.31410474469032668 0.29756838130256652 0 -0.32328271541110282 0.28635070427886072 0 -0.30222282055351668 0.28572255941281011 0 -0.32328271541110282 0.28635070427886072 0 -0.32143516437234931 0.26987098217883171 0 -0.30222282055351668 0.28572255941281011 0 -0.32292857397458702 0.26863881093126879 0 -0.32143516437234931 0.26987098217883171 0 -0.33941682434416132 0.27227418776752288 0 -0.32328271541110282 0.28635070427886072 0 -0.32143516437234931 0.26987098217883171 0 -0.33941682434416132 0.27227418776752288 0 -0.32292857397458702 0.26863881093126879 0 -0.32143516437234931 0.26987098217883171 0 -0.35739848431597337 0.274677393356213 0 -0.33941682434416132 0.27227418776752288 0 -0.32975944340086838 0.26633050512875128 0 -0.35739848431597337 0.274677393356213 0 -0.32975944340086838 0.26633050512875128 0 -0.32143516437234931 0.26987098217883171 0 -0.33941682434416132 0.27227418776752288 0 -0.32292857397458702 0.26863881093126879 0 -0.33941682434416132 0.27227418776752288 0 -0.32975944340086838 0.26633050512875128 0 -0.34600847707946819 0.26287408467210333 0 -0.32975944340086838 0.26633050512875128 0 -0.33662867042345163 0.25856272531534352 0 -0.34308868467317588 0.25390253283794129 0 -0.33662867042345163 0.25856272531534352 0 -0.33475869207343439 0.2516473974976447 0 -0.34600847707946819 0.26287408467210333 0 -0.34308868467317588 0.25390253283794129 0 -0.33662867042345163 0.25856272531534352 0 -0.32975944340086838 0.26633050512875128 0 -0.33662867042345163 0.25856272531534352 0 -0.32927717551802538 0.25612691524589548 0 -0.32497928784552199 0.24817505909587351 0 -0.32927717551802538 0.25612691524589548 0 -0.33475869207343439 0.2516473974976447 0 -0.33662867042345163 0.25856272531534352 0 -0.32927717551802538 0.25612691524589548 0 -0.33475869207343439 0.2516473974976447 0 -0.32292857397458702 0.26863881093126879 0 -0.32143516437234931 0.26987098217883171 0 -0.3021204024857635 0.25798361690129001 0 -0.32292857397458702 0.26863881093126879 0 -0.32975944340086838 0.26633050512875128 0 -0.3021204024857635 0.25798361690129001 0 -0.32975944340086838 0.26633050512875128 0 -0.3021204024857635 0.25798361690129001 0 -0.32975944340086838 0.26633050512875128 0 -0.31848232090602768 0.2536350737327836 0 -0.3021204024857635 0.25798361690129001 0 -0.32497928784552199 0.24817505909587351 0 -0.32927717551802538 0.25612691524589548 0 -0.31848232090602768 0.2536350737327836 0 -0.32975944340086838 0.26633050512875128 0 -0.32927717551802538 0.25612691524589548 0 -0.31848232090602768 0.2536350737327836 0 -0.32143516437234931 0.26987098217883171 0 -0.3021204024857635 0.25798361690129001 0 -0.30116122789449051 0.2671614193506669 0 -0.30874994762413299 0.24955977154890691 0 -0.31848232090602768 0.2536350737327836 0 -0.3021204024857635 0.25798361690129001 0 -0.30046542147852079 0.24463347923818471 0 -0.30874994762413299 0.24955977154890691 0 -0.3021204024857635 0.25798361690129001 0 -0.32143516437234931 0.26987098217883171 0 -0.30222282055351668 0.28572255941281011 0 -0.32143516437234931 0.26987098217883171 0 -0.30116122789449051 0.2671614193506669 0 -0.30222282055351668 0.28572255941281011 0 -0.32143516437234931 0.26987098217883171 0 -0.30116122789449051 0.2671614193506669 0 -0.30116122789449051 0.2671614193506669 0 -0.28088729141663182 0.26445185652250253 0 -0.30222282055351668 0.28572255941281011 0 -0.28088729141663182 0.26445185652250253 0 -0.30222282055351668 0.28572255941281011 0 -0.28088729141663182 0.26445185652250253 0 -0.27582747998400092 0.27944937222090538 0 -0.30222282055351668 0.28572255941281011 0 -0.30116122789449051 0.2671614193506669 0 -0.28088729141663182 0.26445185652250253 0 -0.27448136157065861 0.24963672867382861 0 -0.3021204024857635 0.25798361690129001 0 -0.3021204024857635 0.25798361690129001 0 -0.30116122789449051 0.2671614193506669 0 -0.28088729141663182 0.26445185652250253 0 -0.27448136157065861 0.24963672867382861 0 -0.3021204024857635 0.25798361690129001 0 -0.28088729141663182 0.26445185652250253 0 -0.30046542147852079 0.24463347923818471 0 -0.27448136157065861 0.24963672867382861 0 -0.3021204024857635 0.25798361690129001 0 -0.27448136157065861 0.24963672867382861 0 -0.26896489532231771 0.25256568564594778 0 -0.28088729141663182 0.26445185652250253 0 -0.26896489532231771 0.25256568564594778 0 -0.28088729141663182 0.26445185652250253 0 -0.26516304748730279 0.2623503491562138 0 -0.28088729141663182 0.26445185652250253 0 -0.26516304748730279 0.2623503491562138 0 -0.26896489532231771 0.25256568564594778 0 -0.26516304748730279 0.2623503491562138 0 -0.26896489532231771 0.25256568564594778 0 -0.28088729141663182 0.26445185652250253 0 -0.27582747998400092 0.27944937222090538 0 -0.26088978263488932 0.27334827976406922 0 -0.26516304748730279 0.2623503491562138 0 -0.28088729141663182 0.26445185652250253 0 -0.27582747998400092 0.27944937222090538 0 -0.26516304748730279 0.2623503491562138 0 -0.27582747998400092 0.27944937222090538 0 -0.26088978263488932 0.27334827976406922 0 -0.26482466855288828 0.28757150817502392 0 -0.26482466855288828 0.28757150817502392 0 -0.24867206784699869 0.27189133605523319 0 -0.26088978263488932 0.27334827976406922 0 -0.26516304748730279 0.2623503491562138 0 -0.26088978263488932 0.27334827976406922 0 -0.26516304748730279 0.2623503491562138 0 -0.24867206784699869 0.27189133605523319 0 -0.26088978263488932 0.27334827976406922 0 -0.26482466855288828 0.28757150817502392 0 -0.24867206784699869 0.27189133605523319 0 -0.26516304748730279 0.2623503491562138 0 -0.24014977132531551 0.25900738498281878 0 -0.26516304748730279 0.2623503491562138 0 -0.24014977132531551 0.25900738498281878 0 -0.24867206784699869 0.27189133605523319 0 -0.2562248113956862 0.25264095397355368 0 -0.26516304748730279 0.2623503491562138 0 -0.24014977132531551 0.25900738498281878 0 -0.26896489532231771 0.25256568564594778 0 -0.2562248113956862 0.25264095397355368 0 -0.26516304748730279 0.2623503491562138 0 -0.2575620091230052 0.30038361623379201 0 -0.263253176287924 0.29393495859951679 0 -0.2657561528464889 0.30126286160426857 0 -0.26123215671624939 0.30748119128895018 0 -0.2575620091230052 0.30038361623379201 0 -0.2657561528464889 0.30126286160426857 0 -0.26123215671624939 0.30748119128895018 0 -0.25119498990301509 0.3058767496747325 0 -0.25280659957202473 0.31536167623520123 0 -0.25119498990301509 0.3058767496747325 0 -0.2575620091230052 0.30038361623379201 0 -0.25005404830863931 0.29762624806818933 0 -0.26123215671624939 0.30748119128895018 0 -0.25119498990301509 0.3058767496747325 0 -0.2575620091230052 0.30038361623379201 0 -0.25291011172958761 0.29068471160121451 0 -0.263253176287924 0.29393495859951679 0 -0.24867206784699869 0.27189133605523319 0 -0.2575620091230052 0.30038361623379201 0 -0.25005404830863931 0.29762624806818933 0 -0.25291011172958761 0.29068471160121451 0 -0.26482466855288828 0.28757150817502392 0 -0.263253176287924 0.29393495859951679 0 -0.24867206784699869 0.27189133605523319 0 -0.263253176287924 0.29393495859951679 0 -0.24867206784699869 0.27189133605523319 0 -0.2575620091230052 0.30038361623379201 0 -0.25291011172958761 0.29068471160121451 0 -0.263253176287924 0.29393495859951679 0 -0.26482466855288828 0.28757150817502392 0 -0.263253176287924 0.29393495859951679 0 -0.28097726925877697 0.30325168029481558 0 -0.27582747998400092 0.27944937222090538 0 -0.26482466855288828 0.28757150817502392 0 -0.28097726925877697 0.30325168029481558 0 -0.26482466855288828 0.28757150817502392 0 -0.28097726925877697 0.30325168029481558 0 -0.263253176287924 0.29393495859951679 0 -0.28097726925877697 0.30325168029481558 0 -0.2657561528464889 0.30126286160426857 0 -0.26123215671624939 0.30748119128895018 0 -0.28097726925877697 0.30325168029481558 0 -0.2657561528464889 0.30126286160426857 0 -0.26123215671624939 0.30748119128895018 0 -0.28097726925877697 0.30325168029481558 0 -0.26177126035184972 0.3190980307669683 0 -0.28097726925877697 0.30325168029481558 0 -0.26177126035184972 0.3190980307669683 0 -0.28097726925877697 0.30325168029481558 0 -0.29411982515741758 0.31600984489858308 0 -0.28097726925877697 0.30325168029481558 0 -0.29411982515741758 0.31600984489858308 0 -0.27549625745668499 0.31813774854798182 0 -0.28097726925877697 0.30325168029481558 0 -0.29964052232833932 0.30213807242400459 0 -0.29411982515741758 0.31600984489858308 0 -0.28097726925877697 0.30325168029481558 0 -0.30222282055351668 0.28572255941281011 0 -0.29964052232833932 0.30213807242400459 0 -0.27582747998400092 0.27944937222090538 0 -0.28097726925877697 0.30325168029481558 0 -0.30222282055351668 0.28572255941281011 0 -0.28097726925877697 0.30325168029481558 0 -0.30222282055351668 0.28572255941281011 0 -0.31410474469032668 0.29756838130256652 0 -0.30222282055351668 0.28572255941281011 0 -0.29964052232833932 0.30213807242400459 0 -0.31410474469032668 0.29756838130256652 0 -0.30222282055351668 0.28572255941281011 0 -0.29964052232833932 0.30213807242400459 0 -0.30780566849742103 0.30823815107292307 0 -0.29411982515741758 0.31600984489858308 0 -0.31410474469032668 0.29756838130256652 0 -0.29964052232833932 0.30213807242400459 0 -0.30780566849742103 0.30823815107292307 0 -0.30714374486393148 0.33263505338696109 0 -0.29411982515741758 0.31600984489858308 0 -0.31458584904702469 0.31954051275494177 0 -0.30780566849742103 0.30823815107292307 0 -0.29411982515741758 0.31600984489858308 0 -0.31458584904702469 0.31954051275494177 0 -0.30714374486393148 0.33263505338696109 0 -0.29237334518917052 0.3302390852892142 0 -0.29411982515741758 0.31600984489858308 0 -0.30714374486393148 0.33263505338696109 0 -0.29291087455141462 0.34487407597398939 0 -0.30860039971073588 0.34640580003688159 0 -0.30714374486393148 0.33263505338696109 0 -0.29237334518917052 0.3302390852892142 0 -0.29291087455141462 0.34487407597398939 0 -0.29237334518917052 0.3302390852892142 0 -0.28530957095925558 0.32455538024988972 0 -0.28068317078701521 0.33436010698593083 0 -0.29237334518917052 0.3302390852892142 0 -0.28068317078701521 0.33436010698593083 0 -0.29291087455141462 0.34487407597398939 0 -0.28068317078701521 0.33436010698593083 0 -0.27824346506147679 0.34440627852056749 0 -0.29291087455141462 0.34487407597398939 0 -0.29411982515741758 0.31600984489858308 0 -0.28530957095925558 0.32455538024988972 0 -0.27549625745668499 0.31813774854798182 0 -0.29237334518917052 0.3302390852892142 0 -0.29411982515741758 0.31600984489858308 0 -0.28530957095925558 0.32455538024988972 0 -0.28097726925877697 0.30325168029481558 0 -0.27549625745668499 0.31813774854798182 0 -0.26177126035184972 0.3190980307669683 0 -0.28530957095925558 0.32455538024988972 0 -0.27549625745668499 0.31813774854798182 0 -0.28068317078701521 0.33436010698593083 0 -0.27549625745668499 0.31813774854798182 0 -0.26257750381315859 0.33185166737062838 0 -0.26177126035184972 0.3190980307669683 0 -0.27549625745668499 0.31813774854798182 0 -0.26257750381315859 0.33185166737062838 0 -0.26763476701089339 0.34530579755715329 0 -0.27549625745668499 0.31813774854798182 0 -0.28068317078701521 0.33436010698593083 0 -0.26763476701089339 0.34530579755715329 0 -0.27549625745668499 0.31813774854798182 0 -0.26763476701089339 0.34530579755715329 0 -0.28068317078701521 0.33436010698593083 0 -0.26763476701089339 0.34530579755715329 0 -0.27824346506147679 0.34440627852056749 0 -0.25982528743727679 0.34008449736014318 0 -0.25706998809168158 0.34554298326950939 0 -0.26763476701089339 0.34530579755715329 0 -0.26257750381315859 0.33185166737062838 0 -0.25982528743727679 0.34008449736014318 0 -0.26763476701089339 0.34530579755715329 0 -0.26257750381315859 0.33185166737062838 0 -0.25982528743727679 0.34008449736014318 0 -0.25201889083337381 0.33763754124328149 0 -0.25982528743727679 0.34008449736014318 0 -0.25201889083337381 0.33763754124328149 0 -0.25706998809168158 0.34554298326950939 0 -0.26257750381315859 0.33185166737062838 0 -0.25201889083337381 0.33763754124328149 0 -0.25200238200409242 0.32613994431744198 0 -0.25200238200409242 0.32613994431744198 0 -0.25280659957202473 0.31536167623520123 0 -0.26177126035184972 0.3190980307669683 0 -0.26123215671624939 0.30748119128895018 0 -0.25280659957202473 0.31536167623520123 0 -0.26177126035184972 0.3190980307669683 0 -0.26257750381315859 0.33185166737062838 0 -0.25200238200409242 0.32613994431744198 0 -0.26177126035184972 0.3190980307669683 0 -0.26658783974688299 0.35514608321210173 0 -0.26367995239959341 0.37789146569135929 0 -0.25977327656510191 0.37247384656632487 0 -0.25173169702445591 0.36538910900394789 0 -0.25548857221827431 0.3561438189173034 0 -0.25977327656510191 0.37247384656632487 0 -0.26658783974688299 0.35514608321210173 0 -0.26367995239959341 0.37789146569135929 0 -0.25977327656510191 0.37247384656632487 0 -0.2522632447770769 0.37136687326983869 0 -0.2490827846952394 0.37748677962220339 0 -0.25977327656510191 0.37247384656632487 0 -0.2522632447770769 0.37136687326983869 0 -0.25173169702445591 0.36538910900394789 0 -0.25173169702445591 0.36538910900394789 0 -0.25548857221827431 0.3561438189173034 0 -0.2446228268146198 0.35833007190439459 0 -0.25977327656510191 0.37247384656632487 0 -0.26763476701089339 0.34530579755715329 0 -0.25977327656510191 0.37247384656632487 0 -0.25548857221827431 0.3561438189173034 0 -0.26763476701089339 0.34530579755715329 0 -0.25977327656510191 0.37247384656632487 0 -0.26658783974688299 0.35514608321210173 0 -0.26763476701089339 0.34530579755715329 0 -0.25201889083337381 0.33763754124328149 0 -0.25706998809168158 0.34554298326950939 0 -0.2479355413711799 0.34823426784454709 0 -0.25548857221827431 0.3561438189173034 0 -0.25706998809168158 0.34554298326950939 0 -0.2479355413711799 0.34823426784454709 0 -0.25548857221827431 0.3561438189173034 0 -0.25706998809168158 0.34554298326950939 0 -0.26763476701089339 0.34530579755715329 0 -0.26658783974688299 0.35514608321210173 0 -0.27447764576744321 0.35145940291625433 0 -0.27800590362718353 0.36079475140531359 0 -0.26658783974688299 0.35514608321210173 0 -0.26763476701089339 0.34530579755715329 0 -0.27447764576744321 0.35145940291625433 0 -0.26763476701089339 0.34530579755715329 0 -0.27447764576744321 0.35145940291625433 0 -0.27824346506147679 0.34440627852056749 0 -0.27447764576744321 0.35145940291625433 0 -0.27824346506147679 0.34440627852056749 0 -0.28191625339077919 0.35164410388613548 0 -0.27447764576744321 0.35145940291625433 0 -0.27800590362718353 0.36079475140531359 0 -0.28191625339077919 0.35164410388613548 0 -0.26658783974688299 0.35514608321210173 0 -0.27196886174503682 0.36841039306019713 0 -0.26367995239959341 0.37789146569135929 0 -0.27800590362718353 0.36079475140531359 0 -0.27788450776098111 0.369296441230961 0 -0.28497392222304491 0.36905522601782448 0 -0.27800590362718353 0.36079475140531359 0 -0.27196886174503682 0.36841039306019713 0 -0.27788450776098111 0.369296441230961 0 -0.26658783974688299 0.35514608321210173 0 -0.27800590362718353 0.36079475140531359 0 -0.27196886174503682 0.36841039306019713 0 -0.27788450776098111 0.369296441230961 0 -0.28497392222304491 0.36905522601782448 0 -0.27658934344865932 0.3789253944405091 0 -0.27196886174503682 0.36841039306019713 0 -0.27788450776098111 0.369296441230961 0 -0.27658934344865932 0.3789253944405091 0 -0.27800590362718353 0.36079475140531359 0 -0.28497392222304491 0.36905522601782448 0 -0.28948644391817452 0.35911281625500491 0 -0.28497392222304491 0.36905522601782448 0 -0.29518849567547778 0.37121068562306159 0 -0.28948644391817452 0.35911281625500491 0 -0.29518849567547778 0.37121068562306159 0 -0.28948644391817452 0.35911281625500491 0 -0.30245610784497728 0.35825564261553311 0 -0.28497392222304491 0.36905522601782448 0 -0.29518849567547778 0.37121068562306159 0 -0.28772621127952142 0.38139005269275122 0 -0.27824346506147679 0.34440627852056749 0 -0.28191625339077919 0.35164410388613548 0 -0.29291087455141462 0.34487407597398939 0 -0.28191625339077919 0.35164410388613548 0 -0.28948644391817452 0.35911281625500491 0 -0.29291087455141462 0.34487407597398939 0 -0.27800590362718353 0.36079475140531359 0 -0.28191625339077919 0.35164410388613548 0 -0.28948644391817452 0.35911281625500491 0 -0.28948644391817452 0.35911281625500491 0 -0.29291087455141462 0.34487407597398939 0 -0.30245610784497728 0.35825564261553311 0 -0.30245610784497728 0.35825564261553311 0 -0.30860039971073588 0.34640580003688159 0 -0.31998334215494639 0.35600550755619997 0 -0.29291087455141462 0.34487407597398939 0 -0.30245610784497728 0.35825564261553311 0 -0.30860039971073588 0.34640580003688159 0 -0.30245610784497728 0.35825564261553311 0 -0.30825443459843421 0.37064820494386508 0 -0.31998334215494639 0.35600550755619997 0 -0.29518849567547778 0.37121068562306159 0 -0.30825443459843421 0.37064820494386508 0 -0.30076322686680701 0.38095479522413461 0 -0.29518849567547778 0.37121068562306159 0 -0.30245610784497728 0.35825564261553311 0 -0.30825443459843421 0.37064820494386508 0 -0.30825443459843421 0.37064820494386508 0 -0.3187874613923522 0.3728289809143297 0 -0.31998334215494639 0.35600550755619997 0 -0.3187874613923522 0.3728289809143297 0 -0.33011024755312529 0.36567221324350602 0 -0.31998334215494639 0.35600550755619997 0 -0.3187874613923522 0.3728289809143297 0 -0.33011024755312529 0.36567221324350602 0 -0.3320299990034708 0.37674893468779008 0 -0.33011024755312529 0.36567221324350602 0 -0.34439427501528852 0.37171680636978238 0 -0.3320299990034708 0.37674893468779008 0 -0.33011024755312529 0.36567221324350602 0 -0.33756833459030527 0.35495234540192627 0 -0.34439427501528852 0.37171680636978238 0 -0.33756833459030527 0.35495234540192627 0 -0.31998334215494639 0.35600550755619997 0 -0.33333937512415118 0.34362814689927779 0 -0.33011024755312529 0.36567221324350602 0 -0.33756833459030527 0.35495234540192627 0 -0.31998334215494639 0.35600550755619997 0 -0.33756833459030527 0.35495234540192627 0 -0.33333937512415118 0.34362814689927779 0 -0.34452596532162638 0.34667726503296342 0 -0.31998334215494639 0.35600550755619997 0 -0.32251640675217841 0.33703103905932402 0 -0.33333937512415118 0.34362814689927779 0 -0.30860039971073588 0.34640580003688159 0 -0.31998334215494639 0.35600550755619997 0 -0.32251640675217841 0.33703103905932402 0 -0.30714374486393148 0.33263505338696109 0 -0.30860039971073588 0.34640580003688159 0 -0.32251640675217841 0.33703103905932402 0 -0.30714374486393148 0.33263505338696109 0 -0.32251640675217841 0.33703103905932402 0 -0.31458584904702469 0.31954051275494177 0 -0.32251640675217841 0.33703103905932402 0 -0.31458584904702469 0.31954051275494177 0 -0.32966204432700608 0.32291604220221282 0 -0.32553908928144593 0.30680816637832731 0 -0.31458584904702469 0.31954051275494177 0 -0.32966204432700608 0.32291604220221282 0 -0.34166778498161671 0.31246416139569477 0 -0.32553908928144593 0.30680816637832731 0 -0.32966204432700608 0.32291604220221282 0 -0.34166778498161671 0.31246416139569477 0 -0.32966204432700608 0.32291604220221282 0 -0.34144587204712312 0.33393494120933359 0 -0.32251640675217841 0.33703103905932402 0 -0.32966204432700608 0.32291604220221282 0 -0.34144587204712312 0.33393494120933359 0 -0.32251640675217841 0.33703103905932402 0 -0.33333937512415118 0.34362814689927779 0 -0.34144587204712312 0.33393494120933359 0 -0.33333937512415118 0.34362814689927779 0 -0.34144587204712312 0.33393494120933359 0 -0.34452596532162638 0.34667726503296342 0 -0.34144587204712312 0.33393494120933359 0 -0.35580621550761121 0.32457764479664758 0 -0.35773489616595461 0.3438856642116756 0 -0.34144587204712312 0.33393494120933359 0 -0.34452596532162638 0.34667726503296342 0 -0.35773489616595461 0.3438856642116756 0 -0.35741513815780612 0.30801474498501308 0 -0.34166778498161671 0.31246416139569477 0 -0.35580621550761121 0.32457764479664758 0 -0.34166778498161671 0.31246416139569477 0 -0.34144587204712312 0.33393494120933359 0 -0.35580621550761121 0.32457764479664758 0 -0.35580621550761121 0.32457764479664758 0 -0.37258005959352269 0.31779573958284818 0 -0.36572420153345908 0.33265985654539659 0 -0.35741513815780612 0.30801474498501308 0 -0.35580621550761121 0.32457764479664758 0 -0.37258005959352269 0.31779573958284818 0 -0.37640747204533043 0.33085378234506552 0 -0.37258005959352269 0.31779573958284818 0 -0.36572420153345908 0.33265985654539659 0 -0.35580621550761121 0.32457764479664758 0 -0.36572420153345908 0.33265985654539659 0 -0.35773489616595461 0.3438856642116756 0 -0.36572420153345908 0.33265985654539659 0 -0.36981473277461457 0.34304677337264228 0 -0.35773489616595461 0.3438856642116756 0 -0.37640747204533043 0.33085378234506552 0 -0.36572420153345908 0.33265985654539659 0 -0.36981473277461457 0.34304677337264228 0 -0.38275551371642552 0.35008450247137129 0 -0.36981473277461457 0.34304677337264228 0 -0.36722707383268122 0.35709596161926438 0 -0.36981473277461457 0.34304677337264228 0 -0.36722707383268122 0.35709596161926438 0 -0.35773489616595461 0.3438856642116756 0 -0.36722707383268122 0.35709596161926438 0 -0.35773489616595461 0.3438856642116756 0 -0.36722707383268122 0.35709596161926438 0 -0.36081438116654979 0.372822604432203 0 -0.35249511031104719 0.35772145800027261 0 -0.37671925149940749 0.37030625902685332 0 -0.36722707383268122 0.35709596161926438 0 -0.36081438116654979 0.372822604432203 0 -0.37671925149940749 0.37030625902685332 0 -0.36722707383268122 0.35709596161926438 0 -0.33756833459030527 0.35495234540192627 0 -0.34439427501528852 0.37171680636978238 0 -0.35249511031104719 0.35772145800027261 0 -0.36081438116654979 0.372822604432203 0 -0.34439427501528852 0.37171680636978238 0 -0.35249511031104719 0.35772145800027261 0 -0.33756833459030527 0.35495234540192627 0 -0.34452596532162638 0.34667726503296342 0 -0.35249511031104719 0.35772145800027261 0 -0.34452596532162638 0.34667726503296342 0 -0.35773489616595461 0.3438856642116756 0 -0.35249511031104719 0.35772145800027261 0 -0.36722707383268122 0.35709596161926438 0 -0.35773489616595461 0.3438856642116756 0 -0.35249511031104719 0.35772145800027261 0 -0.35456723366989018 0.40543877316352661 0 -0.35028917823418748 0.40044831087882238 0 -0.35369531309928087 0.38846922865760092 0 -0.35456723366989018 0.40543877316352661 0 -0.35028917823418748 0.40044831087882238 0 -0.34337337705170767 0.40838886813936243 0 -0.35028917823418748 0.40044831087882238 0 -0.35369531309928087 0.38846922865760092 0 -0.3402755782578642 0.38809510703894601 0 -0.34439427501528852 0.37171680636978238 0 -0.35369531309928087 0.38846922865760092 0 -0.3402755782578642 0.38809510703894601 0 -0.36081438116654979 0.372822604432203 0 -0.34439427501528852 0.37171680636978238 0 -0.35369531309928087 0.38846922865760092 0 -0.36081438116654979 0.372822604432203 0 -0.35369531309928087 0.38846922865760092 0 -0.37035526324158952 0.39162591291943949 0 -0.37671925149940749 0.37030625902685332 0 -0.37035526324158952 0.39162591291943949 0 -0.37671925149940749 0.37030625902685332 0 -0.36081438116654979 0.372822604432203 0 -0.37035526324158952 0.39162591291943949 0 -0.35456723366989018 0.40543877316352661 0 -0.35369531309928087 0.38846922865760092 0 -0.37035526324158952 0.39162591291943949 0 -0.35456723366989018 0.40543877316352661 0 -0.37035526324158952 0.39162591291943949 0 -0.37547448528555388 0.40325488883490351 0 -0.37035526324158952 0.39162591291943949 0 -0.36369567492094351 0.41393584064259259 0 -0.37035526324158952 0.39162591291943949 0 -0.36369567492094351 0.41393584064259259 0 -0.35456723366989018 0.40543877316352661 0 -0.37035526324158952 0.39162591291943949 0 -0.36369567492094351 0.41393584064259259 0 -0.37547448528555388 0.40325488883490351 0 -0.37450694124740658 0.41194961007014808 0 -0.36369567492094351 0.41393584064259259 0 -0.37573923407219639 0.42038084685478938 0 -0.37450694124740658 0.41194961007014808 0 -0.36369567492094351 0.41393584064259259 0 -0.37573923407219639 0.42038084685478938 0 -0.36369567492094351 0.41393584064259259 0 -0.36384843750541052 0.42943683714578629 0 -0.36369567492094351 0.41393584064259259 0 -0.36384843750541052 0.42943683714578629 0 -0.35275171684567441 0.41936187086561361 0 -0.38482884097687969 0.43012740432301882 0 -0.37573923407219639 0.42038084685478938 0 -0.36384843750541052 0.42943683714578629 0 -0.36384843750541052 0.42943683714578629 0 -0.35418945076332531 0.43626432387785558 0 -0.37072554411125602 0.44147586445686993 0 -0.38482884097687969 0.43012740432301882 0 -0.36384843750541052 0.42943683714578629 0 -0.37072554411125602 0.44147586445686993 0 -0.38482884097687969 0.43012740432301882 0 -0.36384843750541052 0.42943683714578629 0 -0.36384843750541052 0.42943683714578629 0 -0.35418945076332531 0.43626432387785558 0 -0.34286803403394139 0.42874626996855258 0 -0.36384843750541052 0.42943683714578629 0 -0.35275171684567441 0.41936187086561361 0 -0.34286803403394139 0.42874626996855258 0 -0.36384843750541052 0.42943683714578629 0 -0.34286803403394139 0.42874626996855258 0 -0.35275171684567441 0.41936187086561361 0 -0.33877920409818651 0.41925163340760863 0 -0.34286803403394139 0.42874626996855258 0 -0.35456723366989018 0.40543877316352661 0 -0.34337337705170767 0.40838886813936243 0 -0.33877920409818651 0.41925163340760863 0 -0.35456723366989018 0.40543877316352661 0 -0.35275171684567441 0.41936187086561361 0 -0.33877920409818651 0.41925163340760863 0 -0.35456723366989018 0.40543877316352661 0 -0.33877920409818651 0.41925163340760863 0 -0.35456723366989018 0.40543877316352661 0 -0.36369567492094351 0.41393584064259259 0 -0.35275171684567441 0.41936187086561361 0 -0.33877920409818651 0.41925163340760863 0 -0.32220383550265758 0.41664369491479047 0 -0.33257458048837268 0.40484393069113128 0 -0.34337337705170767 0.40838886813936243 0 -0.33877920409818651 0.41925163340760863 0 -0.33257458048837268 0.40484393069113128 0 -0.33877920409818651 0.41925163340760863 0 -0.32846861069340871 0.42827231487308709 0 -0.32220383550265758 0.41664369491479047 0 -0.33877920409818651 0.41925163340760863 0 -0.33257458048837268 0.40484393069113128 0 -0.34286803403394139 0.42874626996855258 0 -0.32846861069340871 0.42827231487308709 0 -0.33228063847041911 0.44604987380441929 0 -0.33877920409818651 0.41925163340760863 0 -0.34286803403394139 0.42874626996855258 0 -0.33877920409818651 0.41925163340760863 0 -0.34286803403394139 0.42874626996855258 0 -0.32846861069340871 0.42827231487308709 0 -0.33877920409818651 0.41925163340760863 0 -0.32846861069340871 0.42827231487308709 0 -0.34286803403394139 0.42874626996855258 0 -0.32846861069340871 0.42827231487308709 0 -0.32846861069340871 0.42827231487308709 0 -0.30797251513674301 0.44620423615481752 0 -0.32846861069340871 0.42827231487308709 0 -0.30504452377827118 0.42750131418179782 0 -0.30797251513674301 0.44620423615481752 0 -0.32846861069340871 0.42827231487308709 0 -0.32220383550265758 0.41664369491479047 0 -0.30504452377827118 0.42750131418179782 0 -0.32846861069340871 0.42827231487308709 0 -0.30504452377827118 0.42750131418179782 0 -0.33257458048837268 0.40484393069113128 0 -0.30767111289391957 0.41102336401071382 0 -0.32220383550265758 0.41664369491479047 0 -0.33257458048837268 0.40484393069113128 0 -0.30767111289391957 0.41102336401071382 0 -0.31668622243304001 0.39731698836616069 0 -0.33257458048837268 0.40484393069113128 0 -0.30767111289391957 0.41102336401071382 0 -0.31668622243304001 0.39731698836616069 0 -0.33257458048837268 0.40484393069113128 0 -0.32568102094036272 0.38883645580273041 0 -0.33257458048837268 0.40484393069113128 0 -0.3402755782578642 0.38809510703894601 0 -0.32568102094036272 0.38883645580273041 0 -0.33257458048837268 0.40484393069113128 0 -0.32568102094036272 0.38883645580273041 0 -0.35028917823418748 0.40044831087882238 0 -0.33257458048837268 0.40484393069113128 0 -0.3402755782578642 0.38809510703894601 0 -0.35028917823418748 0.40044831087882238 0 -0.33257458048837268 0.40484393069113128 0 -0.35028917823418748 0.40044831087882238 0 -0.34337337705170767 0.40838886813936243 0 -0.33257458048837268 0.40484393069113128 0 -0.34439427501528852 0.37171680636978238 0 -0.3402755782578642 0.38809510703894601 0 -0.3320299990034708 0.37674893468779008 0 -0.3402755782578642 0.38809510703894601 0 -0.3320299990034708 0.37674893468779008 0 -0.32568102094036272 0.38883645580273041 0 -0.3187874613923522 0.3728289809143297 0 -0.32568102094036272 0.38883645580273041 0 -0.31234797365604472 0.38463361772993238 0 -0.3187874613923522 0.3728289809143297 0 -0.32568102094036272 0.38883645580273041 0 -0.3187874613923522 0.3728289809143297 0 -0.3320299990034708 0.37674893468779008 0 -0.32568102094036272 0.38883645580273041 0 -0.31668622243304001 0.39731698836616069 0 -0.32568102094036272 0.38883645580273041 0 -0.31234797365604472 0.38463361772993238 0 -0.30825443459843421 0.37064820494386508 0 -0.3187874613923522 0.3728289809143297 0 -0.31234797365604472 0.38463361772993238 0 -0.30825443459843421 0.37064820494386508 0 -0.31234797365604472 0.38463361772993238 0 -0.30076322686680701 0.38095479522413461 0 -0.31234797365604472 0.38463361772993238 0 -0.30076322686680701 0.38095479522413461 0 -0.30462165720614359 0.39591260887949981 0 -0.30076322686680701 0.38095479522413461 0 -0.30462165720614359 0.39591260887949981 0 -0.29297233837108749 0.39297460770919451 0 -0.31668622243304001 0.39731698836616069 0 -0.30462165720614359 0.39591260887949981 0 -0.30767111289391957 0.41102336401071382 0 -0.31668622243304001 0.39731698836616069 0 -0.31234797365604472 0.38463361772993238 0 -0.30462165720614359 0.39591260887949981 0 -0.30462165720614359 0.39591260887949981 0 -0.29297233837108749 0.39297460770919451 0 -0.2934035414003679 0.4067951515193105 0 -0.30462165720614359 0.39591260887949981 0 -0.2934035414003679 0.4067951515193105 0 -0.30767111289391957 0.41102336401071382 0 -0.29297233837108749 0.39297460770919451 0 -0.28529974913287331 0.40030387065810791 0 -0.2934035414003679 0.4067951515193105 0 -0.28443506833462689 0.3921034779883571 0 -0.28529974913287331 0.40030387065810791 0 -0.2769197300732455 0.39517448070292788 0 -0.29297233837108749 0.39297460770919451 0 -0.28443506833462689 0.3921034779883571 0 -0.28529974913287331 0.40030387065810791 0 -0.28529974913287331 0.40030387065810791 0 -0.27670055619727368 0.40396261883482748 0 -0.2827706815121479 0.40768746104233539 0 -0.28529974913287331 0.40030387065810791 0 -0.2827706815121479 0.40768746104233539 0 -0.2934035414003679 0.4067951515193105 0 -0.29518849567547778 0.37121068562306159 0 -0.30076322686680701 0.38095479522413461 0 -0.28772621127952142 0.38139005269275122 0 -0.30076322686680701 0.38095479522413461 0 -0.29297233837108749 0.39297460770919451 0 -0.28772621127952142 0.38139005269275122 0 -0.29297233837108749 0.39297460770919451 0 -0.28443506833462689 0.3921034779883571 0 -0.28772621127952142 0.38139005269275122 0 -0.28443506833462689 0.3921034779883571 0 -0.28772621127952142 0.38139005269275122 0 -0.27873116199306042 0.38717334588685492 0 -0.28497392222304491 0.36905522601782448 0 -0.28772621127952142 0.38139005269275122 0 -0.27658934344865932 0.3789253944405091 0 -0.28772621127952142 0.38139005269275122 0 -0.27658934344865932 0.3789253944405091 0 -0.27873116199306042 0.38717334588685492 0 -0.27196886174503682 0.36841039306019713 0 -0.27658934344865932 0.3789253944405091 0 -0.26367995239959341 0.37789146569135929 0 -0.27658934344865932 0.3789253944405091 0 -0.27175470055777268 0.38898195682179698 0 -0.26367995239959341 0.37789146569135929 0 -0.27175470055777268 0.38898195682179698 0 -0.26662409067503712 0.3918425474913057 0 -0.26367995239959341 0.37789146569135929 0 -0.27658934344865932 0.3789253944405091 0 -0.27175470055777268 0.38898195682179698 0 -0.27873116199306042 0.38717334588685492 0 -0.27175470055777268 0.38898195682179698 0 -0.27873116199306042 0.38717334588685492 0 -0.2769197300732455 0.39517448070292788 0 -0.28443506833462689 0.3921034779883571 0 -0.27873116199306042 0.38717334588685492 0 -0.2769197300732455 0.39517448070292788 0 -0.2769197300732455 0.39517448070292788 0 -0.27670055619727368 0.40396261883482748 0 -0.27028964469047861 0.39985991928144909 0 -0.28529974913287331 0.40030387065810791 0 -0.2769197300732455 0.39517448070292788 0 -0.27670055619727368 0.40396261883482748 0 -0.27028964469047861 0.39985991928144909 0 -0.26077206505230371 0.40063684817061701 0 -0.26689595505517921 0.40700775359988528 0 -0.27670055619727368 0.40396261883482748 0 -0.27028964469047861 0.39985991928144909 0 -0.26689595505517921 0.40700775359988528 0 -0.27175470055777268 0.38898195682179698 0 -0.27028964469047861 0.39985991928144909 0 -0.26662409067503712 0.3918425474913057 0 -0.27175470055777268 0.38898195682179698 0 -0.2769197300732455 0.39517448070292788 0 -0.27028964469047861 0.39985991928144909 0 -0.27028964469047861 0.39985991928144909 0 -0.26662409067503712 0.3918425474913057 0 -0.26077206505230371 0.40063684817061701 0 -0.26077206505230371 0.40063684817061701 0 -0.25191178611931031 0.39964189557549668 0 -0.26367995239959341 0.37789146569135929 0 -0.26077206505230371 0.40063684817061701 0 -0.25191178611931031 0.39964189557549668 0 -0.25506996907169011 0.4114664336456334 0 -0.26662409067503712 0.3918425474913057 0 -0.26077206505230371 0.40063684817061701 0 -0.26367995239959341 0.37789146569135929 0 -0.25977327656510191 0.37247384656632487 0 -0.25191178611931031 0.39964189557549668 0 -0.25977327656510191 0.37247384656632487 0 -0.25191178611931031 0.39964189557549668 0 -0.2471182467330458 0.38725792776095402 0 -0.26077206505230371 0.40063684817061701 0 -0.26367995239959341 0.37789146569135929 0 -0.25977327656510191 0.37247384656632487 0 -0.25191178611931031 0.39964189557549668 0 -0.26367995239959341 0.37789146569135929 0 -0.25977327656510191 0.37247384656632487 0 -0.2490827846952394 0.37748677962220339 0 -0.2471182467330458 0.38725792776095402 0 -0.25786417770501208 0.42338223064987429 0 -0.26261830468596342 0.43020104652174329 0 -0.25685767159405493 0.4312550825616967 0 -0.25786417770501208 0.42338223064987429 0 -0.26261830468596342 0.43020104652174329 0 -0.27015258774919598 0.42854590001014697 0 -0.26261830468596342 0.43020104652174329 0 -0.25685767159405493 0.4312550825616967 0 -0.26559878169559048 0.43762097286525509 0 -0.25685767159405493 0.4312550825616967 0 -0.25619777670869542 0.44134565548721438 0 -0.26559878169559048 0.43762097286525509 0 -0.25053498491516613 0.43234652891012437 0 -0.25685767159405493 0.4312550825616967 0 -0.25619777670869542 0.44134565548721438 0 -0.25786417770501208 0.42338223064987429 0 -0.25685767159405493 0.4312550825616967 0 -0.25786417770501208 0.42338223064987429 0 -0.25053498491516613 0.43234652891012437 0 -0.2440502956735178 0.42680994458466792 0 -0.25786417770501208 0.42338223064987429 0 -0.2440502956735178 0.42680994458466792 0 -0.25786417770501208 0.42338223064987429 0 -0.25053498491516613 0.43234652891012437 0 -0.25685767159405493 0.4312550825616967 0 -0.25786417770501208 0.42338223064987429 0 -0.25506996907169011 0.4114664336456334 0 -0.2440502956735178 0.42680994458466792 0 -0.26077206505230371 0.40063684817061701 0 -0.25786417770501208 0.42338223064987429 0 -0.26077206505230371 0.40063684817061701 0 -0.25786417770501208 0.42338223064987429 0 -0.26689595505517921 0.40700775359988528 0 -0.25786417770501208 0.42338223064987429 0 -0.26937017225297372 0.41373610847520681 0 -0.26689595505517921 0.40700775359988528 0 -0.25191178611931031 0.39964189557549668 0 -0.25506996907169011 0.4114664336456334 0 -0.2440502956735178 0.42680994458466792 0 -0.26077206505230371 0.40063684817061701 0 -0.25786417770501208 0.42338223064987429 0 -0.25506996907169011 0.4114664336456334 0 -0.25786417770501208 0.42338223064987429 0 -0.26937017225297372 0.41373610847520681 0 -0.2827676452994658 0.4172027973302937 0 -0.25786417770501208 0.42338223064987429 0 -0.2827676452994658 0.4172027973302937 0 -0.27670055619727368 0.40396261883482748 0 -0.26689595505517921 0.40700775359988528 0 -0.27568191553075883 0.41017286686913768 0 -0.26937017225297372 0.41373610847520681 0 -0.26689595505517921 0.40700775359988528 0 -0.27568191553075883 0.41017286686913768 0 -0.27568191553075883 0.41017286686913768 0 -0.2827706815121479 0.40768746104233539 0 -0.2827676452994658 0.4172027973302937 0 -0.26937017225297372 0.41373610847520681 0 -0.27568191553075883 0.41017286686913768 0 -0.2827676452994658 0.4172027973302937 0 -0.27670055619727368 0.40396261883482748 0 -0.27568191553075883 0.41017286686913768 0 -0.2827706815121479 0.40768746104233539 0 -0.25786417770501208 0.42338223064987429 0 -0.27015258774919598 0.42854590001014697 0 -0.2827676452994658 0.4172027973302937 0 -0.27015258774919598 0.42854590001014697 0 -0.28162043686313409 0.42673031349049878 0 -0.2827676452994658 0.4172027973302937 0 -0.26261830468596342 0.43020104652174329 0 -0.27015258774919598 0.42854590001014697 0 -0.26559878169559048 0.43762097286525509 0 -0.27015258774919598 0.42854590001014697 0 -0.27830280469427637 0.43835858859822852 0 -0.26559878169559048 0.43762097286525509 0 -0.27015258774919598 0.42854590001014697 0 -0.28162043686313409 0.42673031349049878 0 -0.27830280469427637 0.43835858859822852 0 -0.28665401605381807 0.43546326594170631 0 -0.28162043686313409 0.42673031349049878 0 -0.27830280469427637 0.43835858859822852 0 -0.28162043686313409 0.42673031349049878 0 -0.2827676452994658 0.4172027973302937 0 -0.30504452377827118 0.42750131418179782 0 -0.28162043686313409 0.42673031349049878 0 -0.29538272306702662 0.434900913874533 0 -0.30504452377827118 0.42750131418179782 0 -0.28665401605381807 0.43546326594170631 0 -0.28162043686313409 0.42673031349049878 0 -0.29538272306702662 0.434900913874533 0 -0.28162043686313409 0.42673031349049878 0 -0.30504452377827118 0.42750131418179782 0 -0.2827676452994658 0.4172027973302937 0 -0.2934035414003679 0.4067951515193105 0 -0.30767111289391957 0.41102336401071382 0 -0.2827676452994658 0.4172027973302937 0 -0.30767111289391957 0.41102336401071382 0 -0.2827706815121479 0.40768746104233539 0 -0.2827676452994658 0.4172027973302937 0 -0.2934035414003679 0.4067951515193105 0 -0.32220383550265758 0.41664369491479047 0 -0.30767111289391957 0.41102336401071382 0 -0.30504452377827118 0.42750131418179782 0 -0.2827676452994658 0.4172027973302937 0 -0.30767111289391957 0.41102336401071382 0 -0.30504452377827118 0.42750131418179782 0 -0.29538272306702662 0.434900913874533 0 -0.30504452377827118 0.42750131418179782 0 -0.30797251513674301 0.44620423615481752 0 -0.29538272306702662 0.434900913874533 0 -0.30797251513674301 0.44620423615481752 0 -0.29017535645601122 0.44272056575085961 0 -0.30797251513674301 0.44620423615481752 0 -0.28747641958008202 0.46413615743655318 0 -0.30797251513674301 0.44620423615481752 0 -0.3064013601512251 0.4636969944553212 0 -0.28747641958008202 0.46413615743655318 0 -0.30797251513674301 0.44620423615481752 0 -0.28747641958008202 0.46413615743655318 0 -0.29017535645601122 0.44272056575085961 0 -0.28747641958008202 0.46413615743655318 0 -0.29017535645601122 0.44272056575085961 0 -0.27808662246271931 0.45190621331870517 0 -0.28665401605381807 0.43546326594170631 0 -0.29538272306702662 0.434900913874533 0 -0.29017535645601122 0.44272056575085961 0 -0.29017535645601122 0.44272056575085961 0 -0.27830280469427637 0.43835858859822852 0 -0.27808662246271931 0.45190621331870517 0 -0.28665401605381807 0.43546326594170631 0 -0.29017535645601122 0.44272056575085961 0 -0.27830280469427637 0.43835858859822852 0 -0.27830280469427637 0.43835858859822852 0 -0.27225123567397702 0.44547750441205808 0 -0.27808662246271931 0.45190621331870517 0 -0.27830280469427637 0.43835858859822852 0 -0.27225123567397702 0.44547750441205808 0 -0.26559878169559048 0.43762097286525509 0 -0.27225123567397702 0.44547750441205808 0 -0.26559878169559048 0.43762097286525509 0 -0.26483207816576781 0.45133983058039517 0 -0.27225123567397702 0.44547750441205808 0 -0.27808662246271931 0.45190621331870517 0 -0.26483207816576781 0.45133983058039517 0 -0.28747641958008202 0.46413615743655318 0 -0.27808662246271931 0.45190621331870517 0 -0.26503905078539769 0.46515549941930512 0 -0.27808662246271931 0.45190621331870517 0 -0.26503905078539769 0.46515549941930512 0 -0.26483207816576781 0.45133983058039517 0 -0.26503905078539769 0.46515549941930512 0 -0.25304040392598132 0.4521249231972726 0 -0.26483207816576781 0.45133983058039517 0 -0.26503905078539769 0.46515549941930512 0 -0.25304040392598132 0.4521249231972726 0 -0.24374374955050809 0.47386662456447942 0 -0.25304040392598132 0.4521249231972726 0 -0.25619777670869542 0.44134565548721438 0 -0.24767854363021569 0.44113716828954408 0 -0.25053498491516613 0.43234652891012437 0 -0.25619777670869542 0.44134565548721438 0 -0.24767854363021569 0.44113716828954408 0 -0.25619777670869542 0.44134565548721438 0 -0.26559878169559048 0.43762097286525509 0 -0.26483207816576781 0.45133983058039517 0 -0.25304040392598132 0.4521249231972726 0 -0.25619777670869542 0.44134565548721438 0 -0.26483207816576781 0.45133983058039517 0 -0.26698032402342098 0.48206807871828877 0 -0.27323488381420491 0.5 0 -0.24648422846675239 0.50000000000001554 0 -0.26698032402342098 0.48206807871828877 0 -0.24374374955050809 0.47386662456447942 0 -0.24648422846675239 0.50000000000001554 0 -0.26698032402342098 0.48206807871828877 0 -0.24648422846675239 0.50000000000001554 0 -0.26503905078539769 0.46515549941930512 0 -0.24374374955050809 0.47386662456447942 0 -0.26503905078539769 0.46515549941930512 0 -0.26698032402342098 0.48206807871828877 0 -0.24374374955050809 0.47386662456447942 0 -0.28747641958008202 0.46413615743655318 0 -0.26503905078539769 0.46515549941930512 0 -0.26698032402342098 0.48206807871828877 0 -0.28747641958008202 0.46413615743655318 0 -0.26698032402342098 0.48206807871828877 0 -0.28690181857895369 0.48530900240199099 0 -0.28747641958008202 0.46413615743655318 0 -0.26698032402342098 0.48206807871828877 0 -0.26698032402342098 0.48206807871828877 0 -0.27323488381420491 0.5 0 -0.28690181857895369 0.48530900240199099 0 -0.27323488381420491 0.5 0 -0.28690181857895369 0.48530900240199099 0 -0.29998553916165738 0.5 0 -0.28747641958008202 0.46413615743655318 0 -0.28690181857895369 0.48530900240199099 0 -0.30823164035231287 0.48048950736529977 0 -0.3064013601512251 0.4636969944553212 0 -0.28747641958008202 0.46413615743655318 0 -0.30823164035231287 0.48048950736529977 0 -0.30823164035231287 0.48048950736529977 0 -0.29998553916165738 0.5 0 -0.32554685807092337 0.49294006357496911 0 -0.28690181857895369 0.48530900240199099 0 -0.30823164035231287 0.48048950736529977 0 -0.29998553916165738 0.5 0 -0.29998553916165738 0.5 0 -0.32673619450910979 0.5 0 -0.32554685807092337 0.49294006357496911 0 -0.32554685807092337 0.49294006357496911 0 -0.34040288265164681 0.49077013773600392 0 -0.3480395035198724 0.47608667292352042 0 -0.32673619450910979 0.5 0 -0.32554685807092337 0.49294006357496911 0 -0.34040288265164681 0.49077013773600392 0 -0.32673619450910979 0.5 0 -0.34040288265164681 0.49077013773600392 0 -0.35348684985656231 0.5 0 -0.32554685807092337 0.49294006357496911 0 -0.3480395035198724 0.47608667292352042 0 -0.32554685807092337 0.49294006357496911 0 -0.32642152595421259 0.47849330002427681 0 -0.3480395035198724 0.47608667292352042 0 -0.32642152595421259 0.47849330002427681 0 -0.32386810187374188 0.46445695623331812 0 -0.3480395035198724 0.47608667292352042 0 -0.30823164035231287 0.48048950736529977 0 -0.32554685807092337 0.49294006357496911 0 -0.32642152595421259 0.47849330002427681 0 -0.30823164035231287 0.48048950736529977 0 -0.32642152595421259 0.47849330002427681 0 -0.32386810187374188 0.46445695623331812 0 -0.3064013601512251 0.4636969944553212 0 -0.30823164035231287 0.48048950736529977 0 -0.32386810187374188 0.46445695623331812 0 -0.30797251513674301 0.44620423615481752 0 -0.3064013601512251 0.4636969944553212 0 -0.32386810187374188 0.46445695623331812 0 -0.30797251513674301 0.44620423615481752 0 -0.32386810187374188 0.46445695623331812 0 -0.33228063847041911 0.44604987380441929 0 -0.32846861069340871 0.42827231487308709 0 -0.30797251513674301 0.44620423615481752 0 -0.33228063847041911 0.44604987380441929 0 -0.33228063847041911 0.44604987380441929 0 -0.33905894605854808 0.45966388986333712 0 -0.35134723525103229 0.44843574963590421 0 -0.34286803403394139 0.42874626996855258 0 -0.33228063847041911 0.44604987380441929 0 -0.35134723525103229 0.44843574963590421 0 -0.32386810187374188 0.46445695623331812 0 -0.33228063847041911 0.44604987380441929 0 -0.33905894605854808 0.45966388986333712 0 -0.32386810187374188 0.46445695623331812 0 -0.33905894605854808 0.45966388986333712 0 -0.3480395035198724 0.47608667292352042 0 -0.33905894605854808 0.45966388986333712 0 -0.35134723525103229 0.44843574963590421 0 -0.3480395035198724 0.47608667292352042 0 -0.35134723525103229 0.44843574963590421 0 -0.37053214896882142 0.45923328227207161 0 -0.3480395035198724 0.47608667292352042 0 -0.37053214896882142 0.45923328227207161 0 -0.3480395035198724 0.47608667292352042 0 -0.35418945076332531 0.43626432387785558 0 -0.34286803403394139 0.42874626996855258 0 -0.35134723525103229 0.44843574963590421 0 -0.35418945076332531 0.43626432387785558 0 -0.35134723525103229 0.44843574963590421 0 -0.37072554411125602 0.44147586445686993 0 -0.34286803403394139 0.42874626996855258 0 -0.35134723525103229 0.44843574963590421 0 -0.35134723525103229 0.44843574963590421 0 -0.37072554411125602 0.44147586445686993 0 -0.37053214896882142 0.45923328227207161 0 -0.37053214896882142 0.45923328227207161 0 -0.3732725268085203 0.48019306951550211 0 -0.3480395035198724 0.47608667292352042 0 -0.38023750520401478 0.5 0 -0.3732725268085203 0.48019306951550211 0 -0.35348684985656231 0.5 0 -0.34040288265164681 0.49077013773600392 0 -0.35348684985656231 0.5 0 -0.3480395035198724 0.47608667292352042 0 -0.3732725268085203 0.48019306951550211 0 -0.35348684985656231 0.5 0 -0.3480395035198724 0.47608667292352042 0 -0.15624648995465429 0.48023756602496748 0 -0.13591888044572159 0.47396049845625121 0 -0.1545696432565358 0.45931709689800332 0 -0.15624648995465429 0.48023756602496748 0 -0.1352385600768031 0.5 0 -0.13591888044572159 0.47396049845625121 0 -0.15624648995465429 0.48023756602496748 0 -0.1352385600768031 0.5 0 -0.1633121850176853 0.50000000000000044 0 -0.1352385600768031 0.5 0 -0.13591888044572159 0.47396049845625121 0 -0.1133355746363951 0.48468331260073799 0 -0.13591888044572159 0.47396049845625121 0 -0.13816113214061401 0.4509746802991435 0 -0.12184399935939901 0.45949444141964829 0 -0.130352424082403 0.43430557023855859 0 -0.12184399935939901 0.45949444141964829 0 -0.13816113214061401 0.4509746802991435 0 -0.130352424082403 0.43430557023855859 0 -0.12184399935939901 0.45949444141964829 0 -0.13816113214061401 0.4509746802991435 0 -0.1545696432565358 0.45931709689800332 0 -0.15654421756630579 0.43446715049218759 0 -0.13816113214061401 0.4509746802991435 0 -0.15654421756630579 0.43446715049218759 0 -0.130352424082403 0.43430557023855859 0 -0.13591888044572159 0.47396049845625121 0 -0.13816113214061401 0.4509746802991435 0 -0.1545696432565358 0.45931709689800332 0 -0.15624648995465429 0.48023756602496748 0 -0.1545696432565358 0.45931709689800332 0 -0.17247192704868619 0.46509414722954701 0 -0.1545696432565358 0.45931709689800332 0 -0.16837503888059591 0.44960466135950511 0 -0.17247192704868619 0.46509414722954701 0 -0.1545696432565358 0.45931709689800332 0 -0.16837503888059591 0.44960466135950511 0 -0.15654421756630579 0.43446715049218759 0 -0.16837503888059591 0.44960466135950511 0 -0.18027104917356321 0.43905785324356927 0 -0.15654421756630579 0.43446715049218759 0 -0.16837503888059591 0.44960466135950511 0 -0.18510777623243929 0.45242758901634011 0 -0.18027104917356321 0.43905785324356927 0 -0.18510777623243929 0.45242758901634011 0 -0.18027104917356321 0.43905785324356927 0 -0.1948337938946689 0.43958905814523358 0 -0.16837503888059591 0.44960466135950511 0 -0.18510777623243929 0.45242758901634011 0 -0.17247192704868619 0.46509414722954701 0 -0.18510777623243929 0.45242758901634011 0 -0.17247192704868619 0.46509414722954701 0 -0.1907600327983828 0.46622651001161358 0 -0.1770361089080342 0.4831132550058071 0 -0.18774332749214021 0.48875402712248411 0 -0.1929262081339593 0.48061397862930122 0 -0.17247192704868619 0.46509414722954701 0 -0.1770361089080342 0.4831132550058071 0 -0.1907600327983828 0.46622651001161358 0 -0.1770361089080342 0.4831132550058071 0 -0.1929262081339593 0.48061397862930122 0 -0.1907600327983828 0.46622651001161358 0 -0.1770361089080342 0.4831132550058071 0 -0.1907600327983828 0.46622651001161358 0 -0.15624648995465429 0.48023756602496748 0 -0.17247192704868619 0.46509414722954701 0 -0.1770361089080342 0.4831132550058071 0 -0.1770361089080342 0.4831132550058071 0 -0.1633121850176853 0.50000000000000044 0 -0.15624648995465429 0.48023756602496748 0 -0.1770361089080342 0.4831132550058071 0 -0.1633121850176853 0.50000000000000044 0 -0.1770361089080342 0.4831132550058071 0 -0.17985784584583861 0.50000000000000111 0 -0.18774332749214021 0.48875402712248411 0 -0.1770361089080342 0.4831132550058071 0 -0.1633121850176853 0.50000000000000044 0 -0.17985784584583861 0.50000000000000111 0 -0.17985784584583861 0.50000000000000111 0 -0.20115314708072871 0.49128887485482797 0 -0.20206664005280989 0.5 0 -0.17985784584583861 0.50000000000000111 0 -0.20115314708072871 0.49128887485482797 0 -0.17985784584583861 0.50000000000000111 0 -0.18774332749214021 0.48875402712248411 0 -0.20115314708072871 0.49128887485482797 0 -0.18774332749214021 0.48875402712248411 0 -0.20115314708072871 0.49128887485482797 0 -0.1929262081339593 0.48061397862930122 0 -0.20115314708072871 0.49128887485482797 0 -0.1929262081339593 0.48061397862930122 0 -0.20597485925078721 0.47453809357330801 0 -0.1929262081339593 0.48061397862930122 0 -0.20597485925078721 0.47453809357330801 0 -0.1907600327983828 0.46622651001161358 0 -0.20597485925078721 0.47453809357330801 0 -0.2224484483156183 0.48257774970965372 0 -0.21722448680260831 0.4628747561898845 0 -0.20115314708072871 0.49128887485482797 0 -0.20597485925078721 0.47453809357330801 0 -0.2224484483156183 0.48257774970965372 0 -0.20115314708072871 0.49128887485482797 0 -0.2224484483156183 0.48257774970965372 0 -0.20115314708072871 0.49128887485482797 0 -0.21398474670565551 0.49227221526215431 0 -0.2224484483156183 0.48257774970965372 0 -0.20206664005280989 0.5 0 -0.21398474670565551 0.49227221526215431 0 -0.22427543425978111 0.5 0 -0.20115314708072871 0.49128887485482797 0 -0.20206664005280989 0.5 0 -0.21398474670565551 0.49227221526215431 0 -0.22427543425978111 0.5 0 -0.2224484483156183 0.48257774970965372 0 -0.23456421263819971 0.48937324330947968 0 -0.21398474670565551 0.49227221526215431 0 -0.22427543425978111 0.5 0 -0.2224484483156183 0.48257774970965372 0 -0.2224484483156183 0.48257774970965372 0 -0.24374374955050809 0.47386662456447942 0 -0.2298661029634512 0.46844616678165613 0 -0.2224484483156183 0.48257774970965372 0 -0.24374374955050809 0.47386662456447942 0 -0.23456421263819971 0.48937324330947968 0 -0.2224484483156183 0.48257774970965372 0 -0.2298661029634512 0.46844616678165613 0 -0.21722448680260831 0.4628747561898845 0 -0.2224484483156183 0.48257774970965372 0 -0.24374374955050809 0.47386662456447942 0 -0.22427543425978111 0.5 0 -0.23456421263819971 0.48937324330947968 0 -0.24648422846675239 0.50000000000001554 0 -0.24374374955050809 0.47386662456447942 0 -0.23456421263819971 0.48937324330947968 0 -0.24648422846675239 0.50000000000001554 0 -0.23604772718507011 0.45446553666260692 0 -0.2440502956735178 0.42680994458466792 0 -0.24767854363021569 0.44113716828954408 0 -0.23604772718507011 0.45446553666260692 0 -0.2440502956735178 0.42680994458466792 0 -0.23604772718507011 0.45446553666260692 0 -0.23228782767820491 0.43985500723897442 0 -0.2440502956735178 0.42680994458466792 0 -0.25304040392598132 0.4521249231972726 0 -0.24767854363021569 0.44113716828954408 0 -0.23604772718507011 0.45446553666260692 0 -0.24374374955050809 0.47386662456447942 0 -0.23604772718507011 0.45446553666260692 0 -0.2298661029634512 0.46844616678165613 0 -0.25304040392598132 0.4521249231972726 0 -0.24374374955050809 0.47386662456447942 0 -0.23604772718507011 0.45446553666260692 0 -0.23604772718507011 0.45446553666260692 0 -0.2298661029634512 0.46844616678165613 0 -0.21722448680260831 0.4628747561898845 0 -0.23604772718507011 0.45446553666260692 0 -0.2207588818627495 0.44893637431462868 0 -0.21722448680260831 0.4628747561898845 0 -0.23604772718507011 0.45446553666260692 0 -0.2207588818627495 0.44893637431462868 0 -0.23228782767820491 0.43985500723897442 0 -0.2207588818627495 0.44893637431462868 0 -0.23228782767820491 0.43985500723897442 0 -0.22278303713234501 0.43634757186701362 0 -0.2207588818627495 0.44893637431462868 0 -0.2094034712655265 0.44057272906643169 0 -0.22278303713234501 0.43634757186701362 0 -0.2207588818627495 0.44893637431462868 0 -0.2094034712655265 0.44057272906643169 0 -0.20393481559873869 0.45499330410857269 0 -0.20597485925078721 0.47453809357330801 0 -0.21722448680260831 0.4628747561898845 0 -0.20393481559873869 0.45499330410857269 0 -0.2207588818627495 0.44893637431462868 0 -0.21722448680260831 0.4628747561898845 0 -0.20393481559873869 0.45499330410857269 0 -0.20597485925078721 0.47453809357330801 0 -0.20393481559873869 0.45499330410857269 0 -0.1907600327983828 0.46622651001161358 0 -0.18510777623243929 0.45242758901634011 0 -0.20393481559873869 0.45499330410857269 0 -0.1907600327983828 0.46622651001161358 0 -0.18510777623243929 0.45242758901634011 0 -0.20393481559873869 0.45499330410857269 0 -0.1948337938946689 0.43958905814523358 0 -0.2094034712655265 0.44057272906643169 0 -0.20393481559873869 0.45499330410857269 0 -0.1948337938946689 0.43958905814523358 0 -0.18027104917356321 0.43905785324356927 0 -0.1948337938946689 0.43958905814523358 0 -0.193657477982771 0.42521260509328063 0 -0.193657477982771 0.42521260509328063 0 -0.20132972791707959 0.42154350422342818 0 -0.2035740300893093 0.4303010531582141 0 -0.2094034712655265 0.44057272906643169 0 -0.1948337938946689 0.43958905814523358 0 -0.2035740300893093 0.4303010531582141 0 -0.1948337938946689 0.43958905814523358 0 -0.193657477982771 0.42521260509328063 0 -0.2035740300893093 0.4303010531582141 0 -0.19278997886437421 0.40848795586553549 0 -0.1971892360691789 0.41535279808171521 0 -0.18522884638603729 0.41651276305266161 0 -0.19278997886437421 0.40848795586553549 0 -0.1971892360691789 0.41535279808171521 0 -0.193657477982771 0.42521260509328063 0 -0.1971892360691789 0.41535279808171521 0 -0.18522884638603729 0.41651276305266161 0 -0.193657477982771 0.42521260509328063 0 -0.20132972791707959 0.42154350422342818 0 -0.1971892360691789 0.41535279808171521 0 -0.20132972791707959 0.42154350422342818 0 -0.20240574631362621 0.41430690585640911 0 -0.1971892360691789 0.41535279808171521 0 -0.20240574631362621 0.41430690585640911 0 -0.1971892360691789 0.41535279808171521 0 -0.19724205617047191 0.41123693610954531 0 -0.19278997886437421 0.40848795586553549 0 -0.1971892360691789 0.41535279808171521 0 -0.19724205617047191 0.41123693610954531 0 -0.20240574631362621 0.41430690585640911 0 -0.19724205617047191 0.41123693610954531 0 -0.20108540797174351 0.40864018078868258 0 -0.19278997886437421 0.40848795586553549 0 -0.19763255005510469 0.40697038417528991 0 -0.1955596088333742 0.40440974494432269 0 -0.19724205617047191 0.41123693610954531 0 -0.20108540797174351 0.40864018078868258 0 -0.19763255005510469 0.40697038417528991 0 -0.19278997886437421 0.40848795586553549 0 -0.19724205617047191 0.41123693610954531 0 -0.19763255005510469 0.40697038417528991 0 -0.20773687287061679 0.40763948057950949 0 -0.20878045662963279 0.41693735604078752 0 -0.21615132321843339 0.41213061900966352 0 -0.20240574631362621 0.41430690585640911 0 -0.20773687287061679 0.40763948057950949 0 -0.20878045662963279 0.41693735604078752 0 -0.20240574631362621 0.41430690585640911 0 -0.20108540797174351 0.40864018078868258 0 -0.20773687287061679 0.40763948057950949 0 -0.20132972791707959 0.42154350422342818 0 -0.20240574631362621 0.41430690585640911 0 -0.20878045662963279 0.41693735604078752 0 -0.20132972791707959 0.42154350422342818 0 -0.20878045662963279 0.41693735604078752 0 -0.20865432415267141 0.4241768065427387 0 -0.21602622884790151 0.42148563833765251 0 -0.21615132321843339 0.41213061900966352 0 -0.22186307583883541 0.41726689586818178 0 -0.20878045662963279 0.41693735604078752 0 -0.21602622884790151 0.42148563833765251 0 -0.21615132321843339 0.41213061900966352 0 -0.20878045662963279 0.41693735604078752 0 -0.21602622884790151 0.42148563833765251 0 -0.20865432415267141 0.4241768065427387 0 -0.20773687287061679 0.40763948057950949 0 -0.21615132321843339 0.41213061900966352 0 -0.21902191653430431 0.40107261379010117 0 -0.2094034712655265 0.44057272906643169 0 -0.2035740300893093 0.4303010531582141 0 -0.21356117727943361 0.4306164809536116 0 -0.2035740300893093 0.4303010531582141 0 -0.20865432415267141 0.4241768065427387 0 -0.21356117727943361 0.4306164809536116 0 -0.20132972791707959 0.42154350422342818 0 -0.2035740300893093 0.4303010531582141 0 -0.20865432415267141 0.4241768065427387 0 -0.21602622884790151 0.42148563833765251 0 -0.20865432415267141 0.4241768065427387 0 -0.21356117727943361 0.4306164809536116 0 -0.21602622884790151 0.42148563833765251 0 -0.21356117727943361 0.4306164809536116 0 -0.22344633703344891 0.42599240146706358 0 -0.2094034712655265 0.44057272906643169 0 -0.21356117727943361 0.4306164809536116 0 -0.22278303713234501 0.43634757186701362 0 -0.21356117727943361 0.4306164809536116 0 -0.22278303713234501 0.43634757186701362 0 -0.22344633703344891 0.42599240146706358 0 -0.23228782767820491 0.43985500723897442 0 -0.22278303713234501 0.43634757186701362 0 -0.2355051794121783 0.42893029091574347 0 -0.22278303713234501 0.43634757186701362 0 -0.22344633703344891 0.42599240146706358 0 -0.2355051794121783 0.42893029091574347 0 -0.22344633703344891 0.42599240146706358 0 -0.2291799756398103 0.41879629173717797 0 -0.2355051794121783 0.42893029091574347 0 -0.22186307583883541 0.41726689586818178 0 -0.22509125582010919 0.40992350980149689 0 -0.2291799756398103 0.41879629173717797 0 -0.21602622884790151 0.42148563833765251 0 -0.22344633703344891 0.42599240146706358 0 -0.22186307583883541 0.41726689586818178 0 -0.22344633703344891 0.42599240146706358 0 -0.22186307583883541 0.41726689586818178 0 -0.2291799756398103 0.41879629173717797 0 -0.21615132321843339 0.41213061900966352 0 -0.22186307583883541 0.41726689586818178 0 -0.22509125582010919 0.40992350980149689 0 -0.21615132321843339 0.41213061900966352 0 -0.22509125582010919 0.40992350980149689 0 -0.21902191653430431 0.40107261379010117 0 -0.22509125582010919 0.40992350980149689 0 -0.23310585679059409 0.4107995292569207 0 -0.2291799756398103 0.41879629173717797 0 -0.22509125582010919 0.40992350980149689 0 -0.23310585679059409 0.4107995292569207 0 -0.2302645267924249 0.40185853463076798 0 -0.23310585679059409 0.4107995292569207 0 -0.2291799756398103 0.41879629173717797 0 -0.23703062999628641 0.41777755282286028 0 -0.2291799756398103 0.41879629173717797 0 -0.23703062999628641 0.41777755282286028 0 -0.2355051794121783 0.42893029091574347 0 -0.25191178611931031 0.39964189557549668 0 -0.2401185671623203 0.40675851241039201 0 -0.2440502956735178 0.42680994458466792 0 -0.25191178611931031 0.39964189557549668 0 -0.2440502956735178 0.42680994458466792 0 -0.23703062999628641 0.41777755282286028 0 -0.2401185671623203 0.40675851241039201 0 -0.2440502956735178 0.42680994458466792 0 -0.23310585679059409 0.4107995292569207 0 -0.23703062999628641 0.41777755282286028 0 -0.2401185671623203 0.40675851241039201 0 -0.23310585679059409 0.4107995292569207 0 -0.2401185671623203 0.40675851241039201 0 -0.2302645267924249 0.40185853463076798 0 -0.25053498491516613 0.43234652891012437 0 -0.24767854363021569 0.44113716828954408 0 -0.2440502956735178 0.42680994458466792 0 -0.23228782767820491 0.43985500723897442 0 -0.2440502956735178 0.42680994458466792 0 -0.2355051794121783 0.42893029091574347 0 -0.2440502956735178 0.42680994458466792 0 -0.2355051794121783 0.42893029091574347 0 -0.23703062999628641 0.41777755282286028 0 -0.2440502956735178 0.42680994458466792 0 -0.2355051794121783 0.42893029091574347 0 -0.23805188293501339 0.38354505919160242 0 -0.2471182467330458 0.38725792776095402 0 -0.2384111117455657 0.39428445324421763 0 -0.23805188293501339 0.38354505919160242 0 -0.2490827846952394 0.37748677962220339 0 -0.23868571017554541 0.37425160161889343 0 -0.23805188293501339 0.38354505919160242 0 -0.2294498880957184 0.37760016876553948 0 -0.23868571017554541 0.37425160161889343 0 -0.23805188293501339 0.38354505919160242 0 -0.2490827846952394 0.37748677962220339 0 -0.2471182467330458 0.38725792776095402 0 -0.2471182467330458 0.38725792776095402 0 -0.24508187798892511 0.39643264784761612 0 -0.2384111117455657 0.39428445324421763 0 -0.25191178611931031 0.39964189557549668 0 -0.2471182467330458 0.38725792776095402 0 -0.24508187798892511 0.39643264784761612 0 -0.25191178611931031 0.39964189557549668 0 -0.2401185671623203 0.40675851241039201 0 -0.24508187798892511 0.39643264784761612 0 -0.2401185671623203 0.40675851241039201 0 -0.24508187798892511 0.39643264784761612 0 -0.2384111117455657 0.39428445324421763 0 -0.2401185671623203 0.40675851241039201 0 -0.2384111117455657 0.39428445324421763 0 -0.2302645267924249 0.40185853463076798 0 -0.2384111117455657 0.39428445324421763 0 -0.2302645267924249 0.40185853463076798 0 -0.2258384527016559 0.38831258928147971 0 -0.22509125582010919 0.40992350980149689 0 -0.2302645267924249 0.40185853463076798 0 -0.21902191653430431 0.40107261379010117 0 -0.2302645267924249 0.40185853463076798 0 -0.21902191653430431 0.40107261379010117 0 -0.2258384527016559 0.38831258928147971 0 -0.21902191653430431 0.40107261379010117 0 -0.2258384527016559 0.38831258928147971 0 -0.21365241444793739 0.38714534257275812 0 -0.2258384527016559 0.38831258928147971 0 -0.2170343187115113 0.3753142580097053 0 -0.21365241444793739 0.38714534257275812 0 -0.23805188293501339 0.38354505919160242 0 -0.2384111117455657 0.39428445324421763 0 -0.2258384527016559 0.38831258928147971 0 -0.23805188293501339 0.38354505919160242 0 -0.2258384527016559 0.38831258928147971 0 -0.2294498880957184 0.37760016876553948 0 -0.2258384527016559 0.38831258928147971 0 -0.2294498880957184 0.37760016876553948 0 -0.2170343187115113 0.3753142580097053 0 -0.2170343187115113 0.3753142580097053 0 -0.21365241444793739 0.38714534257275812 0 -0.20516516044255609 0.38056650883898502 0 -0.21365241444793739 0.38714534257275812 0 -0.20516516044255609 0.38056650883898502 0 -0.20218716741331591 0.39025436664286323 0 -0.20773687287061679 0.40763948057950949 0 -0.21902191653430431 0.40107261379010117 0 -0.20864016028959101 0.39709324697716802 0 -0.21902191653430431 0.40107261379010117 0 -0.21365241444793739 0.38714534257275812 0 -0.20864016028959101 0.39709324697716802 0 -0.21365241444793739 0.38714534257275812 0 -0.20864016028959101 0.39709324697716802 0 -0.20218716741331591 0.39025436664286323 0 -0.20864016028959101 0.39709324697716802 0 -0.20008255696510219 0.40209346196454698 0 -0.20218716741331591 0.39025436664286323 0 -0.20773687287061679 0.40763948057950949 0 -0.20864016028959101 0.39709324697716802 0 -0.20008255696510219 0.40209346196454698 0 -0.1955596088333742 0.40440974494432269 0 -0.20008255696510219 0.40209346196454698 0 -0.1928749046468653 0.39550079330494597 0 -0.19763255005510469 0.40697038417528991 0 -0.1955596088333742 0.40440974494432269 0 -0.20008255696510219 0.40209346196454698 0 -0.20108540797174351 0.40864018078868258 0 -0.19763255005510469 0.40697038417528991 0 -0.20008255696510219 0.40209346196454698 0 -0.20108540797174351 0.40864018078868258 0 -0.20773687287061679 0.40763948057950949 0 -0.20008255696510219 0.40209346196454698 0 -0.20008255696510219 0.40209346196454698 0 -0.1928749046468653 0.39550079330494597 0 -0.20218716741331591 0.39025436664286323 0 -0.19278997886437421 0.40848795586553549 0 -0.1955596088333742 0.40440974494432269 0 -0.1928749046468653 0.39550079330494597 0 -0.20516516044255609 0.38056650883898502 0 -0.19254504993584509 0.38129950295267118 0 -0.2004068517041708 0.36881907401692671 0 -0.1928749046468653 0.39550079330494597 0 -0.20218716741331591 0.39025436664286323 0 -0.19254504993584509 0.38129950295267118 0 -0.20516516044255609 0.38056650883898502 0 -0.20218716741331591 0.39025436664286323 0 -0.19254504993584509 0.38129950295267118 0 -0.17673527441674711 0.38343531453782859 0 -0.14469680087514369 0.39183958258887408 0 -0.15053275294488039 0.37456246612027932 0 -0.1928749046468653 0.39550079330494597 0 -0.19254504993584509 0.38129950295267118 0 -0.17673527441674711 0.38343531453782859 0 -0.17673527441674711 0.38343531453782859 0 -0.1658254138348898 0.40880232746149819 0 -0.14469680087514369 0.39183958258887408 0 -0.19254504993584509 0.38129950295267118 0 -0.17673527441674711 0.38343531453782859 0 -0.18251739543757359 0.36522454000215082 0 -0.19278997886437421 0.40848795586553549 0 -0.17673527441674711 0.38343531453782859 0 -0.1658254138348898 0.40880232746149819 0 -0.19278997886437421 0.40848795586553549 0 -0.1928749046468653 0.39550079330494597 0 -0.17673527441674711 0.38343531453782859 0 -0.19278997886437421 0.40848795586553549 0 -0.17673527441674711 0.38343531453782859 0 -0.18522884638603729 0.41651276305266161 0 -0.1766821251789725 0.4247081287612785 0 -0.1658254138348898 0.40880232746149819 0 -0.19278997886437421 0.40848795586553549 0 -0.1658254138348898 0.40880232746149819 0 -0.19278997886437421 0.40848795586553549 0 -0.18522884638603729 0.41651276305266161 0 -0.1658254138348898 0.40880232746149819 0 -0.18027104917356321 0.43905785324356927 0 -0.193657477982771 0.42521260509328063 0 -0.1766821251789725 0.4247081287612785 0 -0.193657477982771 0.42521260509328063 0 -0.18522884638603729 0.41651276305266161 0 -0.1766821251789725 0.4247081287612785 0 -0.1766821251789725 0.4247081287612785 0 -0.15654421756630579 0.43446715049218759 0 -0.1658254138348898 0.40880232746149819 0 -0.18027104917356321 0.43905785324356927 0 -0.1766821251789725 0.4247081287612785 0 -0.15654421756630579 0.43446715049218759 0 -0.1658254138348898 0.40880232746149819 0 -0.1388608488054055 0.40911669905746839 0 -0.15654421756630579 0.43446715049218759 0 -0.1658254138348898 0.40880232746149819 0 -0.1388608488054055 0.40911669905746839 0 -0.15654421756630579 0.43446715049218759 0 -0.130352424082403 0.43430557023855859 0 -0.1388608488054055 0.40911669905746839 0 -0.130352424082403 0.43430557023855859 0 -0.1388608488054055 0.40911669905746839 0 -0.1117126899340414 0.42884058773927097 0 -0.130352424082403 0.43430557023855859 0 -0.1388608488054055 0.40911669905746839 0 -0.1388608488054055 0.40911669905746839 0 -0.12596327196837129 0.39460249568311379 0 -0.1106435161383227 0.40944567628720008 0 -0.1388608488054055 0.40911669905746839 0 -0.12596327196837129 0.39460249568311379 0 -0.14469680087514369 0.39183958258887408 0 -0.12596327196837129 0.39460249568311379 0 -0.14469680087514369 0.39183958258887408 0 -0.13104035781165349 0.37496909120692018 0 -0.14469680087514369 0.39183958258887408 0 -0.15053275294488039 0.37456246612027932 0 -0.14469680087514369 0.39183958258887408 0 -0.15053275294488039 0.37456246612027932 0 -0.13104035781165349 0.37496909120692018 0 -0.1658254138348898 0.40880232746149819 0 -0.1388608488054055 0.40911669905746839 0 -0.14469680087514369 0.39183958258887408 0 -0.1388608488054055 0.40911669905746839 0 -0.14469680087514369 0.39183958258887408 0 -0.14333876436707479 0.3587931154319205 0 -0.1446258655214952 0.33333003188241322 0 -0.16068056996912111 0.35838267321012102 0 -0.1446258655214952 0.33333003188241322 0 -0.16068056996912111 0.35838267321012102 0 -0.14333876436707479 0.3587931154319205 0 -0.15053275294488039 0.37456246612027932 0 -0.13104035781165349 0.37496909120692018 0 -0.14333876436707479 0.3587931154319205 0 -0.15053275294488039 0.37456246612027932 0 -0.16068056996912111 0.35838267321012102 0 -0.14333876436707479 0.3587931154319205 0 -0.13104035781165349 0.37496909120692018 0 -0.129814275588224 0.35272131473986879 0 -0.14333876436707479 0.3587931154319205 0 -0.129814275588224 0.35272131473986879 0 -0.1446258655214952 0.33333003188241322 0 -0.129814275588224 0.35272131473986879 0 -0.1446258655214952 0.33333003188241322 0 -0.1230917104658374 0.33638367495537558 0 -0.1446258655214952 0.33333003188241322 0 -0.12397007536450549 0.31857397510865931 0 -0.1230917104658374 0.33638367495537558 0 -0.14542974226550309 0.31465567206889428 0 -0.1446258655214952 0.33333003188241322 0 -0.12397007536450549 0.31857397510865931 0 -0.14542974226550309 0.31465567206889428 0 -0.1446258655214952 0.33333003188241322 0 -0.16169254571279759 0.33465533014558407 0 -0.1446258655214952 0.33333003188241322 0 -0.16169254571279759 0.33465533014558407 0 -0.16068056996912111 0.35838267321012102 0 -0.16169254571279759 0.33465533014558407 0 -0.17641846445821821 0.32404991609274397 0 -0.17659614118323619 0.34477609622624961 0 -0.17641846445821821 0.32404991609274397 0 -0.17575232007811681 0.30576441183388681 0 -0.16263692805838709 0.3118765377276409 0 -0.16169254571279759 0.33465533014558407 0 -0.17641846445821821 0.32404991609274397 0 -0.16263692805838709 0.3118765377276409 0 -0.14542974226550309 0.31465567206889428 0 -0.16169254571279759 0.33465533014558407 0 -0.16263692805838709 0.3118765377276409 0 -0.17641846445821821 0.32404991609274397 0 -0.18822275274709879 0.30957849850182428 0 -0.17575232007811681 0.30576441183388681 0 -0.17641846445821821 0.32404991609274397 0 -0.1961835482539088 0.32221926073151691 0 -0.18822275274709879 0.30957849850182428 0 -0.17641846445821821 0.32404991609274397 0 -0.17659614118323619 0.34477609622624961 0 -0.19186434152691029 0.33669343931567192 0 -0.17659614118323619 0.34477609622624961 0 -0.16068056996912111 0.35838267321012102 0 -0.18251739543757359 0.36522454000215082 0 -0.17659614118323619 0.34477609622624961 0 -0.19051872337284401 0.35237396621085632 0 -0.19186434152691029 0.33669343931567192 0 -0.17659614118323619 0.34477609622624961 0 -0.18251739543757359 0.36522454000215082 0 -0.19051872337284401 0.35237396621085632 0 -0.16169254571279759 0.33465533014558407 0 -0.17659614118323619 0.34477609622624961 0 -0.16068056996912111 0.35838267321012102 0 -0.17673527441674711 0.38343531453782859 0 -0.16068056996912111 0.35838267321012102 0 -0.17673527441674711 0.38343531453782859 0 -0.15053275294488039 0.37456246612027932 0 -0.16068056996912111 0.35838267321012102 0 -0.17673527441674711 0.38343531453782859 0 -0.16068056996912111 0.35838267321012102 0 -0.18251739543757359 0.36522454000215082 0 -0.18251739543757359 0.36522454000215082 0 -0.2004068517041708 0.36881907401692671 0 -0.19051872337284401 0.35237396621085632 0 -0.19254504993584509 0.38129950295267118 0 -0.18251739543757359 0.36522454000215082 0 -0.2004068517041708 0.36881907401692671 0 -0.2004068517041708 0.36881907401692671 0 -0.19051872337284401 0.35237396621085632 0 -0.2050739720011335 0.35049795691001828 0 -0.19051872337284401 0.35237396621085632 0 -0.2050739720011335 0.35049795691001828 0 -0.19186434152691029 0.33669343931567192 0 -0.2050739720011335 0.35049795691001828 0 -0.2161935225803652 0.34452633705066271 0 -0.21582563444395311 0.35958050199240482 0 -0.2004068517041708 0.36881907401692671 0 -0.2050739720011335 0.35049795691001828 0 -0.21582563444395311 0.35958050199240482 0 -0.2170343187115113 0.3753142580097053 0 -0.2004068517041708 0.36881907401692671 0 -0.21582563444395311 0.35958050199240482 0 -0.2170343187115113 0.3753142580097053 0 -0.20516516044255609 0.38056650883898502 0 -0.2004068517041708 0.36881907401692671 0 -0.2170343187115113 0.3753142580097053 0 -0.21582563444395311 0.35958050199240482 0 -0.2310216895863467 0.36451859556345523 0 -0.2294498880957184 0.37760016876553948 0 -0.2170343187115113 0.3753142580097053 0 -0.2310216895863467 0.36451859556345523 0 -0.2294498880957184 0.37760016876553948 0 -0.2310216895863467 0.36451859556345523 0 -0.23868571017554541 0.37425160161889343 0 -0.2161935225803652 0.34452633705066271 0 -0.21582563444395311 0.35958050199240482 0 -0.2252681747427201 0.35251632032633262 0 -0.21582563444395311 0.35958050199240482 0 -0.2310216895863467 0.36451859556345523 0 -0.2252681747427201 0.35251632032633262 0 -0.2161935225803652 0.34452633705066271 0 -0.2252681747427201 0.35251632032633262 0 -0.22948289891808299 0.33875352601970488 0 -0.2252681747427201 0.35251632032633262 0 -0.23641277916291109 0.35077006388465848 0 -0.22948289891808299 0.33875352601970488 0 -0.2310216895863467 0.36451859556345523 0 -0.2252681747427201 0.35251632032633262 0 -0.23641277916291109 0.35077006388465848 0 -0.2310216895863467 0.36451859556345523 0 -0.23641277916291109 0.35077006388465848 0 -0.2446228268146198 0.35833007190439459 0 -0.23641277916291109 0.35077006388465848 0 -0.2479355413711799 0.34823426784454709 0 -0.24061377774472559 0.34043910420937729 0 -0.25548857221827431 0.3561438189173034 0 -0.2479355413711799 0.34823426784454709 0 -0.2446228268146198 0.35833007190439459 0 -0.23641277916291109 0.35077006388465848 0 -0.2479355413711799 0.34823426784454709 0 -0.2446228268146198 0.35833007190439459 0 -0.25173169702445591 0.36538910900394789 0 -0.2446228268146198 0.35833007190439459 0 -0.24582230556540921 0.36810740495166627 0 -0.2522632447770769 0.37136687326983869 0 -0.25173169702445591 0.36538910900394789 0 -0.24582230556540921 0.36810740495166627 0 -0.2522632447770769 0.37136687326983869 0 -0.2490827846952394 0.37748677962220339 0 -0.24582230556540921 0.36810740495166627 0 -0.2490827846952394 0.37748677962220339 0 -0.24582230556540921 0.36810740495166627 0 -0.23868571017554541 0.37425160161889343 0 -0.2310216895863467 0.36451859556345523 0 -0.24582230556540921 0.36810740495166627 0 -0.23868571017554541 0.37425160161889343 0 -0.2310216895863467 0.36451859556345523 0 -0.2446228268146198 0.35833007190439459 0 -0.24582230556540921 0.36810740495166627 0 -0.23972360068472301 0.32775766005211582 0 -0.24178078206833439 0.31499211429713808 0 -0.2272456928745579 0.31887847874853209 0 -0.25200238200409242 0.32613994431744198 0 -0.25280659957202473 0.31536167623520123 0 -0.24178078206833439 0.31499211429713808 0 -0.25200238200409242 0.32613994431744198 0 -0.23972360068472301 0.32775766005211582 0 -0.24178078206833439 0.31499211429713808 0 -0.25201889083337381 0.33763754124328149 0 -0.25200238200409242 0.32613994431744198 0 -0.23972360068472301 0.32775766005211582 0 -0.25201889083337381 0.33763754124328149 0 -0.23972360068472301 0.32775766005211582 0 -0.24061377774472559 0.34043910420937729 0 -0.25201889083337381 0.33763754124328149 0 -0.2479355413711799 0.34823426784454709 0 -0.24061377774472559 0.34043910420937729 0 -0.23641277916291109 0.35077006388465848 0 -0.24061377774472559 0.34043910420937729 0 -0.22948289891808299 0.33875352601970488 0 -0.23972360068472301 0.32775766005211582 0 -0.24061377774472559 0.34043910420937729 0 -0.22948289891808299 0.33875352601970488 0 -0.23972360068472301 0.32775766005211582 0 -0.22932919776213229 0.32881777064963302 0 -0.22948289891808299 0.33875352601970488 0 -0.2161935225803652 0.34452633705066271 0 -0.22948289891808299 0.33875352601970488 0 -0.21976412088808131 0.33067676621222403 0 -0.22932919776213229 0.32881777064963302 0 -0.22948289891808299 0.33875352601970488 0 -0.21976412088808131 0.33067676621222403 0 -0.21976412088808131 0.33067676621222403 0 -0.2272456928745579 0.31887847874853209 0 -0.21108633174115449 0.31996345523571262 0 -0.22932919776213229 0.32881777064963302 0 -0.21976412088808131 0.33067676621222403 0 -0.2272456928745579 0.31887847874853209 0 -0.23972360068472301 0.32775766005211582 0 -0.22932919776213229 0.32881777064963302 0 -0.2272456928745579 0.31887847874853209 0 -0.24178078206833439 0.31499211429713808 0 -0.2272456928745579 0.31887847874853209 0 -0.23307966839385491 0.30489099710086681 0 -0.2272456928745579 0.31887847874853209 0 -0.21108633174115449 0.31996345523571262 0 -0.21659332039087209 0.30584470410467413 0 -0.21108633174115449 0.31996345523571262 0 -0.20717750961154621 0.33473693817618733 0 -0.1961835482539088 0.32221926073151691 0 -0.21108633174115449 0.31996345523571262 0 -0.1961835482539088 0.32221926073151691 0 -0.20233188943852459 0.30829331706696161 0 -0.2050739720011335 0.35049795691001828 0 -0.2161935225803652 0.34452633705066271 0 -0.20717750961154621 0.33473693817618733 0 -0.2161935225803652 0.34452633705066271 0 -0.21976412088808131 0.33067676621222403 0 -0.20717750961154621 0.33473693817618733 0 -0.21976412088808131 0.33067676621222403 0 -0.21108633174115449 0.31996345523571262 0 -0.20717750961154621 0.33473693817618733 0 -0.2050739720011335 0.35049795691001828 0 -0.20717750961154621 0.33473693817618733 0 -0.19186434152691029 0.33669343931567192 0 -0.20717750961154621 0.33473693817618733 0 -0.19186434152691029 0.33669343931567192 0 -0.1961835482539088 0.32221926073151691 0 -0.17641846445821821 0.32404991609274397 0 -0.19186434152691029 0.33669343931567192 0 -0.1961835482539088 0.32221926073151691 0 -0.1961835482539088 0.32221926073151691 0 -0.18822275274709879 0.30957849850182428 0 -0.20233188943852459 0.30829331706696161 0 -0.18822275274709879 0.30957849850182428 0 -0.1940038116554699 0.30036625960281138 0 -0.20233188943852459 0.30829331706696161 0 -0.18822275274709879 0.30957849850182428 0 -0.1940038116554699 0.30036625960281138 0 -0.18510620475771319 0.2993973377362435 0 -0.1940038116554699 0.30036625960281138 0 -0.20233188943852459 0.30829331706696161 0 -0.2041279009606996 0.29470970672426833 0 -0.19023031037331331 0.28985243798475913 0 -0.19874910043472291 0.28217486480959447 0 -0.18947089193067559 0.27646337472262189 0 -0.1940038116554699 0.30036625960281138 0 -0.19023031037331331 0.28985243798475913 0 -0.18510620475771319 0.2993973377362435 0 -0.1940038116554699 0.30036625960281138 0 -0.19023031037331331 0.28985243798475913 0 -0.2041279009606996 0.29470970672426833 0 -0.19023031037331331 0.28985243798475913 0 -0.19874910043472291 0.28217486480959447 0 -0.2041279009606996 0.29470970672426833 0 -0.19874910043472291 0.28217486480959447 0 -0.2041279009606996 0.29470970672426833 0 -0.21051879871216339 0.28101318849177997 0 -0.2041279009606996 0.29470970672426833 0 -0.2155797891188056 0.29264212923854988 0 -0.21051879871216339 0.28101318849177997 0 -0.2155797891188056 0.29264212923854988 0 -0.22381856928560809 0.2852115680268501 0 -0.21051879871216339 0.28101318849177997 0 -0.21108633174115449 0.31996345523571262 0 -0.20233188943852459 0.30829331706696161 0 -0.21659332039087209 0.30584470410467413 0 -0.20233188943852459 0.30829331706696161 0 -0.2041279009606996 0.29470970672426833 0 -0.21659332039087209 0.30584470410467413 0 -0.2041279009606996 0.29470970672426833 0 -0.2155797891188056 0.29264212923854988 0 -0.21659332039087209 0.30584470410467413 0 -0.2272456928745579 0.31887847874853209 0 -0.21659332039087209 0.30584470410467413 0 -0.23307966839385491 0.30489099710086681 0 -0.21659332039087209 0.30584470410467413 0 -0.23307966839385491 0.30489099710086681 0 -0.2245192185449057 0.29626989099590939 0 -0.23307966839385491 0.30489099710086681 0 -0.2245192185449057 0.29626989099590939 0 -0.2343641766854983 0.29267926258397259 0 -0.2155797891188056 0.29264212923854988 0 -0.21659332039087209 0.30584470410467413 0 -0.2245192185449057 0.29626989099590939 0 -0.2155797891188056 0.29264212923854988 0 -0.2245192185449057 0.29626989099590939 0 -0.22381856928560809 0.2852115680268501 0 -0.22381856928560809 0.2852115680268501 0 -0.2343641766854983 0.29267926258397259 0 -0.2367412095755739 0.28087720276140099 0 -0.2245192185449057 0.29626989099590939 0 -0.22381856928560809 0.2852115680268501 0 -0.2343641766854983 0.29267926258397259 0 -0.25291011172958761 0.29068471160121451 0 -0.24477849349721781 0.28892865058449718 0 -0.24867206784699869 0.27189133605523319 0 -0.2343641766854983 0.29267926258397259 0 -0.24477849349721781 0.28892865058449718 0 -0.24271697208644241 0.29909551961545577 0 -0.2343641766854983 0.29267926258397259 0 -0.24477849349721781 0.28892865058449718 0 -0.2367412095755739 0.28087720276140099 0 -0.25005404830863931 0.29762624806818933 0 -0.24477849349721781 0.28892865058449718 0 -0.24271697208644241 0.29909551961545577 0 -0.25005404830863931 0.29762624806818933 0 -0.25291011172958761 0.29068471160121451 0 -0.24477849349721781 0.28892865058449718 0 -0.25119498990301509 0.3058767496747325 0 -0.25005404830863931 0.29762624806818933 0 -0.24271697208644241 0.29909551961545577 0 -0.24178078206833439 0.31499211429713808 0 -0.23307966839385491 0.30489099710086681 0 -0.24271697208644241 0.29909551961545577 0 -0.25119498990301509 0.3058767496747325 0 -0.24178078206833439 0.31499211429713808 0 -0.24271697208644241 0.29909551961545577 0 -0.25119498990301509 0.3058767496747325 0 -0.25280659957202473 0.31536167623520123 0 -0.24178078206833439 0.31499211429713808 0 -0.23307966839385491 0.30489099710086681 0 -0.2343641766854983 0.29267926258397259 0 -0.24271697208644241 0.29909551961545577 0 -0.2562248113956862 0.25264095397355368 0 -0.24014977132531551 0.25900738498281878 0 -0.2458317757582171 0.2446418362568786 0 -0.24014977132531551 0.25900738498281878 0 -0.234641602549478 0.25827123147939729 0 -0.24867206784699869 0.27189133605523319 0 -0.234641602549478 0.25827123147939729 0 -0.24867206784699869 0.27189133605523319 0 -0.24014977132531551 0.25900738498281878 0 -0.234641602549478 0.25827123147939729 0 -0.24014977132531551 0.25900738498281878 0 -0.234641602549478 0.25827123147939729 0 -0.23064898443115511 0.24464415868785089 0 -0.24014977132531551 0.25900738498281878 0 -0.23064898443115511 0.24464415868785089 0 -0.24014977132531551 0.25900738498281878 0 -0.24867206784699869 0.27189133605523319 0 -0.234641602549478 0.25827123147939729 0 -0.24867206784699869 0.27189133605523319 0 -0.2275593646359047 0.27081348576966952 0 -0.24867206784699869 0.27189133605523319 0 -0.2367412095755739 0.28087720276140099 0 -0.2275593646359047 0.27081348576966952 0 -0.24477849349721781 0.28892865058449718 0 -0.24867206784699869 0.27189133605523319 0 -0.2367412095755739 0.28087720276140099 0 -0.22381856928560809 0.2852115680268501 0 -0.2367412095755739 0.28087720276140099 0 -0.2275593646359047 0.27081348576966952 0 -0.22381856928560809 0.2852115680268501 0 -0.2275593646359047 0.27081348576966952 0 -0.21866996910523759 0.27640000361222289 0 -0.2275593646359047 0.27081348576966952 0 -0.21866996910523759 0.27640000361222289 0 -0.21282764707511601 0.26820028850721872 0 -0.2275593646359047 0.27081348576966952 0 -0.21661057984700571 0.25586142868052769 0 -0.21282764707511601 0.26820028850721872 0 -0.234641602549478 0.25827123147939729 0 -0.2275593646359047 0.27081348576966952 0 -0.21661057984700571 0.25586142868052769 0 -0.234641602549478 0.25827123147939729 0 -0.21661057984700571 0.25586142868052769 0 -0.22060554166969151 0.24464569497996119 0 -0.234641602549478 0.25827123147939729 0 -0.21661057984700571 0.25586142868052769 0 -0.234641602549478 0.25827123147939729 0 -0.22060554166969151 0.24464569497996119 0 -0.21661057984700571 0.25586142868052769 0 -0.19857955714453349 0.25345162588165782 0 -0.21661057984700571 0.25586142868052769 0 -0.21282764707511601 0.26820028850721872 0 -0.19857955714453349 0.25345162588165782 0 -0.21661057984700571 0.25586142868052769 0 -0.19857955714453349 0.25345162588165782 0 -0.20064135842384631 0.24464874879506759 0 -0.21282764707511601 0.26820028850721872 0 -0.1993976001967625 0.26883561612454282 0 -0.19857955714453349 0.25345162588165782 0 -0.21282764707511601 0.26820028850721872 0 -0.19857955714453349 0.25345162588165782 0 -0.21866996910523759 0.27640000361222289 0 -0.21282764707511601 0.26820028850721872 0 -0.21051879871216339 0.28101318849177997 0 -0.22381856928560809 0.2852115680268501 0 -0.21866996910523759 0.27640000361222289 0 -0.21051879871216339 0.28101318849177997 0 -0.21282764707511601 0.26820028850721872 0 -0.21051879871216339 0.28101318849177997 0 -0.1993976001967625 0.26883561612454282 0 -0.1993976001967625 0.26883561612454282 0 -0.18947089193067559 0.27646337472262189 0 -0.18147171244095489 0.26539659870729421 0 -0.19874910043472291 0.28217486480959447 0 -0.21051879871216339 0.28101318849177997 0 -0.1993976001967625 0.26883561612454282 0 -0.19874910043472291 0.28217486480959447 0 -0.1993976001967625 0.26883561612454282 0 -0.18947089193067559 0.27646337472262189 0 -0.1993976001967625 0.26883561612454282 0 -0.19857955714453349 0.25345162588165782 0 -0.18147171244095489 0.26539659870729421 0 -0.18147171244095489 0.26539659870729421 0 -0.168800609846851 0.26159893993492989 0 -0.17078674805864269 0.249737183820953 0 -0.19857955714453349 0.25345162588165782 0 -0.18147171244095489 0.26539659870729421 0 -0.17078674805864269 0.249737183820953 0 -0.19857955714453349 0.25345162588165782 0 -0.17078674805864269 0.249737183820953 0 -0.168800609846851 0.26159893993492989 0 -0.15830810048639851 0.25966242538186912 0 -0.17078674805864269 0.249737183820953 0 -0.15830810048639851 0.25966242538186912 0 -0.17078674805864269 0.249737183820953 0 -0.1429939389727522 0.24602274176024699 0 -0.168800609846851 0.26159893993492989 0 -0.15830810048639851 0.25966242538186912 0 -0.1651056550463714 0.27221832624752779 0 -0.18147171244095489 0.26539659870729421 0 -0.168800609846851 0.26159893993492989 0 -0.1651056550463714 0.27221832624752779 0 -0.1651056550463714 0.27221832624752779 0 -0.1632499737484423 0.28650286003541631 0 -0.15097954447939299 0.27936420888639502 0 -0.1651056550463714 0.27221832624752779 0 -0.15333832498344491 0.26864141271088349 0 -0.15097954447939299 0.27936420888639502 0 -0.15830810048639851 0.25966242538186912 0 -0.1651056550463714 0.27221832624752779 0 -0.15333832498344491 0.26864141271088349 0 -0.1651056550463714 0.27221832624752779 0 -0.17766923763847939 0.27991424835765383 0 -0.1632499737484423 0.28650286003541631 0 -0.18147171244095489 0.26539659870729421 0 -0.1651056550463714 0.27221832624752779 0 -0.17766923763847939 0.27991424835765383 0 -0.18947089193067559 0.27646337472262189 0 -0.18147171244095489 0.26539659870729421 0 -0.17766923763847939 0.27991424835765383 0 -0.19023031037331331 0.28985243798475913 0 -0.17766923763847939 0.27991424835765383 0 -0.17634724428722759 0.29249893900843532 0 -0.19023031037331331 0.28985243798475913 0 -0.18947089193067559 0.27646337472262189 0 -0.17766923763847939 0.27991424835765383 0 -0.19023031037331331 0.28985243798475913 0 -0.17634724428722759 0.29249893900843532 0 -0.18510620475771319 0.2993973377362435 0 -0.17766923763847939 0.27991424835765383 0 -0.17634724428722759 0.29249893900843532 0 -0.1632499737484423 0.28650286003541631 0 -0.18822275274709879 0.30957849850182428 0 -0.18510620475771319 0.2993973377362435 0 -0.17575232007811681 0.30576441183388681 0 -0.17634724428722759 0.29249893900843532 0 -0.17575232007811681 0.30576441183388681 0 -0.16605191316959689 0.29767619235354492 0 -0.17634724428722759 0.29249893900843532 0 -0.18510620475771319 0.2993973377362435 0 -0.17575232007811681 0.30576441183388681 0 -0.16605191316959689 0.29767619235354492 0 -0.16263692805838709 0.3118765377276409 0 -0.1509054050288991 0.29460296313813988 0 -0.17575232007811681 0.30576441183388681 0 -0.16605191316959689 0.29767619235354492 0 -0.16263692805838709 0.3118765377276409 0 -0.17634724428722759 0.29249893900843532 0 -0.16605191316959689 0.29767619235354492 0 -0.1632499737484423 0.28650286003541631 0 -0.16605191316959689 0.29767619235354492 0 -0.1632499737484423 0.28650286003541631 0 -0.1509054050288991 0.29460296313813988 0 -0.1632499737484423 0.28650286003541631 0 -0.1509054050288991 0.29460296313813988 0 -0.15097954447939299 0.27936420888639502 0 -0.1509054050288991 0.29460296313813988 0 -0.13899244526474361 0.28073653122060938 0 -0.15097954447939299 0.27936420888639502 0 -0.14542974226550309 0.31465567206889428 0 -0.16263692805838709 0.3118765377276409 0 -0.1509054050288991 0.29460296313813988 0 -0.14542974226550309 0.31465567206889428 0 -0.1509054050288991 0.29460296313813988 0 -0.13028833234054599 0.29529355403858082 0 -0.14542974226550309 0.31465567206889428 0 -0.13028833234054599 0.29529355403858082 0 -0.12397007536450549 0.31857397510865931 0 -0.1509054050288991 0.29460296313813988 0 -0.13028833234054599 0.29529355403858082 0 -0.13899244526474361 0.28073653122060938 0 -0.13028833234054599 0.29529355403858082 0 -0.12648600995874881 0.27985374716391598 0 -0.1191800839168677 0.28868884579119453 0 -0.13028833234054599 0.29529355403858082 0 -0.12648600995874881 0.27985374716391598 0 -0.13899244526474361 0.28073653122060938 0 -0.12648600995874881 0.27985374716391598 0 -0.13899244526474361 0.28073653122060938 0 -0.13226526154108159 0.27018196797474031 0 -0.13899244526474361 0.28073653122060938 0 -0.13226526154108159 0.27018196797474031 0 -0.143030118239793 0.26512274612188458 0 -0.12648600995874881 0.27985374716391598 0 -0.13226526154108159 0.27018196797474031 0 -0.1203605447893499 0.26659397750583153 0 -0.13262437441064859 0.25896668535612571 0 -0.12374377023097261 0.25469170427577409 0 -0.1203605447893499 0.26659397750583153 0 -0.13226526154108159 0.27018196797474031 0 -0.13262437441064859 0.25896668535612571 0 -0.1203605447893499 0.26659397750583153 0 -0.13262437441064859 0.25896668535612571 0 -0.12374377023097261 0.25469170427577409 0 -0.13245151858712459 0.24999799412478341 0 -0.13262437441064859 0.25896668535612571 0 -0.13245151858712459 0.24999799412478341 0 -0.12374377023097261 0.25469170427577409 0 -0.13245151858712459 0.24999799412478341 0 -0.11914498469304979 0.24556415544938651 0 -0.143030118239793 0.26512274612188458 0 -0.13245151858712459 0.24999799412478341 0 -0.143030118239793 0.26512274612188458 0 -0.14202169771060019 0.25553224001711627 0 -0.13245151858712459 0.24999799412478341 0 -0.13226526154108159 0.27018196797474031 0 -0.13262437441064859 0.25896668535612571 0 -0.143030118239793 0.26512274612188458 0 -0.13262437441064859 0.25896668535612571 0 -0.143030118239793 0.26512274612188458 0 -0.13245151858712459 0.24999799412478341 0 -0.14793843607859769 0.25899631319840011 0 -0.143030118239793 0.26512274612188458 0 -0.14202169771060019 0.25553224001711627 0 -0.14793843607859769 0.25899631319840011 0 -0.143030118239793 0.26512274612188458 0 -0.15333832498344491 0.26864141271088349 0 -0.14793843607859769 0.25899631319840011 0 -0.14202169771060019 0.25553224001711627 0 -0.1429939389727522 0.24602274176024699 0 -0.15830810048639851 0.25966242538186912 0 -0.14793843607859769 0.25899631319840011 0 -0.1429939389727522 0.24602274176024699 0 -0.15830810048639851 0.25966242538186912 0 -0.14793843607859769 0.25899631319840011 0 -0.15333832498344491 0.26864141271088349 0 -0.143030118239793 0.26512274612188458 0 -0.15333832498344491 0.26864141271088349 0 -0.15097954447939299 0.27936420888639502 0 -0.13899244526474361 0.28073653122060938 0 -0.143030118239793 0.26512274612188458 0 -0.15097954447939299 0.27936420888639502 0 -0.106840049872459 0.27220896914084108 0 -0.095908474112371175 0.27610505719318212 0 -0.1060598822833542 0.28549317975237809 0 -0.106840049872459 0.27220896914084108 0 -0.103397395277155 0.26049861592599061 0 -0.092845076362937373 0.2654927990734961 0 -0.106840049872459 0.27220896914084108 0 -0.095908474112371175 0.27610505719318212 0 -0.092845076362937373 0.2654927990734961 0 -0.103397395277155 0.26049861592599061 0 -0.092845076362937373 0.2654927990734961 0 -0.091867061917784446 0.2492044006527013 0 -0.103397395277155 0.26049861592599061 0 -0.1059001519073807 0.24066599892186191 0 -0.091867061917784446 0.2492044006527013 0 -0.103397395277155 0.26049861592599061 0 -0.1144267452547701 0.25408918909134198 0 -0.1059001519073807 0.24066599892186191 0 -0.103397395277155 0.26049861592599061 0 -0.1144267452547701 0.25408918909134198 0 -0.1203605447893499 0.26659397750583153 0 -0.1144267452547701 0.25408918909134198 0 -0.12374377023097261 0.25469170427577409 0 -0.11914498469304979 0.24556415544938651 0 -0.1144267452547701 0.25408918909134198 0 -0.12374377023097261 0.25469170427577409 0 -0.1203605447893499 0.26659397750583153 0 -0.106840049872459 0.27220896914084108 0 -0.103397395277155 0.26049861592599061 0 -0.1203605447893499 0.26659397750583153 0 -0.106840049872459 0.27220896914084108 0 -0.1203605447893499 0.26659397750583153 0 -0.1157853141641559 0.27856774387083222 0 -0.106840049872459 0.27220896914084108 0 -0.1157853141641559 0.27856774387083222 0 -0.1060598822833542 0.28549317975237809 0 -0.12648600995874881 0.27985374716391598 0 -0.1203605447893499 0.26659397750583153 0 -0.1157853141641559 0.27856774387083222 0 -0.13028833234054599 0.29529355403858082 0 -0.1191800839168677 0.28868884579119453 0 -0.1136134943371496 0.30018735259821172 0 -0.12648600995874881 0.27985374716391598 0 -0.1157853141641559 0.27856774387083222 0 -0.1191800839168677 0.28868884579119453 0 -0.1191800839168677 0.28868884579119453 0 -0.1136134943371496 0.30018735259821172 0 -0.1060598822833542 0.28549317975237809 0 -0.1157853141641559 0.27856774387083222 0 -0.1191800839168677 0.28868884579119453 0 -0.1060598822833542 0.28549317975237809 0 -0.1136134943371496 0.30018735259821172 0 -0.1011040832332329 0.31115950435389489 0 -0.12397007536450549 0.31857397510865931 0 -0.13028833234054599 0.29529355403858082 0 -0.1136134943371496 0.30018735259821172 0 -0.12397007536450549 0.31857397510865931 0 -0.099084024166515169 0.29696458365491701 0 -0.1011040832332329 0.31115950435389489 0 -0.083773834177495385 0.30094251548224149 0 -0.1136134943371496 0.30018735259821172 0 -0.099084024166515169 0.29696458365491701 0 -0.1011040832332329 0.31115950435389489 0 -0.1136134943371496 0.30018735259821172 0 -0.099084024166515169 0.29696458365491701 0 -0.1060598822833542 0.28549317975237809 0 -0.099084024166515169 0.29696458365491701 0 -0.1060598822833542 0.28549317975237809 0 -0.090868826801343672 0.28704036608785838 0 -0.095908474112371175 0.27610505719318212 0 -0.1060598822833542 0.28549317975237809 0 -0.090868826801343672 0.28704036608785838 0 -0.099084024166515169 0.29696458365491701 0 -0.090868826801343672 0.28704036608785838 0 -0.083773834177495385 0.30094251548224149 0 -0.090868826801343672 0.28704036608785838 0 -0.083773834177495385 0.30094251548224149 0 -0.076671432637929804 0.2864446074574542 0 -0.090868826801343672 0.28704036608785838 0 -0.076671432637929804 0.2864446074574542 0 -0.080485065559899913 0.27358035701615541 0 -0.083773834177495385 0.30094251548224149 0 -0.070323297179414088 0.31062755081580079 0 -0.084818523177944874 0.31978063019741371 0 -0.1011040832332329 0.31115950435389489 0 -0.083773834177495385 0.30094251548224149 0 -0.084818523177944874 0.31978063019741371 0 -0.083773834177495385 0.30094251548224149 0 -0.070323297179414088 0.31062755081580079 0 -0.063053212229007005 0.29325946359979438 0 -0.070323297179414088 0.31062755081580079 0 -0.063053212229007005 0.29325946359979438 0 -0.057680660243713822 0.3095038896991622 0 -0.083773834177495385 0.30094251548224149 0 -0.063053212229007005 0.29325946359979438 0 -0.076671432637929804 0.2864446074574542 0 -0.063053212229007005 0.29325946359979438 0 -0.076671432637929804 0.2864446074574542 0 -0.062325228383836452 0.27540063787597469 0 -0.076671432637929804 0.2864446074574542 0 -0.080485065559899913 0.27358035701615541 0 -0.062325228383836452 0.27540063787597469 0 -0.080485065559899913 0.27358035701615541 0 -0.069201161885137474 0.26509370108579211 0 -0.062325228383836452 0.27540063787597469 0 -0.080485065559899913 0.27358035701615541 0 -0.081708816647052651 0.26241492653209358 0 -0.069201161885137474 0.26509370108579211 0 -0.080485065559899913 0.27358035701615541 0 -0.092845076362937373 0.2654927990734961 0 -0.081708816647052651 0.26241492653209358 0 -0.095908474112371175 0.27610505719318212 0 -0.080485065559899913 0.27358035701615541 0 -0.092845076362937373 0.2654927990734961 0 -0.095908474112371175 0.27610505719318212 0 -0.090868826801343672 0.28704036608785838 0 -0.080485065559899913 0.27358035701615541 0 -0.081708816647052651 0.26241492653209358 0 -0.073310846749778752 0.25320992399658548 0 -0.091867061917784446 0.2492044006527013 0 -0.092845076362937373 0.2654927990734961 0 -0.081708816647052651 0.26241492653209358 0 -0.091867061917784446 0.2492044006527013 0 -0.073310846749778752 0.25320992399658548 0 -0.069201161885137474 0.26509370108579211 0 -0.055882431866711817 0.25861963208225142 0 -0.073310846749778752 0.25320992399658548 0 -0.055882431866711817 0.25861963208225142 0 -0.059665074524173897 0.24663286248148589 0 -0.081708816647052651 0.26241492653209358 0 -0.073310846749778752 0.25320992399658548 0 -0.069201161885137474 0.26509370108579211 0 -0.055882431866711817 0.25861963208225142 0 -0.050190285907398928 0.26936038026512299 0 -0.038982050578847238 0.26290854896928201 0 -0.055882431866711817 0.25861963208225142 0 -0.050190285907398928 0.26936038026512299 0 -0.062325228383836452 0.27540063787597469 0 -0.069201161885137474 0.26509370108579211 0 -0.055882431866711817 0.25861963208225142 0 -0.062325228383836452 0.27540063787597469 0 -0.050190285907398928 0.26936038026512299 0 -0.062325228383836452 0.27540063787597469 0 -0.043571432800200233 0.2805127021329839 0 -0.043571432800200233 0.2805127021329839 0 -0.038982050578847238 0.26290854896928201 0 -0.029040554040722061 0.27643534521878321 0 -0.050190285907398928 0.26936038026512299 0 -0.043571432800200233 0.2805127021329839 0 -0.038982050578847238 0.26290854896928201 0 -0.055882431866711817 0.25861963208225142 0 -0.038982050578847238 0.26290854896928201 0 -0.039483479587714233 0.2489863101895177 0 -0.038982050578847238 0.26290854896928201 0 -0.039483479587714233 0.2489863101895177 0 -0.026200281719759279 0.24996269934024659 0 -0.01671784830678914 0.26372527856387229 0 -0.01079159310877998 0.24793473378372399 0 -0.026200281719759279 0.24996269934024659 0 -0.038982050578847238 0.26290854896928201 0 -0.01671784830678914 0.26372527856387229 0 -0.026200281719759279 0.24996269934024659 0 -0.038982050578847238 0.26290854896928201 0 -0.01671784830678914 0.26372527856387229 0 -0.029040554040722061 0.27643534521878321 0 -0.01671784830678914 0.26372527856387229 0 -0.029040554040722061 0.27643534521878321 0 -0.01412211505656388 0.28250872637636781 0 -0.01671784830678914 0.26372527856387229 0 -0.01412211505656388 0.28250872637636781 0 0.0052438462786615816 0.27123723023514762 0 -0.01671784830678914 0.26372527856387229 0 0.0021022769219057442 0.25480250730218768 0 0.0052438462786615816 0.27123723023514762 0 -0.01671784830678914 0.26372527856387229 0 -0.01079159310877998 0.24793473378372399 0 0.0021022769219057442 0.25480250730218768 0 -0.016822812734265089 0.30330679972565039 0 0.0079581047232592725 0.29048875437017019 0 -0.01412211505656388 0.28250872637636781 0 -0.016822812734265089 0.30330679972565039 0 0.0079581047232592725 0.29048875437017019 0 -0.01412211505656388 0.28250872637636781 0 0.0079581047232592725 0.29048875437017019 0 0.0052438462786615816 0.27123723023514762 0 -0.029040554040722061 0.27643534521878321 0 -0.01412211505656388 0.28250872637636781 0 -0.031809323461209849 0.29252147005141033 0 -0.01412211505656388 0.28250872637636781 0 -0.016822812734265089 0.30330679972565039 0 -0.031809323461209849 0.29252147005141033 0 -0.016822812734265089 0.30330679972565039 0 -0.031809323461209849 0.29252147005141033 0 -0.041603730191789451 0.31612484508113059 0 -0.016822812734265089 0.30330679972565039 0 -0.041603730191789451 0.31612484508113059 0 -0.031809323461209849 0.29252147005141033 0 -0.047038413969044811 0.29856469856247408 0 -0.041603730191789451 0.31612484508113059 0 -0.043571432800200233 0.2805127021329839 0 -0.031809323461209849 0.29252147005141033 0 -0.047038413969044811 0.29856469856247408 0 -0.043571432800200233 0.2805127021329839 0 -0.029040554040722061 0.27643534521878321 0 -0.031809323461209849 0.29252147005141033 0 -0.063053212229007005 0.29325946359979438 0 -0.043571432800200233 0.2805127021329839 0 -0.047038413969044811 0.29856469856247408 0 -0.063053212229007005 0.29325946359979438 0 -0.062325228383836452 0.27540063787597469 0 -0.043571432800200233 0.2805127021329839 0 -0.057680660243713822 0.3095038896991622 0 -0.047038413969044811 0.29856469856247408 0 -0.041603730191789451 0.31612484508113059 0 -0.063053212229007005 0.29325946359979438 0 -0.057680660243713822 0.3095038896991622 0 -0.047038413969044811 0.29856469856247408 0 -0.045770887301504019 0.33453460617541791 0 -0.041603730191789451 0.31612484508113059 0 -0.06638464764931376 0.32894289043661079 0 -0.057680660243713822 0.3095038896991622 0 -0.041603730191789451 0.31612484508113059 0 -0.06638464764931376 0.32894289043661079 0 -0.041603730191789451 0.31612484508113059 0 -0.06638464764931376 0.32894289043661079 0 -0.045770887301504019 0.33453460617541791 0 -0.056704792490570907 0.35045253400678578 0 -0.074306927437470277 0.34327946203808279 0 -0.045770887301504019 0.33453460617541791 0 -0.06638464764931376 0.32894289043661079 0 -0.074306927437470277 0.34327946203808279 0 -0.045770887301504019 0.33453460617541791 0 -0.074306927437470277 0.34327946203808279 0 -0.045770887301504019 0.33453460617541791 0 -0.0146659708883837 0.33393735846211042 0 -0.034627618062149493 0.35003352445634772 0 -0.045770887301504019 0.33453460617541791 0 -0.017234847165537571 0.32578975031275292 0 -0.045770887301504019 0.33453460617541791 0 -0.041603730191789451 0.31612484508113059 0 -0.017234847165537571 0.32578975031275292 0 -0.016822812734265089 0.30330679972565039 0 -0.041603730191789451 0.31612484508113059 0 -0.017234847165537571 0.32578975031275292 0 -0.045770887301504019 0.33453460617541791 0 -0.017234847165537571 0.32578975031275292 0 -0.0146659708883837 0.33393735846211042 0 -0.0146659708883837 0.33393735846211042 0 -0.034627618062149493 0.35003352445634772 0 -0.0066889566820345541 0.34292034305638208 0 0.0062736062189134396 0.34571272286146032 0 5.0438710159473661e-05 0.32971074027311642 0 -0.017234847165537571 0.32578975031275292 0 -0.0146659708883837 0.33393735846211042 0 5.0438710159473661e-05 0.32971074027311642 0 -0.0146659708883837 0.33393735846211042 0 -0.0066889566820345541 0.34292034305638208 0 -0.01818671276428023 0.34987707093243459 0 -0.0146659708883837 0.33393735846211042 0 -0.0066889566820345541 0.34292034305638208 0 5.0438710159473661e-05 0.32971074027311642 0 -0.017234847165537571 0.32578975031275292 0 0.011301192970428919 0.31704489445008782 0 5.0438710159473661e-05 0.32971074027311642 0 -0.017234847165537571 0.32578975031275292 0 0.011301192970428919 0.31704489445008782 0 -0.016822812734265089 0.30330679972565039 0 -0.017234847165537571 0.32578975031275292 0 0.011301192970428919 0.31704489445008782 0 -0.0081722306902861364 0.37476184234240079 0 -0.0071854820806393216 0.35650570035374268 0 -0.026966293820822919 0.36484414921957548 0 -0.0081722306902861364 0.37476184234240079 0 -0.0071854820806393216 0.35650570035374268 0 0.0119649305746187 0.36479686370585201 0 -0.0066889566820345541 0.34292034305638208 0 -0.0071854820806393216 0.35650570035374268 0 0.0062736062189134396 0.34571272286146032 0 -0.0066889566820345541 0.34292034305638208 0 -0.0071854820806393216 0.35650570035374268 0 -0.01818671276428023 0.34987707093243459 0 -0.0071854820806393216 0.35650570035374268 0 -0.01818671276428023 0.34987707093243459 0 -0.026966293820822919 0.36484414921957548 0 -0.01818671276428023 0.34987707093243459 0 -0.026966293820822919 0.36484414921957548 0 -0.034627618062149493 0.35003352445634772 0 -0.0146659708883837 0.33393735846211042 0 -0.01818671276428023 0.34987707093243459 0 -0.034627618062149493 0.35003352445634772 0 -0.0081722306902861364 0.37476184234240079 0 -0.026966293820822919 0.36484414921957548 0 -0.023840333300978619 0.38022461262920793 0 -0.026966293820822919 0.36484414921957548 0 -0.034627618062149493 0.35003352445634772 0 -0.054589265235915292 0.36612969045058502 0 -0.026966293820822919 0.36484414921957548 0 -0.054589265235915292 0.36612969045058502 0 -0.043086676053417809 0.37921301798024981 0 -0.026966293820822919 0.36484414921957548 0 -0.043086676053417809 0.37921301798024981 0 -0.023840333300978619 0.38022461262920793 0 -0.034627618062149493 0.35003352445634772 0 -0.054589265235915292 0.36612969045058502 0 -0.045770887301504019 0.33453460617541791 0 -0.034627618062149493 0.35003352445634772 0 -0.056704792490570907 0.35045253400678578 0 -0.034627618062149493 0.35003352445634772 0 -0.056704792490570907 0.35045253400678578 0 -0.054589265235915292 0.36612969045058502 0 -0.056704792490570907 0.35045253400678578 0 -0.054589265235915292 0.36612969045058502 0 -0.073374197976501396 0.36240698751713307 0 -0.054589265235915292 0.36612969045058502 0 -0.074550912409680953 0.38222585644482221 0 -0.054589265235915292 0.36612969045058502 0 -0.073374197976501396 0.36240698751713307 0 -0.074550912409680953 0.38222585644482221 0 -0.073374197976501396 0.36240698751713307 0 -0.091407973606040235 0.36866282419162832 0 -0.094369220729499603 0.34915159824286851 0 -0.073374197976501396 0.36240698751713307 0 -0.091407973606040235 0.36866282419162832 0 -0.074550912409680953 0.38222585644482221 0 -0.073374197976501396 0.36240698751713307 0 -0.074306927437470277 0.34327946203808279 0 -0.094369220729499603 0.34915159824286851 0 -0.056704792490570907 0.35045253400678578 0 -0.073374197976501396 0.36240698751713307 0 -0.074306927437470277 0.34327946203808279 0 -0.06638464764931376 0.32894289043661079 0 -0.074306927437470277 0.34327946203808279 0 -0.086196104373977331 0.33593694617087289 0 -0.070323297179414088 0.31062755081580079 0 -0.057680660243713822 0.3095038896991622 0 -0.06638464764931376 0.32894289043661079 0 -0.070323297179414088 0.31062755081580079 0 -0.06638464764931376 0.32894289043661079 0 -0.084818523177944874 0.31978063019741371 0 -0.06638464764931376 0.32894289043661079 0 -0.084818523177944874 0.31978063019741371 0 -0.086196104373977331 0.33593694617087289 0 -0.084818523177944874 0.31978063019741371 0 -0.086196104373977331 0.33593694617087289 0 -0.10380003576681909 0.33061486155493219 0 -0.074306927437470277 0.34327946203808279 0 -0.086196104373977331 0.33593694617087289 0 -0.094369220729499603 0.34915159824286851 0 -0.086196104373977331 0.33593694617087289 0 -0.10380003576681909 0.33061486155493219 0 -0.094369220729499603 0.34915159824286851 0 -0.10380003576681909 0.33061486155493219 0 -0.1132483000881435 0.34667819149100448 0 -0.094369220729499603 0.34915159824286851 0 -0.1011040832332329 0.31115950435389489 0 -0.084818523177944874 0.31978063019741371 0 -0.10380003576681909 0.33061486155493219 0 -0.1011040832332329 0.31115950435389489 0 -0.10380003576681909 0.33061486155493219 0 -0.12397007536450549 0.31857397510865931 0 -0.10380003576681909 0.33061486155493219 0 -0.1230917104658374 0.33638367495537558 0 -0.1132483000881435 0.34667819149100448 0 -0.10380003576681909 0.33061486155493219 0 -0.12397007536450549 0.31857397510865931 0 -0.1230917104658374 0.33638367495537558 0 -0.129814275588224 0.35272131473986879 0 -0.1132483000881435 0.34667819149100448 0 -0.1108830517648564 0.36319564591128539 0 -0.129814275588224 0.35272131473986879 0 -0.1230917104658374 0.33638367495537558 0 -0.1132483000881435 0.34667819149100448 0 -0.13104035781165349 0.37496909120692018 0 -0.1108830517648564 0.36319564591128539 0 -0.1038624851496628 0.3863340328420321 0 -0.13104035781165349 0.37496909120692018 0 -0.129814275588224 0.35272131473986879 0 -0.1108830517648564 0.36319564591128539 0 -0.091407973606040235 0.36866282419162832 0 -0.1108830517648564 0.36319564591128539 0 -0.094369220729499603 0.34915159824286851 0 -0.091407973606040235 0.36866282419162832 0 -0.1108830517648564 0.36319564591128539 0 -0.1038624851496628 0.3863340328420321 0 -0.1132483000881435 0.34667819149100448 0 -0.1108830517648564 0.36319564591128539 0 -0.094369220729499603 0.34915159824286851 0 -0.1038624851496628 0.3863340328420321 0 -0.1106435161383227 0.40944567628720008 0 -0.082426183471240005 0.40977465351693632 0 -0.12596327196837129 0.39460249568311379 0 -0.13104035781165349 0.37496909120692018 0 -0.1038624851496628 0.3863340328420321 0 -0.12596327196837129 0.39460249568311379 0 -0.1038624851496628 0.3863340328420321 0 -0.1106435161383227 0.40944567628720008 0 -0.1388608488054055 0.40911669905746839 0 -0.1106435161383227 0.40944567628720008 0 -0.1117126899340414 0.42884058773927097 0 -0.1388608488054055 0.40911669905746839 0 -0.1106435161383227 0.40944567628720008 0 -0.1117126899340414 0.42884058773927097 0 -0.082426183471240005 0.40977465351693632 0 -0.095655780186786457 0.43977134124521161 0 -0.1106435161383227 0.40944567628720008 0 -0.1117126899340414 0.42884058773927097 0 -0.082426183471240005 0.40977465351693632 0 -0.1106435161383227 0.40944567628720008 0 -0.082426183471240005 0.40977465351693632 0 -0.082426183471240005 0.40977465351693632 0 -0.077257793311853909 0.44001775178111108 0 -0.095655780186786457 0.43977134124521161 0 -0.082426183471240005 0.40977465351693632 0 -0.060429465651878657 0.43257772306000419 0 -0.077257793311853909 0.44001775178111108 0 -0.082426183471240005 0.40977465351693632 0 -0.054208850804157292 0.41010363074667211 0 -0.060429465651878657 0.43257772306000419 0 -0.082426183471240005 0.40977465351693632 0 -0.054208850804157292 0.41010363074667211 0 -0.082426183471240005 0.40977465351693632 0 -0.06744503857152799 0.39840135011711242 0 -0.074550912409680953 0.38222585644482221 0 -0.06744503857152799 0.39840135011711242 0 -0.074550912409680953 0.38222585644482221 0 -0.050075487584508117 0.39517044667451923 0 -0.082426183471240005 0.40977465351693632 0 -0.06744503857152799 0.39840135011711242 0 -0.054208850804157292 0.41010363074667211 0 -0.1038624851496628 0.3863340328420321 0 -0.082426183471240005 0.40977465351693632 0 -0.074550912409680953 0.38222585644482221 0 -0.091407973606040235 0.36866282419162832 0 -0.1038624851496628 0.3863340328420321 0 -0.074550912409680953 0.38222585644482221 0 -0.074550912409680953 0.38222585644482221 0 -0.050075487584508117 0.39517044667451923 0 -0.043086676053417809 0.37921301798024981 0 -0.054589265235915292 0.36612969045058502 0 -0.074550912409680953 0.38222585644482221 0 -0.043086676053417809 0.37921301798024981 0 -0.06744503857152799 0.39840135011711242 0 -0.050075487584508117 0.39517044667451923 0 -0.054208850804157292 0.41010363074667211 0 -0.050075487584508117 0.39517044667451923 0 -0.054208850804157292 0.41010363074667211 0 -0.050075487584508117 0.39517044667451923 0 -0.036137458364995448 0.41031431957017872 0 -0.054208850804157292 0.41010363074667211 0 -0.050075487584508117 0.39517044667451923 0 -0.032882134732777638 0.3933321664526313 0 -0.036137458364995448 0.41031431957017872 0 -0.050075487584508117 0.39517044667451923 0 -0.032882134732777638 0.3933321664526313 0 -0.043086676053417809 0.37921301798024981 0 -0.032882134732777638 0.3933321664526313 0 -0.043086676053417809 0.37921301798024981 0 -0.023840333300978619 0.38022461262920793 0 -0.032882134732777638 0.3933321664526313 0 -0.023840333300978619 0.38022461262920793 0 -0.01279035996492133 0.39300794573426789 0 -0.032882134732777638 0.3933321664526313 0 -0.01806606592583369 0.410525008393685 0 -0.036137458364995448 0.41031431957017872 0 -0.032882134732777638 0.3933321664526313 0 -0.01279035996492133 0.39300794573426789 0 -0.01806606592583369 0.410525008393685 0 -0.01279035996492133 0.39300794573426789 0 -0.01806606592583369 0.410525008393685 0 0.00042449267140891263 0.41049965572570318 0 -0.01279035996492133 0.39300794573426789 0 0.00042449267140891263 0.41049965572570318 0 0.0057941121889391687 0.38870438886197972 0 -0.0081722306902861364 0.37476184234240079 0 -0.01279035996492133 0.39300794573426789 0 0.0057941121889391687 0.38870438886197972 0 -0.0081722306902861364 0.37476184234240079 0 -0.023840333300978619 0.38022461262920793 0 -0.01279035996492133 0.39300794573426789 0 -0.01100233744402673 0.43174454487118391 0 0.00042449267140891263 0.41049965572570318 0 0.0050144725327109689 0.4320986370502824 0 -0.01100233744402673 0.43174454487118391 0 -0.01806606592583369 0.410525008393685 0 0.00042449267140891263 0.41049965572570318 0 -0.01806606592583369 0.410525008393685 0 -0.029478452679811119 0.42909786727265509 0 -0.036137458364995448 0.41031431957017872 0 -0.01806606592583369 0.410525008393685 0 -0.036137458364995448 0.41031431957017872 0 -0.01100233744402673 0.43174454487118391 0 -0.01806606592583369 0.410525008393685 0 -0.029478452679811119 0.42909786727265509 0 -0.029478452679811119 0.42909786727265509 0 -0.045341587486887103 0.42465595448399118 0 -0.044911964960480277 0.44416207238243072 0 -0.036137458364995448 0.41031431957017872 0 -0.054208850804157292 0.41010363074667211 0 -0.029478452679811119 0.42909786727265509 0 -0.045341587486887103 0.42465595448399118 0 -0.036137458364995448 0.41031431957017872 0 -0.045341587486887103 0.42465595448399118 0 -0.036137458364995448 0.41031431957017872 0 -0.054208850804157292 0.41010363074667211 0 -0.054208850804157292 0.41010363074667211 0 -0.060429465651878657 0.43257772306000419 0 -0.045341587486887103 0.42465595448399118 0 -0.060429465651878657 0.43257772306000419 0 -0.044911964960480277 0.44416207238243072 0 -0.045341587486887103 0.42465595448399118 0 -0.054208850804157292 0.41010363074667211 0 -0.060429465651878657 0.43257772306000419 0 -0.060429465651878657 0.43257772306000419 0 -0.044911964960480277 0.44416207238243072 0 -0.06665008049959846 0.45505181537333678 0 -0.044911964960480277 0.44416207238243072 0 -0.046046615842567168 0.46890951074557718 0 -0.06665008049959846 0.45505181537333678 0 -0.046046615842567168 0.46890951074557718 0 -0.072870695347318243 0.47752590768666942 0 -0.06665008049959846 0.45505181537333678 0 -0.044911964960480277 0.44416207238243072 0 -0.021525587602139219 0.4546795633590196 0 -0.046046615842567168 0.46890951074557718 0 -0.029478452679811119 0.42909786727265509 0 -0.044911964960480277 0.44416207238243072 0 -0.021525587602139219 0.4546795633590196 0 -0.01100233744402673 0.43174454487118391 0 -0.029478452679811119 0.42909786727265509 0 -0.021525587602139219 0.4546795633590196 0 -0.021525587602139219 0.4546795633590196 0 -0.022421950230196729 0.47773556411564949 0 -0.046046615842567168 0.46890951074557718 0 -0.021525587602139219 0.4546795633590196 0 -0.0020551185011731788 0.45054070506029809 0 0.0033313810052136988 0.4718978639100726 0 -0.021525587602139219 0.4546795633590196 0 -0.022421950230196729 0.47773556411564949 0 0.0033313810052136988 0.4718978639100726 0 -0.01100233744402673 0.43174454487118391 0 -0.021525587602139219 0.4546795633590196 0 -0.0020551185011731788 0.45054070506029809 0 -0.01100233744402673 0.43174454487118391 0 -0.0020551185011731788 0.45054070506029809 0 0.0050144725327109689 0.4320986370502824 0 -0.019047196595895821 0.5 0 0.0033313810052136988 0.4718978639100726 0 0.01097486020367555 0.5 0 -0.022421950230196729 0.47773556411564949 0 -0.019047196595895821 0.5 0 0.0033313810052136988 0.4718978639100726 0 -0.022421950230196729 0.47773556411564949 0 -0.019047196595895821 0.5 0 -0.049069253395467083 0.5 0 -0.022421950230196729 0.47773556411564949 0 -0.046046615842567168 0.46890951074557718 0 -0.049069253395467083 0.5 0 -0.046046615842567168 0.46890951074557718 0 -0.049069253395467083 0.5 0 -0.072870695347318243 0.47752590768666942 0 -0.079091310195038456 0.50000000000000178 0 -0.072870695347318243 0.47752590768666942 0 -0.049069253395467083 0.5 0 -0.079091310195038456 0.50000000000000178 0 -0.072870695347318243 0.47752590768666942 0 -0.079091310195038456 0.50000000000000178 0 -0.092804629786173154 0.48507217851270518 0 -0.072870695347318243 0.47752590768666942 0 -0.079091310195038456 0.50000000000000178 0 -0.092804629786173154 0.48507217851270518 0 -0.10716493513592069 0.5 0 -0.092804629786173154 0.48507217851270518 0 -0.072870695347318243 0.47752590768666942 0 -0.091560633616193335 0.46315167227611892 0 -0.072870695347318243 0.47752590768666942 0 -0.06665008049959846 0.45505181537333678 0 -0.091560633616193335 0.46315167227611892 0 -0.072870695347318243 0.47752590768666942 0 -0.06665008049959846 0.45505181537333678 0 -0.060429465651878657 0.43257772306000419 0 -0.06665008049959846 0.45505181537333678 0 -0.077257793311853909 0.44001775178111108 0 -0.060429465651878657 0.43257772306000419 0 -0.06665008049959846 0.45505181537333678 0 -0.077257793311853909 0.44001775178111108 0 -0.091560633616193335 0.46315167227611892 0 -0.095655780186786457 0.43977134124521161 0 -0.06665008049959846 0.45505181537333678 0 -0.077257793311853909 0.44001775178111108 0 -0.091560633616193335 0.46315167227611892 0 -0.091560633616193335 0.46315167227611892 0 -0.095655780186786457 0.43977134124521161 0 -0.12184399935939901 0.45949444141964829 0 -0.1117126899340414 0.42884058773927097 0 -0.095655780186786457 0.43977134124521161 0 -0.12184399935939901 0.45949444141964829 0 -0.130352424082403 0.43430557023855859 0 -0.1117126899340414 0.42884058773927097 0 -0.12184399935939901 0.45949444141964829 0 -0.12184399935939901 0.45949444141964829 0 -0.1133355746363951 0.48468331260073799 0 -0.13591888044572159 0.47396049845625121 0 -0.12184399935939901 0.45949444141964829 0 -0.1133355746363951 0.48468331260073799 0 -0.1352385600768031 0.5 0 -0.1133355746363951 0.48468331260073799 0 -0.10716493513592069 0.5 0 -0.092804629786173154 0.48507217851270518 0 -0.1133355746363951 0.48468331260073799 0 -0.10716493513592069 0.5 0 -0.092804629786173154 0.48507217851270518 0 -0.091560633616193335 0.46315167227611892 0 -0.1133355746363951 0.48468331260073799 0 -0.091560633616193335 0.46315167227611892 0 -0.12184399935939901 0.45949444141964829 0 -0.1133355746363951 0.48468331260073799 0 -0.17131490684925241 0.091017402254582394 0 -0.1629558683001191 0.074344805072648512 0 -0.18055703530639691 0.073041400189138225 0 -0.17131490684925241 0.091017402254582394 0 -0.15515146484685921 0.097071872501129447 0 -0.1530274331236906 0.083451446981359811 0 -0.17131490684925241 0.091017402254582394 0 -0.1629558683001191 0.074344805072648512 0 -0.1530274331236906 0.083451446981359811 0 -0.1629558683001191 0.074344805072648512 0 -0.18055703530639691 0.073041400189138225 0 -0.16487261098496669 0.060358613856742092 0 -0.1629558683001191 0.074344805072648512 0 -0.14500735523628869 0.063855162081420072 0 -0.16487261098496669 0.060358613856742092 0 -0.18055703530639691 0.073041400189138225 0 -0.16487261098496669 0.060358613856742092 0 -0.18374701966289039 0.056037405078678493 0 -0.18055703530639691 0.073041400189138225 0 -0.18374701966289039 0.056037405078678493 0 -0.1925452654142665 0.073994342553419856 0 -0.17131490684925241 0.091017402254582394 0 -0.18055703530639691 0.073041400189138225 0 -0.18641562339378351 0.090121655266252432 0 -0.18055703530639691 0.073041400189138225 0 -0.18641562339378351 0.090121655266252432 0 -0.1925452654142665 0.073994342553419856 0 -0.17131490684925241 0.091017402254582394 0 -0.18055703530639691 0.073041400189138225 0 -0.18641562339378351 0.090121655266252432 0 -0.17725570927535661 0.1039183551990419 0 -0.19089347015512459 0.1077510057319241 0 -0.17131490684925241 0.091017402254582394 0 -0.18641562339378351 0.090121655266252432 0 -0.17725570927535661 0.1039183551990419 0 -0.1755817675865147 0.1217083084224241 0 -0.1918723291281893 0.12249043511651329 0 -0.19089347015512459 0.1077510057319241 0 -0.17725570927535661 0.1039183551990419 0 -0.1755817675865147 0.1217083084224241 0 -0.19089347015512459 0.1077510057319241 0 -0.1755817675865147 0.1217083084224241 0 -0.16207277839210801 0.10899340432002649 0 -0.15280106765993401 0.12695419704220939 0 -0.17725570927535661 0.1039183551990419 0 -0.1755817675865147 0.1217083084224241 0 -0.16207277839210801 0.10899340432002649 0 -0.16207277839210801 0.10899340432002649 0 -0.15280106765993401 0.12695419704220939 0 -0.17131490684925241 0.091017402254582394 0 -0.17725570927535661 0.1039183551990419 0 -0.16207277839210801 0.10899340432002649 0 -0.17131490684925241 0.091017402254582394 0 -0.16207277839210801 0.10899340432002649 0 -0.15515146484685921 0.097071872501129447 0 -0.17131490684925241 0.091017402254582394 0 -0.16207277839210801 0.10899340432002649 0 -0.16207277839210801 0.10899340432002649 0 -0.15515146484685921 0.097071872501129447 0 -0.14626558766013681 0.11530678401311251 0 -0.15515146484685921 0.097071872501129447 0 -0.14214813121400091 0.099270202904801083 0 -0.14626558766013681 0.11530678401311251 0 -0.16207277839210801 0.10899340432002649 0 -0.14626558766013681 0.11530678401311251 0 -0.15280106765993401 0.12695419704220939 0 -0.14626558766013681 0.11530678401311251 0 -0.15280106765993401 0.12695419704220939 0 -0.13845425320843571 0.12986269355723279 0 -0.14626558766013681 0.11530678401311251 0 -0.13388842186376379 0.1201223435719868 0 -0.13845425320843571 0.12986269355723279 0 -0.14626558766013681 0.11530678401311251 0 -0.13388842186376379 0.1201223435719868 0 -0.13286355327217311 0.1084319112188874 0 -0.13388842186376379 0.1201223435719868 0 -0.13286355327217311 0.1084319112188874 0 -0.1237077848500947 0.1157730571732615 0 -0.13286355327217311 0.1084319112188874 0 -0.121887388282922 0.1039227065130781 0 -0.1237077848500947 0.1157730571732615 0 -0.13388842186376379 0.1201223435719868 0 -0.1254402541581866 0.12852827206949971 0 -0.1237077848500947 0.1157730571732615 0 -0.14214813121400091 0.099270202904801083 0 -0.14626558766013681 0.11530678401311251 0 -0.13286355327217311 0.1084319112188874 0 -0.14214813121400091 0.099270202904801083 0 -0.13019670250137819 0.097425025938909907 0 -0.1339560020940663 0.08703095481063286 0 -0.14214813121400091 0.099270202904801083 0 -0.13286355327217311 0.1084319112188874 0 -0.13019670250137819 0.097425025938909907 0 -0.13286355327217311 0.1084319112188874 0 -0.13019670250137819 0.097425025938909907 0 -0.121887388282922 0.1039227065130781 0 -0.13019670250137819 0.097425025938909907 0 -0.1339560020940663 0.08703095481063286 0 -0.1182144859610532 0.089999828431431769 0 -0.1339560020940663 0.08703095481063286 0 -0.1249516316716202 0.07805606175079087 0 -0.1182144859610532 0.089999828431431769 0 -0.1339560020940663 0.08703095481063286 0 -0.13597328620876001 0.074276576004817629 0 -0.1249516316716202 0.07805606175079087 0 -0.14214813121400091 0.099270202904801083 0 -0.1339560020940663 0.08703095481063286 0 -0.1530274331236906 0.083451446981359811 0 -0.1339560020940663 0.08703095481063286 0 -0.1530274331236906 0.083451446981359811 0 -0.13597328620876001 0.074276576004817629 0 -0.15515146484685921 0.097071872501129447 0 -0.14214813121400091 0.099270202904801083 0 -0.1530274331236906 0.083451446981359811 0 -0.1629558683001191 0.074344805072648512 0 -0.1530274331236906 0.083451446981359811 0 -0.14500735523628869 0.063855162081420072 0 -0.1530274331236906 0.083451446981359811 0 -0.14500735523628869 0.063855162081420072 0 -0.1530274331236906 0.083451446981359811 0 -0.14500735523628869 0.063855162081420072 0 -0.13597328620876001 0.074276576004817629 0 -0.14500735523628869 0.063855162081420072 0 -0.13597328620876001 0.074276576004817629 0 -0.1258392381833858 0.064418793492627746 0 -0.13597328620876001 0.074276576004817629 0 -0.1258392381833858 0.064418793492627746 0 -0.1249516316716202 0.07805606175079087 0 -0.14500735523628869 0.063855162081420072 0 -0.1258392381833858 0.064418793492627746 0 -0.13698727734888599 0.044258877181480749 0 -0.1258392381833858 0.064418793492627746 0 -0.13698727734888599 0.044258877181480749 0 -0.1163016338304763 0.048862341494562388 0 -0.13698727734888599 0.044258877181480749 0 -0.12981960929622821 0.02674537329784241 0 -0.13698727734888599 0.044258877181480749 0 -0.12981960929622821 0.02674537329784241 0 -0.14846898549073989 0.026971718915748729 0 -0.13698727734888599 0.044258877181480749 0 -0.1163016338304763 0.048862341494562388 0 -0.13698727734888599 0.044258877181480749 0 -0.12981960929622821 0.02674537329784241 0 -0.1188165533242035 0.034434456297563677 0 -0.13698727734888599 0.044258877181480749 0 -0.14846898549073989 0.026971718915748729 0 -0.16034457774572239 0.03906085185869769 0 -0.13698727734888599 0.044258877181480749 0 -0.16034457774572239 0.03906085185869769 0 -0.14500735523628869 0.063855162081420072 0 -0.13698727734888599 0.044258877181480749 0 -0.16034457774572239 0.03906085185869769 0 -0.14500735523628869 0.063855162081420072 0 -0.13698727734888599 0.044258877181480749 0 -0.14594846810214379 0.01134178721830934 0 -0.1226519412435686 0.0092318694142048373 0 -0.12937018528660801 0.0089396951443527703 0 -0.14594846810214379 0.01134178721830934 0 -0.1226519412435686 0.0092318694142048373 0 -0.13862178213292189 -0.0053874776188402636 0 -0.12879974367784419 -0.00032553470509391001 0 -0.12937018528660801 0.0089396951443527703 0 -0.12879974367784419 -0.00032553470509391001 0 -0.12937018528660801 0.0089396951443527703 0 -0.1226519412435686 0.0092318694142048373 0 -0.12981960929622821 0.02674537329784241 0 -0.14594846810214379 0.01134178721830934 0 -0.1226519412435686 0.0092318694142048373 0 -0.12981960929622821 0.02674537329784241 0 -0.1226519412435686 0.0092318694142048373 0 -0.14846898549073989 0.026971718915748729 0 -0.14594846810214379 0.01134178721830934 0 -0.16924499496071921 0.0134517050224133 0 -0.12981960929622821 0.02674537329784241 0 -0.14846898549073989 0.026971718915748729 0 -0.14594846810214379 0.01134178721830934 0 -0.1540295096882198 -0.0030124739246440132 0 -0.13862178213292189 -0.0053874776188402636 0 -0.12937018528660801 0.0089396951443527703 0 -0.1540295096882198 -0.0030124739246440132 0 -0.12937018528660801 0.0089396951443527703 0 -0.1540295096882198 -0.0030124739246440132 0 -0.12937018528660801 0.0089396951443527703 0 -0.14594846810214379 0.01134178721830934 0 -0.1540295096882198 -0.0030124739246440132 0 -0.14594846810214379 0.01134178721830934 0 -0.16344558191277461 0.0035484352059621371 0 -0.14594846810214379 0.01134178721830934 0 -0.16924499496071921 0.0134517050224133 0 -0.14594846810214379 0.01134178721830934 0 -0.16924499496071921 0.0134517050224133 0 -0.16344558191277461 0.0035484352059621371 0 -0.16722585307904991 -0.0072875001328783287 0 -0.16344558191277461 0.0035484352059621371 0 -0.17988368744917241 0.0041370613468190518 0 -0.16924499496071921 0.0134517050224133 0 -0.16344558191277461 0.0035484352059621371 0 -0.17988368744917241 0.0041370613468190518 0 -0.14846898549073989 0.026971718915748729 0 -0.16924499496071921 0.0134517050224133 0 -0.16034457774572239 0.03906085185869769 0 -0.16924499496071921 0.0134517050224133 0 -0.16034457774572239 0.03906085185869769 0 -0.18370187814255881 0.033862826535914457 0 -0.16924499496071921 0.0134517050224133 0 -0.18370187814255881 0.033862826535914457 0 -0.19254152181929449 0.01556162282651683 0 -0.16924499496071921 0.0134517050224133 0 -0.19254152181929449 0.01556162282651683 0 -0.16924499496071921 0.0134517050224133 0 -0.17988368744917241 0.0041370613468190518 0 -0.19254152181929449 0.01556162282651683 0 -0.17988368744917241 0.0041370613468190518 0 -0.19254152181929449 0.01556162282651683 0 -0.16487261098496669 0.060358613856742092 0 -0.16034457774572239 0.03906085185869769 0 -0.18374701966289039 0.056037405078678493 0 -0.14500735523628869 0.063855162081420072 0 -0.16487261098496669 0.060358613856742092 0 -0.16034457774572239 0.03906085185869769 0 -0.16034457774572239 0.03906085185869769 0 -0.18370187814255881 0.033862826535914457 0 -0.16034457774572239 0.03906085185869769 0 -0.18370187814255881 0.033862826535914457 0 -0.18374701966289039 0.056037405078678493 0 -0.18374701966289039 0.056037405078678493 0 -0.20285805848412919 0.048293223396494417 0 -0.2023790247611523 0.063034270410282867 0 -0.18370187814255881 0.033862826535914457 0 -0.20285805848412919 0.048293223396494417 0 -0.20705917853939521 0.02866480121313068 0 -0.18370187814255881 0.033862826535914457 0 -0.18374701966289039 0.056037405078678493 0 -0.20285805848412919 0.048293223396494417 0 -0.18370187814255881 0.033862826535914457 0 -0.20705917853939521 0.02866480121313068 0 -0.20285805848412919 0.048293223396494417 0 -0.213352863055738 0.034345282059087413 0 -0.2144863011617959 0.045674295355040542 0 -0.20285805848412919 0.048293223396494417 0 -0.213352863055738 0.034345282059087413 0 -0.20705917853939521 0.02866480121313068 0 -0.20285805848412919 0.048293223396494417 0 -0.213352863055738 0.034345282059087413 0 -0.213352863055738 0.034345282059087413 0 -0.20705917853939521 0.02866480121313068 0 -0.213352863055738 0.034345282059087413 0 -0.21975247642003701 0.02583998487339079 0 -0.22240601514164071 0.034867608618628351 0 -0.213352863055738 0.034345282059087413 0 -0.2144863011617959 0.045674295355040542 0 -0.2260291926492998 0.045786536743252712 0 -0.2144863011617959 0.045674295355040542 0 -0.21472479962838861 0.055105152353183029 0 -0.2260291926492998 0.045786536743252712 0 -0.21472479962838861 0.055105152353183029 0 -0.2163450529094838 0.068995981117821639 0 -0.2023790247611523 0.063034270410282867 0 -0.20285805848412919 0.048293223396494417 0 -0.21472479962838861 0.055105152353183029 0 -0.2023790247611523 0.063034270410282867 0 -0.20285805848412919 0.048293223396494417 0 -0.2144863011617959 0.045674295355040542 0 -0.21472479962838861 0.055105152353183029 0 -0.19381119493734111 -0.0050623917465707699 0 -0.17988368744917241 0.0041370613468190518 0 -0.19254152181929449 0.01556162282651683 0 -0.19381119493734111 -0.0050623917465707699 0 -0.19254152181929449 0.01556162282651683 0 -0.20603616115979961 0.0065395622861276646 0 -0.18370187814255881 0.033862826535914457 0 -0.19254152181929449 0.01556162282651683 0 -0.20705917853939521 0.02866480121313068 0 -0.19254152181929449 0.01556162282651683 0 -0.20705917853939521 0.02866480121313068 0 -0.19254152181929449 0.01556162282651683 0 -0.20705917853939521 0.02866480121313068 0 -0.2162658099829744 0.017710282079036521 0 -0.19254152181929449 0.01556162282651683 0 -0.2162658099829744 0.017710282079036521 0 -0.213352863055738 0.034345282059087413 0 -0.20705917853939521 0.02866480121313068 0 -0.21975247642003701 0.02583998487339079 0 -0.20705917853939521 0.02866480121313068 0 -0.21975247642003701 0.02583998487339079 0 -0.213352863055738 0.034345282059087413 0 -0.21975247642003701 0.02583998487339079 0 -0.20705917853939521 0.02866480121313068 0 -0.2162658099829744 0.017710282079036521 0 -0.21975247642003701 0.02583998487339079 0 -0.19254152181929449 0.01556162282651683 0 -0.2162658099829744 0.017710282079036521 0 -0.20603616115979961 0.0065395622861276646 0 -0.2162658099829744 0.017710282079036521 0 -0.20603616115979961 0.0065395622861276646 0 -0.2194789456520044 0.0040362019280980842 0 -0.20995695174839971 -0.0043779342121352122 0 -0.20603616115979961 0.0065395622861276646 0 -0.2194789456520044 0.0040362019280980842 0 -0.2162658099829744 0.017710282079036521 0 -0.21975247642003701 0.02583998487339079 0 -0.23710760328496211 0.0027744489919406881 0 -0.22671750981213559 -0.0055790285182428364 0 -0.2194789456520044 0.0040362019280980842 0 -0.23710760328496211 0.0027744489919406881 0 -0.2162658099829744 0.017710282079036521 0 -0.2194789456520044 0.0040362019280980842 0 -0.23710760328496211 0.0027744489919406881 0 -0.21975247642003701 0.02583998487339079 0 -0.23710760328496211 0.0027744489919406881 0 -0.21975247642003701 0.02583998487339079 0 -0.23964577810993001 0.021412851421280341 0 -0.21975247642003701 0.02583998487339079 0 -0.23964577810993001 0.021412851421280341 0 -0.2304895284414881 0.033498630798782417 0 -0.21975247642003701 0.02583998487339079 0 -0.23964577810993001 0.021412851421280341 0 -0.23710760328496211 0.0027744489919406881 0 -0.25953907979982299 0.01698571796916977 0 -0.23964577810993001 0.021412851421280341 0 -0.23964577810993001 0.021412851421280341 0 -0.23710760328496211 0.0027744489919406881 0 -0.24860392296443271 0.0047567696316496919 0 -0.25953907979982299 0.01698571796916977 0 -0.23964577810993001 0.021412851421280341 0 -0.24860392296443271 0.0047567696316496919 0 -0.25480652507994328 -0.0058929960684832444 0 -0.23710760328496211 0.0027744489919406881 0 -0.24860392296443271 0.0047567696316496919 0 -0.2260291926492998 0.045786536743252712 0 -0.23870552224286151 0.057227791427418018 0 -0.22563848603595299 0.059367240303615627 0 -0.2260291926492998 0.045786536743252712 0 -0.23870552224286151 0.057227791427418018 0 -0.21472479962838861 0.055105152353183029 0 -0.22563848603595299 0.059367240303615627 0 -0.2163450529094838 0.068995981117821639 0 -0.21472479962838861 0.055105152353183029 0 -0.22563848603595299 0.059367240303615627 0 -0.2260291926492998 0.045786536743252712 0 -0.213352863055738 0.034345282059087413 0 -0.2260291926492998 0.045786536743252712 0 -0.2260291926492998 0.045786536743252712 0 -0.22240601514164071 0.034867608618628351 0 -0.2304895284414881 0.033498630798782417 0 -0.213352863055738 0.034345282059087413 0 -0.2260291926492998 0.045786536743252712 0 -0.22240601514164071 0.034867608618628351 0 -0.21975247642003701 0.02583998487339079 0 -0.22240601514164071 0.034867608618628351 0 -0.2304895284414881 0.033498630798782417 0 -0.2260291926492998 0.045786536743252712 0 -0.2304895284414881 0.033498630798782417 0 -0.2403002123798704 0.042717963378370562 0 -0.25427837431537742 0.035743851304136709 0 -0.23964577810993001 0.021412851421280341 0 -0.2403002123798704 0.042717963378370562 0 -0.23964577810993001 0.021412851421280341 0 -0.2304895284414881 0.033498630798782417 0 -0.2403002123798704 0.042717963378370562 0 -0.2501356657824777 0.046148780166555312 0 -0.25427837431537742 0.035743851304136709 0 -0.2403002123798704 0.042717963378370562 0 -0.25186637526569661 0.056420649137372901 0 -0.2501356657824777 0.046148780166555312 0 -0.23870552224286151 0.057227791427418018 0 -0.2501356657824777 0.046148780166555312 0 -0.2403002123798704 0.042717963378370562 0 -0.23870552224286151 0.057227791427418018 0 -0.2260291926492998 0.045786536743252712 0 -0.2403002123798704 0.042717963378370562 0 -0.23870552224286151 0.057227791427418018 0 -0.25037345346053019 0.069816026369570752 0 -0.25186637526569661 0.056420649137372901 0 -0.23870552224286151 0.057227791427418018 0 -0.25037345346053019 0.069816026369570752 0 -0.24683542196520969 0.082089144996896957 0 -0.2325812058240212 0.072219451213018149 0 -0.25037345346053019 0.069816026369570752 0 -0.23870552224286151 0.057227791427418018 0 -0.2325812058240212 0.072219451213018149 0 -0.23608602102644671 0.089217604330298322 0 -0.24683542196520969 0.082089144996896957 0 -0.2325812058240212 0.072219451213018149 0 -0.2537717784829327 0.095964561695398201 0 -0.23608602102644671 0.089217604330298322 0 -0.24683542196520969 0.082089144996896957 0 -0.23608602102644671 0.089217604330298322 0 -0.2204428566567109 0.08342521606755178 0 -0.22483080622346949 0.099267635032973978 0 -0.23608602102644671 0.089217604330298322 0 -0.2204428566567109 0.08342521606755178 0 -0.2325812058240212 0.072219451213018149 0 -0.2204428566567109 0.08342521606755178 0 -0.2325812058240212 0.072219451213018149 0 -0.2163450529094838 0.068995981117821639 0 -0.22563848603595299 0.059367240303615627 0 -0.2325812058240212 0.072219451213018149 0 -0.2163450529094838 0.068995981117821639 0 -0.22563848603595299 0.059367240303615627 0 -0.23870552224286151 0.057227791427418018 0 -0.2325812058240212 0.072219451213018149 0 -0.2163450529094838 0.068995981117821639 0 -0.2059607339874745 0.077095403081740954 0 -0.2023790247611523 0.063034270410282867 0 -0.2204428566567109 0.08342521606755178 0 -0.2163450529094838 0.068995981117821639 0 -0.2059607339874745 0.077095403081740954 0 -0.2204428566567109 0.08342521606755178 0 -0.20623336543531151 0.089660036885508193 0 -0.22483080622346949 0.099267635032973978 0 -0.2204428566567109 0.08342521606755178 0 -0.2059607339874745 0.077095403081740954 0 -0.20623336543531151 0.089660036885508193 0 -0.18641562339378351 0.090121655266252432 0 -0.19621215537390119 0.084635921294426153 0 -0.1925452654142665 0.073994342553419856 0 -0.2059607339874745 0.077095403081740954 0 -0.20623336543531151 0.089660036885508193 0 -0.19621215537390119 0.084635921294426153 0 -0.2059607339874745 0.077095403081740954 0 -0.19621215537390119 0.084635921294426153 0 -0.1925452654142665 0.073994342553419856 0 -0.20623336543531151 0.089660036885508193 0 -0.19621215537390119 0.084635921294426153 0 -0.19636357839571 0.096840209046660741 0 -0.20623336543531151 0.089660036885508193 0 -0.19621215537390119 0.084635921294426153 0 -0.18641562339378351 0.090121655266252432 0 -0.19621215537390119 0.084635921294426153 0 -0.19636357839571 0.096840209046660741 0 -0.18374701966289039 0.056037405078678493 0 -0.1925452654142665 0.073994342553419856 0 -0.2023790247611523 0.063034270410282867 0 -0.2059607339874745 0.077095403081740954 0 -0.1925452654142665 0.073994342553419856 0 -0.2023790247611523 0.063034270410282867 0 -0.1918723291281893 0.12249043511651329 0 -0.19089347015512459 0.1077510057319241 0 -0.20429385208533529 0.11067590684935021 0 -0.1918723291281893 0.12249043511651329 0 -0.20429385208533529 0.11067590684935021 0 -0.20626528329464339 0.12581486195956301 0 -0.20623336543531151 0.089660036885508193 0 -0.19636357839571 0.096840209046660741 0 -0.20429385208533529 0.11067590684935021 0 -0.18641562339378351 0.090121655266252432 0 -0.19089347015512459 0.1077510057319241 0 -0.19636357839571 0.096840209046660741 0 -0.19089347015512459 0.1077510057319241 0 -0.19636357839571 0.096840209046660741 0 -0.20429385208533529 0.11067590684935021 0 -0.20623336543531151 0.089660036885508193 0 -0.22034457691667869 0.1100070347016163 0 -0.22483080622346949 0.099267635032973978 0 -0.20623336543531151 0.089660036885508193 0 -0.22483080622346949 0.099267635032973978 0 -0.20623336543531151 0.089660036885508193 0 -0.22034457691667869 0.1100070347016163 0 -0.20623336543531151 0.089660036885508193 0 -0.20429385208533529 0.11067590684935021 0 -0.22034457691667869 0.1100070347016163 0 -0.20429385208533529 0.11067590684935021 0 -0.21604149686807961 0.1221915363564734 0 -0.22034457691667869 0.1100070347016163 0 -0.20429385208533529 0.11067590684935021 0 -0.21604149686807961 0.1221915363564734 0 -0.20626528329464339 0.12581486195956301 0 -0.22034457691667869 0.1100070347016163 0 -0.23445578839804559 0.13035403251772471 0 -0.21604149686807961 0.1221915363564734 0 -0.22034457691667869 0.1100070347016163 0 -0.23445578839804559 0.13035403251772471 0 -0.22034457691667869 0.1100070347016163 0 -0.23335052441977619 0.11386234786074161 0 -0.23445578839804559 0.13035403251772471 0 -0.23335052441977619 0.11386234786074161 0 -0.22483080622346949 0.099267635032973978 0 -0.243468526753504 0.10879644870654499 0 -0.22483080622346949 0.099267635032973978 0 -0.243468526753504 0.10879644870654499 0 -0.22034457691667869 0.1100070347016163 0 -0.23335052441977619 0.11386234786074161 0 -0.22483080622346949 0.099267635032973978 0 -0.23608602102644671 0.089217604330298322 0 -0.22483080622346949 0.099267635032973978 0 -0.243468526753504 0.10879644870654499 0 -0.2537717784829327 0.095964561695398201 0 -0.23608602102644671 0.089217604330298322 0 -0.243468526753504 0.10879644870654499 0 -0.23335052441977619 0.11386234786074161 0 -0.24365292380718279 0.1208865883448486 0 -0.23445578839804559 0.13035403251772471 0 -0.26210624728353837 0.11832526238011599 0 -0.243468526753504 0.10879644870654499 0 -0.24365292380718279 0.1208865883448486 0 -0.23335052441977619 0.11386234786074161 0 -0.243468526753504 0.10879644870654499 0 -0.24365292380718279 0.1208865883448486 0 -0.25406439867483188 0.13267872147919099 0 -0.23445578839804559 0.13035403251772471 0 -0.24602255006612481 0.1470321805782657 0 -0.25441116082307419 0.1265357146924084 0 -0.23445578839804559 0.13035403251772471 0 -0.25406439867483188 0.13267872147919099 0 -0.25441116082307419 0.1265357146924084 0 -0.23445578839804559 0.13035403251772471 0 -0.25441116082307419 0.1265357146924084 0 -0.24365292380718279 0.1208865883448486 0 -0.23445578839804559 0.13035403251772471 0 -0.23445578839804559 0.13035403251772471 0 -0.24602255006612481 0.1470321805782657 0 -0.21604149686807961 0.1221915363564734 0 -0.23445578839804559 0.13035403251772471 0 -0.21484798364569449 0.1341058457541123 0 -0.23445578839804559 0.13035403251772471 0 -0.22731103258246349 0.14614528934866419 0 -0.21484798364569449 0.1341058457541123 0 -0.23445578839804559 0.13035403251772471 0 -0.21484798364569449 0.1341058457541123 0 -0.22731103258246349 0.14614528934866419 0 -0.21484798364569449 0.1341058457541123 0 -0.22731103258246349 0.14614528934866419 0 -0.23977408151923521 0.15818473294321339 0 -0.2206437247713269 0.16208577446318001 0 -0.22731103258246349 0.14614528934866419 0 -0.2206437247713269 0.16208577446318001 0 -0.21085362492643839 0.14908212159724149 0 -0.22731103258246349 0.14614528934866419 0 -0.23977408151923521 0.15818473294321339 0 -0.22731103258246349 0.14614528934866419 0 -0.24602255006612481 0.1470321805782657 0 -0.23977408151923521 0.15818473294321339 0 -0.23445578839804559 0.13035403251772471 0 -0.22731103258246349 0.14614528934866419 0 -0.24602255006612481 0.1470321805782657 0 -0.25634590400140878 0.16191745532972679 0 -0.24602255006612481 0.1470321805782657 0 -0.23977408151923521 0.15818473294321339 0 -0.24602255006612481 0.1470321805782657 0 -0.23977408151923521 0.15818473294321339 0 -0.25573678716474157 0.17360488375948779 0 -0.23977408151923521 0.15818473294321339 0 -0.23977408151923521 0.15818473294321339 0 -0.2296370212242437 0.17627782166058531 0 -0.25573678716474157 0.17360488375948779 0 -0.23977408151923521 0.15818473294321339 0 -0.2296370212242437 0.17627782166058531 0 -0.25573678716474157 0.17360488375948779 0 -0.2296370212242437 0.17627782166058531 0 -0.2418993069338779 0.1889922423145152 0 -0.2296370212242437 0.17627782166058531 0 -0.2194999609292512 0.19437091037795681 0 -0.2296370212242437 0.17627782166058531 0 -0.2418993069338779 0.1889922423145152 0 -0.2194999609292512 0.19437091037795681 0 -0.2296370212242437 0.17627782166058531 0 -0.21283603269837481 0.1783142642411156 0 -0.2194999609292512 0.19437091037795681 0 -0.2296370212242437 0.17627782166058531 0 -0.2206437247713269 0.16208577446318001 0 -0.21283603269837481 0.1783142642411156 0 -0.23977408151923521 0.15818473294321339 0 -0.2296370212242437 0.17627782166058531 0 -0.2206437247713269 0.16208577446318001 0 -0.2206437247713269 0.16208577446318001 0 -0.21283603269837481 0.1783142642411156 0 -0.20205590164765791 0.16410037726796481 0 -0.2206437247713269 0.16208577446318001 0 -0.20205590164765791 0.16410037726796481 0 -0.21085362492643839 0.14908212159724149 0 -0.21283603269837481 0.1783142642411156 0 -0.2194999609292512 0.19437091037795681 0 -0.1942322605309697 0.18958959824703589 0 -0.21283603269837481 0.1783142642411156 0 -0.20205590164765791 0.16410037726796481 0 -0.1942322605309697 0.18958959824703589 0 -0.20205590164765791 0.16410037726796481 0 -0.1942322605309697 0.18958959824703589 0 -0.17910162042768729 0.16671519739874471 0 -0.20205590164765791 0.16410037726796481 0 -0.18940948198504939 0.13897332115228619 0 -0.17910162042768729 0.16671519739874471 0 -0.20205590164765791 0.16410037726796481 0 -0.18940948198504939 0.13897332115228619 0 -0.21085362492643839 0.14908212159724149 0 -0.18940948198504939 0.13897332115228619 0 -0.21484798364569449 0.1341058457541123 0 -0.1918723291281893 0.12249043511651329 0 -0.18940948198504939 0.13897332115228619 0 -0.20626528329464339 0.12581486195956301 0 -0.18940948198504939 0.13897332115228619 0 -0.20626528329464339 0.12581486195956301 0 -0.21484798364569449 0.1341058457541123 0 -0.20626528329464339 0.12581486195956301 0 -0.21484798364569449 0.1341058457541123 0 -0.21604149686807961 0.1221915363564734 0 -0.20626528329464339 0.12581486195956301 0 -0.21484798364569449 0.1341058457541123 0 -0.22731103258246349 0.14614528934866419 0 -0.21484798364569449 0.1341058457541123 0 -0.21085362492643839 0.14908212159724149 0 -0.18940948198504939 0.13897332115228619 0 -0.21484798364569449 0.1341058457541123 0 -0.21085362492643839 0.14908212159724149 0 -0.23064898443115511 0.24464415868785089 0 -0.22000594253270361 0.22855407889158899 0 -0.23064898443115511 0.24464415868785089 0 -0.23788005106225171 0.23155559763487199 0 -0.22000594253270361 0.22855407889158899 0 -0.22060554166969151 0.24464569497996119 0 -0.23064898443115511 0.24464415868785089 0 -0.22000594253270361 0.22855407889158899 0 -0.22060554166969151 0.24464569497996119 0 -0.23064898443115511 0.24464415868785089 0 -0.234641602549478 0.25827123147939729 0 -0.22060554166969151 0.24464569497996119 0 -0.23064898443115511 0.24464415868785089 0 -0.23064898443115511 0.24464415868785089 0 -0.2458317757582171 0.2446418362568786 0 -0.24014977132531551 0.25900738498281878 0 -0.23064898443115511 0.24464415868785089 0 -0.2458317757582171 0.2446418362568786 0 -0.25059828646462368 0.234254882215297 0 -0.2458317757582171 0.2446418362568786 0 -0.23788005106225171 0.23155559763487199 0 -0.23064898443115511 0.24464415868785089 0 -0.2458317757582171 0.2446418362568786 0 -0.23788005106225171 0.23155559763487199 0 -0.26183130113136183 0.22041917794430579 0 -0.23788005106225171 0.23155559763487199 0 -0.24530879694021659 0.21591510619379961 0 -0.26183130113136183 0.22041917794430579 0 -0.23788005106225171 0.23155559763487199 0 -0.23788005106225171 0.23155559763487199 0 -0.22887169434832949 0.2152145278068327 0 -0.24530879694021659 0.21591510619379961 0 -0.23788005106225171 0.23155559763487199 0 -0.22000594253270361 0.22855407889158899 0 -0.22887169434832949 0.2152145278068327 0 -0.22887169434832949 0.2152145278068327 0 -0.23931946594498371 0.20414885244658779 0 -0.2194999609292512 0.19437091037795681 0 -0.22000594253270361 0.22855407889158899 0 -0.22887169434832949 0.2152145278068327 0 -0.2093629006342542 0.21246399909532571 0 -0.22887169434832949 0.2152145278068327 0 -0.2194999609292512 0.19437091037795681 0 -0.2093629006342542 0.21246399909532571 0 -0.22887169434832949 0.2152145278068327 0 -0.24530879694021659 0.21591510619379961 0 -0.23931946594498371 0.20414885244658779 0 -0.25545390498132942 0.19952510780207949 0 -0.24530879694021659 0.21591510619379961 0 -0.23931946594498371 0.20414885244658779 0 -0.25545390498132942 0.19952510780207949 0 -0.23931946594498371 0.20414885244658779 0 -0.2418993069338779 0.1889922423145152 0 -0.23931946594498371 0.20414885244658779 0 -0.2418993069338779 0.1889922423145152 0 -0.2194999609292512 0.19437091037795681 0 -0.2194999609292512 0.19437091037795681 0 -0.1942322605309697 0.18958959824703589 0 -0.2093629006342542 0.21246399909532571 0 -0.1942322605309697 0.18958959824703589 0 -0.2093629006342542 0.21246399909532571 0 -0.1942322605309697 0.18958959824703589 0 -0.2093629006342542 0.21246399909532571 0 -0.18693379028217991 0.21320701091604841 0 -0.2093629006342542 0.21246399909532571 0 -0.20052052070250559 0.22824628310294581 0 -0.18693379028217991 0.21320701091604841 0 -0.2194999609292512 0.19437091037795681 0 -0.2093629006342542 0.21246399909532571 0 -0.22000594253270361 0.22855407889158899 0 -0.2093629006342542 0.21246399909532571 0 -0.2093629006342542 0.21246399909532571 0 -0.20995481966637811 0.22886008986985859 0 -0.20052052070250559 0.22824628310294581 0 -0.2093629006342542 0.21246399909532571 0 -0.20052052070250559 0.22824628310294581 0 -0.22000594253270361 0.22855407889158899 0 -0.2093629006342542 0.21246399909532571 0 -0.20995481966637811 0.22886008986985859 0 -0.22000594253270361 0.22855407889158899 0 -0.20995481966637811 0.22886008986985859 0 -0.21376587970222899 0.23800607831117859 0 -0.20995481966637811 0.22886008986985859 0 -0.20052052070250559 0.22824628310294581 0 -0.20471834567663699 0.23641703548732509 0 -0.20052052070250559 0.22824628310294581 0 -0.18172799326116171 0.23600802244850541 0 -0.18693379028217991 0.21320701091604841 0 -0.1916781407707524 0.2440285671105635 0 -0.20064135842384631 0.24464874879506759 0 -0.20471834567663699 0.23641703548732509 0 -0.20052052070250559 0.22824628310294581 0 -0.1916781407707524 0.2440285671105635 0 -0.20471834567663699 0.23641703548732509 0 -0.19857955714453349 0.25345162588165782 0 -0.1916781407707524 0.2440285671105635 0 -0.18172799326116171 0.23600802244850541 0 -0.20052052070250559 0.22824628310294581 0 -0.1916781407707524 0.2440285671105635 0 -0.18172799326116171 0.23600802244850541 0 -0.20052052070250559 0.22824628310294581 0 -0.1916781407707524 0.2440285671105635 0 -0.19857955714453349 0.25345162588165782 0 -0.18172799326116171 0.23600802244850541 0 -0.19857955714453349 0.25345162588165782 0 -0.1916781407707524 0.2440285671105635 0 -0.20064135842384631 0.24464874879506759 0 -0.22060554166969151 0.24464569497996119 0 -0.20064135842384631 0.24464874879506759 0 -0.22060554166969151 0.24464569497996119 0 -0.20064135842384631 0.24464874879506759 0 -0.21376587970222899 0.23800607831117859 0 -0.22060554166969151 0.24464569497996119 0 -0.22000594253270361 0.22855407889158899 0 -0.21376587970222899 0.23800607831117859 0 -0.21661057984700571 0.25586142868052769 0 -0.22060554166969151 0.24464569497996119 0 -0.20064135842384631 0.24464874879506759 0 -0.20995481966637811 0.22886008986985859 0 -0.20471834567663699 0.23641703548732509 0 -0.21376587970222899 0.23800607831117859 0 -0.20064135842384631 0.24464874879506759 0 -0.20471834567663699 0.23641703548732509 0 -0.21376587970222899 0.23800607831117859 0 -0.22060554166969151 0.24464569497996119 0 -0.21376587970222899 0.23800607831117859 0 -0.17078674805864269 0.249737183820953 0 -0.1429939389727522 0.24602274176024699 0 -0.17078674805864269 0.249737183820953 0 -0.1429939389727522 0.24602274176024699 0 -0.15593418250619531 0.2394981785630001 0 -0.16559257190737109 0.2352294770751307 0 -0.15373086848077869 0.22955061617527819 0 -0.15593418250619531 0.2394981785630001 0 -0.16559257190737109 0.2352294770751307 0 -0.17078674805864269 0.249737183820953 0 -0.15593418250619531 0.2394981785630001 0 -0.19857955714453349 0.25345162588165782 0 -0.17078674805864269 0.249737183820953 0 -0.18172799326116171 0.23600802244850541 0 -0.16559257190737109 0.2352294770751307 0 -0.17078674805864269 0.249737183820953 0 -0.18172799326116171 0.23600802244850541 0 -0.18172799326116171 0.23600802244850541 0 -0.1648764293777894 0.2185644190153537 0 -0.18693379028217991 0.21320701091604841 0 -0.18172799326116171 0.23600802244850541 0 -0.1648764293777894 0.2185644190153537 0 -0.16559257190737109 0.2352294770751307 0 -0.18172799326116171 0.23600802244850541 0 -0.1648764293777894 0.2185644190153537 0 -0.16559257190737109 0.2352294770751307 0 -0.1648764293777894 0.2185644190153537 0 -0.15373086848077869 0.22955061617527819 0 -0.1648764293777894 0.2185644190153537 0 -0.17158799286597309 0.1943854516493409 0 -0.1480248654944171 0.20112081558220199 0 -0.1648764293777894 0.2185644190153537 0 -0.1480248654944171 0.20112081558220199 0 -0.1648764293777894 0.2185644190153537 0 -0.18693379028217991 0.21320701091604841 0 -0.17158799286597309 0.1943854516493409 0 -0.1942322605309697 0.18958959824703589 0 -0.18693379028217991 0.21320701091604841 0 -0.17158799286597309 0.1943854516493409 0 -0.17158799286597309 0.1943854516493409 0 -0.1480248654944171 0.20112081558220199 0 -0.15805184471376971 0.17715336808598489 0 -0.1480248654944171 0.20112081558220199 0 -0.14297134147927171 0.17943179647137741 0 -0.13117330161104521 0.18367721214904981 0 -0.13156188871449989 0.20383920424354579 0 -0.13117330161104521 0.18367721214904981 0 -0.12083507188506951 0.18920102108082459 0 -0.1480248654944171 0.20112081558220199 0 -0.13156188871449989 0.20383920424354579 0 -0.13117330161104521 0.18367721214904981 0 -0.13156188871449989 0.20383920424354579 0 -0.13117330161104521 0.18367721214904981 0 -0.13156188871449989 0.20383920424354579 0 -0.12639277385151229 0.20660110870943299 0 -0.12083507188506951 0.18920102108082459 0 -0.1480248654944171 0.20112081558220199 0 -0.13117330161104521 0.18367721214904981 0 -0.13156188871449989 0.20383920424354579 0 -0.1319504758179546 0.22400119633804169 0 -0.12639277385151229 0.20660110870943299 0 -0.1319504758179546 0.22400119633804169 0 -0.1237224035694071 0.2218785682198797 0 -0.13156188871449989 0.20383920424354579 0 -0.12639277385151229 0.20660110870943299 0 -0.1319504758179546 0.22400119633804169 0 -0.13156188871449989 0.20383920424354579 0 -0.1454044564777178 0.2173672335404519 0 -0.1319504758179546 0.22400119633804169 0 -0.12639277385151229 0.20660110870943299 0 -0.1319504758179546 0.22400119633804169 0 -0.1648764293777894 0.2185644190153537 0 -0.1480248654944171 0.20112081558220199 0 -0.1454044564777178 0.2173672335404519 0 -0.1480248654944171 0.20112081558220199 0 -0.13156188871449989 0.20383920424354579 0 -0.1454044564777178 0.2173672335404519 0 -0.1648764293777894 0.2185644190153537 0 -0.1454044564777178 0.2173672335404519 0 -0.15373086848077869 0.22955061617527819 0 -0.15373086848077869 0.22955061617527819 0 -0.14274329923055651 0.22884156257018881 0 -0.14656678511143181 0.2369508739833914 0 -0.1454044564777178 0.2173672335404519 0 -0.15373086848077869 0.22955061617527819 0 -0.14274329923055651 0.22884156257018881 0 -0.14274329923055651 0.22884156257018881 0 -0.1319504758179546 0.22400119633804169 0 -0.13698608676427759 0.23976671817757891 0 -0.1319504758179546 0.22400119633804169 0 -0.13698608676427759 0.23976671817757891 0 -0.1454044564777178 0.2173672335404519 0 -0.14274329923055651 0.22884156257018881 0 -0.1319504758179546 0.22400119633804169 0 -0.1319504758179546 0.22400119633804169 0 -0.11978137064516051 0.23188285113036811 0 -0.1237224035694071 0.2218785682198797 0 -0.1319504758179546 0.22400119633804169 0 -0.13245151858712459 0.24999799412478341 0 -0.11978137064516051 0.23188285113036811 0 -0.1319504758179546 0.22400119633804169 0 -0.13698608676427759 0.23976671817757891 0 -0.13245151858712459 0.24999799412478341 0 -0.14202169771060019 0.25553224001711627 0 -0.13698608676427759 0.23976671817757891 0 -0.14202169771060019 0.25553224001711627 0 -0.13698608676427759 0.23976671817757891 0 -0.13245151858712459 0.24999799412478341 0 -0.13245151858712459 0.24999799412478341 0 -0.11978137064516051 0.23188285113036811 0 -0.1319504758179546 0.22400119633804169 0 -0.13245151858712459 0.24999799412478341 0 -0.14202169771060019 0.25553224001711627 0 -0.13698608676427759 0.23976671817757891 0 -0.1429939389727522 0.24602274176024699 0 -0.14274329923055651 0.22884156257018881 0 -0.13698608676427759 0.23976671817757891 0 -0.14656678511143181 0.2369508739833914 0 -0.13698608676427759 0.23976671817757891 0 -0.1429939389727522 0.24602274176024699 0 -0.14656678511143181 0.2369508739833914 0 -0.15373086848077869 0.22955061617527819 0 -0.14656678511143181 0.2369508739833914 0 -0.15593418250619531 0.2394981785630001 0 -0.1429939389727522 0.24602274176024699 0 -0.14656678511143181 0.2369508739833914 0 -0.15593418250619531 0.2394981785630001 0 -0.1639709803244033 0.14384079655045459 0 -0.17910162042768729 0.16671519739874471 0 -0.1755817675865147 0.1217083084224241 0 -0.1639709803244033 0.14384079655045459 0 -0.15280106765993401 0.12695419704220939 0 -0.1639709803244033 0.14384079655045459 0 -0.15280106765993401 0.12695419704220939 0 -0.1755817675865147 0.1217083084224241 0 -0.18940948198504939 0.13897332115228619 0 -0.1639709803244033 0.14384079655045459 0 -0.1755817675865147 0.1217083084224241 0 -0.1918723291281893 0.12249043511651329 0 -0.18940948198504939 0.13897332115228619 0 -0.18940948198504939 0.13897332115228619 0 -0.1639709803244033 0.14384079655045459 0 -0.18940948198504939 0.13897332115228619 0 -0.1639709803244033 0.14384079655045459 0 -0.17910162042768729 0.16671519739874471 0 -0.1942322605309697 0.18958959824703589 0 -0.17910162042768729 0.16671519739874471 0 -0.1942322605309697 0.18958959824703589 0 -0.17158799286597309 0.1943854516493409 0 -0.17910162042768729 0.16671519739874471 0 -0.17158799286597309 0.1943854516493409 0 -0.17910162042768729 0.16671519739874471 0 -0.15805184471376971 0.17715336808598489 0 -0.1639709803244033 0.14384079655045459 0 -0.17910162042768729 0.16671519739874471 0 -0.15922372627807829 0.16039264634960651 0 -0.17910162042768729 0.16671519739874471 0 -0.15805184471376971 0.17715336808598489 0 -0.15922372627807829 0.16039264634960651 0 -0.15805184471376971 0.17715336808598489 0 -0.15922372627807829 0.16039264634960651 0 -0.14670432116119861 0.16558753665255399 0 -0.15922372627807829 0.16039264634960651 0 -0.14670432116119861 0.16558753665255399 0 -0.1419944726488441 0.14804584415411129 0 -0.1480248654944171 0.20112081558220199 0 -0.15805184471376971 0.17715336808598489 0 -0.14297134147927171 0.17943179647137741 0 -0.15805184471376971 0.17715336808598489 0 -0.14670432116119861 0.16558753665255399 0 -0.14297134147927171 0.17943179647137741 0 -0.14297134147927171 0.17943179647137741 0 -0.13117330161104521 0.18367721214904981 0 -0.13090237441592559 0.1696200498870962 0 -0.12627953129685199 0.1786115108738151 0 -0.13090237441592559 0.1696200498870962 0 -0.12627953129685199 0.1786115108738151 0 -0.13117330161104521 0.18367721214904981 0 -0.13090237441592559 0.1696200498870962 0 -0.13117330161104521 0.18367721214904981 0 -0.13090237441592559 0.1696200498870962 0 -0.12627953129685199 0.1786115108738151 0 -0.13117330161104521 0.18367721214904981 0 -0.12083507188506951 0.18920102108082459 0 -0.12627953129685199 0.1786115108738151 0 -0.13117330161104521 0.18367721214904981 0 -0.13090237441592559 0.1696200498870962 0 -0.1419944726488441 0.14804584415411129 0 -0.13090237441592559 0.1696200498870962 0 -0.13052885226408709 0.15023970863135391 0 -0.14670432116119861 0.16558753665255399 0 -0.13090237441592559 0.1696200498870962 0 -0.1419944726488441 0.14804584415411129 0 -0.12627953129685199 0.1786115108738151 0 -0.13090237441592559 0.1696200498870962 0 -0.12118657835502521 0.16195181962480509 0 -0.14670432116119861 0.16558753665255399 0 -0.14297134147927171 0.17943179647137741 0 -0.13090237441592559 0.1696200498870962 0 -0.13090237441592559 0.1696200498870962 0 -0.13052885226408709 0.15023970863135391 0 -0.12118657835502521 0.16195181962480509 0 -0.13090237441592559 0.1696200498870962 0 -0.13052885226408709 0.15023970863135391 0 -0.1419944726488441 0.14804584415411129 0 -0.13052885226408709 0.15023970863135391 0 -0.13033571525974821 0.1402187204924765 0 -0.13052885226408709 0.15023970863135391 0 -0.13033571525974821 0.1402187204924765 0 -0.1206661095827168 0.144991209915032 0 -0.13052885226408709 0.15023970863135391 0 -0.1419944726488441 0.14804584415411129 0 -0.13033571525974821 0.1402187204924765 0 -0.13052885226408709 0.15023970863135391 0 -0.1419944726488441 0.14804584415411129 0 -0.1639709803244033 0.14384079655045459 0 -0.1419944726488441 0.14804584415411129 0 -0.1639709803244033 0.14384079655045459 0 -0.15922372627807829 0.16039264634960651 0 -0.1419944726488441 0.14804584415411129 0 -0.1419944726488441 0.14804584415411129 0 -0.15280106765993401 0.12695419704220939 0 -0.13845425320843571 0.12986269355723279 0 -0.1419944726488441 0.14804584415411129 0 -0.15280106765993401 0.12695419704220939 0 -0.1639709803244033 0.14384079655045459 0 -0.1419944726488441 0.14804584415411129 0 -0.15280106765993401 0.12695419704220939 0 -0.1419944726488441 0.14804584415411129 0 -0.13845425320843571 0.12986269355723279 0 -0.13033571525974821 0.1402187204924765 0 -0.13845425320843571 0.12986269355723279 0 -0.13033571525974821 0.1402187204924765 0 -0.1254402541581866 0.12852827206949971 0 -0.13033571525974821 0.1402187204924765 0 -0.1254402541581866 0.12852827206949971 0 -0.1198671643794883 0.13742719391389621 0 -0.13388842186376379 0.1201223435719868 0 -0.13845425320843571 0.12986269355723279 0 -0.1254402541581866 0.12852827206949971 0 -0.1254402541581866 0.12852827206949971 0 -0.11407734365480809 0.1312937074049475 0 -0.11581515444735151 0.1219394507645845 0 -0.1254402541581866 0.12852827206949971 0 -0.1198671643794883 0.13742719391389621 0 -0.11407734365480809 0.1312937074049475 0 -0.1198671643794883 0.13742719391389621 0 -0.11407734365480809 0.1312937074049475 0 -0.110316146033984 0.14333944139218369 0 -0.11407734365480809 0.1312937074049475 0 -0.1064421655094259 0.13349852309749019 0 -0.110316146033984 0.14333944139218369 0 -0.11407734365480809 0.1312937074049475 0 -0.11581515444735151 0.1219394507645845 0 -0.1065831774004123 0.12302936319203089 0 -0.11407734365480809 0.1312937074049475 0 -0.1064421655094259 0.13349852309749019 0 -0.1065831774004123 0.12302936319203089 0 -0.1064421655094259 0.13349852309749019 0 -0.1012503287558192 0.1291052051832644 0 -0.1065831774004123 0.12302936319203089 0 -0.1064421655094259 0.13349852309749019 0 -0.1003715866569993 0.1350254598834385 0 -0.1012503287558192 0.1291052051832644 0 -0.1064421655094259 0.13349852309749019 0 -0.1038323453224451 0.1387756999783486 0 -0.110316146033984 0.14333944139218369 0 -0.1064421655094259 0.13349852309749019 0 -0.1038323453224451 0.1387756999783486 0 -0.1003715866569993 0.1350254598834385 0 -0.1038323453224451 0.1387756999783486 0 -0.1003715866569993 0.1350254598834385 0 -0.098199483089371195 0.14323937554028199 0 -0.1003715866569993 0.1350254598834385 0 -0.096538056045601867 0.13380430325217721 0 -0.098199483089371195 0.14323937554028199 0 -0.096538056045601867 0.13380430325217721 0 -0.098199483089371195 0.14323937554028199 0 -0.091808040932467749 0.13012445647549031 0 -0.1003715866569993 0.1350254598834385 0 -0.096538056045601867 0.13380430325217721 0 -0.097861957422785736 0.13149203683436941 0 -0.09444921212638531 0.12914018752730541 0 -0.1012503287558192 0.1291052051832644 0 -0.096915602850775939 0.11929309087028819 0 -0.096538056045601867 0.13380430325217721 0 -0.09444921212638531 0.12914018752730541 0 -0.097861957422785736 0.13149203683436941 0 -0.096538056045601867 0.13380430325217721 0 -0.09444921212638531 0.12914018752730541 0 -0.091808040932467749 0.13012445647549031 0 -0.09444921212638531 0.12914018752730541 0 -0.1012503287558192 0.1291052051832644 0 -0.097861957422785736 0.13149203683436941 0 -0.1003715866569993 0.1350254598834385 0 -0.1012503287558192 0.1291052051832644 0 -0.097861957422785736 0.13149203683436941 0 -0.098199483089371195 0.14323937554028199 0 -0.11228266997627639 0.1537309851452496 0 -0.094036487688465731 0.15722226165914591 0 -0.11228266997627639 0.1537309851452496 0 -0.1059394638219837 0.15755684358651101 0 -0.094036487688465731 0.15722226165914591 0 -0.11228266997627639 0.1537309851452496 0 -0.094036487688465731 0.15722226165914591 0 -0.098199483089371195 0.14323937554028199 0 -0.094036487688465731 0.15722226165914591 0 -0.091808040932467749 0.13012445647549031 0 -0.1038323453224451 0.1387756999783486 0 -0.098199483089371195 0.14323937554028199 0 -0.110316146033984 0.14333944139218369 0 -0.098199483089371195 0.14323937554028199 0 -0.11228266997627639 0.1537309851452496 0 -0.110316146033984 0.14333944139218369 0 -0.13052885226408709 0.15023970863135391 0 -0.11228266997627639 0.1537309851452496 0 -0.12118657835502521 0.16195181962480509 0 -0.13052885226408709 0.15023970863135391 0 -0.11228266997627639 0.1537309851452496 0 -0.13052885226408709 0.15023970863135391 0 -0.11228266997627639 0.1537309851452496 0 -0.1206661095827168 0.144991209915032 0 -0.11228266997627639 0.1537309851452496 0 -0.110316146033984 0.14333944139218369 0 -0.1206661095827168 0.144991209915032 0 -0.1198671643794883 0.13742719391389621 0 -0.110316146033984 0.14333944139218369 0 -0.1206661095827168 0.144991209915032 0 -0.13033571525974821 0.1402187204924765 0 -0.1198671643794883 0.13742719391389621 0 -0.1206661095827168 0.144991209915032 0 -0.12627953129685199 0.1786115108738151 0 -0.12118657835502521 0.16195181962480509 0 -0.111553683532279 0.1633683055309782 0 -0.12627953129685199 0.1786115108738151 0 -0.1140409964512907 0.16793008776757309 0 -0.111553683532279 0.1633683055309782 0 -0.12627953129685199 0.1786115108738151 0 -0.111553683532279 0.1633683055309782 0 -0.1140409964512907 0.16793008776757309 0 -0.111553683532279 0.1633683055309782 0 -0.1079033705956379 0.1726626310782946 0 -0.11228266997627639 0.1537309851452496 0 -0.12118657835502521 0.16195181962480509 0 -0.1059394638219837 0.15755684358651101 0 -0.12118657835502521 0.16195181962480509 0 -0.111553683532279 0.1633683055309782 0 -0.1059394638219837 0.15755684358651101 0 -0.1140409964512907 0.16793008776757309 0 -0.11243779339953749 0.17827854476688751 0 -0.12083507188506951 0.18920102108082459 0 -0.12627953129685199 0.1786115108738151 0 -0.1140409964512907 0.16793008776757309 0 -0.12083507188506951 0.18920102108082459 0 -0.1140409964512907 0.16793008776757309 0 -0.12083507188506951 0.18920102108082459 0 -0.12627953129685199 0.1786115108738151 0 -0.12083507188506951 0.18920102108082459 0 -0.1140409964512907 0.16793008776757309 0 -0.11243779339953749 0.17827854476688751 0 -0.1079033705956379 0.1726626310782946 0 -0.11243779339953749 0.17827854476688751 0 -0.1069717346661518 0.1833204391408578 0 -0.12083507188506951 0.18920102108082459 0 -0.095311777100950554 0.17272971946996091 0 -0.097564086283681073 0.20011769061295931 0 -0.1069717346661518 0.1833204391408578 0 -0.095311777100950554 0.17272971946996091 0 -0.097564086283681073 0.20011769061295931 0 -0.1069717346661518 0.1833204391408578 0 -0.1079033705956379 0.1726626310782946 0 -0.095311777100950554 0.17272971946996091 0 -0.11243779339953749 0.17827854476688751 0 -0.1069717346661518 0.1833204391408578 0 -0.1079033705956379 0.1726626310782946 0 -0.111553683532279 0.1633683055309782 0 -0.095311777100950554 0.17272971946996091 0 -0.111553683532279 0.1633683055309782 0 -0.095311777100950554 0.17272971946996091 0 -0.1059394638219837 0.15755684358651101 0 -0.111553683532279 0.1633683055309782 0 -0.1079033705956379 0.1726626310782946 0 -0.095311777100950554 0.17272971946996091 0 -0.111553683532279 0.1633683055309782 0 -0.1059394638219837 0.15755684358651101 0 -0.095311777100950554 0.17272971946996091 0 -0.094036487688465731 0.15722226165914591 0 -0.095311777100950554 0.17272971946996091 0 -0.1059394638219837 0.15755684358651101 0 -0.094036487688465731 0.15722226165914591 0 -0.094036487688465731 0.15722226165914591 0 -0.074493674997702819 0.16096163912926409 0 -0.094036487688465731 0.15722226165914591 0 -0.085244644999941929 0.1642113664514562 0 -0.074493674997702819 0.16096163912926409 0 -0.095311777100950554 0.17272971946996091 0 -0.094036487688465731 0.15722226165914591 0 -0.085244644999941929 0.1642113664514562 0 -0.085244644999941929 0.1642113664514562 0 -0.079394700517614519 0.1650672852497273 0 -0.083185352522732417 0.17955969718215339 0 -0.079394700517614519 0.1650672852497273 0 -0.083185352522732417 0.17955969718215339 0 -0.074344713799742029 0.16691979468357829 0 -0.085244644999941929 0.1642113664514562 0 -0.079394700517614519 0.1650672852497273 0 -0.074493674997702819 0.16096163912926409 0 -0.095311777100950554 0.17272971946996091 0 -0.083185352522732417 0.17955969718215339 0 -0.097564086283681073 0.20011769061295931 0 -0.095311777100950554 0.17272971946996091 0 -0.085244644999941929 0.1642113664514562 0 -0.083185352522732417 0.17955969718215339 0 -0.095311777100950554 0.17272971946996091 0 -0.083185352522732417 0.17955969718215339 0 -0.083185352522732417 0.17955969718215339 0 -0.074344713799742029 0.16691979468357829 0 -0.083185352522732417 0.17955969718215339 0 -0.069260866365557366 0.17988717893427739 0 -0.061763211289206608 0.1916253102759955 0 -0.083185352522732417 0.17955969718215339 0 -0.061763211289206608 0.1916253102759955 0 -0.083185352522732417 0.17955969718215339 0 -0.071423409295566648 0.17331445891222899 0 -0.074344713799742029 0.16691979468357829 0 -0.083185352522732417 0.17955969718215339 0 -0.071423409295566648 0.17331445891222899 0 -0.069260866365557366 0.17988717893427739 0 -0.071423409295566648 0.17331445891222899 0 -0.069260866365557366 0.17988717893427739 0 -0.067121982064260732 0.17079218646778929 0 -0.069260866365557366 0.17988717893427739 0 -0.067121982064260732 0.17079218646778929 0 -0.058404173362121982 0.1783658744278844 0 -0.069260866365557366 0.17988717893427739 0 -0.061763211289206608 0.1916253102759955 0 -0.058404173362121982 0.1783658744278844 0 -0.074493674997702819 0.16096163912926409 0 -0.054950862306940053 0.16470101659938299 0 -0.074493674997702819 0.16096163912926409 0 -0.066555998597674665 0.1561489269456971 0 -0.054950862306940053 0.16470101659938299 0 -0.074493674997702819 0.16096163912926409 0 -0.067121982064260732 0.17079218646778929 0 -0.054950862306940053 0.16470101659938299 0 -0.074493674997702819 0.16096163912926409 0 -0.074344713799742029 0.16691979468357829 0 -0.067121982064260732 0.17079218646778929 0 -0.079394700517614519 0.1650672852497273 0 -0.074493674997702819 0.16096163912926409 0 -0.074344713799742029 0.16691979468357829 0 -0.071423409295566648 0.17331445891222899 0 -0.074344713799742029 0.16691979468357829 0 -0.067121982064260732 0.17079218646778929 0 -0.066555998597674665 0.1561489269456971 0 -0.074319405030938618 0.14956010502737421 0 -0.062460052055117191 0.14937294702676709 0 -0.074493674997702819 0.16096163912926409 0 -0.066555998597674665 0.1561489269456971 0 -0.074319405030938618 0.14956010502737421 0 -0.074319405030938618 0.14956010502737421 0 -0.077904985099269616 0.14087009903043701 0 -0.069513265591619355 0.1382581387818132 0 -0.069513265591619355 0.1382581387818132 0 -0.057152676742621082 0.1378605027401395 0 -0.062460052055117191 0.14937294702676709 0 -0.074319405030938618 0.14956010502737421 0 -0.069513265591619355 0.1382581387818132 0 -0.062460052055117191 0.14937294702676709 0 -0.069513265591619355 0.1382581387818132 0 -0.061971368367185052 0.12815652956024409 0 -0.057152676742621082 0.1378605027401395 0 -0.069513265591619355 0.1382581387818132 0 -0.071363184399134541 0.12710869201121849 0 -0.061971368367185052 0.12815652956024409 0 -0.071363184399134541 0.12710869201121849 0 -0.079141604027258089 0.13238394239567841 0 -0.082448521523635951 0.12071931899294611 0 -0.069513265591619355 0.1382581387818132 0 -0.071363184399134541 0.12710869201121849 0 -0.079141604027258089 0.13238394239567841 0 -0.077904985099269616 0.14087009903043701 0 -0.069513265591619355 0.1382581387818132 0 -0.079141604027258089 0.13238394239567841 0 -0.08518572741203366 0.13075893545366851 0 -0.079141604027258089 0.13238394239567841 0 -0.085960538814501358 0.13888817470549089 0 -0.077904985099269616 0.14087009903043701 0 -0.079141604027258089 0.13238394239567841 0 -0.085960538814501358 0.13888817470549089 0 -0.08518572741203366 0.13075893545366851 0 -0.079141604027258089 0.13238394239567841 0 -0.082448521523635951 0.12071931899294611 0 -0.09444921212638531 0.12914018752730541 0 -0.091808040932467749 0.13012445647549031 0 -0.082448521523635951 0.12071931899294611 0 -0.08518572741203366 0.13075893545366851 0 -0.091808040932467749 0.13012445647549031 0 -0.082448521523635951 0.12071931899294611 0 -0.08518572741203366 0.13075893545366851 0 -0.091808040932467749 0.13012445647549031 0 -0.085960538814501358 0.13888817470549089 0 -0.094036487688465731 0.15722226165914591 0 -0.091808040932467749 0.13012445647549031 0 -0.094036487688465731 0.15722226165914591 0 -0.091808040932467749 0.13012445647549031 0 -0.085960538814501358 0.13888817470549089 0 -0.094036487688465731 0.15722226165914591 0 -0.085960538814501358 0.13888817470549089 0 -0.083335098020280649 0.14611717125705581 0 -0.094036487688465731 0.15722226165914591 0 -0.074319405030938618 0.14956010502737421 0 -0.083335098020280649 0.14611717125705581 0 -0.094036487688465731 0.15722226165914591 0 -0.074493674997702819 0.16096163912926409 0 -0.074319405030938618 0.14956010502737421 0 -0.077904985099269616 0.14087009903043701 0 -0.085960538814501358 0.13888817470549089 0 -0.083335098020280649 0.14611717125705581 0 -0.074319405030938618 0.14956010502737421 0 -0.077904985099269616 0.14087009903043701 0 -0.083335098020280649 0.14611717125705581 0 -0.1059001519073807 0.24066599892186191 0 -0.090464813075963074 0.2284889165045145 0 -0.091867061917784446 0.2492044006527013 0 -0.1144267452547701 0.25408918909134198 0 -0.1059001519073807 0.24066599892186191 0 -0.11914498469304979 0.24556415544938651 0 -0.13245151858712459 0.24999799412478341 0 -0.11914498469304979 0.24556415544938651 0 -0.11978137064516051 0.23188285113036811 0 -0.1059001519073807 0.24066599892186191 0 -0.11914498469304979 0.24556415544938651 0 -0.11978137064516051 0.23188285113036811 0 -0.11978137064516051 0.23188285113036811 0 -0.1237224035694071 0.2218785682198797 0 -0.10711122270319751 0.2137677081359517 0 -0.11978137064516051 0.23188285113036811 0 -0.10711122270319751 0.2137677081359517 0 -0.1059001519073807 0.24066599892186191 0 -0.11978137064516051 0.23188285113036811 0 -0.10711122270319751 0.2137677081359517 0 -0.1059001519073807 0.24066599892186191 0 -0.10711122270319751 0.2137677081359517 0 -0.090464813075963074 0.2284889165045145 0 -0.10711122270319751 0.2137677081359517 0 -0.084437216996202311 0.20269650920597301 0 -0.090464813075963074 0.2284889165045145 0 -0.10711122270319751 0.2137677081359517 0 -0.084437216996202311 0.20269650920597301 0 -0.098045400657933435 0.20597045021355961 0 -0.10711122270319751 0.2137677081359517 0 -0.084437216996202311 0.20269650920597301 0 -0.098045400657933435 0.20597045021355961 0 -0.10711122270319751 0.2137677081359517 0 -0.097564086283681073 0.20011769061295931 0 -0.10711122270319751 0.2137677081359517 0 -0.097564086283681073 0.20011769061295931 0 -0.10711122270319751 0.2137677081359517 0 -0.112017531831048 0.20635119584394379 0 -0.097564086283681073 0.20011769061295931 0 -0.1237224035694071 0.2218785682198797 0 -0.10711122270319751 0.2137677081359517 0 -0.1237224035694071 0.2218785682198797 0 -0.10711122270319751 0.2137677081359517 0 -0.1178187937372495 0.2124487354634968 0 -0.12639277385151229 0.20660110870943299 0 -0.1237224035694071 0.2218785682198797 0 -0.1178187937372495 0.2124487354634968 0 -0.12639277385151229 0.20660110870943299 0 -0.1178187937372495 0.2124487354634968 0 -0.112017531831048 0.20635119584394379 0 -0.10711122270319751 0.2137677081359517 0 -0.1178187937372495 0.2124487354634968 0 -0.112017531831048 0.20635119584394379 0 -0.112017531831048 0.20635119584394379 0 -0.12083507188506951 0.18920102108082459 0 -0.12639277385151229 0.20660110870943299 0 -0.12083507188506951 0.18920102108082459 0 -0.112017531831048 0.20635119584394379 0 -0.12083507188506951 0.18920102108082459 0 -0.1093471061664877 0.19474758666964631 0 -0.12639277385151229 0.20660110870943299 0 -0.112017531831048 0.20635119584394379 0 -0.12083507188506951 0.18920102108082459 0 -0.1069717346661518 0.1833204391408578 0 -0.12083507188506951 0.18920102108082459 0 -0.1093471061664877 0.19474758666964631 0 -0.1069717346661518 0.1833204391408578 0 -0.1093471061664877 0.19474758666964631 0 -0.097564086283681073 0.20011769061295931 0 -0.112017531831048 0.20635119584394379 0 -0.1093471061664877 0.19474758666964631 0 -0.097564086283681073 0.20011769061295931 0 -0.098045400657933435 0.20597045021355961 0 -0.097564086283681073 0.20011769061295931 0 -0.083185352522732417 0.17955969718215339 0 -0.097564086283681073 0.20011769061295931 0 -0.083185352522732417 0.17955969718215339 0 -0.097564086283681073 0.20011769061295931 0 -0.084437216996202311 0.20269650920597301 0 -0.098045400657933435 0.20597045021355961 0 -0.097564086283681073 0.20011769061295931 0 -0.084437216996202311 0.20269650920597301 0 -0.084437216996202311 0.20269650920597301 0 -0.066691027831264141 0.20618779642293431 0 -0.061763211289206608 0.1916253102759955 0 -0.083185352522732417 0.17955969718215339 0 -0.084437216996202311 0.20269650920597301 0 -0.061763211289206608 0.1916253102759955 0 -0.084437216996202311 0.20269650920597301 0 -0.061763211289206608 0.1916253102759955 0 -0.066691027831264141 0.20618779642293431 0 -0.072124859986402542 0.22269434948424921 0 -0.060201526095289268 0.21462574550147101 0 -0.084437216996202311 0.20269650920597301 0 -0.066691027831264141 0.20618779642293431 0 -0.072124859986402542 0.22269434948424921 0 -0.084437216996202311 0.20269650920597301 0 -0.090464813075963074 0.2284889165045145 0 -0.072124859986402542 0.22269434948424921 0 -0.090464813075963074 0.2284889165045145 0 -0.072124859986402542 0.22269434948424921 0 -0.07933215694978582 0.2392314759788742 0 -0.072124859986402542 0.22269434948424921 0 -0.067547915763364885 0.23647727725672801 0 -0.055526719565130722 0.2281114695194528 0 -0.072124859986402542 0.22269434948424921 0 -0.067547915763364885 0.23647727725672801 0 -0.07933215694978582 0.2392314759788742 0 -0.072124859986402542 0.22269434948424921 0 -0.055526719565130722 0.2281114695194528 0 -0.060201526095289268 0.21462574550147101 0 -0.073310846749778752 0.25320992399658548 0 -0.067547915763364885 0.23647727725672801 0 -0.07933215694978582 0.2392314759788742 0 -0.073310846749778752 0.25320992399658548 0 -0.067547915763364885 0.23647727725672801 0 -0.059665074524173897 0.24663286248148589 0 -0.090464813075963074 0.2284889165045145 0 -0.091867061917784446 0.2492044006527013 0 -0.07933215694978582 0.2392314759788742 0 -0.073310846749778752 0.25320992399658548 0 -0.091867061917784446 0.2492044006527013 0 -0.07933215694978582 0.2392314759788742 0 -0.039483479587714233 0.2489863101895177 0 -0.041382795854232483 0.23233775012241281 0 -0.02985135539691134 0.23416251533144139 0 -0.039483479587714233 0.2489863101895177 0 -0.02985135539691134 0.23416251533144139 0 -0.026200281719759279 0.24996269934024659 0 -0.039483479587714233 0.2489863101895177 0 -0.048860923874109868 0.2411660915108754 0 -0.041382795854232483 0.23233775012241281 0 -0.055882431866711817 0.25861963208225142 0 -0.039483479587714233 0.2489863101895177 0 -0.048860923874109868 0.2411660915108754 0 -0.055882431866711817 0.25861963208225142 0 -0.059665074524173897 0.24663286248148589 0 -0.048860923874109868 0.2411660915108754 0 -0.067547915763364885 0.23647727725672801 0 -0.059665074524173897 0.24663286248148589 0 -0.055526719565130722 0.2281114695194528 0 -0.059665074524173897 0.24663286248148589 0 -0.048860923874109868 0.2411660915108754 0 -0.055526719565130722 0.2281114695194528 0 -0.048860923874109868 0.2411660915108754 0 -0.055526719565130722 0.2281114695194528 0 -0.041382795854232483 0.23233775012241281 0 -0.055526719565130722 0.2281114695194528 0 -0.042766839488359111 0.22171584376351691 0 -0.0474611258265542 0.2118069794575303 0 -0.055526719565130722 0.2281114695194528 0 -0.042766839488359111 0.22171584376351691 0 -0.041382795854232483 0.23233775012241281 0 -0.041382795854232483 0.23233775012241281 0 -0.03180745721316966 0.21988427041967271 0 -0.02985135539691134 0.23416251533144139 0 -0.042766839488359111 0.22171584376351691 0 -0.041382795854232483 0.23233775012241281 0 -0.03180745721316966 0.21988427041967271 0 -0.042766839488359111 0.22171584376351691 0 -0.03180745721316966 0.21988427041967271 0 -0.038478020927301987 0.21319064811815419 0 -0.03180745721316966 0.21988427041967271 0 -0.038478020927301987 0.21319064811815419 0 -0.030632044034664949 0.2085069035436044 0 -0.038478020927301987 0.21319064811815419 0 -0.039722638073762043 0.20403924340644641 0 -0.030632044034664949 0.2085069035436044 0 -0.038478020927301987 0.21319064811815419 0 -0.039722638073762043 0.20403924340644641 0 -0.0474611258265542 0.2118069794575303 0 -0.042766839488359111 0.22171584376351691 0 -0.038478020927301987 0.21319064811815419 0 -0.0474611258265542 0.2118069794575303 0 -0.055526719565130722 0.2281114695194528 0 -0.0474611258265542 0.2118069794575303 0 -0.060201526095289268 0.21462574550147101 0 -0.066691027831264141 0.20618779642293431 0 -0.060201526095289268 0.21462574550147101 0 -0.05502398351401494 0.20511231064800531 0 -0.039722638073762043 0.20403924340644641 0 -0.0474611258265542 0.2118069794575303 0 -0.05502398351401494 0.20511231064800531 0 -0.0474611258265542 0.2118069794575303 0 -0.060201526095289268 0.21462574550147101 0 -0.05502398351401494 0.20511231064800531 0 -0.039722638073762043 0.20403924340644641 0 -0.061763211289206608 0.1916253102759955 0 -0.039722638073762043 0.20403924340644641 0 -0.05502398351401494 0.20511231064800531 0 -0.061763211289206608 0.1916253102759955 0 -0.039722638073762043 0.20403924340644641 0 -0.061763211289206608 0.1916253102759955 0 -0.05195277640101393 0.1868350990693681 0 -0.066691027831264141 0.20618779642293431 0 -0.05502398351401494 0.20511231064800531 0 -0.061763211289206608 0.1916253102759955 0 -0.061763211289206608 0.1916253102759955 0 -0.05195277640101393 0.1868350990693681 0 -0.039722638073762043 0.20403924340644641 0 -0.036780610099209479 0.18908293796925921 0 -0.030632044034664949 0.2085069035436044 0 -0.039722638073762043 0.20403924340644641 0 -0.036780610099209479 0.18908293796925921 0 -0.05195277640101393 0.1868350990693681 0 -0.030632044034664949 0.2085069035436044 0 -0.024773226294059359 0.18410412220054831 0 -0.02505499744173242 0.19744308204371649 0 -0.030632044034664949 0.2085069035436044 0 -0.024773226294059359 0.18410412220054831 0 -0.036780610099209479 0.18908293796925921 0 -0.030632044034664949 0.2085069035436044 0 -0.024773226294059359 0.18410412220054831 0 -0.02505499744173242 0.19744308204371649 0 -0.011252413899452951 0.20858217461560469 0 -0.02505499744173242 0.19744308204371649 0 -0.01764760029911001 0.19279818533795001 0 -0.0110539760661652 0.19872239043781759 0 -0.02505499744173242 0.19744308204371649 0 -0.0110539760661652 0.19872239043781759 0 -0.011252413899452951 0.20858217461560469 0 -0.01764760029911001 0.19279818533795001 0 -0.024773226294059359 0.18410412220054831 0 -0.015675432947044269 0.18640396401650541 0 -0.02505499744173242 0.19744308204371649 0 -0.01764760029911001 0.19279818533795001 0 -0.024773226294059359 0.18410412220054831 0 -0.011252413899452951 0.20858217461560469 0 0.0044347205301438356 0.18700663260860501 0 -0.01163970763905323 0.1913224117769631 0 -0.0032230355682505928 0.1887738530916741 0 -0.0089554830481348227 0.18456892635609801 0 -0.01764760029911001 0.19279818533795001 0 -0.01163970763905323 0.1913224117769631 0 -0.015675432947044269 0.18640396401650541 0 -0.01163970763905323 0.1913224117769631 0 -0.0032230355682505928 0.1887738530916741 0 -0.0110539760661652 0.19872239043781759 0 -0.0110539760661652 0.19872239043781759 0 -0.011252413899452951 0.20858217461560469 0 0.0044347205301438356 0.18700663260860501 0 -0.01764760029911001 0.19279818533795001 0 -0.01163970763905323 0.1913224117769631 0 -0.0110539760661652 0.19872239043781759 0 -0.0032230355682505928 0.1887738530916741 0 -0.0110539760661652 0.19872239043781759 0 0.0044347205301438356 0.18700663260860501 0 -0.011252413899452951 0.20858217461560469 0 -0.0041099334453547154 0.21434636729209819 0 0.006899093886187581 0.19659648086674539 0 -0.011252413899452951 0.20858217461560469 0 -0.0041099334453547154 0.21434636729209819 0 -0.020551884648181609 0.2213723449735234 0 -0.011252413899452951 0.20858217461560469 0 -0.0041099334453547154 0.21434636729209819 0 -0.011252413899452951 0.20858217461560469 0 -0.020551884648181609 0.2213723449735234 0 -0.011252413899452951 0.20858217461560469 0 -0.022003549727709001 0.21123900007860119 0 -0.020551884648181609 0.2213723449735234 0 -0.02505499744173242 0.19744308204371649 0 -0.011252413899452951 0.20858217461560469 0 -0.022003549727709001 0.21123900007860119 0 -0.02505499744173242 0.19744308204371649 0 -0.022003549727709001 0.21123900007860119 0 -0.030632044034664949 0.2085069035436044 0 -0.03180745721316966 0.21988427041967271 0 -0.022003549727709001 0.21123900007860119 0 -0.030632044034664949 0.2085069035436044 0 -0.03180745721316966 0.21988427041967271 0 -0.022003549727709001 0.21123900007860119 0 -0.020551884648181609 0.2213723449735234 0 -0.03180745721316966 0.21988427041967271 0 -0.02985135539691134 0.23416251533144139 0 -0.020551884648181609 0.2213723449735234 0 -0.02985135539691134 0.23416251533144139 0 -0.020551884648181609 0.2213723449735234 0 -0.02985135539691134 0.23416251533144139 0 -0.020551884648181609 0.2213723449735234 0 -0.015155107582555781 0.23215453331617319 0 -0.0041099334453547154 0.21434636729209819 0 -0.020551884648181609 0.2213723449735234 0 -0.015155107582555781 0.23215453331617319 0 -0.0041099334453547154 0.21434636729209819 0 -0.015155107582555781 0.23215453331617319 0 -0.0041099334453547154 0.21434636729209819 0 -0.0010688181069628371 0.22920895513534159 0 -0.015155107582555781 0.23215453331617319 0 -0.0010688181069628371 0.22920895513534159 0 -0.015155107582555781 0.23215453331617319 0 0.001546354976405674 0.24182248312587751 0 -0.015155107582555781 0.23215453331617319 0 -0.01079159310877998 0.24793473378372399 0 0.001546354976405674 0.24182248312587751 0 -0.01079159310877998 0.24793473378372399 0 0.001546354976405674 0.24182248312587751 0 0.0021022769219057442 0.25480250730218768 0 -0.015155107582555781 0.23215453331617319 0 -0.026200281719759279 0.24996269934024659 0 -0.02985135539691134 0.23416251533144139 0 -0.015155107582555781 0.23215453331617319 0 -0.026200281719759279 0.24996269934024659 0 -0.015155107582555781 0.23215453331617319 0 -0.01079159310877998 0.24793473378372399 0 -0.026200281719759279 0.24996269934024659 0 -0.031573572561005653 0.1438880627868247 0 -0.048533907884765047 0.14792522145416601 0 -0.038563976669610298 0.16439708434635569 0 -0.048533907884765047 0.14792522145416601 0 -0.044866225326056101 0.1209633474237209 0 -0.031573572561005653 0.1438880627868247 0 -0.028830479123556321 0.13075729057599811 0 -0.044866225326056101 0.1209633474237209 0 -0.031573572561005653 0.1438880627868247 0 -0.048533907884765047 0.14792522145416601 0 -0.044866225326056101 0.1209633474237209 0 -0.061971368367185052 0.12815652956024409 0 -0.057152676742621082 0.1378605027401395 0 -0.044866225326056101 0.1209633474237209 0 -0.057152676742621082 0.1378605027401395 0 -0.048533907884765047 0.14792522145416601 0 -0.044866225326056101 0.1209633474237209 0 -0.048533907884765047 0.14792522145416601 0 -0.062460052055117191 0.14937294702676709 0 -0.054950862306940053 0.16470101659938299 0 -0.057152676742621082 0.1378605027401395 0 -0.048533907884765047 0.14792522145416601 0 -0.062460052055117191 0.14937294702676709 0 -0.048533907884765047 0.14792522145416601 0 -0.054950862306940053 0.16470101659938299 0 -0.038563976669610298 0.16439708434635569 0 -0.066555998597674665 0.1561489269456971 0 -0.062460052055117191 0.14937294702676709 0 -0.054950862306940053 0.16470101659938299 0 -0.067121982064260732 0.17079218646778929 0 -0.054950862306940053 0.16470101659938299 0 -0.058404173362121982 0.1783658744278844 0 -0.061763211289206608 0.1916253102759955 0 -0.058404173362121982 0.1783658744278844 0 -0.05195277640101393 0.1868350990693681 0 -0.054950862306940053 0.16470101659938299 0 -0.058404173362121982 0.1783658744278844 0 -0.04537534174575307 0.17635445522049351 0 -0.058404173362121982 0.1783658744278844 0 -0.05195277640101393 0.1868350990693681 0 -0.04537534174575307 0.17635445522049351 0 -0.036780610099209479 0.18908293796925921 0 -0.05195277640101393 0.1868350990693681 0 -0.04537534174575307 0.17635445522049351 0 -0.036780610099209479 0.18908293796925921 0 -0.032881512672416562 0.17472798811882989 0 -0.024773226294059359 0.18410412220054831 0 -0.036780610099209479 0.18908293796925921 0 -0.04537534174575307 0.17635445522049351 0 -0.032881512672416562 0.17472798811882989 0 -0.054950862306940053 0.16470101659938299 0 -0.04537534174575307 0.17635445522049351 0 -0.038563976669610298 0.16439708434635569 0 -0.04537534174575307 0.17635445522049351 0 -0.032881512672416562 0.17472798811882989 0 -0.038563976669610298 0.16439708434635569 0 -0.032881512672416562 0.17472798811882989 0 -0.038563976669610298 0.16439708434635569 0 -0.018914408553450609 0.15970134085749299 0 -0.038563976669610298 0.16439708434635569 0 -0.018914408553450609 0.15970134085749299 0 -0.018914408553450609 0.15970134085749299 0 -0.024773226294059359 0.18410412220054831 0 -0.012508086372386609 0.17539393389956731 0 -0.032881512672416562 0.17472798811882989 0 -0.018914408553450609 0.15970134085749299 0 -0.024773226294059359 0.18410412220054831 0 -0.018914408553450609 0.15970134085749299 0 -0.024773226294059359 0.18410412220054831 0 -0.024773226294059359 0.18410412220054831 0 -0.015675432947044269 0.18640396401650541 0 -0.012508086372386609 0.17539393389956731 0 -0.0041686413979582487 0.1780534649607691 0 -0.00095255331983417333 0.15540891751961169 0 0.003181539142360783 0.1842191061750523 0 -0.015675432947044269 0.18640396401650541 0 -0.0089554830481348227 0.18456892635609801 0 -0.012508086372386609 0.17539393389956731 0 -0.01163970763905323 0.1913224117769631 0 -0.015675432947044269 0.18640396401650541 0 -0.0089554830481348227 0.18456892635609801 0 -0.0089554830481348227 0.18456892635609801 0 -0.012508086372386609 0.17539393389956731 0 -0.0041686413979582487 0.1780534649607691 0 -0.0089554830481348227 0.18456892635609801 0 -0.0041686413979582487 0.1780534649607691 0 -0.0047829169337549613 0.18481762026639301 0 -0.0041686413979582487 0.1780534649607691 0 -0.001505659879600719 0.18317061219929109 0 0.003181539142360783 0.1842191061750523 0 -0.0041686413979582487 0.1780534649607691 0 -0.001505659879600719 0.18317061219929109 0 -0.0047829169337549613 0.18481762026639301 0 -0.001505659879600719 0.18317061219929109 0 -0.00025262032905044759 0.18559225739494989 0 -0.0047829169337549613 0.18481762026639301 0 -0.0032230355682505928 0.1887738530916741 0 -0.00025262032905044759 0.18559225739494989 0 -0.0047829169337549613 0.18481762026639301 0 -0.0032230355682505928 0.1887738530916741 0 -0.0089554830481348227 0.18456892635609801 0 -0.0047829169337549613 0.18481762026639301 0 -0.018914408553450609 0.15970134085749299 0 -0.012508086372386609 0.17539393389956731 0 -0.00095255331983417333 0.15540891751961169 0 -0.012508086372386609 0.17539393389956731 0 -0.0041686413979582487 0.1780534649607691 0 -0.00095255331983417333 0.15540891751961169 0 -0.018914408553450609 0.15970134085749299 0 -0.00095255331983417333 0.15540891751961169 0 -0.00095255331983417333 0.15540891751961169 0 -0.0050240550804999673 0.127034918895162 0 -0.018914408553450609 0.15970134085749299 0 -0.00095255331983417333 0.15540891751961169 0 -0.01337807056624165 0.13664173202091001 0 -0.018914408553450609 0.15970134085749299 0 -0.01337807056624165 0.13664173202091001 0 -0.031573572561005653 0.1438880627868247 0 -0.038563976669610298 0.16439708434635569 0 -0.018914408553450609 0.15970134085749299 0 -0.031573572561005653 0.1438880627868247 0 -0.018914408553450609 0.15970134085749299 0 -0.01337807056624165 0.13664173202091001 0 -0.031573572561005653 0.1438880627868247 0 -0.028830479123556321 0.13075729057599811 0 -0.01337807056624165 0.13664173202091001 0 -0.028830479123556321 0.13075729057599811 0 -0.01337807056624165 0.13664173202091001 0 -0.025504048040921899 0.1215360200725371 0 -0.01337807056624165 0.13664173202091001 0 -0.0050240550804999673 0.127034918895162 0 -0.0069723530775540081 0.11345737234403221 0 -0.00095255331983417333 0.15540891751961169 0 -0.01337807056624165 0.13664173202091001 0 -0.0050240550804999673 0.127034918895162 0 -0.01337807056624165 0.13664173202091001 0 -0.0069723530775540081 0.11345737234403221 0 -0.01337807056624165 0.13664173202091001 0 -0.0069723530775540081 0.11345737234403221 0 -0.025504048040921899 0.1215360200725371 0 -0.0050240550804999673 0.127034918895162 0 -0.0069723530775540081 0.11345737234403221 0 -0.0050240550804999673 0.127034918895162 0 -0.0069723530775540081 0.11345737234403221 0 0.00067693916513428926 0.11159247202752109 0 -0.0069723530775540081 0.11345737234403221 0 -0.0090955568411645142 0.098660920270712146 0 -0.024892725447695729 0.1072669426630007 0 -0.0090955568411645142 0.098660920270712146 0 0.0049667203133150206 0.096818660272216112 0 0.00067693916513428926 0.11159247202752109 0 -0.0069723530775540081 0.11345737234403221 0 -0.0090955568411645142 0.098660920270712146 0 0.00067693916513428926 0.11159247202752109 0 -0.0069723530775540081 0.11345737234403221 0 -0.0090955568411645142 0.098660920270712146 0 -0.024892725447695729 0.1072669426630007 0 -0.021762962212121002 0.093965472571022279 0 -0.041198542767347149 0.094001473393275872 0 -0.0090955568411645142 0.098660920270712146 0 -0.024892725447695729 0.1072669426630007 0 -0.021762962212121002 0.093965472571022279 0 -0.0069723530775540081 0.11345737234403221 0 -0.024892725447695729 0.1072669426630007 0 -0.025504048040921899 0.1215360200725371 0 -0.0033524539689480659 0.070218878613213576 0 -0.01235648950651245 0.084531057305453863 0 -0.020154870526501081 0.065546179320041878 0 -0.0033524539689480659 0.070218878613213576 0 -0.01235648950651245 0.084531057305453863 0 0.0049667203133150206 0.096818660272216112 0 -0.0090955568411645142 0.098660920270712146 0 -0.01235648950651245 0.084531057305453863 0 0.0049667203133150206 0.096818660272216112 0 -0.0090955568411645142 0.098660920270712146 0 -0.021762962212121002 0.093965472571022279 0 -0.01235648950651245 0.084531057305453863 0 -0.021762962212121002 0.093965472571022279 0 -0.02565252888412084 0.081083933723108903 0 -0.041198542767347149 0.094001473393275872 0 -0.021762962212121002 0.093965472571022279 0 -0.01235648950651245 0.084531057305453863 0 -0.02565252888412084 0.081083933723108903 0 -0.01235648950651245 0.084531057305453863 0 -0.02565252888412084 0.081083933723108903 0 -0.020154870526501081 0.065546179320041878 0 -0.02565252888412084 0.081083933723108903 0 -0.020154870526501081 0.065546179320041878 0 -0.037530860208638189 0.067039599362830798 0 -0.037530860208638189 0.067039599362830798 0 -0.041198542767347149 0.094001473393275872 0 -0.037530860208638189 0.067039599362830798 0 -0.054139056571765438 0.076062740777206164 0 -0.041198542767347149 0.094001473393275872 0 -0.02565252888412084 0.081083933723108903 0 -0.037530860208638189 0.067039599362830798 0 -0.041198542767347149 0.094001473393275872 0 -0.054139056571765438 0.076062740777206164 0 -0.060699456705754697 0.098782785782185606 0 -0.071313957059901664 0.081261623675085923 0 -0.054139056571765438 0.076062740777206164 0 -0.041198542767347149 0.094001473393275872 0 -0.060699456705754697 0.098782785782185606 0 -0.054139056571765438 0.076062740777206164 0 -0.071313957059901664 0.081261623675085923 0 -0.059746329526659828 0.05732234174897613 0 -0.037530860208638189 0.067039599362830798 0 -0.054139056571765438 0.076062740777206164 0 -0.059746329526659828 0.05732234174897613 0 -0.024892725447695729 0.1072669426630007 0 -0.025504048040921899 0.1215360200725371 0 -0.044866225326056101 0.1209633474237209 0 -0.028830479123556321 0.13075729057599811 0 -0.025504048040921899 0.1215360200725371 0 -0.044866225326056101 0.1209633474237209 0 -0.044866225326056101 0.1209633474237209 0 -0.041198542767347149 0.094001473393275872 0 -0.024892725447695729 0.1072669426630007 0 -0.044866225326056101 0.1209633474237209 0 -0.041198542767347149 0.094001473393275872 0 -0.044866225326056101 0.1209633474237209 0 -0.041198542767347149 0.094001473393275872 0 -0.060699456705754697 0.098782785782185606 0 -0.061971368367185052 0.12815652956024409 0 -0.044866225326056101 0.1209633474237209 0 -0.06696148977649416 0.1165919668443285 0 -0.044866225326056101 0.1209633474237209 0 -0.060699456705754697 0.098782785782185606 0 -0.06696148977649416 0.1165919668443285 0 -0.06696148977649416 0.1165919668443285 0 -0.082448521523635951 0.12071931899294611 0 -0.082881584593143529 0.1052009056011958 0 -0.071363184399134541 0.12710869201121849 0 -0.061971368367185052 0.12815652956024409 0 -0.06696148977649416 0.1165919668443285 0 -0.071363184399134541 0.12710869201121849 0 -0.06696148977649416 0.1165919668443285 0 -0.082448521523635951 0.12071931899294611 0 -0.082881584593143529 0.1052009056011958 0 -0.096915602850775939 0.11929309087028819 0 -0.099413711378119385 0.10998979284764419 0 -0.09444921212638531 0.12914018752730541 0 -0.082881584593143529 0.1052009056011958 0 -0.096915602850775939 0.11929309087028819 0 -0.09444921212638531 0.12914018752730541 0 -0.082448521523635951 0.12071931899294611 0 -0.082881584593143529 0.1052009056011958 0 -0.09444921212638531 0.12914018752730541 0 -0.082881584593143529 0.1052009056011958 0 -0.082881584593143529 0.1052009056011958 0 -0.089220186911981594 0.088300464279893728 0 -0.1023707697992068 0.0968739684503825 0 -0.060699456705754697 0.098782785782185606 0 -0.082881584593143529 0.1052009056011958 0 -0.071313957059901664 0.081261623675085923 0 -0.060699456705754697 0.098782785782185606 0 -0.06696148977649416 0.1165919668443285 0 -0.082881584593143529 0.1052009056011958 0 -0.082881584593143529 0.1052009056011958 0 -0.071313957059901664 0.081261623675085923 0 -0.071313957059901664 0.081261623675085923 0 -0.059746329526659828 0.05732234174897613 0 -0.071313957059901664 0.081261623675085923 0 -0.079323636113429366 0.058388640021595481 0 -0.059746329526659828 0.05732234174897613 0 -0.071313957059901664 0.081261623675085923 0 -0.093198880686466229 0.072237651449762477 0 -0.079323636113429366 0.058388640021595481 0 -0.071313957059901664 0.081261623675085923 0 -0.093198880686466229 0.072237651449762477 0 -0.089220186911981594 0.088300464279893728 0 -0.082881584593143529 0.1052009056011958 0 -0.071313957059901664 0.081261623675085923 0 -0.089220186911981594 0.088300464279893728 0 -0.093198880686466229 0.072237651449762477 0 -0.089220186911981594 0.088300464279893728 0 -0.1008863041920046 0.083568387524546234 0 -0.089220186911981594 0.088300464279893728 0 -0.1008863041920046 0.083568387524546234 0 -0.1023707697992068 0.0968739684503825 0 -0.1008863041920046 0.083568387524546234 0 -0.1182144859610532 0.089999828431431769 0 -0.1023707697992068 0.0968739684503825 0 -0.093198880686466229 0.072237651449762477 0 -0.1113824853410966 0.075685309992099173 0 -0.1083907961898896 0.062092181940595972 0 -0.093198880686466229 0.072237651449762477 0 -0.1008863041920046 0.083568387524546234 0 -0.1113824853410966 0.075685309992099173 0 -0.093198880686466229 0.072237651449762477 0 -0.1083907961898896 0.062092181940595972 0 -0.095615990312066509 0.053465805807643881 0 -0.1258392381833858 0.064418793492627746 0 -0.1113824853410966 0.075685309992099173 0 -0.1083907961898896 0.062092181940595972 0 -0.1258392381833858 0.064418793492627746 0 -0.1113824853410966 0.075685309992099173 0 -0.1249516316716202 0.07805606175079087 0 -0.1008863041920046 0.083568387524546234 0 -0.1113824853410966 0.075685309992099173 0 -0.1182144859610532 0.089999828431431769 0 -0.1113824853410966 0.075685309992099173 0 -0.1249516316716202 0.07805606175079087 0 -0.1182144859610532 0.089999828431431769 0 -0.121887388282922 0.1039227065130781 0 -0.1115807503109484 0.1117959409308789 0 -0.1023707697992068 0.0968739684503825 0 -0.13019670250137819 0.097425025938909907 0 -0.1182144859610532 0.089999828431431769 0 -0.121887388282922 0.1039227065130781 0 -0.1182144859610532 0.089999828431431769 0 -0.121887388282922 0.1039227065130781 0 -0.1023707697992068 0.0968739684503825 0 -0.121887388282922 0.1039227065130781 0 -0.1237077848500947 0.1157730571732615 0 -0.1115807503109484 0.1117959409308789 0 -0.1254402541581866 0.12852827206949971 0 -0.1237077848500947 0.1157730571732615 0 -0.11581515444735151 0.1219394507645845 0 -0.11581515444735151 0.1219394507645845 0 -0.1115807503109484 0.1117959409308789 0 -0.1065831774004123 0.12302936319203089 0 -0.1237077848500947 0.1157730571732615 0 -0.11581515444735151 0.1219394507645845 0 -0.1115807503109484 0.1117959409308789 0 -0.1115807503109484 0.1117959409308789 0 -0.1065831774004123 0.12302936319203089 0 -0.099413711378119385 0.10998979284764419 0 -0.1012503287558192 0.1291052051832644 0 -0.1065831774004123 0.12302936319203089 0 -0.096915602850775939 0.11929309087028819 0 -0.1065831774004123 0.12302936319203089 0 -0.096915602850775939 0.11929309087028819 0 -0.099413711378119385 0.10998979284764419 0 -0.082881584593143529 0.1052009056011958 0 -0.099413711378119385 0.10998979284764419 0 -0.1023707697992068 0.0968739684503825 0 -0.1115807503109484 0.1117959409308789 0 -0.099413711378119385 0.10998979284764419 0 -0.1023707697992068 0.0968739684503825 0 -0.1000327926827924 0.026631224912605962 0 -0.090762819572714482 0.032366822369572529 0 -0.092538657352306458 0.016463389194268509 0 -0.1000327926827924 0.026631224912605962 0 -0.1106884379869372 0.024331941806464662 0 -0.10456144485097429 0.039960614736142423 0 -0.1029290363625401 0.01539139034289955 0 -0.1103264422650871 0.0081155747022496061 0 -0.1106884379869372 0.024331941806464662 0 -0.1000327926827924 0.026631224912605962 0 -0.1029290363625401 0.01539139034289955 0 -0.1106884379869372 0.024331941806464662 0 -0.1000327926827924 0.026631224912605962 0 -0.1029290363625401 0.01539139034289955 0 -0.092538657352306458 0.016463389194268509 0 -0.09956486537428301 0.0078533267880648554 0 -0.092538657352306458 0.016463389194268509 0 -0.092227756543309419 0.00423836554477922 0 -0.09956486537428301 0.0078533267880648554 0 -0.1029290363625401 0.01539139034289955 0 -0.092538657352306458 0.016463389194268509 0 -0.099450143409077318 -0.00040143133860372459 0 -0.09956486537428301 0.0078533267880648554 0 -0.105358158110386 0.0033847776135997949 0 -0.099450143409077318 -0.00040143133860372459 0 -0.09956486537428301 0.0078533267880648554 0 -0.092227756543309419 0.00423836554477922 0 -0.09956486537428301 0.0078533267880648554 0 -0.105358158110386 0.0033847776135997949 0 -0.10442302251383449 0.0089528846537437218 0 -0.105358158110386 0.0033847776135997949 0 -0.10442302251383449 0.0089528846537437218 0 -0.1103264422650871 0.0081155747022496061 0 -0.105358158110386 0.0033847776135997949 0 -0.1103264422650871 0.0081155747022496061 0 -0.1119989086322951 0.00066333237648008722 0 -0.09956486537428301 0.0078533267880648554 0 -0.1029290363625401 0.01539139034289955 0 -0.10442302251383449 0.0089528846537437218 0 -0.1029290363625401 0.01539139034289955 0 -0.10442302251383449 0.0089528846537437218 0 -0.1103264422650871 0.0081155747022496061 0 -0.1103264422650871 0.0081155747022496061 0 -0.1168154311228998 0.0087032688767867648 0 -0.1106884379869372 0.024331941806464662 0 -0.1103264422650871 0.0081155747022496061 0 -0.1168154311228998 0.0087032688767867648 0 -0.1103264422650871 0.0081155747022496061 0 -0.1168154311228998 0.0087032688767867648 0 -0.1119989086322951 0.00066333237648008722 0 -0.1168154311228998 0.0087032688767867648 0 -0.1119989086322951 0.00066333237648008722 0 -0.1195650939264682 0.0016894564454279679 0 -0.12879974367784419 -0.00032553470509391001 0 -0.1195650939264682 0.0016894564454279679 0 -0.1226519412435686 0.0092318694142048373 0 -0.1168154311228998 0.0087032688767867648 0 -0.1195650939264682 0.0016894564454279679 0 -0.1226519412435686 0.0092318694142048373 0 -0.1168154311228998 0.0087032688767867648 0 -0.1195650939264682 0.0016894564454279679 0 -0.1195650939264682 0.0016894564454279679 0 -0.1226519412435686 0.0092318694142048373 0 -0.1168154311228998 0.0087032688767867648 0 -0.1226519412435686 0.0092318694142048373 0 -0.1190031555958547 0.019158552716736089 0 -0.1168154311228998 0.0087032688767867648 0 -0.1226519412435686 0.0092318694142048373 0 -0.12981960929622821 0.02674537329784241 0 -0.1226519412435686 0.0092318694142048373 0 -0.1190031555958547 0.019158552716736089 0 -0.1168154311228998 0.0087032688767867648 0 -0.1106884379869372 0.024331941806464662 0 -0.1168154311228998 0.0087032688767867648 0 -0.1190031555958547 0.019158552716736089 0 -0.1106884379869372 0.024331941806464662 0 -0.1190031555958547 0.019158552716736089 0 -0.1106884379869372 0.024331941806464662 0 -0.1188165533242035 0.034434456297563677 0 -0.12981960929622821 0.02674537329784241 0 -0.1190031555958547 0.019158552716736089 0 -0.1188165533242035 0.034434456297563677 0 -0.13698727734888599 0.044258877181480749 0 -0.1188165533242035 0.034434456297563677 0 -0.1163016338304763 0.048862341494562388 0 -0.1106884379869372 0.024331941806464662 0 -0.1188165533242035 0.034434456297563677 0 -0.10456144485097429 0.039960614736142423 0 -0.1188165533242035 0.034434456297563677 0 -0.1163016338304763 0.048862341494562388 0 -0.10456144485097429 0.039960614736142423 0 -0.1258392381833858 0.064418793492627746 0 -0.1163016338304763 0.048862341494562388 0 -0.1083907961898896 0.062092181940595972 0 -0.1163016338304763 0.048862341494562388 0 -0.095615990312066509 0.053465805807643881 0 -0.10456144485097429 0.039960614736142423 0 -0.1163016338304763 0.048862341494562388 0 -0.1083907961898896 0.062092181940595972 0 -0.095615990312066509 0.053465805807643881 0 -0.1163016338304763 0.048862341494562388 0 -0.095615990312066509 0.053465805807643881 0 -0.10456144485097429 0.039960614736142423 0 -0.090762819572714482 0.032366822369572529 0 -0.086240501496660724 0.044514695118309681 0 -0.095615990312066509 0.053465805807643881 0 -0.10456144485097429 0.039960614736142423 0 -0.086240501496660724 0.044514695118309681 0 -0.1106884379869372 0.024331941806464662 0 -0.10456144485097429 0.039960614736142423 0 -0.1000327926827924 0.026631224912605962 0 -0.10456144485097429 0.039960614736142423 0 -0.090762819572714482 0.032366822369572529 0 -0.090762819572714482 0.032366822369572529 0 -0.086240501496660724 0.044514695118309681 0 -0.072503524408832981 0.036954852862698048 0 -0.086240501496660724 0.044514695118309681 0 -0.079323636113429366 0.058388640021595481 0 -0.072503524408832981 0.036954852862698048 0 -0.093198880686466229 0.072237651449762477 0 -0.095615990312066509 0.053465805807643881 0 -0.079323636113429366 0.058388640021595481 0 -0.095615990312066509 0.053465805807643881 0 -0.086240501496660724 0.044514695118309681 0 -0.079323636113429366 0.058388640021595481 0 -0.079323636113429366 0.058388640021595481 0 -0.072503524408832981 0.036954852862698048 0 -0.059746329526659828 0.05732234174897613 0 -0.072503524408832981 0.036954852862698048 0 -0.073426259270677863 0.018730331072898381 0 -0.083282788435180097 0.024037913147452059 0 -0.072503524408832981 0.036954852862698048 0 -0.073426259270677863 0.018730331072898381 0 -0.060994189040455851 0.02422895844505453 0 -0.073426259270677863 0.018730331072898381 0 -0.067349573214037367 0.0095760000209136956 0 -0.060994189040455851 0.02422895844505453 0 -0.090762819572714482 0.032366822369572529 0 -0.083282788435180097 0.024037913147452059 0 -0.092538657352306458 0.016463389194268509 0 -0.090762819572714482 0.032366822369572529 0 -0.072503524408832981 0.036954852862698048 0 -0.083282788435180097 0.024037913147452059 0 -0.073426259270677863 0.018730331072898381 0 -0.083282788435180097 0.024037913147452059 0 -0.082308946239828193 0.0087851128038203812 0 -0.083282788435180097 0.024037913147452059 0 -0.092538657352306458 0.016463389194268509 0 -0.082308946239828193 0.0087851128038203812 0 -0.085701472699934569 -0.0021704362983969768 0 -0.092227756543309419 0.00423836554477922 0 -0.082308946239828193 0.0087851128038203812 0 -0.092538657352306458 0.016463389194268509 0 -0.092227756543309419 0.00423836554477922 0 -0.082308946239828193 0.0087851128038203812 0 -0.085701472699934569 -0.0021704362983969768 0 -0.074297532179188081 -0.00034498519096071108 0 -0.082308946239828193 0.0087851128038203812 0 -0.074297532179188081 -0.00034498519096071108 0 -0.082308946239828193 0.0087851128038203812 0 -0.067349573214037367 0.0095760000209136956 0 -0.073426259270677863 0.018730331072898381 0 -0.082308946239828193 0.0087851128038203812 0 -0.067349573214037367 0.0095760000209136956 0 -0.074297532179188081 -0.00034498519096071108 0 -0.062436411198129718 -0.0046985190703956198 0 -0.067349573214037367 0.0095760000209136956 0 -0.062436411198129718 -0.0046985190703956198 0 -0.047826914617203078 0.001469151039970934 0 -0.055042119576630077 0.011704378802870339 0 -0.062436411198129718 -0.0046985190703956198 0 -0.067349573214037367 0.0095760000209136956 0 -0.055042119576630077 0.011704378802870339 0 -0.067349573214037367 0.0095760000209136956 0 -0.055042119576630077 0.011704378802870339 0 -0.060994189040455851 0.02422895844505453 0 -0.055042119576630077 0.011704378802870339 0 -0.060994189040455851 0.02422895844505453 0 -0.048178701993418047 0.033383059822866448 0 -0.036611074460176238 0.009443777896756704 0 -0.048178701993418047 0.033383059822866448 0 -0.036611074460176238 0.009443777896756704 0 -0.048178701993418047 0.033383059822866448 0 -0.023771680469849451 0.018522322524935891 0 -0.055042119576630077 0.011704378802870339 0 -0.036611074460176238 0.009443777896756704 0 -0.048178701993418047 0.033383059822866448 0 -0.047826914617203078 0.001469151039970934 0 -0.055042119576630077 0.011704378802870339 0 -0.036611074460176238 0.009443777896756704 0 -0.040432499405923722 -0.0058239416191065898 0 -0.047826914617203078 0.001469151039970934 0 -0.036611074460176238 0.009443777896756704 0 -0.037530860208638189 0.067039599362830798 0 -0.048178701993418047 0.033383059822866448 0 -0.028593600287803091 0.043076522259886819 0 -0.037530860208638189 0.067039599362830798 0 -0.059746329526659828 0.05732234174897613 0 -0.048178701993418047 0.033383059822866448 0 -0.059746329526659828 0.05732234174897613 0 -0.048178701993418047 0.033383059822866448 0 -0.072503524408832981 0.036954852862698048 0 -0.059746329526659828 0.05732234174897613 0 -0.048178701993418047 0.033383059822866448 0 -0.072503524408832981 0.036954852862698048 0 -0.060994189040455851 0.02422895844505453 0 -0.048178701993418047 0.033383059822866448 0 -0.048178701993418047 0.033383059822866448 0 -0.028593600287803091 0.043076522259886819 0 -0.023771680469849451 0.018522322524935891 0 -0.020154870526501081 0.065546179320041878 0 -0.028593600287803091 0.043076522259886819 0 -0.01167162825121118 0.043619096954210901 0 -0.020154870526501081 0.065546179320041878 0 -0.037530860208638189 0.067039599362830798 0 -0.028593600287803091 0.043076522259886819 0 -0.028593600287803091 0.043076522259886819 0 -0.01167162825121118 0.043619096954210901 0 -0.023771680469849451 0.018522322524935891 0 -0.01167162825121118 0.043619096954210901 0 -0.0077503717520711213 0.027733737297106272 0 0.001166216508604297 0.042060954691014098 0 -0.0077503717520711213 0.027733737297106272 0 0.0029084644397616159 0.029246796991974341 0 0.001166216508604297 0.042060954691014098 0 -0.01167162825121118 0.043619096954210901 0 0.0057112789592953517 0.05695871052561028 0 0.001166216508604297 0.042060954691014098 0 -0.0033524539689480659 0.070218878613213576 0 -0.020154870526501081 0.065546179320041878 0 -0.01167162825121118 0.043619096954210901 0 -0.0033524539689480659 0.070218878613213576 0 -0.01167162825121118 0.043619096954210901 0 0.0057112789592953517 0.05695871052561028 0 -0.0033524539689480659 0.070218878613213576 0 -0.01167162825121118 0.043619096954210901 0 -0.036611074460176238 0.009443777896756704 0 -0.023771680469849451 0.018522322524935891 0 -0.019990802533473209 0.01701931529520791 0 -0.027931048851053901 -0.0083688796385876091 0 -0.036611074460176238 0.009443777896756704 0 -0.019990802533473209 0.01701931529520791 0 -0.027931048851053901 -0.0083688796385876091 0 -0.019990802533473209 0.01701931529520791 0 -0.027931048851053901 -0.0083688796385876091 0 -0.018028612652532021 0.0044234363244373886 0 -0.019990802533473209 0.01701931529520791 0 -0.01167162825121118 0.043619096954210901 0 -0.023771680469849451 0.018522322524935891 0 -0.019990802533473209 0.01701931529520791 0 -0.01167162825121118 0.043619096954210901 0 -0.019990802533473209 0.01701931529520791 0 -0.023771680469849451 0.018522322524935891 0 -0.019990802533473209 0.01701931529520791 0 -0.01167162825121118 0.043619096954210901 0 -0.019990802533473209 0.01701931529520791 0 -0.0077503717520711213 0.027733737297106272 0 -0.019990802533473209 0.01701931529520791 0 -0.0077503717520711213 0.027733737297106272 0 -0.0075203696834819948 0.01206196119742604 0 -0.0077503717520711213 0.027733737297106272 0 -0.0075203696834819948 0.01206196119742604 0 0.0029084644397616159 0.029246796991974341 0 -0.0075203696834819948 0.01206196119742604 0 0.0029084644397616159 0.029246796991974341 0 -0.01667222954211801 -0.003018651556297432 0 -0.0040637010000482386 -0.0059727926133312454 0 -0.0075203696834819948 0.01206196119742604 0 -0.019990802533473209 0.01701931529520791 0 -0.0075203696834819948 0.01206196119742604 0 -0.018028612652532021 0.0044234363244373886 0 -0.019990802533473209 0.01701931529520791 0 -0.0075203696834819948 0.01206196119742604 0 -0.01667222954211801 -0.003018651556297432 0 -0.018028612652532021 0.0044234363244373886 0 -0.0075203696834819948 0.01206196119742604 0 -0.01667222954211801 -0.003018651556297432 0 -0.0075203696834819948 0.01206196119742604 0 -0.0075203696834819948 0.01206196119742604 0 0.01390017229619854 0.0035466824707463158 0 -0.0075203696834819948 0.01206196119742604 0 0.01390017229619854 0.0035466824707463158 0 0.0029084644397616159 0.029246796991974341 0 -0.0040637010000482386 -0.0059727926133312454 0 -0.0075203696834819948 0.01206196119742604 0 0.01390017229619854 0.0035466824707463158 0 0.01390017229619854 0.0035466824707463158 0 0.0029084644397616159 0.029246796991974341 0 0.02780528446052195 0.026459796863477839 0 0.01390017229619854 0.0035466824707463158 0 0.02780528446052195 0.026459796863477839 0 0.028562519649684152 0.0075817261511898146 0 0.01390017229619854 0.0035466824707463158 0 0.028562519649684152 0.0075817261511898146 0 0.035320714275878941 -0.0049685962559337217 0 0.0057112789592953517 0.05695871052561028 0 0.013337298563003371 0.046431632786523701 0 0.001166216508604297 0.042060954691014098 0 0.0057112789592953517 0.05695871052561028 0 0.013337298563003371 0.046431632786523701 0 0.0029084644397616159 0.029246796991974341 0 0.02780528446052195 0.026459796863477839 0 0.013337298563003371 0.046431632786523701 0 0.0029084644397616159 0.029246796991974341 0 0.013337298563003371 0.046431632786523701 0 0.001166216508604297 0.042060954691014098 0 0.0029084644397616159 0.029246796991974341 0 0.013337298563003371 0.046431632786523701 0 0.02780528446052195 0.026459796863477839 0 0.013337298563003371 0.046431632786523701 0 0.02780528446052195 0.026459796863477839 0 0.013337298563003371 0.046431632786523701 0 0.034147749951276271 0.04933202232846115 0 0.013337298563003371 0.046431632786523701 0 0.028181612415517379 0.070892381996225967 0 0.013337298563003371 0.046431632786523701 0 0.034147749951276271 0.04933202232846115 0 0.028181612415517379 0.070892381996225967 0 0.0057112789592953517 0.05695871052561028 0 0.013337298563003371 0.046431632786523701 0 0.028181612415517379 0.070892381996225967 0 0.034147749951276271 0.04933202232846115 0 0.042499141074820973 0.062549008142058687 0 0.028181612415517379 0.070892381996225967 0 0.034147749951276271 0.04933202232846115 0 0.047394590832995437 0.048533347175429897 0 0.042499141074820973 0.062549008142058687 0 0.034147749951276271 0.04933202232846115 0 0.045490455109933728 0.033651564008150912 0 0.047394590832995437 0.048533347175429897 0 0.02780528446052195 0.026459796863477839 0 0.034147749951276271 0.04933202232846115 0 0.045490455109933728 0.033651564008150912 0 0.045490455109933728 0.033651564008150912 0 0.057892488458562777 0.039753161956961831 0 0.05818827922913139 0.020863321940741801 0 0.045490455109933728 0.033651564008150912 0 0.057892488458562777 0.039753161956961831 0 0.047394590832995437 0.048533347175429897 0 0.057892488458562777 0.039753161956961831 0 0.047394590832995437 0.048533347175429897 0 0.056943119570383401 0.057380979441516947 0 0.057892488458562777 0.039753161956961831 0 0.056943119570383401 0.057380979441516947 0 0.068307891098925655 0.047478726100914283 0 0.047394590832995437 0.048533347175429897 0 0.056943119570383401 0.057380979441516947 0 0.042499141074820973 0.062549008142058687 0 0.02780528446052195 0.026459796863477839 0 0.028562519649684152 0.0075817261511898146 0 0.042273270358040613 0.0064879609404319399 0 0.028562519649684152 0.0075817261511898146 0 0.042273270358040613 0.0064879609404319399 0 0.035320714275878941 -0.0049685962559337217 0 0.02780528446052195 0.026459796863477839 0 0.042273270358040613 0.0064879609404319399 0 0.02780528446052195 0.026459796863477839 0 0.042273270358040613 0.0064879609404319399 0 0.043439322289406918 0.02186566093820062 0 0.02780528446052195 0.026459796863477839 0 0.045490455109933728 0.033651564008150912 0 0.043439322289406918 0.02186566093820062 0 0.042273270358040613 0.0064879609404319399 0 0.043439322289406918 0.02186566093820062 0 0.05818827922913139 0.020863321940741801 0 0.045490455109933728 0.033651564008150912 0 0.043439322289406918 0.02186566093820062 0 0.05818827922913139 0.020863321940741801 0 0.042273270358040613 0.0064879609404319399 0 0.05818827922913139 0.020863321940741801 0 0.059262053668840409 0.0035845234533785839 0 0.05818827922913139 0.020863321940741801 0 0.059262053668840409 0.0035845234533785839 0 0.071674429872384704 0.0093394264294115528 0 0.059262053668840409 0.0035845234533785839 0 0.071674429872384704 0.0093394264294115528 0 0.067433032629086107 -0.0052842170610784504 0 0.071674429872384704 0.0093394264294115528 0 0.083563115126885856 0.0087899641458390916 0 0.078697083033740872 -0.00049660012687540833 0 0.071674429872384704 0.0093394264294115528 0 0.078697083033740872 -0.00049660012687540833 0 0.067433032629086107 -0.0052842170610784504 0 0.083563115126885856 0.0087899641458390916 0 0.078697083033740872 -0.00049660012687540833 0 0.095599149367132194 -0.0044744545785956966 0 0.083563115126885856 0.0087899641458390916 0 0.094014602542256021 0.01158468031264883 0 0.095599149367132194 -0.0044744545785956966 0 0.071674429872384704 0.0093394264294115528 0 0.083563115126885856 0.0087899641458390916 0 0.081882106545059605 0.019283215069807621 0 0.083563115126885856 0.0087899641458390916 0 0.081882106545059605 0.019283215069807621 0 0.094014602542256021 0.01158468031264883 0 0.086075936138369419 0.02923940994482534 0 0.094237510995420534 0.033887965325493222 0 0.095032810018734842 0.024320895136474729 0 0.086075936138369419 0.02923940994482534 0 0.081882106545059605 0.019283215069807621 0 0.095032810018734842 0.024320895136474729 0 0.081882106545059605 0.019283215069807621 0 0.094014602542256021 0.01158468031264883 0 0.095032810018734842 0.024320895136474729 0 0.086075936138369419 0.02923940994482534 0 0.081882106545059605 0.019283215069807621 0 0.071851557748124503 0.03208227716835324 0 0.081882106545059605 0.019283215069807621 0 0.0701884440895367 0.020789611718982061 0 0.071851557748124503 0.03208227716835324 0 0.057892488458562777 0.039753161956961831 0 0.05818827922913139 0.020863321940741801 0 0.071851557748124503 0.03208227716835324 0 0.071674429872384704 0.0093394264294115528 0 0.081882106545059605 0.019283215069807621 0 0.0701884440895367 0.020789611718982061 0 0.05818827922913139 0.020863321940741801 0 0.071674429872384704 0.0093394264294115528 0 0.0701884440895367 0.020789611718982061 0 0.05818827922913139 0.020863321940741801 0 0.0701884440895367 0.020789611718982061 0 0.071851557748124503 0.03208227716835324 0 0.057892488458562777 0.039753161956961831 0 0.071851557748124503 0.03208227716835324 0 0.068307891098925655 0.047478726100914283 0 0.077945182444536243 0.045892059336580027 0 0.071851557748124503 0.03208227716835324 0 0.068307891098925655 0.047478726100914283 0 0.056943119570383401 0.057380979441516947 0 0.068307891098925655 0.047478726100914283 0 0.073673732147521917 0.057581864881120833 0 0.056943119570383401 0.057380979441516947 0 0.073673732147521917 0.057581864881120833 0 0.064773658700808145 0.070467449741328694 0 0.077945182444536243 0.045892059336580027 0 0.068307891098925655 0.047478726100914283 0 0.073673732147521917 0.057581864881120833 0 0.073673732147521917 0.057581864881120833 0 0.08359787262428181 0.052314170186646032 0 0.087643412837555557 0.064028617707903981 0 0.077945182444536243 0.045892059336580027 0 0.073673732147521917 0.057581864881120833 0 0.08359787262428181 0.052314170186646032 0 0.08359787262428181 0.052314170186646032 0 0.092877025605272473 0.051862801090180988 0 0.085494787776630526 0.039668371884117808 0 0.092877025605272473 0.051862801090180988 0 0.10017442981693001 0.058899740267618912 0 0.087643412837555557 0.064028617707903981 0 0.08359787262428181 0.052314170186646032 0 0.092877025605272473 0.051862801090180988 0 0.087643412837555557 0.064028617707903981 0 0.086075936138369419 0.02923940994482534 0 0.071851557748124503 0.03208227716835324 0 0.085494787776630526 0.039668371884117808 0 0.077945182444536243 0.045892059336580027 0 0.071851557748124503 0.03208227716835324 0 0.085494787776630526 0.039668371884117808 0 0.077945182444536243 0.045892059336580027 0 0.08359787262428181 0.052314170186646032 0 0.085494787776630526 0.039668371884117808 0 0.085494787776630526 0.039668371884117808 0 0.094237510995420534 0.033887965325493222 0 0.099963732234236297 0.044265580312255602 0 0.092877025605272473 0.051862801090180988 0 0.085494787776630526 0.039668371884117808 0 0.099963732234236297 0.044265580312255602 0 0.086075936138369419 0.02923940994482534 0 0.085494787776630526 0.039668371884117808 0 0.094237510995420534 0.033887965325493222 0 0.094237510995420534 0.033887965325493222 0 0.099963732234236297 0.044265580312255602 0 0.1046202888091316 0.031945569349792653 0 0.099963732234236297 0.044265580312255602 0 0.1046202888091316 0.031945569349792653 0 0.1135143920159369 0.040566737213123281 0 0.092877025605272473 0.051862801090180988 0 0.099963732234236297 0.044265580312255602 0 0.10017442981693001 0.058899740267618912 0 0.099963732234236297 0.044265580312255602 0 0.10017442981693001 0.058899740267618912 0 0.11529052552210541 0.051470397024893241 0 0.10017442981693001 0.058899740267618912 0 0.11529052552210541 0.051470397024893241 0 0.11177628313427181 0.06420368150397579 0 0.11529052552210541 0.051470397024893241 0 0.12874492345406871 0.042423756310692548 0 0.12597500637704179 0.063456803070288448 0 0.11529052552210541 0.051470397024893241 0 0.11177628313427181 0.06420368150397579 0 0.12597500637704179 0.063456803070288448 0 0.11659750112372209 0.02971197273225332 0 0.12743380844766991 0.024261376410783551 0 0.12874492345406871 0.042423756310692548 0 0.1046202888091316 0.031945569349792653 0 0.1135143920159369 0.040566737213123281 0 0.11659750112372209 0.02971197273225332 0 0.099963732234236297 0.044265580312255602 0 0.11529052552210541 0.051470397024893241 0 0.1135143920159369 0.040566737213123281 0 0.11529052552210541 0.051470397024893241 0 0.1135143920159369 0.040566737213123281 0 0.12874492345406871 0.042423756310692548 0 0.1135143920159369 0.040566737213123281 0 0.11659750112372209 0.02971197273225332 0 0.12874492345406871 0.042423756310692548 0 0.11659750112372209 0.02971197273225332 0 0.1181721118781663 0.019401234927128731 0 0.12743380844766991 0.024261376410783551 0 0.1046202888091316 0.031945569349792653 0 0.11659750112372209 0.02971197273225332 0 0.108444280562195 0.017269179410331091 0 0.11659750112372209 0.02971197273225332 0 0.1181721118781663 0.019401234927128731 0 0.108444280562195 0.017269179410331091 0 0.1181721118781663 0.019401234927128731 0 0.1216211333496255 0.009637607208076996 0 0.12743380844766991 0.024261376410783551 0 0.1181721118781663 0.019401234927128731 0 0.1216211333496255 0.009637607208076996 0 0.108444280562195 0.017269179410331091 0 0.1216211333496255 0.009637607208076996 0 0.095599149367132194 -0.0044744545785956966 0 0.1216211333496255 0.009637607208076996 0 0.108444280562195 0.017269179410331091 0 0.095599149367132194 -0.0044744545785956966 0 0.094014602542256021 0.01158468031264883 0 0.108444280562195 0.017269179410331091 0 0.095599149367132194 -0.0044744545785956966 0 0.094014602542256021 0.01158468031264883 0 0.095032810018734842 0.024320895136474729 0 0.108444280562195 0.017269179410331091 0 0.094237510995420534 0.033887965325493222 0 0.1046202888091316 0.031945569349792653 0 0.095032810018734842 0.024320895136474729 0 0.1046202888091316 0.031945569349792653 0 0.095032810018734842 0.024320895136474729 0 0.108444280562195 0.017269179410331091 0 0.1091542609455594 0.10472432110431761 0 0.098395381719931313 0.096027489160654789 0 0.093134707164877539 0.11105446452281 0 0.1091542609455594 0.10472432110431761 0 0.098395381719931313 0.096027489160654789 0 0.1127745345070713 0.090454469117956737 0 0.1091542609455594 0.10472432110431761 0 0.1060584911702588 0.11798265637048271 0 0.093134707164877539 0.11105446452281 0 0.1060584911702588 0.11798265637048271 0 0.093134707164877539 0.11105446452281 0 0.093677103499700071 0.1264647034084235 0 0.1060584911702588 0.11798265637048271 0 0.120211814808019 0.1164904577656751 0 0.109027377169461 0.133744272384866 0 0.1091542609455594 0.10472432110431761 0 0.1060584911702588 0.11798265637048271 0 0.120211814808019 0.1164904577656751 0 0.1091542609455594 0.10472432110431761 0 0.120211814808019 0.1164904577656751 0 0.1227615119436771 0.099160115349369526 0 0.1091542609455594 0.10472432110431761 0 0.1227615119436771 0.099160115349369526 0 0.1127745345070713 0.090454469117956737 0 0.1227615119436771 0.099160115349369526 0 0.1127745345070713 0.090454469117956737 0 0.1297420299519457 0.083512858990461514 0 0.1127745345070713 0.090454469117956737 0 0.11593286293313559 0.076475854144579081 0 0.1297420299519457 0.083512858990461514 0 0.1127745345070713 0.090454469117956737 0 0.11593286293313559 0.076475854144579081 0 0.1006611595481786 0.082826175958357895 0 0.11593286293313559 0.076475854144579081 0 0.12597500637704179 0.063456803070288448 0 0.1297420299519457 0.083512858990461514 0 0.11593286293313559 0.076475854144579081 0 0.11177628313427181 0.06420368150397579 0 0.12597500637704179 0.063456803070288448 0 0.11593286293313559 0.076475854144579081 0 0.11177628313427181 0.06420368150397579 0 0.10122301148020139 0.070133065327419031 0 0.10017442981693001 0.058899740267618912 0 0.11177628313427181 0.06420368150397579 0 0.10122301148020139 0.070133065327419031 0 0.11593286293313559 0.076475854144579081 0 0.10122301148020139 0.070133065327419031 0 0.1006611595481786 0.082826175958357895 0 0.10122301148020139 0.070133065327419031 0 0.1006611595481786 0.082826175958357895 0 0.091149920611136512 0.074364322382078574 0 0.10017442981693001 0.058899740267618912 0 0.10122301148020139 0.070133065327419031 0 0.087643412837555557 0.064028617707903981 0 0.098395381719931313 0.096027489160654789 0 0.1006611595481786 0.082826175958357895 0 0.084590422953825864 0.088303815269268268 0 0.098395381719931313 0.096027489160654789 0 0.1127745345070713 0.090454469117956737 0 0.1006611595481786 0.082826175958357895 0 0.1006611595481786 0.082826175958357895 0 0.084590422953825864 0.088303815269268268 0 0.091149920611136512 0.074364322382078574 0 0.084590422953825864 0.088303815269268268 0 0.08089988998700838 0.078031057715847993 0 0.071544986291308177 0.082221359661383331 0 0.084590422953825864 0.088303815269268268 0 0.091149920611136512 0.074364322382078574 0 0.08089988998700838 0.078031057715847993 0 0.10122301148020139 0.070133065327419031 0 0.087643412837555557 0.064028617707903981 0 0.091149920611136512 0.074364322382078574 0 0.087643412837555557 0.064028617707903981 0 0.091149920611136512 0.074364322382078574 0 0.08089988998700838 0.078031057715847993 0 0.087643412837555557 0.064028617707903981 0 0.08089988998700838 0.078031057715847993 0 0.076737202602312149 0.06844969271477 0 0.073673732147521917 0.057581864881120833 0 0.087643412837555557 0.064028617707903981 0 0.076737202602312149 0.06844969271477 0 0.073673732147521917 0.057581864881120833 0 0.076737202602312149 0.06844969271477 0 0.064773658700808145 0.070467449741328694 0 0.08089988998700838 0.078031057715847993 0 0.076737202602312149 0.06844969271477 0 0.071544986291308177 0.082221359661383331 0 0.076737202602312149 0.06844969271477 0 0.064773658700808145 0.070467449741328694 0 0.071544986291308177 0.082221359661383331 0 0.064773658700808145 0.070467449741328694 0 0.071544986291308177 0.082221359661383331 0 0.060295567363379182 0.081647357558803799 0 0.084590422953825864 0.088303815269268268 0 0.074451385863303562 0.093511051113060517 0 0.071544986291308177 0.082221359661383331 0 0.071544986291308177 0.082221359661383331 0 0.06253746842702447 0.094465022714953745 0 0.060295567363379182 0.081647357558803799 0 0.074451385863303562 0.093511051113060517 0 0.071544986291308177 0.082221359661383331 0 0.06253746842702447 0.094465022714953745 0 0.06253746842702447 0.094465022714953745 0 0.063460351962544986 0.1063766899282966 0 0.076751387830070322 0.1049624345811047 0 0.074451385863303562 0.093511051113060517 0 0.06253746842702447 0.094465022714953745 0 0.076751387830070322 0.1049624345811047 0 0.074451385863303562 0.093511051113060517 0 0.076751387830070322 0.1049624345811047 0 0.087651915010409684 0.099918173858354192 0 0.084590422953825864 0.088303815269268268 0 0.074451385863303562 0.093511051113060517 0 0.087651915010409684 0.099918173858354192 0 0.076751387830070322 0.1049624345811047 0 0.087651915010409684 0.099918173858354192 0 0.093134707164877539 0.11105446452281 0 0.098395381719931313 0.096027489160654789 0 0.087651915010409684 0.099918173858354192 0 0.093134707164877539 0.11105446452281 0 0.098395381719931313 0.096027489160654789 0 0.084590422953825864 0.088303815269268268 0 0.087651915010409684 0.099918173858354192 0 0.076751387830070322 0.1049624345811047 0 0.093134707164877539 0.11105446452281 0 0.077116737167053584 0.1172889807238653 0 0.093134707164877539 0.11105446452281 0 0.077116737167053584 0.1172889807238653 0 0.093677103499700071 0.1264647034084235 0 0.077116737167053584 0.1172889807238653 0 0.057870240120545209 0.11981388041563069 0 0.076668230564059109 0.1324981781383496 0 0.063460351962544986 0.1063766899282966 0 0.077116737167053584 0.1172889807238653 0 0.057870240120545209 0.11981388041563069 0 0.063460351962544986 0.1063766899282966 0 0.076751387830070322 0.1049624345811047 0 0.077116737167053584 0.1172889807238653 0 0.057870240120545209 0.11981388041563069 0 0.036327904013434643 0.105277783823468 0 0.057870240120545209 0.11981388041563069 0 0.043025926268031367 0.095353131205928421 0 0.063460351962544986 0.1063766899282966 0 0.057870240120545209 0.11981388041563069 0 0.043025926268031367 0.095353131205928421 0 0.06253746842702447 0.094465022714953745 0 0.063460351962544986 0.1063766899282966 0 0.043025926268031367 0.095353131205928421 0 0.057870240120545209 0.11981388041563069 0 0.043025926268031367 0.095353131205928421 0 0.036327904013434643 0.105277783823468 0 0.043025926268031367 0.095353131205928421 0 0.036327904013434643 0.105277783823468 0 0.029151862400452991 0.088880245741776762 0 0.057870240120545209 0.11981388041563069 0 0.036327904013434643 0.105277783823468 0 0.036914308185956278 0.12758449457061841 0 0.036327904013434643 0.105277783823468 0 0.026549717119855071 0.1156933336961396 0 0.036914308185956278 0.12758449457061841 0 0.056943119570383401 0.057380979441516947 0 0.049447344229944047 0.075523444190377292 0 0.042499141074820973 0.062549008142058687 0 0.056943119570383401 0.057380979441516947 0 0.064773658700808145 0.070467449741328694 0 0.049447344229944047 0.075523444190377292 0 0.064773658700808145 0.070467449741328694 0 0.049447344229944047 0.075523444190377292 0 0.060295567363379182 0.081647357558803799 0 0.043025926268031367 0.095353131205928421 0 0.049447344229944047 0.075523444190377292 0 0.053186892714925327 0.087606236671680868 0 0.06253746842702447 0.094465022714953745 0 0.043025926268031367 0.095353131205928421 0 0.053186892714925327 0.087606236671680868 0 0.049447344229944047 0.075523444190377292 0 0.060295567363379182 0.081647357558803799 0 0.053186892714925327 0.087606236671680868 0 0.06253746842702447 0.094465022714953745 0 0.060295567363379182 0.081647357558803799 0 0.053186892714925327 0.087606236671680868 0 0.043025926268031367 0.095353131205928421 0 0.049447344229944047 0.075523444190377292 0 0.028181612415517379 0.070892381996225967 0 0.043025926268031367 0.095353131205928421 0 0.028181612415517379 0.070892381996225967 0 0.043025926268031367 0.095353131205928421 0 0.028181612415517379 0.070892381996225967 0 0.029151862400452991 0.088880245741776762 0 0.049447344229944047 0.075523444190377292 0 0.042499141074820973 0.062549008142058687 0 0.028181612415517379 0.070892381996225967 0 0.028181612415517379 0.070892381996225967 0 0.021101886806592848 0.082118852204432338 0 0.01228850450407688 0.077961093848421217 0 0.028181612415517379 0.070892381996225967 0 0.021101886806592848 0.082118852204432338 0 0.029151862400452991 0.088880245741776762 0 0.021101886806592848 0.082118852204432338 0 0.014785567906324151 0.090741687231305407 0 0.01228850450407688 0.077961093848421217 0 0.021101886806592848 0.082118852204432338 0 0.029151862400452991 0.088880245741776762 0 0.014785567906324151 0.090741687231305407 0 -0.0033524539689480659 0.070218878613213576 0 0.01228850450407688 0.077961093848421217 0 0.0049667203133150206 0.096818660272216112 0 0.014785567906324151 0.090741687231305407 0 0.01228850450407688 0.077961093848421217 0 0.0049667203133150206 0.096818660272216112 0 -0.0033524539689480659 0.070218878613213576 0 0.0049667203133150206 0.096818660272216112 0 -0.0033524539689480659 0.070218878613213576 0 0.0057112789592953517 0.05695871052561028 0 0.01228850450407688 0.077961093848421217 0 0.0057112789592953517 0.05695871052561028 0 0.028181612415517379 0.070892381996225967 0 0.01228850450407688 0.077961093848421217 0 0.026549717119855071 0.1156933336961396 0 0.01328589459557813 0.1234184419312188 0 0.036914308185956278 0.12758449457061841 0 0.026549717119855071 0.1156933336961396 0 0.019670761684451241 0.1064926144592535 0 0.01328589459557813 0.1234184419312188 0 0.036327904013434643 0.105277783823468 0 0.014785567906324151 0.090741687231305407 0 0.019670761684451241 0.1064926144592535 0 0.036327904013434643 0.105277783823468 0 0.026549717119855071 0.1156933336961396 0 0.019670761684451241 0.1064926144592535 0 0.036327904013434643 0.105277783823468 0 0.029151862400452991 0.088880245741776762 0 0.014785567906324151 0.090741687231305407 0 0.036327904013434643 0.105277783823468 0 0.014785567906324151 0.090741687231305407 0 0.014785567906324151 0.090741687231305407 0 0.019670761684451241 0.1064926144592535 0 0.0049667203133150206 0.096818660272216112 0 0.019670761684451241 0.1064926144592535 0 0.0049667203133150206 0.096818660272216112 0 0.01328589459557813 0.1234184419312188 0 0.0049667203133150206 0.096818660272216112 0 0.00067693916513428926 0.11159247202752109 0 0.01328589459557813 0.1234184419312188 0 -0.0050240550804999673 0.127034918895162 0 0.00067693916513428926 0.11159247202752109 0 0.01328589459557813 0.1234184419312188 0 0.0049667203133150206 0.096818660272216112 0 0.01328589459557813 0.1234184419312188 0 0.01328589459557813 0.1234184419312188 0 0.0070069219194114542 0.13978766210260751 0 0.021605068877842599 0.15001822359022129 0 -0.0050240550804999673 0.127034918895162 0 0.01328589459557813 0.1234184419312188 0 0.0070069219194114542 0.13978766210260751 0 0.01328589459557813 0.1234184419312188 0 0.021605068877842599 0.15001822359022129 0 0.01328589459557813 0.1234184419312188 0 0.021605068877842599 0.15001822359022129 0 0.036914308185956278 0.12758449457061841 0 -0.00095255331983417333 0.15540891751961169 0 0.021605068877842599 0.15001822359022129 0 -0.00095255331983417333 0.15540891751961169 0 0.0070069219194114542 0.13978766210260751 0 0.021605068877842599 0.15001822359022129 0 -0.00095255331983417333 0.15540891751961169 0 -0.0050240550804999673 0.127034918895162 0 0.0070069219194114542 0.13978766210260751 0 -0.00095255331983417333 0.15540891751961169 0 0.003181539142360783 0.1842191061750523 0 -0.00095255331983417333 0.15540891751961169 0 0.003181539142360783 0.1842191061750523 0 0.020121854959739539 0.1654310906016046 0 -0.00095255331983417333 0.15540891751961169 0 0.021605068877842599 0.15001822359022129 0 0.020121854959739539 0.1654310906016046 0 0.0044347205301438356 0.18700663260860501 0 0.020121854959739539 0.1654310906016046 0 0.0044347205301438356 0.18700663260860501 0 0.003181539142360783 0.1842191061750523 0 0.020121854959739539 0.1654310906016046 0 0.0044347205301438356 0.18700663260860501 0 0.017908121217727418 0.17884659444139109 0 0.020121854959739539 0.1654310906016046 0 0.0044347205301438356 0.18700663260860501 0 0.017908121217727418 0.17884659444139109 0 0.006899093886187581 0.19659648086674539 0 -0.0032230355682505928 0.1887738530916741 0 -0.00025262032905044759 0.18559225739494989 0 0.0044347205301438356 0.18700663260860501 0 -0.001505659879600719 0.18317061219929109 0 -0.00025262032905044759 0.18559225739494989 0 0.003181539142360783 0.1842191061750523 0 -0.00025262032905044759 0.18559225739494989 0 0.0044347205301438356 0.18700663260860501 0 0.003181539142360783 0.1842191061750523 0 0.017908121217727418 0.17884659444139109 0 0.02878804302993852 0.17298511160402449 0 0.021951525775341849 0.19233603473298419 0 0.02878804302993852 0.17298511160402449 0 0.021951525775341849 0.19233603473298419 0 0.035971017182035721 0.19595199961782719 0 0.017908121217727418 0.17884659444139109 0 0.02878804302993852 0.17298511160402449 0 0.020121854959739539 0.1654310906016046 0 0.021605068877842599 0.15001822359022129 0 0.02878804302993852 0.17298511160402449 0 0.042429097979839112 0.16180633799127389 0 0.021605068877842599 0.15001822359022129 0 0.02878804302993852 0.17298511160402449 0 0.021605068877842599 0.15001822359022129 0 0.02878804302993852 0.17298511160402449 0 0.020121854959739539 0.1654310906016046 0 0.02878804302993852 0.17298511160402449 0 0.042429097979839112 0.16180633799127389 0 0.046567829856050201 0.17615420600324919 0 0.02878804302993852 0.17298511160402449 0 0.035971017182035721 0.19595199961782719 0 0.02878804302993852 0.17298511160402449 0 0.046567829856050201 0.17615420600324919 0 0.035971017182035721 0.19595199961782719 0 0.046567829856050201 0.17615420600324919 0 0.035971017182035721 0.19595199961782719 0 0.06406246796473869 0.18617428017747389 0 0.046567829856050201 0.17615420600324919 0 0.061588523123698932 0.16385330062564629 0 0.06406246796473869 0.18617428017747389 0 0.042429097979839112 0.16180633799127389 0 0.061588523123698932 0.16385330062564629 0 0.058890245511683398 0.14929507625485081 0 0.042429097979839112 0.16180633799127389 0 0.046567829856050201 0.17615420600324919 0 0.061588523123698932 0.16385330062564629 0 0.045176573760037649 0.14438523766814401 0 0.069197657485435507 0.13847941916057471 0 0.058890245511683398 0.14929507625485081 0 0.045176573760037649 0.14438523766814401 0 0.069197657485435507 0.13847941916057471 0 0.042429097979839112 0.16180633799127389 0 0.058890245511683398 0.14929507625485081 0 0.045176573760037649 0.14438523766814401 0 0.057870240120545209 0.11981388041563069 0 0.052177300177192937 0.13263396610011491 0 0.069197657485435507 0.13847941916057471 0 0.057870240120545209 0.11981388041563069 0 0.052177300177192937 0.13263396610011491 0 0.036914308185956278 0.12758449457061841 0 0.052177300177192937 0.13263396610011491 0 0.045176573760037649 0.14438523766814401 0 0.069197657485435507 0.13847941916057471 0 0.052177300177192937 0.13263396610011491 0 0.036914308185956278 0.12758449457061841 0 0.045176573760037649 0.14438523766814401 0 0.021605068877842599 0.15001822359022129 0 0.042429097979839112 0.16180633799127389 0 0.045176573760037649 0.14438523766814401 0 0.021605068877842599 0.15001822359022129 0 0.036914308185956278 0.12758449457061841 0 0.045176573760037649 0.14438523766814401 0 0.021605068877842599 0.15001822359022129 0 0.045176573760037649 0.14438523766814401 0 0.030996760692661909 0.24267850632233659 0 0.014802131818638559 0.24478714921947259 0 0.01950363720937388 0.2582274057835981 0 0.030996760692661909 0.24267850632233659 0 0.01344341362365347 0.22851243680721761 0 0.030996760692661909 0.24267850632233659 0 0.014802131818638559 0.24478714921947259 0 0.01344341362365347 0.22851243680721761 0 0.014802131818638559 0.24478714921947259 0 0.001546354976405674 0.24182248312587751 0 0.01344341362365347 0.22851243680721761 0 0.014802131818638559 0.24478714921947259 0 0.001546354976405674 0.24182248312587751 0 0.0021022769219057442 0.25480250730218768 0 -0.0041099334453547154 0.21434636729209819 0 0.01344341362365347 0.22851243680721761 0 -0.0041099334453547154 0.21434636729209819 0 -0.0010688181069628371 0.22920895513534159 0 0.01344341362365347 0.22851243680721761 0 -0.0010688181069628371 0.22920895513534159 0 0.001546354976405674 0.24182248312587751 0 0.01344341362365347 0.22851243680721761 0 0.01344341362365347 0.22851243680721761 0 0.029301395976285539 0.22682093666257541 0 0.01215781855303351 0.2121471166523296 0 0.030996760692661909 0.24267850632233659 0 0.01344341362365347 0.22851243680721761 0 0.029301395976285539 0.22682093666257541 0 0.029301395976285539 0.22682093666257541 0 0.026390649472226451 0.20807053072455151 0 0.01215781855303351 0.2121471166523296 0 0.026390649472226451 0.20807053072455151 0 0.01215781855303351 0.2121471166523296 0 0.01684977192169735 0.2022875407441527 0 -0.0041099334453547154 0.21434636729209819 0 0.01215781855303351 0.2121471166523296 0 0.006899093886187581 0.19659648086674539 0 -0.0041099334453547154 0.21434636729209819 0 0.006899093886187581 0.19659648086674539 0 -0.0041099334453547154 0.21434636729209819 0 0.01344341362365347 0.22851243680721761 0 0.01215781855303351 0.2121471166523296 0 0.01215781855303351 0.2121471166523296 0 0.006899093886187581 0.19659648086674539 0 0.01684977192169735 0.2022875407441527 0 0.006899093886187581 0.19659648086674539 0 0.021951525775341849 0.19233603473298419 0 0.01684977192169735 0.2022875407441527 0 0.017908121217727418 0.17884659444139109 0 0.006899093886187581 0.19659648086674539 0 -0.011252413899452951 0.20858217461560469 0 0.0044347205301438356 0.18700663260860501 0 0.006899093886187581 0.19659648086674539 0 0.017908121217727418 0.17884659444139109 0 0.006899093886187581 0.19659648086674539 0 0.021951525775341849 0.19233603473298419 0 0.026390649472226451 0.20807053072455151 0 0.021951525775341849 0.19233603473298419 0 0.01684977192169735 0.2022875407441527 0 0.026390649472226451 0.20807053072455151 0 0.021951525775341849 0.19233603473298419 0 0.035971017182035721 0.19595199961782719 0 0.035971017182035721 0.19595199961782719 0 0.0640739699650172 0.20786477559585961 0 0.06406246796473869 0.18617428017747389 0 0.035971017182035721 0.19595199961782719 0 0.043153991334132911 0.21891888763163 0 0.0640739699650172 0.20786477559585961 0 0.043153991334132911 0.21891888763163 0 0.059662681376764351 0.2263576832112271 0 0.0640739699650172 0.20786477559585961 0 0.035971017182035721 0.19595199961782719 0 0.043153991334132911 0.21891888763163 0 0.029301395976285539 0.22682093666257541 0 0.026390649472226451 0.20807053072455151 0 0.043153991334132911 0.21891888763163 0 0.026390649472226451 0.20807053072455151 0 0.035971017182035721 0.19595199961782719 0 0.043153991334132911 0.21891888763163 0 0.043153991334132911 0.21891888763163 0 0.050336965486230123 0.24188577564543279 0 0.029301395976285539 0.22682093666257541 0 0.043153991334132911 0.21891888763163 0 0.050336965486230123 0.24188577564543279 0 0.043153991334132911 0.21891888763163 0 0.059662681376764351 0.2263576832112271 0 0.050336965486230123 0.24188577564543279 0 0.050336965486230123 0.24188577564543279 0 0.067735116739930559 0.23991277386268431 0 0.057519939638322207 0.26485266365923732 0 0.059662681376764351 0.2263576832112271 0 0.050336965486230123 0.24188577564543279 0 0.067735116739930559 0.23991277386268431 0 0.030996760692661909 0.24267850632233659 0 0.048550107761670319 0.25684457583745562 0 0.030996760692661909 0.24267850632233659 0 0.050336965486230123 0.24188577564543279 0 0.048550107761670319 0.25684457583745562 0 0.030996760692661909 0.24267850632233659 0 0.029301395976285539 0.22682093666257541 0 0.050336965486230123 0.24188577564543279 0 0.067735116739930559 0.23991277386268431 0 0.078348807022190853 0.2259866120916284 0 0.096362904213725759 0.24476095872042289 0 0.067735116739930559 0.23991277386268431 0 0.096362904213725759 0.24476095872042289 0 0.076941421926016912 0.25480681118981641 0 0.096362904213725759 0.24476095872042289 0 0.076941421926016912 0.25480681118981641 0 0.059662681376764351 0.2263576832112271 0 0.067735116739930559 0.23991277386268431 0 0.078348807022190853 0.2259866120916284 0 0.059662681376764351 0.2263576832112271 0 0.078348807022190853 0.2259866120916284 0 0.0640739699650172 0.20786477559585961 0 0.078348807022190853 0.2259866120916284 0 0.098208644584271323 0.2240109111677332 0 0.096362904213725759 0.24476095872042289 0 0.078348807022190853 0.2259866120916284 0 0.088565744568406463 0.20660840525364779 0 0.098208644584271323 0.2240109111677332 0 0.078348807022190853 0.2259866120916284 0 0.088565744568406463 0.20660840525364779 0 0.078348807022190853 0.2259866120916284 0 0.088565744568406463 0.20660840525364779 0 0.0640739699650172 0.20786477559585961 0 0.0640739699650172 0.20786477559585961 0 0.081948715424201624 0.1907371673925517 0 0.06406246796473869 0.18617428017747389 0 0.088565744568406463 0.20660840525364779 0 0.081948715424201624 0.1907371673925517 0 0.098782682114616577 0.18723019841566421 0 0.088565744568406463 0.20660840525364779 0 0.098782682114616577 0.18723019841566421 0 0.088565744568406463 0.20660840525364779 0 0.0640739699650172 0.20786477559585961 0 0.081948715424201624 0.1907371673925517 0 0.088565744568406463 0.20660840525364779 0 0.1139078995244974 0.21215382597307769 0 0.098782682114616577 0.18723019841566421 0 0.1139078995244974 0.21215382597307769 0 0.098782682114616577 0.18723019841566421 0 0.121871739427974 0.1923922497230072 0 0.1139078995244974 0.21215382597307769 0 0.098782682114616577 0.18723019841566421 0 0.121871739427974 0.1923922497230072 0 0.1139078995244974 0.21215382597307769 0 0.13869417802629619 0.21699976141094179 0 0.088565744568406463 0.20660840525364779 0 0.1139078995244974 0.21215382597307769 0 0.098208644584271323 0.2240109111677332 0 0.1139078995244974 0.21215382597307769 0 0.098208644584271323 0.2240109111677332 0 0.1104602694200037 0.23317464472517491 0 0.098208644584271323 0.2240109111677332 0 0.1104602694200037 0.23317464472517491 0 0.096362904213725759 0.24476095872042289 0 0.1139078995244974 0.21215382597307769 0 0.12903311693438091 0.23707745353048951 0 0.1139078995244974 0.21215382597307769 0 0.1104602694200037 0.23317464472517491 0 0.12903311693438091 0.23707745353048951 0 0.1104602694200037 0.23317464472517491 0 0.1147887818431431 0.24787007423415131 0 0.12903311693438091 0.23707745353048951 0 0.1104602694200037 0.23317464472517491 0 0.1147887818431431 0.24787007423415131 0 0.096362904213725759 0.24476095872042289 0 0.071507720785234777 0.14228598641564241 0 0.085145201449924365 0.16475809241565431 0 0.09546622100757296 0.14518247586106861 0 0.071507720785234777 0.14228598641564241 0 0.085145201449924365 0.16475809241565431 0 0.077116737167053584 0.1172889807238653 0 0.093677103499700071 0.1264647034084235 0 0.076668230564059109 0.1324981781383496 0 0.093677103499700071 0.1264647034084235 0 0.076668230564059109 0.1324981781383496 0 0.09546622100757296 0.14518247586106861 0 0.076668230564059109 0.1324981781383496 0 0.09546622100757296 0.14518247586106861 0 0.076668230564059109 0.1324981781383496 0 0.071507720785234777 0.14228598641564241 0 0.09546622100757296 0.14518247586106861 0 0.076668230564059109 0.1324981781383496 0 0.069197657485435507 0.13847941916057471 0 0.071507720785234777 0.14228598641564241 0 0.057870240120545209 0.11981388041563069 0 0.069197657485435507 0.13847941916057471 0 0.057870240120545209 0.11981388041563069 0 0.076668230564059109 0.1324981781383496 0 0.069197657485435507 0.13847941916057471 0 0.057870240120545209 0.11981388041563069 0 0.076668230564059109 0.1324981781383496 0 0.069197657485435507 0.13847941916057471 0 0.071507720785234777 0.14228598641564241 0 0.061588523123698932 0.16385330062564629 0 0.058890245511683398 0.14929507625485081 0 0.071507720785234777 0.14228598641564241 0 0.058890245511683398 0.14929507625485081 0 0.069197657485435507 0.13847941916057471 0 0.071507720785234777 0.14228598641564241 0 0.061588523123698932 0.16385330062564629 0 0.071507720785234777 0.14228598641564241 0 0.085145201449924365 0.16475809241565431 0 0.061588523123698932 0.16385330062564629 0 0.06406246796473869 0.18617428017747389 0 0.085145201449924365 0.16475809241565431 0 0.081948715424201624 0.1907371673925517 0 0.06406246796473869 0.18617428017747389 0 0.085145201449924365 0.16475809241565431 0 0.085145201449924365 0.16475809241565431 0 0.098782682114616577 0.18723019841566421 0 0.081948715424201624 0.1907371673925517 0 0.085145201449924365 0.16475809241565431 0 0.098782682114616577 0.18723019841566421 0 0.085145201449924365 0.16475809241565431 0 0.099505889465101652 0.1594670883494988 0 0.09546622100757296 0.14518247586106861 0 0.085145201449924365 0.16475809241565431 0 0.099505889465101652 0.1594670883494988 0 0.10652344678285521 0.17254848599972761 0 0.099505889465101652 0.1594670883494988 0 0.10652344678285521 0.17254848599972761 0 0.11426421145108701 0.1578667735837874 0 0.085145201449924365 0.16475809241565431 0 0.098782682114616577 0.18723019841566421 0 0.10652344678285521 0.17254848599972761 0 0.098782682114616577 0.18723019841566421 0 0.10652344678285521 0.17254848599972761 0 0.1195318665511933 0.17772271776821269 0 0.098782682114616577 0.18723019841566421 0 0.10652344678285521 0.17254848599972761 0 0.121871739427974 0.1923922497230072 0 0.098782682114616577 0.18723019841566421 0 0.1195318665511933 0.17772271776821269 0 0.1195318665511933 0.17772271776821269 0 0.11426421145108701 0.1578667735837874 0 0.13271095558265961 0.17031406124907211 0 0.10652344678285521 0.17254848599972761 0 0.1195318665511933 0.17772271776821269 0 0.11426421145108701 0.1578667735837874 0 0.11426421145108701 0.1578667735837874 0 0.13271095558265961 0.17031406124907211 0 0.10652344678285521 0.17254848599972761 0 0.11426421145108701 0.1578667735837874 0 0.11426421145108701 0.1578667735837874 0 0.1244864210801282 0.13847856731975891 0 0.1338057245858576 0.15405923777746799 0 0.11426421145108701 0.1578667735837874 0 0.109027377169461 0.133744272384866 0 0.1244864210801282 0.13847856731975891 0 0.11426421145108701 0.1578667735837874 0 0.1244864210801282 0.13847856731975891 0 0.11426421145108701 0.1578667735837874 0 0.09546622100757296 0.14518247586106861 0 0.109027377169461 0.133744272384866 0 0.099505889465101652 0.1594670883494988 0 0.11426421145108701 0.1578667735837874 0 0.09546622100757296 0.14518247586106861 0 0.11426421145108701 0.1578667735837874 0 0.09546622100757296 0.14518247586106861 0 0.1060584911702588 0.11798265637048271 0 0.093677103499700071 0.1264647034084235 0 0.109027377169461 0.133744272384866 0 0.093677103499700071 0.1264647034084235 0 0.09546622100757296 0.14518247586106861 0 0.109027377169461 0.133744272384866 0 0.120211814808019 0.1164904577656751 0 0.109027377169461 0.133744272384866 0 0.1244864210801282 0.13847856731975891 0 0.1244864210801282 0.13847856731975891 0 0.14846141603528029 0.13884284112906359 0 0.13470863070916811 0.1190903610557298 0 0.1244864210801282 0.13847856731975891 0 0.13470863070916811 0.1190903610557298 0 0.14846141603528029 0.13884284112906359 0 0.14781721329042771 0.1128917366524694 0 0.14846141603528029 0.13884284112906359 0 0.16371743706791961 0.127106245685355 0 0.14781721329042771 0.1128917366524694 0 0.14846141603528029 0.13884284112906359 0 0.1338057245858576 0.15405923777746799 0 0.14910561878013279 0.16479394560565799 0 0.14846141603528029 0.13884284112906359 0 0.14910561878013279 0.16479394560565799 0 0.14846141603528029 0.13884284112906359 0 0.14910561878013279 0.16479394560565799 0 0.16018867262563841 0.1559227148777953 0 0.1244864210801282 0.13847856731975891 0 0.14846141603528029 0.13884284112906359 0 0.1338057245858576 0.15405923777746799 0 0.11426421145108701 0.1578667735837874 0 0.1338057245858576 0.15405923777746799 0 0.13271095558265961 0.17031406124907211 0 0.1338057245858576 0.15405923777746799 0 0.13271095558265961 0.17031406124907211 0 0.14910561878013279 0.16479394560565799 0 0.121871739427974 0.1923922497230072 0 0.1195318665511933 0.17772271776821269 0 0.13365607944167959 0.1818207034397715 0 0.1195318665511933 0.17772271776821269 0 0.13271095558265961 0.17031406124907211 0 0.13365607944167959 0.1818207034397715 0 0.13271095558265961 0.17031406124907211 0 0.13365607944167959 0.1818207034397715 0 0.1450475570486017 0.17673692989871859 0 0.1450475570486017 0.17673692989871859 0 0.16206401018686051 0.17290358895967109 0 0.1491182785979695 0.19193755855984679 0 0.13365607944167959 0.1818207034397715 0 0.1450475570486017 0.17673692989871859 0 0.1491182785979695 0.19193755855984679 0 0.1450475570486017 0.17673692989871859 0 0.14910561878013279 0.16479394560565799 0 0.16206401018686051 0.17290358895967109 0 0.13271095558265961 0.17031406124907211 0 0.1450475570486017 0.17673692989871859 0 0.14910561878013279 0.16479394560565799 0 0.14910561878013279 0.16479394560565799 0 0.16206401018686051 0.17290358895967109 0 0.16018867262563841 0.1559227148777953 0 0.16206401018686051 0.17290358895967109 0 0.1740329128055921 0.15929073062163229 0 0.16018867262563841 0.1559227148777953 0 0.16206401018686051 0.17290358895967109 0 0.1740329128055921 0.15929073062163229 0 0.17898122463779059 0.17076302975366631 0 0.16206401018686051 0.17290358895967109 0 0.17406709687003449 0.18456730194792639 0 0.1491182785979695 0.19193755855984679 0 0.16206401018686051 0.17290358895967109 0 0.17406709687003449 0.18456730194792639 0 0.17898122463779059 0.17076302975366631 0 0.17406709687003449 0.18456730194792639 0 0.17898122463779059 0.17076302975366631 0 0.19637610908694089 0.1779320692009134 0 0.1740329128055921 0.15929073062163229 0 0.17898122463779059 0.17076302975366631 0 0.1883659942395253 0.1591214580381882 0 0.1740329128055921 0.15929073062163229 0 0.1796780131623969 0.14785428518463989 0 0.1883659942395253 0.1591214580381882 0 0.1796780131623969 0.14785428518463989 0 0.1912892172255061 0.14318016526826369 0 0.1883659942395253 0.1591214580381882 0 0.1740329128055921 0.15929073062163229 0 0.1796780131623969 0.14785428518463989 0 0.16727940532032609 0.1437824680729517 0 0.1796780131623969 0.14785428518463989 0 0.1774225362210349 0.13389660392216349 0 0.16727940532032609 0.1437824680729517 0 0.1796780131623969 0.14785428518463989 0 0.1774225362210349 0.13389660392216349 0 0.1912892172255061 0.14318016526826369 0 0.1774225362210349 0.13389660392216349 0 0.1895043666122872 0.12708954340363471 0 0.1912892172255061 0.14318016526826369 0 0.1774225362210349 0.13389660392216349 0 0.1895043666122872 0.12708954340363471 0 0.17652714571659919 0.1225207110813805 0 0.1774225362210349 0.13389660392216349 0 0.16371743706791961 0.127106245685355 0 0.17652714571659919 0.1225207110813805 0 0.1774225362210349 0.13389660392216349 0 0.16371743706791961 0.127106245685355 0 0.16727940532032609 0.1437824680729517 0 0.14846141603528029 0.13884284112906359 0 0.16371743706791961 0.127106245685355 0 0.16727940532032609 0.1437824680729517 0 0.14846141603528029 0.13884284112906359 0 0.16018867262563841 0.1559227148777953 0 0.16727940532032609 0.1437824680729517 0 0.1740329128055921 0.15929073062163229 0 0.16018867262563841 0.1559227148777953 0 0.16727940532032609 0.1437824680729517 0 0.15551661662461841 0.24160727309887639 0 0.12903311693438091 0.23707745353048951 0 0.14415833434426439 0.26200108108790121 0 0.1147887818431431 0.24787007423415131 0 0.12903311693438091 0.23707745353048951 0 0.14415833434426439 0.26200108108790121 0 0.12903311693438091 0.23707745353048951 0 0.14415833434426439 0.26200108108790121 0 0.1139078995244974 0.21215382597307769 0 0.12903311693438091 0.23707745353048951 0 0.13869417802629619 0.21699976141094179 0 0.15551661662461841 0.24160727309887639 0 0.13869417802629619 0.21699976141094179 0 0.15551661662461841 0.24160727309887639 0 0.12903311693438091 0.23707745353048951 0 0.13869417802629619 0.21699976141094179 0 0.15551661662461841 0.24160727309887639 0 0.13869417802629619 0.21699976141094179 0 0.1672342722793646 0.22877712893256161 0 0.13869417802629619 0.21699976141094179 0 0.1491182785979695 0.19193755855984679 0 0.16526605163546679 0.2117628170955087 0 0.121871739427974 0.1923922497230072 0 0.13869417802629619 0.21699976141094179 0 0.121871739427974 0.1923922497230072 0 0.13365607944167959 0.1818207034397715 0 0.1491182785979695 0.19193755855984679 0 0.121871739427974 0.1923922497230072 0 0.13869417802629619 0.21699976141094179 0 0.1491182785979695 0.19193755855984679 0 0.17406709687003449 0.18456730194792639 0 0.1491182785979695 0.19193755855984679 0 0.16479546500901629 0.1966605907563036 0 0.1491182785979695 0.19193755855984679 0 0.16479546500901629 0.1966605907563036 0 0.16526605163546679 0.2117628170955087 0 0.17406709687003449 0.18456730194792639 0 0.16479546500901629 0.1966605907563036 0 0.18780760175822139 0.2012971788451631 0 0.17406709687003449 0.18456730194792639 0 0.18780760175822139 0.2012971788451631 0 0.19637610908694089 0.1779320692009134 0 0.16526605163546679 0.2117628170955087 0 0.1882250181538363 0.22514099487256931 0 0.18780760175822139 0.2012971788451631 0 0.16479546500901629 0.1966605907563036 0 0.16526605163546679 0.2117628170955087 0 0.18780760175822139 0.2012971788451631 0 0.13869417802629619 0.21699976141094179 0 0.16526605163546679 0.2117628170955087 0 0.1672342722793646 0.22877712893256161 0 0.16526605163546679 0.2117628170955087 0 0.1672342722793646 0.22877712893256161 0 0.1882250181538363 0.22514099487256931 0 0.1672342722793646 0.22877712893256161 0 0.17939746381074739 0.23843744182659929 0 0.1882250181538363 0.22514099487256931 0 0.15551661662461841 0.24160727309887639 0 0.17939746381074739 0.23843744182659929 0 0.18436284550824189 0.25477096691964168 0 0.17939746381074739 0.23843744182659929 0 0.19546047625603399 0.24492919888611711 0 0.18436284550824189 0.25477096691964168 0 0.15551661662461841 0.24160727309887639 0 0.1672342722793646 0.22877712893256161 0 0.17939746381074739 0.23843744182659929 0 0.21133650828851891 0.23668111909338951 0 0.19546047625603399 0.24492919888611711 0 0.2100679709325658 0.25314684296694617 0 0.21133650828851891 0.23668111909338951 0 0.2100679709325658 0.25314684296694617 0 0.2255124495043215 0.25298522798509959 0 0.21133650828851891 0.23668111909338951 0 0.19546047625603399 0.24492919888611711 0 0.1882250181538363 0.22514099487256931 0 0.17939746381074739 0.23843744182659929 0 0.19546047625603399 0.24492919888611711 0 0.1882250181538363 0.22514099487256931 0 0.21133650828851891 0.23668111909338951 0 0.1882250181538363 0.22514099487256931 0 0.20766331851198089 0.21249458950032671 0 0.21133650828851891 0.23668111909338951 0 0.20766331851198089 0.21249458950032671 0 0.22173059272625509 0.21816101093522791 0 0.20766331851198089 0.21249458950032671 0 0.20890358504619769 0.19739292329801519 0 0.22380372920333269 0.2015610251464017 0 0.20766331851198089 0.21249458950032671 0 0.22380372920333269 0.2015610251464017 0 0.22173059272625509 0.21816101093522791 0 0.1882250181538363 0.22514099487256931 0 0.20766331851198089 0.21249458950032671 0 0.18780760175822139 0.2012971788451631 0 0.20766331851198089 0.21249458950032671 0 0.18780760175822139 0.2012971788451631 0 0.20890358504619769 0.19739292329801519 0 0.18780760175822139 0.2012971788451631 0 0.19637610908694089 0.1779320692009134 0 0.18780760175822139 0.2012971788451631 0 0.20381106679286851 0.18755673140136361 0 0.20890358504619769 0.19739292329801519 0 0.18780760175822139 0.2012971788451631 0 0.20381106679286851 0.18755673140136361 0 0.19637610908694089 0.1779320692009134 0 0.20381106679286851 0.18755673140136361 0 0.20890358504619769 0.19739292329801519 0 0.21570617566415581 0.18756736502197949 0 0.20890358504619769 0.19739292329801519 0 0.21570617566415581 0.18756736502197949 0 0.22380372920333269 0.2015610251464017 0 0.21570617566415581 0.18756736502197949 0 0.22380372920333269 0.2015610251464017 0 0.2296912914606147 0.1813585632014699 0 0.22380372920333269 0.2015610251464017 0 0.2412840529287498 0.202215363022336 0 0.2296912914606147 0.1813585632014699 0 0.2491207205124025 0.18912300576219279 0 0.2412840529287498 0.202215363022336 0 0.2296912914606147 0.1813585632014699 0 0.2491207205124025 0.18912300576219279 0 0.2412840529287498 0.202215363022336 0 0.25176877608350462 0.2008112079738272 0 0.2412840529287498 0.202215363022336 0 0.24952928570714011 0.21318230820655429 0 0.23393188139888721 0.21242785942713729 0 0.24952928570714011 0.21318230820655429 0 0.23393188139888721 0.21242785942713729 0 0.23191752622855541 0.22764046150888431 0 0.2412840529287498 0.202215363022336 0 0.24952928570714011 0.21318230820655429 0 0.25176877608350462 0.2008112079738272 0 0.22380372920333269 0.2015610251464017 0 0.2412840529287498 0.202215363022336 0 0.23393188139888721 0.21242785942713729 0 0.22380372920333269 0.2015610251464017 0 0.23393188139888721 0.21242785942713729 0 0.22173059272625509 0.21816101093522791 0 0.21133650828851891 0.23668111909338951 0 0.22173059272625509 0.21816101093522791 0 0.23191752622855541 0.22764046150888431 0 0.23393188139888721 0.21242785942713729 0 0.22173059272625509 0.21816101093522791 0 0.23191752622855541 0.22764046150888431 0 0.23288911456170311 0.24337006429245009 0 0.2500150798737153 0.22104710959833829 0 0.24952928570714011 0.21318230820655429 0 0.23191752622855541 0.22764046150888431 0 0.2500150798737153 0.22104710959833829 0 0.23191752622855541 0.22764046150888431 0 0.23288911456170311 0.24337006429245009 0 0.2500150798737153 0.22104710959833829 0 0.24952928570714011 0.21318230820655429 0 0.23191752622855541 0.22764046150888431 0 0.23288911456170311 0.24337006429245009 0 0.25933000645894172 0.25157611021901422 0 0.25384493972390137 0.2445466193227451 0 0.23288911456170311 0.24337006429245009 0 0.25933000645894172 0.25157611021901422 0 0.23288911456170311 0.24337006429245009 0 0.25384493972390137 0.2445466193227451 0 0.2500150798737153 0.22104710959833829 0 0.21133650828851891 0.23668111909338951 0 0.23288911456170311 0.24337006429245009 0 0.21133650828851891 0.23668111909338951 0 0.23288911456170311 0.24337006429245009 0 0.2255124495043215 0.25298522798509959 0 0.21133650828851891 0.23668111909338951 0 0.23191752622855541 0.22764046150888431 0 0.23288911456170311 0.24337006429245009 0 0.23288911456170311 0.24337006429245009 0 0.2255124495043215 0.25298522798509959 0 0.20494461641566031 0.1545669595566638 0 0.20614274544796801 0.13228283284603259 0 0.19832023007562519 0.13686686507627249 0 0.20494461641566031 0.1545669595566638 0 0.21351312374437981 0.13120184991241429 0 0.21968689743521261 0.14719055647258761 0 0.20494461641566031 0.1545669595566638 0 0.2224232997449079 0.1627419166455927 0 0.21968689743521261 0.14719055647258761 0 0.20494461641566031 0.1545669595566638 0 0.21351312374437981 0.13120184991241429 0 0.20494461641566031 0.1545669595566638 0 0.21351312374437981 0.13120184991241429 0 0.20614274544796801 0.13228283284603259 0 0.21351312374437981 0.13120184991241429 0 0.20981250461080581 0.12617315222585121 0 0.215886811636811 0.1247291381856014 0 0.21351312374437981 0.13120184991241429 0 0.215886811636811 0.1247291381856014 0 0.20981250461080581 0.12617315222585121 0 0.20614274544796801 0.13228283284603259 0 0.19972020467670451 0.1272148243067675 0 0.21351312374437981 0.13120184991241429 0 0.20981250461080581 0.12617315222585121 0 0.20614274544796801 0.13228283284603259 0 0.21351312374437981 0.13120184991241429 0 0.20614274544796801 0.13228283284603259 0 0.19832023007562519 0.13686686507627249 0 0.1895043666122872 0.12708954340363471 0 0.1912892172255061 0.14318016526826369 0 0.20614274544796801 0.13228283284603259 0 0.19832023007562519 0.13686686507627249 0 0.19972020467670451 0.1272148243067675 0 0.19832023007562519 0.13686686507627249 0 0.19972020467670451 0.1272148243067675 0 0.1895043666122872 0.12708954340363471 0 0.20494461641566031 0.1545669595566638 0 0.1912892172255061 0.14318016526826369 0 0.1883659942395253 0.1591214580381882 0 0.20494461641566031 0.1545669595566638 0 0.19832023007562519 0.13686686507627249 0 0.1912892172255061 0.14318016526826369 0 0.20494461641566031 0.1545669595566638 0 0.19637610908694089 0.1779320692009134 0 0.20494461641566031 0.1545669595566638 0 0.1883659942395253 0.1591214580381882 0 0.19637610908694089 0.1779320692009134 0 0.17898122463779059 0.17076302975366631 0 0.1883659942395253 0.1591214580381882 0 0.19637610908694089 0.1779320692009134 0 0.21570617566415581 0.18756736502197949 0 0.21026186240882699 0.173594120640747 0 0.2296912914606147 0.1813585632014699 0 0.20381106679286851 0.18755673140136361 0 0.19637610908694089 0.1779320692009134 0 0.21026186240882699 0.173594120640747 0 0.20381106679286851 0.18755673140136361 0 0.21570617566415581 0.18756736502197949 0 0.21026186240882699 0.173594120640747 0 0.20494461641566031 0.1545669595566638 0 0.21026186240882699 0.173594120640747 0 0.2224232997449079 0.1627419166455927 0 0.20494461641566031 0.1545669595566638 0 0.19637610908694089 0.1779320692009134 0 0.21026186240882699 0.173594120640747 0 0.2224232997449079 0.1627419166455927 0 0.2296912914606147 0.1813585632014699 0 0.23812986829607311 0.169798899755152 0 0.2224232997449079 0.1627419166455927 0 0.23812986829607311 0.169798899755152 0 0.23385117867087901 0.15252239059140399 0 0.21026186240882699 0.173594120640747 0 0.2224232997449079 0.1627419166455927 0 0.2296912914606147 0.1813585632014699 0 0.21026186240882699 0.173594120640747 0 0.2296912914606147 0.1813585632014699 0 0.2491207205124025 0.18912300576219279 0 0.2296912914606147 0.1813585632014699 0 0.2491207205124025 0.18912300576219279 0 0.2296912914606147 0.1813585632014699 0 0.23812986829607311 0.169798899755152 0 0.2491207205124025 0.18912300576219279 0 0.23812986829607311 0.169798899755152 0 0.25301653249277928 0.16364512933074629 0 0.23812986829607311 0.169798899755152 0 0.23385117867087901 0.15252239059140399 0 0.25301653249277928 0.16364512933074629 0 0.2489748085747415 0.14238586728697381 0 0.23385117867087901 0.15252239059140399 0 0.23030041963465681 0.13968313959015369 0 0.2489748085747415 0.14238586728697381 0 0.23385117867087901 0.15252239059140399 0 0.25301653249277928 0.16364512933074629 0 0.23385117867087901 0.15252239059140399 0 0.21968689743521261 0.14719055647258761 0 0.23030041963465681 0.13968313959015369 0 0.2224232997449079 0.1627419166455927 0 0.23385117867087901 0.15252239059140399 0 0.21968689743521261 0.14719055647258761 0 0.21351312374437981 0.13120184991241429 0 0.23877516526528131 0.12749677065403409 0 0.215886811636811 0.1247291381856014 0 0.21351312374437981 0.13120184991241429 0 0.23030041963465681 0.13968313959015369 0 0.23877516526528131 0.12749677065403409 0 0.21351312374437981 0.13120184991241429 0 0.23877516526528131 0.12749677065403409 0 0.21351312374437981 0.13120184991241429 0 0.21968689743521261 0.14719055647258761 0 0.23030041963465681 0.13968313959015369 0 0.2489748085747415 0.14238586728697381 0 0.23030041963465681 0.13968313959015369 0 0.23877516526528131 0.12749677065403409 0 0.23877516526528131 0.12749677065403409 0 0.23495450005877611 0.1044865158052177 0 0.25311691439803963 0.1010492937196204 0 0.23495450005877611 0.1044865158052177 0 0.23496177546886571 0.091843212388845769 0 0.25311691439803963 0.1010492937196204 0 0.23495450005877611 0.1044865158052177 0 0.2216819852657666 0.096969827741350656 0 0.22342590689342959 0.11286185729457569 0 0.2216819852657666 0.096969827741350656 0 0.22342590689342959 0.11286185729457569 0 0.21441456230315339 0.10822515453531931 0 0.23495450005877611 0.1044865158052177 0 0.2216819852657666 0.096969827741350656 0 0.23496177546886571 0.091843212388845769 0 0.23877516526528131 0.12749677065403409 0 0.22342590689342959 0.11286185729457569 0 0.215886811636811 0.1247291381856014 0 0.23877516526528131 0.12749677065403409 0 0.23495450005877611 0.1044865158052177 0 0.22342590689342959 0.11286185729457569 0 0.20981250461080581 0.12617315222585121 0 0.2124449298713931 0.1176806438854041 0 0.215886811636811 0.1247291381856014 0 0.22342590689342959 0.11286185729457569 0 0.2124449298713931 0.1176806438854041 0 0.215886811636811 0.1247291381856014 0 0.20981250461080581 0.12617315222585121 0 0.19972020467670451 0.1272148243067675 0 0.2054265681453383 0.1210349104478006 0 0.20981250461080581 0.12617315222585121 0 0.2124449298713931 0.1176806438854041 0 0.2054265681453383 0.1210349104478006 0 0.2054265681453383 0.1210349104478006 0 0.20663921944211219 0.1126512639784088 0 0.19739428049816521 0.11524984017185259 0 0.2124449298713931 0.1176806438854041 0 0.2054265681453383 0.1210349104478006 0 0.20663921944211219 0.1126512639784088 0 0.2124449298713931 0.1176806438854041 0 0.20663921944211219 0.1126512639784088 0 0.21441456230315339 0.10822515453531931 0 0.22342590689342959 0.11286185729457569 0 0.2124449298713931 0.1176806438854041 0 0.21441456230315339 0.10822515453531931 0 0.2216819852657666 0.096969827741350656 0 0.21441456230315339 0.10822515453531931 0 0.2035157563925106 0.10106577085166719 0 0.2216819852657666 0.096969827741350656 0 0.2035157563925106 0.10106577085166719 0 0.2118776095043248 0.08713472037693247 0 0.20663921944211219 0.1126512639784088 0 0.21441456230315339 0.10822515453531931 0 0.2035157563925106 0.10106577085166719 0 0.2035157563925106 0.10106577085166719 0 0.1912499115197244 0.10611490640642759 0 0.19739428049816521 0.11524984017185259 0 0.2035157563925106 0.10106577085166719 0 0.19888288467733259 0.087557871944677956 0 0.1871913883155433 0.094760398300485577 0 0.2035157563925106 0.10106577085166719 0 0.1912499115197244 0.10611490640642759 0 0.1871913883155433 0.094760398300485577 0 0.1912499115197244 0.10611490640642759 0 0.19739428049816521 0.11524984017185259 0 0.18397245201889301 0.1139667288199863 0 0.1895043666122872 0.12708954340363471 0 0.19739428049816521 0.11524984017185259 0 0.18397245201889301 0.1139667288199863 0 0.19972020467670451 0.1272148243067675 0 0.2054265681453383 0.1210349104478006 0 0.19739428049816521 0.11524984017185259 0 0.19972020467670451 0.1272148243067675 0 0.1895043666122872 0.12708954340363471 0 0.19739428049816521 0.11524984017185259 0 0.20663921944211219 0.1126512639784088 0 0.2035157563925106 0.10106577085166719 0 0.19739428049816521 0.11524984017185259 0 0.1935453454885307 0.063003581492086208 0 0.20454382237704921 0.075774917405237466 0 0.21101901830707359 0.062055273380532613 0 0.1935453454885307 0.063003581492086208 0 0.20454382237704921 0.075774917405237466 0 0.18728584679723509 0.079053552789066964 0 0.19888288467733259 0.087557871944677956 0 0.20454382237704921 0.075774917405237466 0 0.18728584679723509 0.079053552789066964 0 0.19888288467733259 0.087557871944677956 0 0.1871913883155433 0.094760398300485577 0 0.18728584679723509 0.079053552789066964 0 0.19888288467733259 0.087557871944677956 0 0.2118776095043248 0.08713472037693247 0 0.20454382237704921 0.075774917405237466 0 0.2118776095043248 0.08713472037693247 0 0.20454382237704921 0.075774917405237466 0 0.2228588556118504 0.078403528634448966 0 0.2035157563925106 0.10106577085166719 0 0.19888288467733259 0.087557871944677956 0 0.2118776095043248 0.08713472037693247 0 0.20454382237704921 0.075774917405237466 0 0.2228588556118504 0.078403528634448966 0 0.21101901830707359 0.062055273380532613 0 0.2228588556118504 0.078403528634448966 0 0.2296436284198182 0.057991723770036717 0 0.21101901830707359 0.062055273380532613 0 0.23432205947910401 0.065563075755308092 0 0.2228588556118504 0.078403528634448966 0 0.24219662200989631 0.07830689604359084 0 0.23432205947910401 0.065563075755308092 0 0.2228588556118504 0.078403528634448966 0 0.2296436284198182 0.057991723770036717 0 0.23432205947910401 0.065563075755308092 0 0.2338222864518667 0.060866660675907583 0 0.2216819852657666 0.096969827741350656 0 0.2228588556118504 0.078403528634448966 0 0.23496177546886571 0.091843212388845769 0 0.2228588556118504 0.078403528634448966 0 0.23496177546886571 0.091843212388845769 0 0.24219662200989631 0.07830689604359084 0 0.2216819852657666 0.096969827741350656 0 0.2118776095043248 0.08713472037693247 0 0.2228588556118504 0.078403528634448966 0 0.24219662200989631 0.07830689604359084 0 0.25311691439803963 0.1010492937196204 0 0.24219662200989631 0.07830689604359084 0 0.25025696560716282 0.070440101888901763 0 0.25134549599301542 0.093113001833606171 0 0.24219662200989631 0.07830689604359084 0 0.25134549599301542 0.093113001833606171 0 0.25311691439803963 0.1010492937196204 0 0.23496177546886571 0.091843212388845769 0 0.24219662200989631 0.07830689604359084 0 0.25311691439803963 0.1010492937196204 0 0.24219662200989631 0.07830689604359084 0 0.25134549599301542 0.093113001833606171 0 0.24219662200989631 0.07830689604359084 0 0.2338222864518667 0.060866660675907583 0 0.25025696560716282 0.070440101888901763 0 0.24219662200989631 0.07830689604359084 0 0.2338222864518667 0.060866660675907583 0 0.23432205947910401 0.065563075755308092 0 0.24219662200989631 0.07830689604359084 0 0.2338222864518667 0.060866660675907583 0 0.23432205947910401 0.065563075755308092 0 0.24219662200989631 0.07830689604359084 0 0.24146536745794861 0.044043188993151169 0 0.23396998939131999 0.040190518210058333 0 0.2338222864518667 0.060866660675907583 0 0.24146536745794861 0.044043188993151169 0 0.2338222864518667 0.060866660675907583 0 0.25025696560716282 0.070440101888901763 0 0.24146536745794861 0.044043188993151169 0 0.25345862362690841 0.055986016951952537 0 0.25025696560716282 0.070440101888901763 0 0.24146536745794861 0.044043188993151169 0 0.25025696560716282 0.070440101888901763 0 0.24146536745794861 0.044043188993151169 0 0.23396998939131999 0.040190518210058333 0 0.25872593932393612 0.043392034392084333 0 0.23396998939131999 0.040190518210058333 0 0.25872593932393612 0.043392034392084333 0 0.24898720323988541 0.033178416017642383 0 0.23396998939131999 0.040190518210058333 0 0.25872593932393612 0.043392034392084333 0 0.24898720323988541 0.033178416017642383 0 0.23896680758935041 0.032101947244611899 0 0.23396998939131999 0.040190518210058333 0 0.23896680758935041 0.032101947244611899 0 0.23396998939131999 0.040190518210058333 0 0.2307987287914042 0.037220651344788358 0 0.22449360429853851 0.041438920851406803 0 0.2307987287914042 0.037220651344788358 0 0.21516492214520791 0.022011181026907061 0 0.22449360429853851 0.041438920851406803 0 0.2296436284198182 0.057991723770036717 0 0.2170906348297395 0.037676551496482802 0 0.22449360429853851 0.041438920851406803 0 0.2307987287914042 0.037220651344788358 0 0.2338222864518667 0.060866660675907583 0 0.22449360429853851 0.041438920851406803 0 0.21516492214520791 0.022011181026907061 0 0.22449360429853851 0.041438920851406803 0 0.21516492214520791 0.022011181026907061 0 0.2170906348297395 0.037676551496482802 0 0.23396998939131999 0.040190518210058333 0 0.2307987287914042 0.037220651344788358 0 0.2338222864518667 0.060866660675907583 0 0.2296436284198182 0.057991723770036717 0 0.2170906348297395 0.037676551496482802 0 0.22449360429853851 0.041438920851406803 0 0.2338222864518667 0.060866660675907583 0 0.2307987287914042 0.037220651344788358 0 0.2338222864518667 0.060866660675907583 0 0.22449360429853851 0.041438920851406803 0 0.2296436284198182 0.057991723770036717 0 0.2338222864518667 0.060866660675907583 0 0.2296436284198182 0.057991723770036717 0 0.21489763372500659 0.05145377534247992 0 0.2170906348297395 0.037676551496482802 0 0.23432205947910401 0.065563075755308092 0 0.2296436284198182 0.057991723770036717 0 0.23432205947910401 0.065563075755308092 0 0.2296436284198182 0.057991723770036717 0 0.2338222864518667 0.060866660675907583 0 0.24033510085611709 0.0080481825854214067 0 0.22777517113094431 0.01357464201366879 0 0.2361617531247045 -0.001793522683003997 0 0.24033510085611709 0.0080481825854214067 0 0.2471597475602246 -0.0042098564474911636 0 0.2361617531247045 -0.001793522683003997 0 0.24033510085611709 0.0080481825854214067 0 0.25099497988274638 0.0064577458443076993 0 0.2471597475602246 -0.0042098564474911636 0 0.2470455162795947 0.01469040919898796 0 0.24033510085611709 0.0080481825854214067 0 0.25099497988274638 0.0064577458443076993 0 0.24033510085611709 0.0080481825854214067 0 0.23785633878351861 0.021498397417035839 0 0.22777517113094431 0.01357464201366879 0 0.2470455162795947 0.01469040919898796 0 0.24033510085611709 0.0080481825854214067 0 0.23785633878351861 0.021498397417035839 0 0.23896680758935041 0.032101947244611899 0 0.2307987287914042 0.037220651344788358 0 0.23785633878351861 0.021498397417035839 0 0.2470455162795947 0.01469040919898796 0 0.23785633878351861 0.021498397417035839 0 0.24784890528390521 0.023156895577430951 0 0.2470455162795947 0.01469040919898796 0 0.24784890528390521 0.023156895577430951 0 0.25474360592552853 0.01481755191828278 0 0.24898720323988541 0.033178416017642383 0 0.24784890528390521 0.023156895577430951 0 0.24275056831936179 0.02825450963058777 0 0.24898720323988541 0.033178416017642383 0 0.23896680758935041 0.032101947244611899 0 0.24275056831936179 0.02825450963058777 0 0.23785633878351861 0.021498397417035839 0 0.24784890528390521 0.023156895577430951 0 0.24275056831936179 0.02825450963058777 0 0.23896680758935041 0.032101947244611899 0 0.23785633878351861 0.021498397417035839 0 0.24275056831936179 0.02825450963058777 0 0.2307987287914042 0.037220651344788358 0 0.23785633878351861 0.021498397417035839 0 0.22777517113094431 0.01357464201366879 0 0.2307987287914042 0.037220651344788358 0 0.22777517113094431 0.01357464201366879 0 0.21516492214520791 0.022011181026907061 0 0.2307987287914042 0.037220651344788358 0 0.22777517113094431 0.01357464201366879 0 0.22777517113094431 0.01357464201366879 0 0.21802032041234901 0.0037211667715176091 0 0.2247516134704845 -0.01007136731745076 0 0.22777517113094431 0.01357464201366879 0 0.2361617531247045 -0.001793522683003997 0 0.2247516134704845 -0.01007136731745076 0 0.22777517113094431 0.01357464201366879 0 0.21802032041234901 0.0037211667715176091 0 0.21516492214520791 0.022011181026907061 0 0.22777517113094431 0.01357464201366879 0 0.2247516134704845 -0.01007136731745076 0 0.20583623999187731 0.0025834412024074061 0 0.21516492214520791 0.022011181026907061 0 0.20453764123966109 0.01736137922292872 0 0.20583623999187731 0.0025834412024074061 0 0.21802032041234901 0.0037211667715176091 0 0.21516492214520791 0.022011181026907061 0 0.20583623999187731 0.0025834412024074061 0 0.21516492214520791 0.022011181026907061 0 0.20583623999187731 0.0025834412024074061 0 0.20453764123966109 0.01736137922292872 0 0.21516492214520791 0.022011181026907061 0 0.20453764123966109 0.01736137922292872 0 0.2170906348297395 0.037676551496482802 0 0.20453764123966109 0.01736137922292872 0 0.2170906348297395 0.037676551496482802 0 0.20318744729152821 0.032726465972898078 0 0.20453764123966109 0.01736137922292872 0 0.2170906348297395 0.037676551496482802 0 0.20453764123966109 0.01736137922292872 0 0.20318744729152821 0.032726465972898078 0 0.20453764123966109 0.01736137922292872 0 0.1934946504078435 0.025033154133055079 0 0.20318744729152821 0.032726465972898078 0 0.1934946504078435 0.025033154133055079 0 0.19211039227765669 0.036080624925994682 0 0.17942618474983341 0.022896598259985919 0 0.1934946504078435 0.025033154133055079 0 0.1904909139827124 0.01420000755077565 0 0.17942618474983341 0.022896598259985919 0 0.20453764123966109 0.01736137922292872 0 0.1934946504078435 0.025033154133055079 0 0.1904909139827124 0.01420000755077565 0 0.1904909139827124 0.01420000755077565 0 0.1956107411484494 0.0029145055015004332 0 0.17938535236777481 0.0027944006364079761 0 0.20453764123966109 0.01736137922292872 0 0.1956107411484494 0.0029145055015004332 0 0.20453764123966109 0.01736137922292872 0 0.1904909139827124 0.01420000755077565 0 0.1956107411484494 0.0029145055015004332 0 0.20583623999187731 0.0025834412024074061 0 0.20453764123966109 0.01736137922292872 0 0.1956107411484494 0.0029145055015004332 0 0.2296436284198182 0.057991723770036717 0 0.21101901830707359 0.062055273380532613 0 0.21489763372500659 0.05145377534247992 0 0.21101901830707359 0.062055273380532613 0 0.21489763372500659 0.05145377534247992 0 0.20183725334339489 0.048091552722867498 0 0.21489763372500659 0.05145377534247992 0 0.2170906348297395 0.037676551496482802 0 0.20183725334339489 0.048091552722867498 0 0.2170906348297395 0.037676551496482802 0 0.20318744729152821 0.032726465972898078 0 0.20183725334339489 0.048091552722867498 0 0.20318744729152821 0.032726465972898078 0 0.20183725334339489 0.048091552722867498 0 0.19211039227765669 0.036080624925994682 0 0.20183725334339489 0.048091552722867498 0 0.18146230776438921 0.044726172770816273 0 0.20318744729152821 0.032726465972898078 0 0.19211039227765669 0.036080624925994682 0 0.20183725334339489 0.048091552722867498 0 0.1934946504078435 0.025033154133055079 0 0.20318744729152821 0.032726465972898078 0 0.19211039227765669 0.036080624925994682 0 0.1935453454885307 0.063003581492086208 0 0.20183725334339489 0.048091552722867498 0 0.18146230776438921 0.044726172770816273 0 0.1935453454885307 0.063003581492086208 0 0.21101901830707359 0.062055273380532613 0 0.20183725334339489 0.048091552722867498 0 0.17704955745565421 0.062213082836407363 0 0.18146230776438921 0.044726172770816273 0 0.16313197808258861 0.051371843488125499 0 0.1935453454885307 0.063003581492086208 0 0.17704955745565421 0.062213082836407363 0 0.18146230776438921 0.044726172770816273 0 0.19211039227765669 0.036080624925994682 0 0.18146230776438921 0.044726172770816273 0 0.17942618474983341 0.022896598259985919 0 0.18146230776438921 0.044726172770816273 0 0.16826942219794719 0.034367364014807229 0 0.17942618474983341 0.022896598259985919 0 0.16826942219794719 0.034367364014807229 0 0.16313197808258861 0.051371843488125499 0 0.14588460505586989 0.035038423222687048 0 0.18146230776438921 0.044726172770816273 0 0.16826942219794719 0.034367364014807229 0 0.16313197808258861 0.051371843488125499 0 0.17704955745565421 0.062213082836407363 0 0.16313197808258861 0.051371843488125499 0 0.16154148961911949 0.073409021888922246 0 0.16313197808258861 0.051371843488125499 0 0.1465288078007225 0.060989527699281183 0 0.16154148961911949 0.073409021888922246 0 0.17938535236777481 0.0027944006364079761 0 0.17942618474983341 0.022896598259985919 0 0.16425275925440139 0.0057972351868864763 0 0.1904909139827124 0.01420000755077565 0 0.17938535236777481 0.0027944006364079761 0 0.17942618474983341 0.022896598259985919 0 0.17942618474983341 0.022896598259985919 0 0.1584365930047556 0.0217432882981984 0 0.16425275925440139 0.0057972351868864763 0 0.16826942219794719 0.034367364014807229 0 0.17942618474983341 0.022896598259985919 0 0.1584365930047556 0.0217432882981984 0 0.16826942219794719 0.034367364014807229 0 0.1584365930047556 0.0217432882981984 0 0.14588460505586989 0.035038423222687048 0 0.1584365930047556 0.0217432882981984 0 0.16425275925440139 0.0057972351868864763 0 0.14524040231101731 0.0090873187460928928 0 0.16425275925440139 0.0057972351868864763 0 0.14524040231101731 0.0090873187460928928 0 0.1513951225051974 -0.0045333370058090999 0 0.14524040231101731 0.0090873187460928928 0 0.1513951225051974 -0.0045333370058090999 0 0.13782170711226721 -0.003679602821842598 0 0.14524040231101731 0.0090873187460928928 0 0.13339656961897511 0.01269598775248857 0 0.14588460505586989 0.035038423222687048 0 0.1584365930047556 0.0217432882981984 0 0.14524040231101731 0.0090873187460928928 0 0.14588460505586989 0.035038423222687048 0 0.14524040231101731 0.0090873187460928928 0 0.14588460505586989 0.035038423222687048 0 0.12743380844766991 0.024261376410783551 0 0.13339656961897511 0.01269598775248857 0 0.14588460505586989 0.035038423222687048 0 0.14524040231101731 0.0090873187460928928 0 0.13339656961897511 0.01269598775248857 0 0.13566439556749521 0.0051779182556460166 0 0.1216211333496255 0.009637607208076996 0 0.12743380844766991 0.024261376410783551 0 0.13339656961897511 0.01269598775248857 0 0.1216211333496255 0.009637607208076996 0 0.13339656961897511 0.01269598775248857 0 0.1261989032277212 0.0026079693458452009 0 0.13339656961897511 0.01269598775248857 0 0.1261989032277212 0.0026079693458452009 0 0.13566439556749521 0.0051779182556460166 0 0.14524040231101731 0.0090873187460928928 0 0.13566439556749521 0.0051779182556460166 0 0.13782170711226721 -0.003679602821842598 0 0.1261989032277212 0.0026079693458452009 0 0.13566439556749521 0.0051779182556460166 0 0.13782170711226721 -0.003679602821842598 0 0.16313197808258861 0.051371843488125499 0 0.1465288078007225 0.060989527699281183 0 0.14588460505586989 0.035038423222687048 0 0.1465288078007225 0.060989527699281183 0 0.14588460505586989 0.035038423222687048 0 0.1465288078007225 0.060989527699281183 0 0.14588460505586989 0.035038423222687048 0 0.12874492345406871 0.042423756310692548 0 0.12743380844766991 0.024261376410783551 0 0.14588460505586989 0.035038423222687048 0 0.12874492345406871 0.042423756310692548 0 0.1465288078007225 0.060989527699281183 0 0.12874492345406871 0.042423756310692548 0 0.12597500637704179 0.063456803070288448 0 0.1465288078007225 0.060989527699281183 0 0.12597500637704179 0.063456803070288448 0 0.1297420299519457 0.083512858990461514 0 0.1465288078007225 0.060989527699281183 0 0.14717301054557511 0.08694063217587529 0 0.1465288078007225 0.060989527699281183 0 0.14717301054557511 0.08694063217587529 0 0.16154148961911949 0.073409021888922246 0 0.1465288078007225 0.060989527699281183 0 0.14717301054557511 0.08694063217587529 0 0.1297420299519457 0.083512858990461514 0 0.14717301054557511 0.08694063217587529 0 0.1297420299519457 0.083512858990461514 0 0.13425392639330311 0.1026690202795485 0 0.1227615119436771 0.099160115349369526 0 0.1297420299519457 0.083512858990461514 0 0.13425392639330311 0.1026690202795485 0 0.120211814808019 0.1164904577656751 0 0.1227615119436771 0.099160115349369526 0 0.13425392639330311 0.1026690202795485 0 0.120211814808019 0.1164904577656751 0 0.1244864210801282 0.13847856731975891 0 0.13470863070916811 0.1190903610557298 0 0.13425392639330311 0.1026690202795485 0 0.13470863070916811 0.1190903610557298 0 0.14781721329042771 0.1128917366524694 0 0.120211814808019 0.1164904577656751 0 0.13425392639330311 0.1026690202795485 0 0.13470863070916811 0.1190903610557298 0 0.14846141603528029 0.13884284112906359 0 0.13470863070916811 0.1190903610557298 0 0.14781721329042771 0.1128917366524694 0 0.14717301054557511 0.08694063217587529 0 0.14781721329042771 0.1128917366524694 0 0.14717301054557511 0.08694063217587529 0 0.14781721329042771 0.1128917366524694 0 0.15782390598150811 0.1006487343899744 0 0.14717301054557511 0.08694063217587529 0 0.13425392639330311 0.1026690202795485 0 0.14781721329042771 0.1128917366524694 0 0.14781721329042771 0.1128917366524694 0 0.15782390598150811 0.1006487343899744 0 0.1680189366628613 0.1105444335757631 0 0.15782390598150811 0.1006487343899744 0 0.1680189366628613 0.1105444335757631 0 0.16828646342716849 0.092218135155789888 0 0.1680189366628613 0.1105444335757631 0 0.1788391864588344 0.1042491331550169 0 0.16828646342716849 0.092218135155789888 0 0.16371743706791961 0.127106245685355 0 0.1680189366628613 0.1105444335757631 0 0.17652714571659919 0.1225207110813805 0 0.16371743706791961 0.127106245685355 0 0.14781721329042771 0.1128917366524694 0 0.1680189366628613 0.1105444335757631 0 0.1680189366628613 0.1105444335757631 0 0.17652714571659919 0.1225207110813805 0 0.18397245201889301 0.1139667288199863 0 0.1680189366628613 0.1105444335757631 0 0.18397245201889301 0.1139667288199863 0 0.1788391864588344 0.1042491331550169 0 0.1895043666122872 0.12708954340363471 0 0.17652714571659919 0.1225207110813805 0 0.18397245201889301 0.1139667288199863 0 0.1788391864588344 0.1042491331550169 0 0.1871913883155433 0.094760398300485577 0 0.16828646342716849 0.092218135155789888 0 0.1912499115197244 0.10611490640642759 0 0.18397245201889301 0.1139667288199863 0 0.1788391864588344 0.1042491331550169 0 0.1912499115197244 0.10611490640642759 0 0.1788391864588344 0.1042491331550169 0 0.1871913883155433 0.094760398300485577 0 0.18728584679723509 0.079053552789066964 0 0.16154148961911949 0.073409021888922246 0 0.16828646342716849 0.092218135155789888 0 0.1871913883155433 0.094760398300485577 0 0.18728584679723509 0.079053552789066964 0 0.16828646342716849 0.092218135155789888 0 0.1935453454885307 0.063003581492086208 0 0.17704955745565421 0.062213082836407363 0 0.18728584679723509 0.079053552789066964 0 0.17704955745565421 0.062213082836407363 0 0.18728584679723509 0.079053552789066964 0 0.16154148961911949 0.073409021888922246 0 0.14717301054557511 0.08694063217587529 0 0.16154148961911949 0.073409021888922246 0 0.16828646342716849 0.092218135155789888 0 0.14717301054557511 0.08694063217587529 0 0.15782390598150811 0.1006487343899744 0 0.16828646342716849 0.092218135155789888 0 0.1002971045671092 0.47607162365764782 0 0.10104103060238991 0.5 0 0.1233521795822832 0.47534509346272952 0 0.10104103060238991 0.5 0 0.1233521795822832 0.47534509346272952 0 0.1310630874019614 0.49999999999998029 0 0.1233521795822832 0.47534509346272952 0 0.1156412717625995 0.45069018692548041 0 0.1002971045671092 0.47607162365764782 0 0.1233521795822832 0.47534509346272952 0 0.1156412717625995 0.45069018692548041 0 0.1233521795822832 0.47534509346272952 0 0.1156412717625995 0.45069018692548041 0 0.12604579967045021 0.44839681128582148 0 0.1196165304270181 0.42777445133438408 0 0.12604579967045021 0.44839681128582148 0 0.1177367500270857 0.43959349922546892 0 0.1196165304270181 0.42777445133438408 0 0.12604579967045021 0.44839681128582148 0 0.1177367500270857 0.43959349922546892 0 0.1156412717625995 0.45069018692548041 0 0.10964339824827569 0.43151254735618949 0 0.1156412717625995 0.45069018692548041 0 0.10964339824827569 0.43151254735618949 0 0.1156412717625995 0.45069018692548041 0 0.12604579967045021 0.44839681128582148 0 0.1177367500270857 0.43959349922546892 0 0.1156412717625995 0.45069018692548041 0 0.12604579967045021 0.44839681128582148 0 0.1156412717625995 0.45069018692548041 0 0.099554400596238879 0.44507646154304192 0 0.087471860041463192 0.45689931464342598 0 0.099554400596238879 0.44507646154304192 0 0.08303551651736274 0.44148562452645029 0 0.10964339824827569 0.43151254735618949 0 0.1156412717625995 0.45069018692548041 0 0.099554400596238879 0.44507646154304192 0 0.10964339824827569 0.43151254735618949 0 0.1156412717625995 0.45069018692548041 0 0.087471860041463192 0.45689931464342598 0 0.1002971045671092 0.47607162365764782 0 0.1156412717625995 0.45069018692548041 0 0.087471860041463192 0.45689931464342598 0 0.087471860041463192 0.45689931464342598 0 0.08303551651736274 0.44148562452645029 0 0.071559364916399013 0.45323802080698539 0 0.099554400596238879 0.44507646154304192 0 0.087471860041463192 0.45689931464342598 0 0.08303551651736274 0.44148562452645029 0 0.08303551651736274 0.44148562452645029 0 0.071559364916399013 0.45323802080698539 0 0.056427634786443352 0.45145870169669378 0 0.08303551651736274 0.44148562452645029 0 0.056427634786443352 0.45145870169669378 0 0.065749003606344142 0.43567088000983212 0 0.08303551651736274 0.44148562452645029 0 0.056427634786443352 0.45145870169669378 0 0.087471860041463192 0.45689931464342598 0 0.071559364916399013 0.45323802080698539 0 0.059302448320326773 0.46310844236137172 0 0.087471860041463192 0.45689931464342598 0 0.059302448320326773 0.46310844236137172 0 0.087471860041463192 0.45689931464342598 0 0.077288316189544126 0.47770257046115411 0 0.059302448320326773 0.46310844236137172 0 0.077288316189544126 0.47770257046115411 0 0.057196733504885057 0.48408353010547961 0 0.059302448320326773 0.46310844236137172 0 0.1002971045671092 0.47607162365764782 0 0.087471860041463192 0.45689931464342598 0 0.077288316189544126 0.47770257046115411 0 0.10104103060238991 0.5 0 0.077288316189544126 0.47770257046115411 0 0.071018973802818408 0.5 0 0.1002971045671092 0.47607162365764782 0 0.10104103060238991 0.5 0 0.077288316189544126 0.47770257046115411 0 0.077288316189544126 0.47770257046115411 0 0.071018973802818408 0.5 0 0.057196733504885057 0.48408353010547961 0 0.071018973802818408 0.5 0 0.057196733504885057 0.48408353010547961 0 0.04099691700324698 0.5 0 0.057196733504885057 0.48408353010547961 0 0.049558195755477583 0.47220002561093583 0 0.059302448320326773 0.46310844236137172 0 0.057196733504885057 0.48408353010547961 0 0.049558195755477583 0.47220002561093583 0 0.037247135306303962 0.47998112572585361 0 0.049558195755477583 0.47220002561093583 0 0.037247135306303962 0.47998112572585361 0 0.043897346494196653 0.46073038856762383 0 0.057196733504885057 0.48408353010547961 0 0.037247135306303962 0.47998112572585361 0 0.04099691700324698 0.5 0 0.037247135306303962 0.47998112572585361 0 0.0033313810052136988 0.4718978639100726 0 0.01097486020367555 0.5 0 0.037247135306303962 0.47998112572585361 0 0.0033313810052136988 0.4718978639100726 0 0.028326918853331901 0.46146119989757278 0 0.037247135306303962 0.47998112572585361 0 0.04099691700324698 0.5 0 0.01097486020367555 0.5 0 -0.0020551185011731788 0.45054070506029809 0 0.015479751767126239 0.44775892075672707 0 0.0050144725327109689 0.4320986370502824 0 -0.0020551185011731788 0.45054070506029809 0 0.0033313810052136988 0.4718978639100726 0 0.015479751767126239 0.44775892075672707 0 0.0033313810052136988 0.4718978639100726 0 0.015479751767126239 0.44775892075672707 0 0.028326918853331901 0.46146119989757278 0 0.028326918853331901 0.46146119989757278 0 0.033394578539273127 0.43362143648006879 0 0.015479751767126239 0.44775892075672707 0 0.028326918853331901 0.46146119989757278 0 0.033394578539273127 0.43362143648006879 0 0.043775887130224823 0.44746332361833913 0 0.050276299037973891 0.43480957487421301 0 0.033394578539273127 0.43362143648006879 0 0.028326918853331901 0.46146119989757278 0 0.043775887130224823 0.44746332361833913 0 0.033394578539273127 0.43362143648006879 0 0.037247135306303962 0.47998112572585361 0 0.028326918853331901 0.46146119989757278 0 0.043897346494196653 0.46073038856762383 0 0.028326918853331901 0.46146119989757278 0 0.043775887130224823 0.44746332361833913 0 0.043897346494196653 0.46073038856762383 0 0.049558195755477583 0.47220002561093583 0 0.043897346494196653 0.46073038856762383 0 0.059302448320326773 0.46310844236137172 0 0.043897346494196653 0.46073038856762383 0 0.059302448320326773 0.46310844236137172 0 0.056427634786443352 0.45145870169669378 0 0.043775887130224823 0.44746332361833913 0 0.043897346494196653 0.46073038856762383 0 0.056427634786443352 0.45145870169669378 0 0.071559364916399013 0.45323802080698539 0 0.059302448320326773 0.46310844236137172 0 0.056427634786443352 0.45145870169669378 0 0.043775887130224823 0.44746332361833913 0 0.056427634786443352 0.45145870169669378 0 0.050276299037973891 0.43480957487421301 0 0.056427634786443352 0.45145870169669378 0 0.050276299037973891 0.43480957487421301 0 0.065749003606344142 0.43567088000983212 0 0.061643849023776627 0.42221442436011031 0 0.050276299037973891 0.43480957487421301 0 0.065749003606344142 0.43567088000983212 0 0.061643849023776627 0.42221442436011031 0 0.038462238225214371 0.40578167306256457 0 0.060510190233211782 0.40582822694787102 0 0.061643849023776627 0.42221442436011031 0 0.050276299037973891 0.43480957487421301 0 0.038462238225214371 0.40578167306256457 0 0.033394578539273127 0.43362143648006879 0 0.038462238225214371 0.40578167306256457 0 0.050276299037973891 0.43480957487421301 0 0.033394578539273127 0.43362143648006879 0 0.038462238225214371 0.40578167306256457 0 0.015479751767126239 0.44775892075672707 0 0.033394578539273127 0.43362143648006879 0 0.020600206609728399 0.42015608389025361 0 0.020600206609728399 0.42015608389025361 0 0.01774486089693748 0.4017218956846289 0 0.038462238225214371 0.40578167306256457 0 0.033394578539273127 0.43362143648006879 0 0.020600206609728399 0.42015608389025361 0 0.038462238225214371 0.40578167306256457 0 0.020600206609728399 0.42015608389025361 0 0.00042449267140891263 0.41049965572570318 0 0.01774486089693748 0.4017218956846289 0 0.020600206609728399 0.42015608389025361 0 0.00042449267140891263 0.41049965572570318 0 0.0050144725327109689 0.4320986370502824 0 0.015479751767126239 0.44775892075672707 0 0.020600206609728399 0.42015608389025361 0 0.0050144725327109689 0.4320986370502824 0 -0.0081722306902861364 0.37476184234240079 0 0.0057941121889391687 0.38870438886197972 0 0.0119649305746187 0.36479686370585201 0 0.0057941121889391687 0.38870438886197972 0 0.023443254789396559 0.3834676768826436 0 0.0119649305746187 0.36479686370585201 0 0.00042449267140891263 0.41049965572570318 0 0.0057941121889391687 0.38870438886197972 0 0.01774486089693748 0.4017218956846289 0 0.01774486089693748 0.4017218956846289 0 0.023443254789396559 0.3834676768826436 0 0.038462238225214371 0.40578167306256457 0 0.0057941121889391687 0.38870438886197972 0 0.01774486089693748 0.4017218956846289 0 0.023443254789396559 0.3834676768826436 0 0.023443254789396559 0.3834676768826436 0 0.043529897911155621 0.37794190964506053 0 0.038462238225214371 0.40578167306256457 0 0.043529897911155621 0.37794190964506053 0 0.038462238225214371 0.40578167306256457 0 0.043529897911155621 0.37794190964506053 0 0.038462238225214371 0.40578167306256457 0 0.05371276285881954 0.39227348754913399 0 0.038462238225214371 0.40578167306256457 0 0.05371276285881954 0.39227348754913399 0 0.060510190233211782 0.40582822694787102 0 0.05371276285881954 0.39227348754913399 0 0.060510190233211782 0.40582822694787102 0 0.069805006452150625 0.39505369833525161 0 0.05371276285881954 0.39227348754913399 0 0.059025417862616211 0.37581221330239128 0 0.069805006452150625 0.39505369833525161 0 0.043529897911155621 0.37794190964506053 0 0.05371276285881954 0.39227348754913399 0 0.059025417862616211 0.37581221330239128 0 0.059025417862616211 0.37581221330239128 0 0.075442760067996897 0.37541546110965229 0 0.069805006452150625 0.39505369833525161 0 0.075442760067996897 0.37541546110965229 0 0.092665631270852158 0.39205613980766663 0 0.075442760067996897 0.37541546110965229 0 0.092665631270852158 0.39205613980766663 0 0.069805006452150625 0.39505369833525161 0 0.075442760067996897 0.37541546110965229 0 0.092665631270852158 0.39205613980766663 0 0.091446543318658244 0.37332980570593671 0 0.092665631270852158 0.39205613980766663 0 0.097120575594281167 0.39147199320395332 0 0.091446543318658244 0.37332980570593671 0 0.088650351368725747 0.40286173594739022 0 0.092665631270852158 0.39205613980766663 0 0.069805006452150625 0.39505369833525161 0 0.092665631270852158 0.39205613980766663 0 0.069805006452150625 0.39505369833525161 0 0.088650351368725747 0.40286173594739022 0 0.069805006452150625 0.39505369833525161 0 0.078927094606097772 0.41381785143229471 0 0.088650351368725747 0.40286173594739022 0 0.092665631270852158 0.39205613980766663 0 0.099311538616055489 0.39847739254106929 0 0.060510190233211782 0.40582822694787102 0 0.069805006452150625 0.39505369833525161 0 0.078927094606097772 0.41381785143229471 0 0.061643849023776627 0.42221442436011031 0 0.076329204916435384 0.42762019670138363 0 0.078927094606097772 0.41381785143229471 0 0.061643849023776627 0.42221442436011031 0 0.060510190233211782 0.40582822694787102 0 0.078927094606097772 0.41381785143229471 0 0.08303551651736274 0.44148562452645029 0 0.065749003606344142 0.43567088000983212 0 0.076329204916435384 0.42762019670138363 0 0.061643849023776627 0.42221442436011031 0 0.065749003606344142 0.43567088000983212 0 0.076329204916435384 0.42762019670138363 0 0.08303551651736274 0.44148562452645029 0 0.076329204916435384 0.42762019670138363 0 0.090646902388115069 0.42579768937346613 0 0.076329204916435384 0.42762019670138363 0 0.090646902388115069 0.42579768937346613 0 0.078927094606097772 0.41381785143229471 0 0.088650351368725747 0.40286173594739022 0 0.078927094606097772 0.41381785143229471 0 0.1044774684321645 0.41499496994862978 0 0.090646902388115069 0.42579768937346613 0 0.078927094606097772 0.41381785143229471 0 0.1044774684321645 0.41499496994862978 0 0.1044774684321645 0.41499496994862978 0 0.11529845195220061 0.41392389301514249 0 0.099311538616055489 0.39847739254106929 0 0.1044774684321645 0.41499496994862978 0 0.099311538616055489 0.39847739254106929 0 0.08303551651736274 0.44148562452645029 0 0.090646902388115069 0.42579768937346613 0 0.10964339824827569 0.43151254735618949 0 0.090646902388115069 0.42579768937346613 0 0.1044774684321645 0.41499496994862978 0 0.10964339824827569 0.43151254735618949 0 0.08303551651736274 0.44148562452645029 0 0.10964339824827569 0.43151254735618949 0 0.1044774684321645 0.41499496994862978 0 0.10964339824827569 0.43151254735618949 0 0.11225896226491459 0.4220514654135864 0 0.1044774684321645 0.41499496994862978 0 0.10964339824827569 0.43151254735618949 0 0.1177367500270857 0.43959349922546892 0 0.10964339824827569 0.43151254735618949 0 0.1196165304270181 0.42777445133438408 0 0.10964339824827569 0.43151254735618949 0 0.1196165304270181 0.42777445133438408 0 0.10964339824827569 0.43151254735618949 0 0.11225896226491459 0.4220514654135864 0 0.1196165304270181 0.42777445133438408 0 0.1196165304270181 0.42777445133438408 0 0.11529845195220061 0.41392389301514249 0 0.12683379406011261 0.4250693007365704 0 0.1196165304270181 0.42777445133438408 0 0.12683379406011261 0.4250693007365704 0 0.11529845195220061 0.41392389301514249 0 0.11394803889608519 0.40959234255864641 0 0.099311538616055489 0.39847739254106929 0 0.11529845195220061 0.41392389301514249 0 0.11394803889608519 0.40959234255864641 0 0.1216096531045006 0.40813391523694248 0 0.11529845195220061 0.41392389301514249 0 0.11394803889608519 0.40959234255864641 0 0.11225896226491459 0.4220514654135864 0 0.1196165304270181 0.42777445133438408 0 0.11529845195220061 0.41392389301514249 0 0.1044774684321645 0.41499496994862978 0 0.11225896226491459 0.4220514654135864 0 0.11529845195220061 0.41392389301514249 0 0.11529845195220061 0.41392389301514249 0 0.12683379406011261 0.4250693007365704 0 0.11529845195220061 0.41392389301514249 0 0.1278511074300627 0.41350526162478779 0 0.12683379406011261 0.4250693007365704 0 0.1196165304270181 0.42777445133438408 0 0.11529845195220061 0.41392389301514249 0 0.11529845195220061 0.41392389301514249 0 0.1216096531045006 0.40813391523694248 0 0.1278511074300627 0.41350526162478779 0 0.11433328464751411 0.3997436954301713 0 0.1234906690191994 0.38801426188444588 0 0.097120575594281167 0.39147199320395332 0 0.1216096531045006 0.40813391523694248 0 0.11433328464751411 0.3997436954301713 0 0.1305192326549621 0.40277226715597292 0 0.11433328464751411 0.3997436954301713 0 0.1234906690191994 0.38801426188444588 0 0.1305192326549621 0.40277226715597292 0 0.11394803889608519 0.40959234255864641 0 0.1216096531045006 0.40813391523694248 0 0.11433328464751411 0.3997436954301713 0 0.1234906690191994 0.38801426188444588 0 0.1087496426983619 0.37787658157842979 0 0.1221008760585142 0.37017655509975561 0 0.1234906690191994 0.38801426188444588 0 0.097120575594281167 0.39147199320395332 0 0.1234906690191994 0.38801426188444588 0 0.1087496426983619 0.37787658157842979 0 0.097120575594281167 0.39147199320395332 0 0.1087496426983619 0.37787658157842979 0 0.097120575594281167 0.39147199320395332 0 0.091446543318658244 0.37332980570593671 0 0.097120575594281167 0.39147199320395332 0 0.091446543318658244 0.37332980570593671 0 0.11529845195220061 0.41392389301514249 0 0.099311538616055489 0.39847739254106929 0 0.088650351368725747 0.40286173594739022 0 0.1044774684321645 0.41499496994862978 0 0.099311538616055489 0.39847739254106929 0 0.092665631270852158 0.39205613980766663 0 0.097120575594281167 0.39147199320395332 0 0.099311538616055489 0.39847739254106929 0 0.11433328464751411 0.3997436954301713 0 0.097120575594281167 0.39147199320395332 0 0.099311538616055489 0.39847739254106929 0 0.092665631270852158 0.39205613980766663 0 0.097120575594281167 0.39147199320395332 0 0.097120575594281167 0.39147199320395332 0 0.099311538616055489 0.39847739254106929 0 0.092665631270852158 0.39205613980766663 0 0.099311538616055489 0.39847739254106929 0 0.11394803889608519 0.40959234255864641 0 0.11433328464751411 0.3997436954301713 0 0.099311538616055489 0.39847739254106929 0 0.11391307534017329 0.3515239079349971 0 0.1010065773571176 0.32982523944418651 0 0.085772511043044064 0.35518761820791728 0 0.11391307534017329 0.3515239079349971 0 0.085772511043044064 0.35518761820791728 0 0.11391307534017329 0.3515239079349971 0 0.085772511043044064 0.35518761820791728 0 0.091446543318658244 0.37332980570593671 0 0.1087496426983619 0.37787658157842979 0 0.11391307534017329 0.3515239079349971 0 0.091446543318658244 0.37332980570593671 0 0.1221008760585142 0.37017655509975561 0 0.11391307534017329 0.3515239079349971 0 0.13009308749075049 0.35876224311392679 0 0.1087496426983619 0.37787658157842979 0 0.1221008760585142 0.37017655509975561 0 0.11391307534017329 0.3515239079349971 0 0.11391307534017329 0.3515239079349971 0 0.1010065773571176 0.32982523944418651 0 0.1291399407940699 0.33050025340282368 0 0.115870718493172 0.31645391494932662 0 0.1010065773571176 0.32982523944418651 0 0.1291399407940699 0.33050025340282368 0 0.115870718493172 0.31645391494932662 0 0.1010065773571176 0.32982523944418651 0 0.10034304983929181 0.30742926072663129 0 0.1010065773571176 0.32982523944418651 0 0.086391577073358816 0.31171826807216929 0 0.10034304983929181 0.30742926072663129 0 0.077072892142698066 0.32737140046632462 0 0.085772511043044064 0.35518761820791728 0 0.1010065773571176 0.32982523944418651 0 0.077072892142698066 0.32737140046632462 0 0.085772511043044064 0.35518761820791728 0 0.1010065773571176 0.32982523944418651 0 0.077072892142698066 0.32737140046632462 0 0.086391577073358816 0.31171826807216929 0 0.077072892142698066 0.32737140046632462 0 0.068373273242353566 0.29955518272473147 0 0.077072892142698066 0.32737140046632462 0 0.068373273242353566 0.29955518272473147 0 0.086391577073358816 0.31171826807216929 0 0.077072892142698066 0.32737140046632462 0 0.057389085465333667 0.31921427348357079 0 0.068373273242353566 0.29955518272473147 0 0.077072892142698066 0.32737140046632462 0 0.065993681028360632 0.3473420820810833 0 0.085772511043044064 0.35518761820791728 0 0.077072892142698066 0.32737140046632462 0 0.065993681028360632 0.3473420820810833 0 0.053749438591053827 0.33956439264220473 0 0.077072892142698066 0.32737140046632462 0 0.053749438591053827 0.33956439264220473 0 0.057389085465333667 0.31921427348357079 0 0.085772511043044064 0.35518761820791728 0 0.058219888865144363 0.35877478241163541 0 0.065993681028360632 0.3473420820810833 0 0.085772511043044064 0.35518761820791728 0 0.058219888865144363 0.35877478241163541 0 0.075442760067996897 0.37541546110965229 0 0.085772511043044064 0.35518761820791728 0 0.091446543318658244 0.37332980570593671 0 0.085772511043044064 0.35518761820791728 0 0.091446543318658244 0.37332980570593671 0 0.059025417862616211 0.37581221330239128 0 0.075442760067996897 0.37541546110965229 0 0.058219888865144363 0.35877478241163541 0 0.075442760067996897 0.37541546110965229 0 0.058219888865144363 0.35877478241163541 0 0.075442760067996897 0.37541546110965229 0 0.085772511043044064 0.35518761820791728 0 0.058219888865144363 0.35877478241163541 0 0.048966903589699351 0.36857868210445721 0 0.058219888865144363 0.35877478241163541 0 0.035092409719881403 0.36178582305874302 0 0.059025417862616211 0.37581221330239128 0 0.048966903589699351 0.36857868210445721 0 0.058219888865144363 0.35877478241163541 0 0.043529897911155621 0.37794190964506053 0 0.059025417862616211 0.37581221330239128 0 0.048966903589699351 0.36857868210445721 0 0.065993681028360632 0.3473420820810833 0 0.05515367449986304 0.35581221667733592 0 0.053749438591053827 0.33956439264220473 0 0.058219888865144363 0.35877478241163541 0 0.05515367449986304 0.35581221667733592 0 0.035092409719881403 0.36178582305874302 0 0.05515367449986304 0.35581221667733592 0 0.04177666864155137 0.34816991737265618 0 0.053749438591053827 0.33956439264220473 0 0.065993681028360632 0.3473420820810833 0 0.058219888865144363 0.35877478241163541 0 0.05515367449986304 0.35581221667733592 0 0.058219888865144363 0.35877478241163541 0 0.05515367449986304 0.35581221667733592 0 0.05515367449986304 0.35581221667733592 0 0.04177666864155137 0.34816991737265618 0 0.035092409719881403 0.36178582305874302 0 0.04177666864155137 0.34816991737265618 0 0.035092409719881403 0.36178582305874302 0 0.024720618402768849 0.34737608664210928 0 0.043529897911155621 0.37794190964506053 0 0.048966903589699351 0.36857868210445721 0 0.035092409719881403 0.36178582305874302 0 0.023443254789396559 0.3834676768826436 0 0.043529897911155621 0.37794190964506053 0 0.035092409719881403 0.36178582305874302 0 0.058219888865144363 0.35877478241163541 0 0.035092409719881403 0.36178582305874302 0 0.035092409719881403 0.36178582305874302 0 0.0119649305746187 0.36479686370585201 0 0.023443254789396559 0.3834676768826436 0 0.035092409719881403 0.36178582305874302 0 0.0119649305746187 0.36479686370585201 0 0.035092409719881403 0.36178582305874302 0 0.024720618402768849 0.34737608664210928 0 0.0119649305746187 0.36479686370585201 0 -0.0071854820806393216 0.35650570035374268 0 0.0062736062189134396 0.34571272286146032 0 0.0119649305746187 0.36479686370585201 0 0.024720618402768849 0.34737608664210928 0 0.0062736062189134396 0.34571272286146032 0 0.0119649305746187 0.36479686370585201 0 0.011301192970428919 0.31704489445008782 0 5.0438710159473661e-05 0.32971074027311642 0 0.020213115810670989 0.33008531744466868 0 0.0062736062189134396 0.34571272286146032 0 5.0438710159473661e-05 0.32971074027311642 0 0.020213115810670989 0.33008531744466868 0 0.024720618402768849 0.34737608664210928 0 0.020213115810670989 0.33008531744466868 0 0.039095605455359943 0.33236742185381579 0 0.024720618402768849 0.34737608664210928 0 0.0062736062189134396 0.34571272286146032 0 0.020213115810670989 0.33008531744466868 0 0.011301192970428919 0.31704489445008782 0 0.039837233106395302 0.30830003858742278 0 0.011301192970428919 0.31704489445008782 0 0.020213115810670989 0.33008531744466868 0 0.039837233106395302 0.30830003858742278 0 0.020213115810670989 0.33008531744466868 0 0.039095605455359943 0.33236742185381579 0 0.039837233106395302 0.30830003858742278 0 0.039095605455359943 0.33236742185381579 0 0.057389085465333667 0.31921427348357079 0 0.039837233106395302 0.30830003858742278 0 0.04177666864155137 0.34816991737265618 0 0.039095605455359943 0.33236742185381579 0 0.053749438591053827 0.33956439264220473 0 0.04177666864155137 0.34816991737265618 0 0.024720618402768849 0.34737608664210928 0 0.039095605455359943 0.33236742185381579 0 0.039095605455359943 0.33236742185381579 0 0.053749438591053827 0.33956439264220473 0 0.057389085465333667 0.31921427348357079 0 0.057389085465333667 0.31921427348357079 0 0.039837233106395302 0.30830003858742278 0 0.068373273242353566 0.29955518272473147 0 0.039837233106395302 0.30830003858742278 0 0.068373273242353566 0.29955518272473147 0 0.039837233106395302 0.30830003858742278 0 0.062946606440340558 0.28220392319198367 0 0.068373273242353566 0.29955518272473147 0 0.039837233106395302 0.30830003858742278 0 0.032739022180783617 0.27767070901468999 0 0.062946606440340558 0.28220392319198367 0 0.039837233106395302 0.30830003858742278 0 0.0079581047232592725 0.29048875437017019 0 0.032739022180783617 0.27767070901468999 0 0.011301192970428919 0.31704489445008782 0 0.039837233106395302 0.30830003858742278 0 0.0079581047232592725 0.29048875437017019 0 0.0079581047232592725 0.29048875437017019 0 0.032739022180783617 0.27767070901468999 0 -0.016822812734265089 0.30330679972565039 0 0.011301192970428919 0.31704489445008782 0 0.0079581047232592725 0.29048875437017019 0 0.0021022769219057442 0.25480250730218768 0 0.0052438462786615816 0.27123723023514762 0 0.01950363720937388 0.2582274057835981 0 0.014802131818638559 0.24478714921947259 0 0.0021022769219057442 0.25480250730218768 0 0.01950363720937388 0.2582274057835981 0 0.0079581047232592725 0.29048875437017019 0 0.0052438462786615816 0.27123723023514762 0 0.032739022180783617 0.27767070901468999 0 0.0052438462786615816 0.27123723023514762 0 0.01950363720937388 0.2582274057835981 0 0.032739022180783617 0.27767070901468999 0 0.01950363720937388 0.2582274057835981 0 0.033470539379269727 0.25802547295787309 0 0.032739022180783617 0.27767070901468999 0 0.030996760692661909 0.24267850632233659 0 0.01950363720937388 0.2582274057835981 0 0.033470539379269727 0.25802547295787309 0 0.033470539379269727 0.25802547295787309 0 0.032739022180783617 0.27767070901468999 0 0.048550107761670319 0.25684457583745562 0 0.030996760692661909 0.24267850632233659 0 0.033470539379269727 0.25802547295787309 0 0.048550107761670319 0.25684457583745562 0 0.032739022180783617 0.27767070901468999 0 0.057519939638322207 0.26485266365923732 0 0.032739022180783617 0.27767070901468999 0 0.048550107761670319 0.25684457583745562 0 0.057519939638322207 0.26485266365923732 0 0.057519939638322207 0.26485266365923732 0 0.062946606440340558 0.28220392319198367 0 0.032739022180783617 0.27767070901468999 0 0.057519939638322207 0.26485266365923732 0 0.062946606440340558 0.28220392319198367 0 0.050336965486230123 0.24188577564543279 0 0.048550107761670319 0.25684457583745562 0 0.057519939638322207 0.26485266365923732 0 0.050336965486230123 0.24188577564543279 0 0.057519939638322207 0.26485266365923732 0 0.057519939638322207 0.26485266365923732 0 0.076941421926016912 0.25480681118981641 0 0.072385028955824854 0.27028275276519409 0 0.067735116739930559 0.23991277386268431 0 0.057519939638322207 0.26485266365923732 0 0.076941421926016912 0.25480681118981641 0 0.057519939638322207 0.26485266365923732 0 0.076941421926016912 0.25480681118981641 0 0.096362904213725759 0.24476095872042289 0 0.076941421926016912 0.25480681118981641 0 0.099686526542021064 0.26125115726496673 0 0.076941421926016912 0.25480681118981641 0 0.087970666239859774 0.27430049136637258 0 0.099686526542021064 0.26125115726496673 0 0.076941421926016912 0.25480681118981641 0 0.087970666239859774 0.27430049136637258 0 0.072385028955824854 0.27028275276519409 0 0.087970666239859774 0.27430049136637258 0 0.072385028955824854 0.27028275276519409 0 0.076552016394863948 0.28330149013165351 0 0.072385028955824854 0.27028275276519409 0 0.062946606440340558 0.28220392319198367 0 0.076552016394863948 0.28330149013165351 0 0.057519939638322207 0.26485266365923732 0 0.072385028955824854 0.27028275276519409 0 0.062946606440340558 0.28220392319198367 0 0.062946606440340558 0.28220392319198367 0 0.068373273242353566 0.29955518272473147 0 0.076552016394863948 0.28330149013165351 0 0.068373273242353566 0.29955518272473147 0 0.085162092785332863 0.29441025699897261 0 0.062946606440340558 0.28220392319198367 0 0.076552016394863948 0.28330149013165351 0 0.068373273242353566 0.29955518272473147 0 0.068373273242353566 0.29955518272473147 0 0.085162092785332863 0.29441025699897261 0 0.068373273242353566 0.29955518272473147 0 0.086391577073358816 0.31171826807216929 0 0.085162092785332863 0.29441025699897261 0 0.086391577073358816 0.31171826807216929 0 0.085162092785332863 0.29441025699897261 0 0.10034304983929181 0.30742926072663129 0 0.087970666239859774 0.27430049136637258 0 0.076552016394863948 0.28330149013165351 0 0.085162092785332863 0.29441025699897261 0 0.085162092785332863 0.29441025699897261 0 0.1019509123283041 0.28926533127318721 0 0.087970666239859774 0.27430049136637258 0 0.085162092785332863 0.29441025699897261 0 0.1019509123283041 0.28926533127318721 0 0.1019509123283041 0.28926533127318721 0 0.1166529969037796 0.28213476561386891 0 0.1045805661477308 0.27445626624959812 0 0.085162092785332863 0.29441025699897261 0 0.1019509123283041 0.28926533127318721 0 0.10034304983929181 0.30742926072663129 0 0.1019509123283041 0.28926533127318721 0 0.10034304983929181 0.30742926072663129 0 0.1160105070090426 0.29894108711534678 0 0.115870718493172 0.31645391494932662 0 0.10034304983929181 0.30742926072663129 0 0.1160105070090426 0.29894108711534678 0 0.115870718493172 0.31645391494932662 0 0.1160105070090426 0.29894108711534678 0 0.13161655490130211 0.31043738245650571 0 0.1160105070090426 0.29894108711534678 0 0.1166529969037796 0.28213476561386891 0 0.13083259523074781 0.29138837951179902 0 0.1019509123283041 0.28926533127318721 0 0.1160105070090426 0.29894108711534678 0 0.1166529969037796 0.28213476561386891 0 0.1166529969037796 0.28213476561386891 0 0.11664172872468941 0.26532958572959492 0 0.1045805661477308 0.27445626624959812 0 0.1166529969037796 0.28213476561386891 0 0.11664172872468941 0.26532958572959492 0 0.13052293846421559 0.2764566743932429 0 0.1147887818431431 0.24787007423415131 0 0.11664172872468941 0.26532958572959492 0 0.099686526542021064 0.26125115726496673 0 0.1147887818431431 0.24787007423415131 0 0.096362904213725759 0.24476095872042289 0 0.099686526542021064 0.26125115726496673 0 0.11664172872468941 0.26532958572959492 0 0.099686526542021064 0.26125115726496673 0 0.1045805661477308 0.27445626624959812 0 0.087970666239859774 0.27430049136637258 0 0.1019509123283041 0.28926533127318721 0 0.1045805661477308 0.27445626624959812 0 0.087970666239859774 0.27430049136637258 0 0.099686526542021064 0.26125115726496673 0 0.1045805661477308 0.27445626624959812 0 0.14415833434426439 0.26200108108790121 0 0.142321448578865 0.28327200514601608 0 0.15928355175414799 0.28692470864531289 0 0.14415833434426439 0.26200108108790121 0 0.15928355175414799 0.28692470864531289 0 0.1147887818431431 0.24787007423415131 0 0.11664172872468941 0.26532958572959492 0 0.14415833434426439 0.26200108108790121 0 0.14415833434426439 0.26200108108790121 0 0.13052293846421559 0.2764566743932429 0 0.142321448578865 0.28327200514601608 0 0.11664172872468941 0.26532958572959492 0 0.14415833434426439 0.26200108108790121 0 0.13052293846421559 0.2764566743932429 0 0.1166529969037796 0.28213476561386891 0 0.13052293846421559 0.2764566743932429 0 0.13083259523074781 0.29138837951179902 0 0.13083259523074781 0.29138837951179902 0 0.14680982310094909 0.29958918209182472 0 0.142321448578865 0.28327200514601608 0 0.13052293846421559 0.2764566743932429 0 0.13083259523074781 0.29138837951179902 0 0.142321448578865 0.28327200514601608 0 0.13083259523074781 0.29138837951179902 0 0.13161655490130211 0.31043738245650571 0 0.14680982310094909 0.29958918209182472 0 0.1160105070090426 0.29894108711534678 0 0.13083259523074781 0.29138837951179902 0 0.13161655490130211 0.31043738245650571 0 0.14680982310094909 0.29958918209182472 0 0.16509309081420789 0.30528176648510408 0 0.151035744779831 0.32575147766791313 0 0.13161655490130211 0.31043738245650571 0 0.14680982310094909 0.29958918209182472 0 0.151035744779831 0.32575147766791313 0 0.14680982310094909 0.29958918209182472 0 0.142321448578865 0.28327200514601608 0 0.15928355175414799 0.28692470864531289 0 0.15928355175414799 0.28692470864531289 0 0.16509309081420789 0.30528176648510408 0 0.1891614938212626 0.29082229647474539 0 0.14680982310094909 0.29958918209182472 0 0.15928355175414799 0.28692470864531289 0 0.16509309081420789 0.30528176648510408 0 0.16509309081420789 0.30528176648510408 0 0.1891614938212626 0.29082229647474539 0 0.17865404211940539 0.31604332135961771 0 0.1891614938212626 0.29082229647474539 0 0.1920937160803475 0.31926757369376868 0 0.17865404211940539 0.31604332135961771 0 0.15928355175414799 0.28692470864531289 0 0.17233905522294049 0.26621478478681088 0 0.1891614938212626 0.29082229647474539 0 0.17233905522294049 0.26621478478681088 0 0.1891614938212626 0.29082229647474539 0 0.14415833434426439 0.26200108108790121 0 0.15928355175414799 0.28692470864531289 0 0.17233905522294049 0.26621478478681088 0 0.15551661662461841 0.24160727309887639 0 0.17233905522294049 0.26621478478681088 0 0.15551661662461841 0.24160727309887639 0 0.14415833434426439 0.26200108108790121 0 0.17233905522294049 0.26621478478681088 0 0.15551661662461841 0.24160727309887639 0 0.17233905522294049 0.26621478478681088 0 0.18436284550824189 0.25477096691964168 0 0.17233905522294049 0.26621478478681088 0 0.18436284550824189 0.25477096691964168 0 0.19937305084229359 0.26139782763755681 0 0.19546047625603399 0.24492919888611711 0 0.19937305084229359 0.26139782763755681 0 0.2100679709325658 0.25314684296694617 0 0.19546047625603399 0.24492919888611711 0 0.18436284550824189 0.25477096691964168 0 0.19937305084229359 0.26139782763755681 0 0.17233905522294049 0.26621478478681088 0 0.19937305084229359 0.26139782763755681 0 0.20148294810369891 0.27838727961585991 0 0.17233905522294049 0.26621478478681088 0 0.20148294810369891 0.27838727961585991 0 0.1891614938212626 0.29082229647474539 0 0.19937305084229359 0.26139782763755681 0 0.20148294810369891 0.27838727961585991 0 0.2162883060087484 0.2692729563912114 0 0.20148294810369891 0.27838727961585991 0 0.2162883060087484 0.2692729563912114 0 0.22333915949298311 0.28381500217196021 0 0.19937305084229359 0.26139782763755681 0 0.2162883060087484 0.2692729563912114 0 0.2100679709325658 0.25314684296694617 0 0.2162883060087484 0.2692729563912114 0 0.2100679709325658 0.25314684296694617 0 0.2255124495043215 0.25298522798509959 0 0.2162883060087484 0.2692729563912114 0 0.2255124495043215 0.25298522798509959 0 0.22992465134554679 0.26745030043859241 0 0.23288911456170311 0.24337006429245009 0 0.2255124495043215 0.25298522798509959 0 0.2386818310387899 0.25754101816996422 0 0.2255124495043215 0.25298522798509959 0 0.22992465134554679 0.26745030043859241 0 0.2386818310387899 0.25754101816996422 0 0.22992465134554679 0.26745030043859241 0 0.24580151068289099 0.27363729747472648 0 0.22333915949298311 0.28381500217196021 0 0.2162883060087484 0.2692729563912114 0 0.22992465134554679 0.26745030043859241 0 0.22333915949298311 0.28381500217196021 0 0.22992465134554679 0.26745030043859241 0 0.24580151068289099 0.27363729747472648 0 0.2386818310387899 0.25754101816996422 0 0.24580151068289099 0.27363729747472648 0 0.2386818310387899 0.25754101816996422 0 0.25933000645894172 0.25157611021901422 0 0.23288911456170311 0.24337006429245009 0 0.2386818310387899 0.25754101816996422 0 0.25933000645894172 0.25157611021901422 0 0.2385419250639873 0.29550101761201619 0 0.22317987414591259 0.30638125220631718 0 0.24144820878411541 0.31794920375138142 0 0.2385419250639873 0.29550101761201619 0 0.24144820878411541 0.31794920375138142 0 0.25894087221403389 0.29572233245569518 0 0.24580151068289099 0.27363729747472648 0 0.2385419250639873 0.29550101761201619 0 0.25894087221403389 0.29572233245569518 0 0.24580151068289099 0.27363729747472648 0 0.2385419250639873 0.29550101761201619 0 0.22333915949298311 0.28381500217196021 0 0.2385419250639873 0.29550101761201619 0 0.22333915949298311 0.28381500217196021 0 0.22317987414591259 0.30638125220631718 0 0.22317987414591259 0.30638125220631718 0 0.20862678172697871 0.29501157724985583 0 0.20598393241958471 0.3154298081626799 0 0.22333915949298311 0.28381500217196021 0 0.22317987414591259 0.30638125220631718 0 0.20862678172697871 0.29501157724985583 0 0.20148294810369891 0.27838727961585991 0 0.22333915949298311 0.28381500217196021 0 0.20862678172697871 0.29501157724985583 0 0.20148294810369891 0.27838727961585991 0 0.20862678172697871 0.29501157724985583 0 0.1891614938212626 0.29082229647474539 0 0.1891614938212626 0.29082229647474539 0 0.20598393241958471 0.3154298081626799 0 0.1891614938212626 0.29082229647474539 0 0.1920937160803475 0.31926757369376868 0 0.20598393241958471 0.3154298081626799 0 0.20862678172697871 0.29501157724985583 0 0.1891614938212626 0.29082229647474539 0 0.20598393241958471 0.3154298081626799 0 0.1920937160803475 0.31926757369376868 0 0.1984650924404032 0.33485897767793671 0 0.20598393241958471 0.3154298081626799 0 0.1920937160803475 0.31926757369376868 0 0.1984650924404032 0.33485897767793671 0 0.18364192766576551 0.32870464789360571 0 0.1984650924404032 0.33485897767793671 0 0.17697353426854689 0.34331386464121372 0 0.20177058496358721 0.34008545712207922 0 0.1984650924404032 0.33485897767793671 0 0.17697353426854689 0.34331386464121372 0 0.20177058496358721 0.34008545712207922 0 0.17697353426854689 0.34331386464121372 0 0.20177058496358721 0.34008545712207922 0 0.2199566506122595 0.32640409071465948 0 0.22656763565862759 0.33685704960294532 0 0.20177058496358721 0.34008545712207922 0 0.22656763565862759 0.33685704960294532 0 0.20177058496358721 0.34008545712207922 0 0.22656763565862759 0.33685704960294532 0 0.21899692539129881 0.34647669405577608 0 0.20177058496358721 0.34008545712207922 0 0.1984650924404032 0.33485897767793671 0 0.2199566506122595 0.32640409071465948 0 0.1984650924404032 0.33485897767793671 0 0.2199566506122595 0.32640409071465948 0 0.1984650924404032 0.33485897767793671 0 0.20598393241958471 0.3154298081626799 0 0.2199566506122595 0.32640409071465948 0 0.22317987414591259 0.30638125220631718 0 0.20598393241958471 0.3154298081626799 0 0.2199566506122595 0.32640409071465948 0 0.2199566506122595 0.32640409071465948 0 0.22656763565862759 0.33685704960294532 0 0.24144820878411541 0.31794920375138142 0 0.22317987414591259 0.30638125220631718 0 0.2199566506122595 0.32640409071465948 0 0.24144820878411541 0.31794920375138142 0 0.2199566506122595 0.32640409071465948 0 0.24144820878411541 0.31794920375138142 0 0.22656763565862759 0.33685704960294532 0 0.24144820878411541 0.31794920375138142 0 0.22656763565862759 0.33685704960294532 0 0.21899692539129881 0.34647669405577608 0 0.22656763565862759 0.33685704960294532 0 0.23863496037195581 0.33528596591563598 0 0.22656763565862759 0.33685704960294532 0 0.23863496037195581 0.33528596591563598 0 0.2343999149239076 0.34825866449867771 0 0.22656763565862759 0.33685704960294532 0 0.23863496037195581 0.33528596591563598 0 0.24144820878411541 0.31794920375138142 0 0.23863496037195581 0.33528596591563598 0 0.24772732657349961 0.34061391323805368 0 0.2343999149239076 0.34825866449867771 0 0.23863496037195581 0.33528596591563598 0 0.24772732657349961 0.34061391323805368 0 0.25425045627425169 0.32892326829153973 0 0.23863496037195581 0.33528596591563598 0 0.24144820878411541 0.31794920375138142 0 0.25425045627425169 0.32892326829153973 0 0.24144820878411541 0.31794920375138142 0 0.25732352252861429 0.31170377556311513 0 0.23975277161822009 0.36074135268991742 0 0.2320405933009726 0.37378084727832128 0 0.25942824353548422 0.3701896906427487 0 0.2320405933009726 0.37378084727832128 0 0.25942824353548422 0.3701896906427487 0 0.23975277161822009 0.36074135268991742 0 0.25942824353548422 0.3701896906427487 0 0.2343999149239076 0.34825866449867771 0 0.25985705183132851 0.34931336020619558 0 0.23975277161822009 0.36074135268991742 0 0.2343999149239076 0.34825866449867771 0 0.25985705183132851 0.34931336020619558 0 0.24772732657349961 0.34061391323805368 0 0.2343999149239076 0.34825866449867771 0 0.25985705183132851 0.34931336020619558 0 0.23975277161822009 0.36074135268991742 0 0.2343999149239076 0.34825866449867771 0 0.22275080895800539 0.36102612382674071 0 0.22656763565862759 0.33685704960294532 0 0.2343999149239076 0.34825866449867771 0 0.21899692539129881 0.34647669405577608 0 0.2343999149239076 0.34825866449867771 0 0.21899692539129881 0.34647669405577608 0 0.22275080895800539 0.36102612382674071 0 0.23975277161822009 0.36074135268991742 0 0.22275080895800539 0.36102612382674071 0 0.2320405933009726 0.37378084727832128 0 0.22275080895800539 0.36102612382674071 0 0.2320405933009726 0.37378084727832128 0 0.2046529430664609 0.37737200391389247 0 0.22275080895800539 0.36102612382674071 0 0.20666170544717199 0.35952718052385979 0 0.2046529430664609 0.37737200391389247 0 0.21899692539129881 0.34647669405577608 0 0.22275080895800539 0.36102612382674071 0 0.20666170544717199 0.35952718052385979 0 0.20177058496358721 0.34008545712207922 0 0.21899692539129881 0.34647669405577608 0 0.20666170544717199 0.35952718052385979 0 0.20177058496358721 0.34008545712207922 0 0.18808145769552689 0.36141763063701632 0 0.17697353426854689 0.34331386464121372 0 0.20177058496358721 0.34008545712207922 0 0.20666170544717199 0.35952718052385979 0 0.18808145769552689 0.36141763063701632 0 0.20666170544717199 0.35952718052385979 0 0.18808145769552689 0.36141763063701632 0 0.2046529430664609 0.37737200391389247 0 0.18808145769552689 0.36141763063701632 0 0.1773950810810401 0.38094614229751778 0 0.2046529430664609 0.37737200391389247 0 0.18808145769552689 0.36141763063701632 0 0.2046529430664609 0.37737200391389247 0 0.18808145769552689 0.36141763063701632 0 0.16773140578878379 0.3670546938748408 0 0.17124233758448601 0.35626191867838042 0 0.18808145769552689 0.36141763063701632 0 0.16773140578878379 0.3670546938748408 0 0.1773950810810401 0.38094614229751778 0 0.16773140578878379 0.3670546938748408 0 0.15752974412703219 0.36583839825948178 0 0.15013721909561939 0.38452028068114408 0 0.16773140578878379 0.3670546938748408 0 0.16176686423025649 0.3551564222840507 0 0.17124233758448601 0.35626191867838042 0 0.16773140578878379 0.3670546938748408 0 0.15752974412703219 0.36583839825948178 0 0.16176686423025649 0.3551564222840507 0 0.16176686423025649 0.3551564222840507 0 0.16906335500380729 0.3464257689064994 0 0.1420536396373023 0.3478601976620771 0 0.16906335500380729 0.3464257689064994 0 0.17150997232459159 0.34546325736014122 0 0.1420536396373023 0.3478601976620771 0 0.17150997232459159 0.34546325736014122 0 0.1420536396373023 0.3478601976620771 0 0.15752974412703219 0.36583839825948178 0 0.16176686423025649 0.3551564222840507 0 0.15048348739346931 0.35662219619789348 0 0.16176686423025649 0.3551564222840507 0 0.17124233758448601 0.35626191867838042 0 0.1680317338850669 0.35122419821543532 0 0.16176686423025649 0.3551564222840507 0 0.1680317338850669 0.35122419821543532 0 0.16906335500380729 0.3464257689064994 0 0.17124233758448601 0.35626191867838042 0 0.1680317338850669 0.35122419821543532 0 0.17150997232459159 0.34546325736014122 0 0.1680317338850669 0.35122419821543532 0 0.16906335500380729 0.3464257689064994 0 0.17150997232459159 0.34546325736014122 0 0.16906335500380729 0.3464257689064994 0 0.17150997232459159 0.34546325736014122 0 0.18808145769552689 0.36141763063701632 0 0.17124233758448601 0.35626191867838042 0 0.17150997232459159 0.34546325736014122 0 0.18808145769552689 0.36141763063701632 0 0.17150997232459159 0.34546325736014122 0 0.17697353426854689 0.34331386464121372 0 0.17150997232459159 0.34546325736014122 0 0.17697353426854689 0.34331386464121372 0 0.18808145769552689 0.36141763063701632 0 0.17150997232459159 0.34546325736014122 0 0.1984650924404032 0.33485897767793671 0 0.18364192766576551 0.32870464789360571 0 0.17697353426854689 0.34331386464121372 0 0.17150997232459159 0.34546325736014122 0 0.17697353426854689 0.34331386464121372 0 0.1717021602377401 0.32930197275284928 0 0.18364192766576551 0.32870464789360571 0 0.17697353426854689 0.34331386464121372 0 0.1717021602377401 0.32930197275284928 0 0.1920937160803475 0.31926757369376868 0 0.18364192766576551 0.32870464789360571 0 0.17865404211940539 0.31604332135961771 0 0.18364192766576551 0.32870464789360571 0 0.17865404211940539 0.31604332135961771 0 0.1717021602377401 0.32930197275284928 0 0.16509309081420789 0.30528176648510408 0 0.1717021602377401 0.32930197275284928 0 0.151035744779831 0.32575147766791313 0 0.16509309081420789 0.30528176648510408 0 0.17865404211940539 0.31604332135961771 0 0.1717021602377401 0.32930197275284928 0 0.17150997232459159 0.34546325736014122 0 0.1717021602377401 0.32930197275284928 0 0.151035744779831 0.32575147766791313 0 0.17150997232459159 0.34546325736014122 0 0.151035744779831 0.32575147766791313 0 0.17150997232459159 0.34546325736014122 0 0.151035744779831 0.32575147766791313 0 0.1420536396373023 0.3478601976620771 0 0.151035744779831 0.32575147766791313 0 0.1291399407940699 0.33050025340282368 0 0.1420536396373023 0.3478601976620771 0 0.115870718493172 0.31645391494932662 0 0.13161655490130211 0.31043738245650571 0 0.1291399407940699 0.33050025340282368 0 0.13161655490130211 0.31043738245650571 0 0.151035744779831 0.32575147766791313 0 0.1291399407940699 0.33050025340282368 0 0.11391307534017329 0.3515239079349971 0 0.1291399407940699 0.33050025340282368 0 0.1420536396373023 0.3478601976620771 0 0.11391307534017329 0.3515239079349971 0 0.1420536396373023 0.3478601976620771 0 0.11391307534017329 0.3515239079349971 0 0.13009308749075049 0.35876224311392679 0 0.1420536396373023 0.3478601976620771 0 0.13009308749075049 0.35876224311392679 0 0.1420536396373023 0.3478601976620771 0 0.14169876617096619 0.35688418113097647 0 0.1221008760585142 0.37017655509975561 0 0.13009308749075049 0.35876224311392679 0 0.1342579057440858 0.37470578098697799 0 0.13009308749075049 0.35876224311392679 0 0.1342579057440858 0.37470578098697799 0 0.14394794116613799 0.36489504469532241 0 0.13009308749075049 0.35876224311392679 0 0.14394794116613799 0.36489504469532241 0 0.14169876617096619 0.35688418113097647 0 0.14394794116613799 0.36489504469532241 0 0.15048348739346931 0.35662219619789348 0 0.14169876617096619 0.35688418113097647 0 0.1342579057440858 0.37470578098697799 0 0.14394794116613799 0.36489504469532241 0 0.15013721909561939 0.38452028068114408 0 0.15752974412703219 0.36583839825948178 0 0.15048348739346931 0.35662219619789348 0 0.15013721909561939 0.38452028068114408 0 0.14394794116613799 0.36489504469532241 0 0.15013721909561939 0.38452028068114408 0 0.14394794116613799 0.36489504469532241 0 0.15048348739346931 0.35662219619789348 0 0.15013721909561939 0.38452028068114408 0 0.15048348739346931 0.35662219619789348 0 0.15013721909561939 0.38452028068114408 0 0.16176686423025649 0.3551564222840507 0 0.15048348739346931 0.35662219619789348 0 0.1420536396373023 0.3478601976620771 0 0.15048348739346931 0.35662219619789348 0 0.1420536396373023 0.3478601976620771 0 0.14169876617096619 0.35688418113097647 0 0.14993316205569099 0.40096071307038211 0 0.15013721909561939 0.38452028068114408 0 0.15013721909561939 0.38452028068114408 0 0.15847737974220749 0.41320875786652489 0 0.14993316205569099 0.40096071307038211 0 0.15013721909561939 0.38452028068114408 0 0.15847737974220749 0.41320875786652489 0 0.14075316377098701 0.39396702707475317 0 0.14993316205569099 0.40096071307038211 0 0.15013721909561939 0.38452028068114408 0 0.14075316377098701 0.39396702707475317 0 0.14993316205569099 0.40096071307038211 0 0.14058932723348419 0.4020604514342252 0 0.14993316205569099 0.40096071307038211 0 0.14058932723348419 0.4020604514342252 0 0.1383030595227045 0.41091245984980868 0 0.1234906690191994 0.38801426188444588 0 0.15013721909561939 0.38452028068114408 0 0.1234906690191994 0.38801426188444588 0 0.14075316377098701 0.39396702707475317 0 0.15013721909561939 0.38452028068114408 0 0.1234906690191994 0.38801426188444588 0 0.1221008760585142 0.37017655509975561 0 0.1342579057440858 0.37470578098697799 0 0.1234906690191994 0.38801426188444588 0 0.1342579057440858 0.37470578098697799 0 0.15013721909561939 0.38452028068114408 0 0.1234906690191994 0.38801426188444588 0 0.14075316377098701 0.39396702707475317 0 0.1305192326549621 0.40277226715597292 0 0.14058932723348419 0.4020604514342252 0 0.1305192326549621 0.40277226715597292 0 0.1383030595227045 0.41091245984980868 0 0.14075316377098701 0.39396702707475317 0 0.14058932723348419 0.4020604514342252 0 0.1305192326549621 0.40277226715597292 0 0.1305192326549621 0.40277226715597292 0 0.1278511074300627 0.41350526162478779 0 0.1383030595227045 0.41091245984980868 0 0.12683379406011261 0.4250693007365704 0 0.14974049489291419 0.41648348780221289 0 0.1383030595227045 0.41091245984980868 0 0.12683379406011261 0.4250693007365704 0 0.14974049489291419 0.41648348780221289 0 0.1216096531045006 0.40813391523694248 0 0.1305192326549621 0.40277226715597292 0 0.1278511074300627 0.41350526162478779 0 0.1278511074300627 0.41350526162478779 0 0.1383030595227045 0.41091245984980868 0 0.12683379406011261 0.4250693007365704 0 0.13145787386874341 0.42953707068404839 0 0.12683379406011261 0.4250693007365704 0 0.14974049489291419 0.41648348780221289 0 0.1196165304270181 0.42777445133438408 0 0.13145787386874341 0.42953707068404839 0 0.13384151234498479 0.44042749669674858 0 0.1196165304270181 0.42777445133438408 0 0.13145787386874341 0.42953707068404839 0 0.12683379406011261 0.4250693007365704 0 0.13145787386874341 0.42953707068404839 0 0.12683379406011261 0.4250693007365704 0 0.13145787386874341 0.42953707068404839 0 0.1369704996915791 0.43546731836131258 0 0.13384151234498479 0.44042749669674858 0 0.13145787386874341 0.42953707068404839 0 0.1369704996915791 0.43546731836131258 0 0.14174884804029009 0.4327402954726593 0 0.1369704996915791 0.43546731836131258 0 0.14174884804029009 0.4327402954726593 0 0.14083376451229809 0.43916441059179367 0 0.14974049489291419 0.41648348780221289 0 0.16320829023632941 0.42894011950551397 0 0.14939496196408039 0.44432232520147552 0 0.13145787386874341 0.42953707068404839 0 0.14174884804029009 0.4327402954726593 0 0.14974049489291419 0.41648348780221289 0 0.14174884804029009 0.4327402954726593 0 0.14974049489291419 0.41648348780221289 0 0.14939496196408039 0.44432232520147552 0 0.14974049489291419 0.41648348780221289 0 0.14939496196408039 0.44432232520147552 0 0.14993316205569099 0.40096071307038211 0 0.1383030595227045 0.41091245984980868 0 0.14974049489291419 0.41648348780221289 0 0.14974049489291419 0.41648348780221289 0 0.15847737974220749 0.41320875786652489 0 0.14993316205569099 0.40096071307038211 0 0.14974049489291419 0.41648348780221289 0 0.15847737974220749 0.41320875786652489 0 0.14993316205569099 0.40096071307038211 0 0.14974049489291419 0.41648348780221289 0 0.15847737974220749 0.41320875786652489 0 0.18379704202613301 0.40371852679755871 0 0.15847737974220749 0.41320875786652489 0 0.16320829023632941 0.42894011950551397 0 0.1771703366423352 0.41837234779719129 0 0.14974049489291419 0.41648348780221289 0 0.15847737974220749 0.41320875786652489 0 0.16320829023632941 0.42894011950551397 0 0.15847737974220749 0.41320875786652489 0 0.16320829023632941 0.42894011950551397 0 0.16320829023632941 0.42894011950551397 0 0.16793920073045121 0.44467148114450311 0 0.16320829023632941 0.42894011950551397 0 0.1867891493435592 0.42963488748376388 0 0.1771703366423352 0.41837234779719129 0 0.16320829023632941 0.42894011950551397 0 0.1867891493435592 0.42963488748376388 0 0.1799201887742338 0.44198881247272648 0 0.15847737974220749 0.41320875786652489 0 0.1771703366423352 0.41837234779719129 0 0.18379704202613301 0.40371852679755871 0 0.1867891493435592 0.42963488748376388 0 0.1771703366423352 0.41837234779719129 0 0.19357982186344669 0.416359447332595 0 0.1771703366423352 0.41837234779719129 0 0.18379704202613301 0.40371852679755871 0 0.19357982186344669 0.416359447332595 0 0.18379704202613301 0.40371852679755871 0 0.1773950810810401 0.38094614229751778 0 0.19290672849741369 0.38950172785857978 0 0.18379704202613301 0.40371852679755871 0 0.1639865102326937 0.39356632919625939 0 0.1773950810810401 0.38094614229751778 0 0.15847737974220749 0.41320875786652489 0 0.18379704202613301 0.40371852679755871 0 0.1639865102326937 0.39356632919625939 0 0.15013721909561939 0.38452028068114408 0 0.15847737974220749 0.41320875786652489 0 0.1639865102326937 0.39356632919625939 0 0.16773140578878379 0.3670546938748408 0 0.15013721909561939 0.38452028068114408 0 0.1773950810810401 0.38094614229751778 0 0.15013721909561939 0.38452028068114408 0 0.1773950810810401 0.38094614229751778 0 0.15013721909561939 0.38452028068114408 0 0.1639865102326937 0.39356632919625939 0 0.1773950810810401 0.38094614229751778 0 0.19290672849741369 0.38950172785857978 0 0.20911670431005919 0.39422829572859441 0 0.2046529430664609 0.37737200391389247 0 0.1773950810810401 0.38094614229751778 0 0.2046529430664609 0.37737200391389247 0 0.1773950810810401 0.38094614229751778 0 0.19290672849741369 0.38950172785857978 0 0.2046529430664609 0.37737200391389247 0 0.18379704202613301 0.40371852679755871 0 0.19290672849741369 0.38950172785857978 0 0.20911670431005919 0.39422829572859441 0 0.18379704202613301 0.40371852679755871 0 0.20911670431005919 0.39422829572859441 0 0.20259115772065511 0.40630376292298642 0 0.18379704202613301 0.40371852679755871 0 0.20911670431005919 0.39422829572859441 0 0.20911670431005919 0.39422829572859441 0 0.2159600570573432 0.40436917001002048 0 0.20259115772065511 0.40630376292298642 0 0.20911670431005919 0.39422829572859441 0 0.2159600570573432 0.40436917001002048 0 0.2243562861421147 0.39638171662590649 0 0.20911670431005919 0.39422829572859441 0 0.2046529430664609 0.37737200391389247 0 0.2160722162166781 0.38836603023749011 0 0.2046529430664609 0.37737200391389247 0 0.2160722162166781 0.38836603023749011 0 0.2218005297945243 0.38106423652233368 0 0.2320405933009726 0.37378084727832128 0 0.2046529430664609 0.37737200391389247 0 0.2046529430664609 0.37737200391389247 0 0.2160722162166781 0.38836603023749011 0 0.2320405933009726 0.37378084727832128 0 0.2046529430664609 0.37737200391389247 0 0.2218005297945243 0.38106423652233368 0 0.20911670431005919 0.39422829572859441 0 0.23443636659398531 0.38473806465963012 0 0.20911670431005919 0.39422829572859441 0 0.2160722162166781 0.38836603023749011 0 0.23443636659398531 0.38473806465963012 0 0.2160722162166781 0.38836603023749011 0 0.2218005297945243 0.38106423652233368 0 0.23443636659398531 0.38473806465963012 0 0.2320405933009726 0.37378084727832128 0 0.2218005297945243 0.38106423652233368 0 0.23443636659398531 0.38473806465963012 0 0.20911670431005919 0.39422829572859441 0 0.2243562861421147 0.39638171662590649 0 0.23443636659398531 0.38473806465963012 0 0.2159600570573432 0.40436917001002048 0 0.2243562861421147 0.39638171662590649 0 0.2279559891442233 0.40552543862360407 0 0.2279559891442233 0.40552543862360407 0 0.2349238044517615 0.39603533827358878 0 0.23895404708153059 0.40744634374641342 0 0.2243562861421147 0.39638171662590649 0 0.2279559891442233 0.40552543862360407 0 0.2349238044517615 0.39603533827358878 0 0.2243562861421147 0.39638171662590649 0 0.2349238044517615 0.39603533827358878 0 0.23443636659398531 0.38473806465963012 0 0.2349238044517615 0.39603533827358878 0 0.24376754789883279 0.39936718204771893 0 0.24506680983499279 0.3870933417336706 0 0.2349238044517615 0.39603533827358878 0 0.24376754789883279 0.39936718204771893 0 0.23895404708153059 0.40744634374641342 0 0.24376754789883279 0.39936718204771893 0 0.24983968240297941 0.40812732298050969 0 0.23895404708153059 0.40744634374641342 0 0.24376754789883279 0.39936718204771893 0 0.24983968240297941 0.40812732298050969 0 0.25311075943973432 0.39740741682294672 0 0.24376754789883279 0.39936718204771893 0 0.24506680983499279 0.3870933417336706 0 0.25311075943973432 0.39740741682294672 0 0.2320405933009726 0.37378084727832128 0 0.24506680983499279 0.3870933417336706 0 0.25942824353548422 0.3701896906427487 0 0.2320405933009726 0.37378084727832128 0 0.24506680983499279 0.3870933417336706 0 0.23443636659398531 0.38473806465963012 0 0.2349238044517615 0.39603533827358878 0 0.24506680983499279 0.3870933417336706 0 0.23443636659398531 0.38473806465963012 0 0.2368882334306496 0.4314974722828282 0 0.24474911724694531 0.41806916662651028 0 0.23248814134444121 0.41755361392654822 0 0.2368882334306496 0.4314974722828282 0 0.24894748304271469 0.44529199912820849 0 0.25073732065305371 0.42967410883794921 0 0.2368882334306496 0.4314974722828282 0 0.24474911724694531 0.41806916662651028 0 0.25073732065305371 0.42967410883794921 0 0.24474911724694531 0.41806916662651028 0 0.24983968240297941 0.40812732298050969 0 0.23895404708153059 0.40744634374641342 0 0.24474911724694531 0.41806916662651028 0 0.23895404708153059 0.40744634374641342 0 0.23248814134444121 0.41755361392654822 0 0.2279559891442233 0.40552543862360407 0 0.23248814134444121 0.41755361392654822 0 0.22172896716691379 0.41340620430728842 0 0.2279559891442233 0.40552543862360407 0 0.23895404708153059 0.40744634374641342 0 0.23248814134444121 0.41755361392654822 0 0.2159600570573432 0.40436917001002048 0 0.2279559891442233 0.40552543862360407 0 0.22172896716691379 0.41340620430728842 0 0.23248814134444121 0.41755361392654822 0 0.22172896716691379 0.41340620430728842 0 0.2219917854228203 0.42466706428696022 0 0.2368882334306496 0.4314974722828282 0 0.2219917854228203 0.42466706428696022 0 0.22001501221560441 0.44252983284523778 0 0.2368882334306496 0.4314974722828282 0 0.23248814134444121 0.41755361392654822 0 0.2219917854228203 0.42466706428696022 0 0.2219917854228203 0.42466706428696022 0 0.2063194009146726 0.42850074259830961 0 0.22001501221560441 0.44252983284523778 0 0.2219917854228203 0.42466706428696022 0 0.2063194009146726 0.42850074259830961 0 0.21024886286574079 0.41491573468930909 0 0.2063194009146726 0.42850074259830961 0 0.21024886286574079 0.41491573468930909 0 0.19357982186344669 0.416359447332595 0 0.2159600570573432 0.40436917001002048 0 0.22172896716691379 0.41340620430728842 0 0.21024886286574079 0.41491573468930909 0 0.22172896716691379 0.41340620430728842 0 0.2219917854228203 0.42466706428696022 0 0.21024886286574079 0.41491573468930909 0 0.2159600570573432 0.40436917001002048 0 0.21024886286574079 0.41491573468930909 0 0.20259115772065511 0.40630376292298642 0 0.21024886286574079 0.41491573468930909 0 0.19357982186344669 0.416359447332595 0 0.20259115772065511 0.40630376292298642 0 0.18379704202613301 0.40371852679755871 0 0.19357982186344669 0.416359447332595 0 0.20259115772065511 0.40630376292298642 0 0.1867891493435592 0.42963488748376388 0 0.2063194009146726 0.42850074259830961 0 0.19357982186344669 0.416359447332595 0 0.1867891493435592 0.42963488748376388 0 0.2063194009146726 0.42850074259830961 0 0.19754647598331651 0.44281564661779471 0 0.19754647598331651 0.44281564661779471 0 0.20659274420460461 0.45975123637060972 0 0.18564236044722429 0.45448836793612091 0 0.19754647598331651 0.44281564661779471 0 0.18564236044722429 0.45448836793612091 0 0.1799201887742338 0.44198881247272648 0 0.1867891493435592 0.42963488748376388 0 0.19754647598331651 0.44281564661779471 0 0.1799201887742338 0.44198881247272648 0 0.1931421055670498 0.46622894702259121 0 0.20659274420460461 0.45975123637060972 0 0.18564236044722429 0.45448836793612091 0 0.1931421055670498 0.46622894702259121 0 0.20659274420460461 0.45975123637060972 0 0.20019919798601049 0.47927586733236438 0 0.20659274420460461 0.45975123637060972 0 0.22168308399193359 0.45734388136696341 0 0.2212955022299708 0.47383552866598388 0 0.20659274420460461 0.45975123637060972 0 0.22001501221560441 0.44252983284523778 0 0.22168308399193359 0.45734388136696341 0 0.2063194009146726 0.42850074259830961 0 0.19754647598331651 0.44281564661779471 0 0.22001501221560441 0.44252983284523778 0 0.19754647598331651 0.44281564661779471 0 0.20659274420460461 0.45975123637060972 0 0.22001501221560441 0.44252983284523778 0 0.2368882334306496 0.4314974722828282 0 0.22001501221560441 0.44252983284523778 0 0.23445819102341231 0.44576660030539322 0 0.22001501221560441 0.44252983284523778 0 0.22168308399193359 0.45734388136696341 0 0.23445819102341231 0.44576660030539322 0 0.22168308399193359 0.45734388136696341 0 0.2360731542145777 0.46023789204762872 0 0.2212955022299708 0.47383552866598388 0 0.22168308399193359 0.45734388136696341 0 0.2360731542145777 0.46023789204762872 0 0.23445819102341231 0.44576660030539322 0 0.2360731542145777 0.46023789204762872 0 0.2499945297026557 0.46091901841247801 0 0.24894748304271469 0.44529199912820849 0 0.2360731542145777 0.46023789204762872 0 0.2499945297026557 0.46091901841247801 0 0.24172054360973219 0.47832892173968827 0 0.2368882334306496 0.4314974722828282 0 0.24894748304271469 0.44529199912820849 0 0.23445819102341231 0.44576660030539322 0 0.2360731542145777 0.46023789204762872 0 0.24894748304271469 0.44529199912820849 0 0.23445819102341231 0.44576660030539322 0 0.24753098876197949 0.5 0 0.24172054360973219 0.47832892173968827 0 0.25965323348248898 0.48644800176276448 0 0.24753098876197949 0.5 0 0.24172054360973219 0.47832892173968827 0 0.22282421559808771 0.5 0 0.2360731542145777 0.46023789204762872 0 0.24172054360973219 0.47832892173968827 0 0.2212955022299708 0.47383552866598388 0 0.24172054360973219 0.47832892173968827 0 0.2212955022299708 0.47383552866598388 0 0.22282421559808771 0.5 0 0.22282421559808771 0.5 0 0.20019919798601049 0.47927586733236438 0 0.19811744243419599 0.5 0 0.20659274420460461 0.45975123637060972 0 0.2212955022299708 0.47383552866598388 0 0.20019919798601049 0.47927586733236438 0 0.2212955022299708 0.47383552866598388 0 0.22282421559808771 0.5 0 0.20019919798601049 0.47927586733236438 0 0.20019919798601049 0.47927586733236438 0 0.1850643170194162 0.48764949202464958 0 0.18013411963035991 0.47140031645127012 0 0.1931421055670498 0.46622894702259121 0 0.20019919798601049 0.47927586733236438 0 0.18013411963035991 0.47140031645127012 0 0.20019919798601049 0.47927586733236438 0 0.19811744243419599 0.5 0 0.1850643170194162 0.48764949202464958 0 0.19811744243419599 0.5 0 0.1850643170194162 0.48764949202464958 0 0.1734106692703043 0.5 0 0.1850643170194162 0.48764949202464958 0 0.1734106692703043 0.5 0 0.1664531646828778 0.48236069582260382 0 0.1734106692703043 0.5 0 0.1664531646828778 0.48236069582260382 0 0.14870389610641249 0.50000000000000089 0 0.1664531646828778 0.48236069582260382 0 0.18013411963035991 0.47140031645127012 0 0.1661706704293574 0.46165737933993972 0 0.1664531646828778 0.48236069582260382 0 0.1661706704293574 0.46165737933993972 0 0.14904942903524651 0.47216116260073843 0 0.1850643170194162 0.48764949202464958 0 0.1664531646828778 0.48236069582260382 0 0.18013411963035991 0.47140031645127012 0 0.18013411963035991 0.47140031645127012 0 0.18564236044722429 0.45448836793612091 0 0.1661706704293574 0.46165737933993972 0 0.1931421055670498 0.46622894702259121 0 0.18013411963035991 0.47140031645127012 0 0.18564236044722429 0.45448836793612091 0 0.18564236044722429 0.45448836793612091 0 0.16793920073045121 0.44467148114450311 0 0.1661706704293574 0.46165737933993972 0 0.18564236044722429 0.45448836793612091 0 0.1799201887742338 0.44198881247272648 0 0.16793920073045121 0.44467148114450311 0 0.16793920073045121 0.44467148114450311 0 0.1661706704293574 0.46165737933993972 0 0.14939496196408039 0.44432232520147552 0 0.16320829023632941 0.42894011950551397 0 0.1799201887742338 0.44198881247272648 0 0.16793920073045121 0.44467148114450311 0 0.16320829023632941 0.42894011950551397 0 0.16793920073045121 0.44467148114450311 0 0.14939496196408039 0.44432232520147552 0 0.14939496196408039 0.44432232520147552 0 0.14904942903524651 0.47216116260073843 0 0.14056903649777691 0.45669191429172318 0 0.1340897576569349 0.47419840564291132 0 0.14904942903524651 0.47216116260073843 0 0.1661706704293574 0.46165737933993972 0 0.14939496196408039 0.44432232520147552 0 0.14904942903524651 0.47216116260073843 0 0.14939496196408039 0.44432232520147552 0 0.14056903649777691 0.45669191429172318 0 0.14904942903524651 0.47216116260073843 0 0.14939496196408039 0.44432232520147552 0 0.14426523416217291 0.44438086672766908 0 0.14056903649777691 0.45669191429172318 0 0.14174884804029009 0.4327402954726593 0 0.14939496196408039 0.44432232520147552 0 0.14083376451229809 0.43916441059179367 0 0.14939496196408039 0.44432232520147552 0 0.14426523416217291 0.44438086672766908 0 0.14083376451229809 0.43916441059179367 0 0.14426523416217291 0.44438086672766908 0 0.12604579967045021 0.44839681128582148 0 0.14056903649777691 0.45669191429172318 0 0.1196165304270181 0.42777445133438408 0 0.13384151234498479 0.44042749669674858 0 0.12604579967045021 0.44839681128582148 0 0.14426523416217291 0.44438086672766908 0 0.13384151234498479 0.44042749669674858 0 0.12604579967045021 0.44839681128582148 0 0.14426523416217291 0.44438086672766908 0 0.12604579967045021 0.44839681128582148 0 0.14426523416217291 0.44438086672766908 0 0.14083376451229809 0.43916441059179367 0 0.13384151234498479 0.44042749669674858 0 0.1369704996915791 0.43546731836131258 0 0.14083376451229809 0.43916441059179367 0 0.13384151234498479 0.44042749669674858 0 0.12604579967045021 0.44839681128582148 0 0.14056903649777691 0.45669191429172318 0 0.1340897576569349 0.47419840564291132 0 0.12604579967045021 0.44839681128582148 0 0.1340897576569349 0.47419840564291132 0 0.1233521795822832 0.47534509346272952 0 0.12604579967045021 0.44839681128582148 0 0.1340897576569349 0.47419840564291132 0 0.1233521795822832 0.47534509346272952 0 0.1340897576569349 0.47419840564291132 0 0.1310630874019614 0.49999999999998029 0 0.1233521795822832 0.47534509346272952 0 0.1310630874019614 0.49999999999998029 0 0.1340897576569349 0.47419840564291132 0 0.14213371564342001 0.50000000000000067 0 0.1340897576569349 0.47419840564291132 0 0.1310630874019614 0.49999999999998029 0 0.14213371564342001 0.50000000000000067 0 0.14213371564342001 0.50000000000000067 0 0.14870389610641249 0.50000000000000089 0 0.14904942903524651 0.47216116260073843 0 0.1664531646828778 0.48236069582260382 0 0.14870389610641249 0.50000000000000089 0 0.14904942903524651 0.47216116260073843 0 0.14870389610641249 0.50000000000000089 0 0.14904942903524651 0.47216116260073843 0 0.1340897576569349 0.47419840564291132 0 0.14213371564342001 0.50000000000000067 0 0.14904942903524651 0.47216116260073843 0 0.3538604207471312 0.47296218335378759 0 0.34798585922898267 0.48726880308200909 0 0.33499744096202211 0.48074174473077391 0 0.3538604207471312 0.47296218335378759 0 0.33499744096202211 0.48074174473077391 0 0.3538604207471312 0.47296218335378759 0 0.35695088606096548 0.50000000000000089 0 0.3538604207471312 0.47296218335378759 0 0.34798585922898267 0.48726880308200909 0 0.35695088606096548 0.50000000000000089 0 0.34798585922898267 0.48726880308200909 0 0.345205024949923 0.4999999999999995 0 0.35695088606096548 0.50000000000000089 0 0.3538604207471312 0.47296218335378759 0 0.35695088606096548 0.50000000000000089 0 0.37318866431135761 0.48174232907414499 0 0.35695088606096548 0.50000000000000089 0 0.37318866431135761 0.48174232907414499 0 0.38214154872489497 0.5 0 0.3538604207471312 0.47296218335378759 0 0.37318866431135761 0.48174232907414499 0 0.38037359216501598 0.46202749293405271 0 0.3538604207471312 0.47296218335378759 0 0.35148548307386779 0.4521843642116673 0 0.38037359216501598 0.46202749293405271 0 0.3538604207471312 0.47296218335378759 0 0.38037359216501598 0.46202749293405271 0 0.36759308160263382 0.44069077566344278 0 0.35148548307386779 0.4521843642116673 0 0.38037359216501598 0.46202749293405271 0 0.35148548307386779 0.4521843642116673 0 0.3402577354876144 0.44371790825716678 0 0.34911054540060532 0.43140654506954701 0 0.35148548307386779 0.4521843642116673 0 0.34911054540060532 0.43140654506954701 0 0.36759308160263382 0.44069077566344278 0 0.35148548307386779 0.4521843642116673 0 0.34911054540060532 0.43140654506954701 0 0.3538604207471312 0.47296218335378759 0 0.35148548307386779 0.4521843642116673 0 0.3538604207471312 0.47296218335378759 0 0.35148548307386779 0.4521843642116673 0 0.34062588316806852 0.46571968712185913 0 0.35148548307386779 0.4521843642116673 0 0.34062588316806852 0.46571968712185913 0 0.3393021227713709 0.45410992893078261 0 0.34062588316806852 0.46571968712185913 0 0.3393021227713709 0.45410992893078261 0 0.3227268909422194 0.45759137096400909 0 0.3393021227713709 0.45410992893078261 0 0.3227268909422194 0.45759137096400909 0 0.34062588316806852 0.46571968712185913 0 0.3227268909422194 0.45759137096400909 0 0.33499744096202211 0.48074174473077391 0 0.3393021227713709 0.45410992893078261 0 0.33010827020948108 0.44803375377009108 0 0.3227268909422194 0.45759137096400909 0 0.35148548307386779 0.4521843642116673 0 0.3393021227713709 0.45410992893078261 0 0.3402577354876144 0.44371790825716678 0 0.3393021227713709 0.45410992893078261 0 0.3402577354876144 0.44371790825716678 0 0.33010827020948108 0.44803375377009108 0 0.33010827020948108 0.44803375377009108 0 0.32146058160958502 0.43938239923666922 0 0.33324359782373297 0.43491575574025571 0 0.3402577354876144 0.44371790825716678 0 0.33010827020948108 0.44803375377009108 0 0.33324359782373297 0.43491575574025571 0 0.33010827020948108 0.44803375377009108 0 0.32006214648989678 0.45256390031561988 0 0.3227268909422194 0.45759137096400909 0 0.33010827020948108 0.44803375377009108 0 0.32146058160958502 0.43938239923666922 0 0.32006214648989678 0.45256390031561988 0 0.32006214648989678 0.45256390031561988 0 0.31403025687848429 0.44317715961323012 0 0.30581731146010249 0.44775155910417519 0 0.32146058160958502 0.43938239923666922 0 0.32006214648989678 0.45256390031561988 0 0.31403025687848429 0.44317715961323012 0 0.32146058160958502 0.43938239923666922 0 0.31403025687848429 0.44317715961323012 0 0.30878098795435288 0.4330107797964563 0 0.3227268909422194 0.45759137096400909 0 0.31632218280348928 0.47375461686823589 0 0.30129841204463831 0.46209218325496881 0 0.32006214648989678 0.45256390031561988 0 0.3227268909422194 0.45759137096400909 0 0.30129841204463831 0.46209218325496881 0 0.32006214648989678 0.45256390031561988 0 0.3227268909422194 0.45759137096400909 0 0.31632218280348928 0.47375461686823589 0 0.33499744096202211 0.48074174473077391 0 0.31738125492594621 0.48800709739813092 0 0.33499744096202211 0.48074174473077391 0 0.31738125492594621 0.48800709739813092 0 0.3227268909422194 0.45759137096400909 0 0.31632218280348928 0.47375461686823589 0 0.33499744096202211 0.48074174473077391 0 0.31632218280348928 0.47375461686823589 0 0.31738125492594621 0.48800709739813092 0 0.30524495193473478 0.48356991549657391 0 0.3227268909422194 0.45759137096400909 0 0.33499744096202211 0.48074174473077391 0 0.3538604207471312 0.47296218335378759 0 0.34062588316806852 0.46571968712185913 0 0.33499744096202211 0.48074174473077391 0 0.345205024949923 0.4999999999999995 0 0.33499744096202211 0.48074174473077391 0 0.345205024949923 0.4999999999999995 0 0.32897540463806701 0.49112972879375932 0 0.32088260394190582 0.5 0 0.345205024949923 0.4999999999999995 0 0.33499744096202211 0.48074174473077391 0 0.32897540463806701 0.49112972879375932 0 0.34798585922898267 0.48726880308200909 0 0.345205024949923 0.4999999999999995 0 0.33499744096202211 0.48074174473077391 0 0.32897540463806701 0.49112972879375932 0 0.32088260394190582 0.5 0 0.31738125492594621 0.48800709739813092 0 0.32088260394190582 0.5 0 0.31738125492594621 0.48800709739813092 0 0.29976506888986992 0.4952724500654872 0 0.33499744096202211 0.48074174473077391 0 0.32897540463806701 0.49112972879375932 0 0.31738125492594621 0.48800709739813092 0 0.31738125492594621 0.48800709739813092 0 0.29976506888986992 0.4952724500654872 0 0.30524495193473478 0.48356991549657391 0 0.32088260394190582 0.5 0 0.29976506888986992 0.4952724500654872 0 0.29656018293388853 0.5 0 0.31738125492594621 0.48800709739813092 0 0.29976506888986992 0.4952724500654872 0 0.29976506888986992 0.4952724500654872 0 0.30524495193473478 0.48356991549657391 0 0.2965450486356494 0.48703193366597908 0 0.31632218280348928 0.47375461686823589 0 0.30524495193473478 0.48356991549657391 0 0.30129841204463831 0.46209218325496881 0 0.30524495193473478 0.48356991549657391 0 0.29222383633954763 0.47862515140656381 0 0.30129841204463831 0.46209218325496881 0 0.30524495193473478 0.48356991549657391 0 0.29222383633954763 0.47862515140656381 0 0.2965450486356494 0.48703193366597908 0 0.29222383633954763 0.47862515140656381 0 0.28894633737844561 0.49066021769529178 0 0.2760538475364635 0.48329649777296319 0 0.29222383633954763 0.47862515140656381 0 0.2760538475364635 0.48329649777296319 0 0.2798699331470571 0.46659299554592792 0 0.29222383633954763 0.47862515140656381 0 0.2798699331470571 0.46659299554592792 0 0.30129841204463831 0.46209218325496881 0 0.29656018293388853 0.5 0 0.28894633737844561 0.49066021769529178 0 0.27223776192587129 0.49999999999999872 0 0.29976506888986992 0.4952724500654872 0 0.29656018293388853 0.5 0 0.28894633737844561 0.49066021769529178 0 0.29976506888986992 0.4952724500654872 0 0.2965450486356494 0.48703193366597908 0 0.28894633737844561 0.49066021769529178 0 0.29222383633954763 0.47862515140656381 0 0.2965450486356494 0.48703193366597908 0 0.28894633737844561 0.49066021769529178 0 0.27223776192587129 0.49999999999999872 0 0.2760538475364635 0.48329649777296319 0 0.25965323348248898 0.48644800176276448 0 0.27223776192587129 0.49999999999999872 0 0.2760538475364635 0.48329649777296319 0 0.28894633737844561 0.49066021769529178 0 0.27223776192587129 0.49999999999999872 0 0.2760538475364635 0.48329649777296319 0 0.2760538475364635 0.48329649777296319 0 0.2798699331470571 0.46659299554592792 0 0.2760538475364635 0.48329649777296319 0 0.26072302557839888 0.47061458930117223 0 0.2798699331470571 0.46659299554592792 0 0.2499945297026557 0.46091901841247801 0 0.24172054360973219 0.47832892173968827 0 0.26072302557839888 0.47061458930117223 0 0.24172054360973219 0.47832892173968827 0 0.26072302557839888 0.47061458930117223 0 0.25965323348248898 0.48644800176276448 0 0.2760538475364635 0.48329649777296319 0 0.26072302557839888 0.47061458930117223 0 0.25965323348248898 0.48644800176276448 0 0.24753098876197949 0.5 0 0.27223776192587129 0.49999999999999872 0 0.25965323348248898 0.48644800176276448 0 0.24894748304271469 0.44529199912820849 0 0.26584999625029671 0.45322339297699782 0 0.26393509086451539 0.43480514946900972 0 0.2499945297026557 0.46091901841247801 0 0.26072302557839888 0.47061458930117223 0 0.26584999625029671 0.45322339297699782 0 0.2499945297026557 0.46091901841247801 0 0.24894748304271469 0.44529199912820849 0 0.26584999625029671 0.45322339297699782 0 0.26072302557839888 0.47061458930117223 0 0.2798699331470571 0.46659299554592792 0 0.26584999625029671 0.45322339297699782 0 0.2798699331470571 0.46659299554592792 0 0.28523429239461351 0.44311249857031493 0 0.26072302557839888 0.47061458930117223 0 0.26584999625029671 0.45322339297699782 0 0.2798699331470571 0.46659299554592792 0 0.26584999625029671 0.45322339297699782 0 0.28523429239461351 0.44311249857031493 0 0.26393509086451539 0.43480514946900972 0 0.2798699331470571 0.46659299554592792 0 0.28523429239461351 0.44311249857031493 0 0.2798699331470571 0.46659299554592792 0 0.28523429239461351 0.44311249857031493 0 0.30129841204463831 0.46209218325496881 0 0.2798699331470571 0.46659299554592792 0 0.30129841204463831 0.46209218325496881 0 0.32006214648989678 0.45256390031561988 0 0.30129841204463831 0.46209218325496881 0 0.30581731146010249 0.44775155910417519 0 0.3227268909422194 0.45759137096400909 0 0.30129841204463831 0.46209218325496881 0 0.28523429239461351 0.44311249857031493 0 0.30581731146010249 0.44775155910417519 0 0.30878098795435288 0.4330107797964563 0 0.28523429239461351 0.44311249857031493 0 0.30129841204463831 0.46209218325496881 0 0.30581731146010249 0.44775155910417519 0 0.31403025687848429 0.44317715961323012 0 0.30581731146010249 0.44775155910417519 0 0.30878098795435288 0.4330107797964563 0 0.30878098795435288 0.4330107797964563 0 0.30761435032256829 0.41547636128313792 0 0.29059865164217102 0.41963200159470199 0 0.30761435032256829 0.41547636128313792 0 0.29059865164217102 0.41963200159470199 0 0.29596301088972932 0.39615150461908938 0 0.29059865164217102 0.41963200159470199 0 0.27539241477553988 0.41495414431735927 0 0.28210281370939111 0.40309815880401911 0 0.29059865164217102 0.41963200159470199 0 0.28210281370939111 0.40309815880401911 0 0.29596301088972932 0.39615150461908938 0 0.29059865164217102 0.41963200159470199 0 0.29596301088972932 0.39615150461908938 0 0.28523429239461351 0.44311249857031493 0 0.29059865164217102 0.41963200159470199 0 0.28523429239461351 0.44311249857031493 0 0.30878098795435288 0.4330107797964563 0 0.29059865164217102 0.41963200159470199 0 0.28523429239461351 0.44311249857031493 0 0.29059865164217102 0.41963200159470199 0 0.27750536422996058 0.42763758239427152 0 0.28523429239461351 0.44311249857031493 0 0.27750536422996058 0.42763758239427152 0 0.26393509086451539 0.43480514946900972 0 0.27750536422996058 0.42763758239427152 0 0.25916667868044319 0.41870675668318902 0 0.26393509086451539 0.43480514946900972 0 0.29059865164217102 0.41963200159470199 0 0.27750536422996058 0.42763758239427152 0 0.27539241477553988 0.41495414431735927 0 0.27750536422996058 0.42763758239427152 0 0.27539241477553988 0.41495414431735927 0 0.25916667868044319 0.41870675668318902 0 0.27539241477553988 0.41495414431735927 0 0.25916667868044319 0.41870675668318902 0 0.26854908896895829 0.40596140165892219 0 0.27539241477553988 0.41495414431735927 0 0.26854908896895829 0.40596140165892219 0 0.28210281370939111 0.40309815880401911 0 0.25916667868044319 0.41870675668318902 0 0.25868259288810191 0.40557153794632 0 0.26854908896895829 0.40596140165892219 0 0.24983968240297941 0.40812732298050969 0 0.25916667868044319 0.41870675668318902 0 0.25868259288810191 0.40557153794632 0 0.24474911724694531 0.41806916662651028 0 0.24983968240297941 0.40812732298050969 0 0.25916667868044319 0.41870675668318902 0 0.24474911724694531 0.41806916662651028 0 0.25916667868044319 0.41870675668318902 0 0.25073732065305371 0.42967410883794921 0 0.25916667868044319 0.41870675668318902 0 0.25073732065305371 0.42967410883794921 0 0.26393509086451539 0.43480514946900972 0 0.24894748304271469 0.44529199912820849 0 0.25073732065305371 0.42967410883794921 0 0.26393509086451539 0.43480514946900972 0 0.25800477182967818 0.38778712275122629 0 0.26805035755522139 0.38535416790565619 0 0.25942824353548422 0.3701896906427487 0 0.24506680983499279 0.3870933417336706 0 0.25800477182967818 0.38778712275122629 0 0.25942824353548422 0.3701896906427487 0 0.25800477182967818 0.38778712275122629 0 0.26330315178382102 0.39649799347823439 0 0.26805035755522139 0.38535416790565619 0 0.24506680983499279 0.3870933417336706 0 0.25800477182967818 0.38778712275122629 0 0.25311075943973432 0.39740741682294672 0 0.24983968240297941 0.40812732298050969 0 0.25311075943973432 0.39740741682294672 0 0.25868259288810191 0.40557153794632 0 0.25311075943973432 0.39740741682294672 0 0.25868259288810191 0.40557153794632 0 0.26330315178382102 0.39649799347823439 0 0.25868259288810191 0.40557153794632 0 0.26330315178382102 0.39649799347823439 0 0.26854908896895829 0.40596140165892219 0 0.25800477182967818 0.38778712275122629 0 0.25311075943973432 0.39740741682294672 0 0.26330315178382102 0.39649799347823439 0 0.26330315178382102 0.39649799347823439 0 0.27264688197645331 0.39693981872441181 0 0.26805035755522139 0.38535416790565619 0 0.27264688197645331 0.39693981872441181 0 0.27824579278366363 0.39172111919704389 0 0.26805035755522139 0.38535416790565619 0 0.26330315178382102 0.39649799347823439 0 0.27264688197645331 0.39693981872441181 0 0.26854908896895829 0.40596140165892219 0 0.27264688197645331 0.39693981872441181 0 0.26854908896895829 0.40596140165892219 0 0.28210281370939111 0.40309815880401911 0 0.27264688197645331 0.39693981872441181 0 0.27824579278366363 0.39172111919704389 0 0.28210281370939111 0.40309815880401911 0 0.26805035755522139 0.38535416790565619 0 0.27856209870918508 0.37937793938116909 0 0.25942824353548422 0.3701896906427487 0 0.27824579278366363 0.39172111919704389 0 0.26805035755522139 0.38535416790565619 0 0.27856209870918508 0.37937793938116909 0 0.27856209870918508 0.37937793938116909 0 0.28847277150592981 0.37746057468263761 0 0.29769595388288578 0.38856618811959009 0 0.27856209870918508 0.37937793938116909 0 0.28997759434929321 0.39444483201859898 0 0.29769595388288578 0.38856618811959009 0 0.27856209870918508 0.37937793938116909 0 0.29769595388288578 0.38856618811959009 0 0.27824579278366363 0.39172111919704389 0 0.27856209870918508 0.37937793938116909 0 0.28997759434929321 0.39444483201859898 0 0.28847277150592981 0.37746057468263761 0 0.2949846934959599 0.37813488750545782 0 0.29769595388288578 0.38856618811959009 0 0.28847277150592981 0.37746057468263761 0 0.2949846934959599 0.37813488750545782 0 0.29396210666239347 0.37217445452841919 0 0.27824579278366363 0.39172111919704389 0 0.28210281370939111 0.40309815880401911 0 0.28997759434929321 0.39444483201859898 0 0.28210281370939111 0.40309815880401911 0 0.28997759434929321 0.39444483201859898 0 0.29596301088972932 0.39615150461908938 0 0.29596301088972932 0.39615150461908938 0 0.29769595388288578 0.38856618811959009 0 0.28997759434929321 0.39444483201859898 0 0.29596301088972932 0.39615150461908938 0 0.29769595388288578 0.38856618811959009 0 0.28997759434929321 0.39444483201859898 0 0.29596301088972932 0.39615150461908938 0 0.29596301088972932 0.39615150461908938 0 0.29769595388288578 0.38856618811959009 0 0.31402738116511192 0.39640868586822903 0 0.29769595388288578 0.38856618811959009 0 0.31402738116511192 0.39640868586822903 0 0.29596301088972932 0.39615150461908938 0 0.321349309308535 0.40339011527325958 0 0.31402738116511192 0.39640868586822903 0 0.30761435032256829 0.41547636128313792 0 0.29596301088972932 0.39615150461908938 0 0.321349309308535 0.40339011527325958 0 0.29596301088972932 0.39615150461908938 0 0.321349309308535 0.40339011527325958 0 0.29769595388288578 0.38856618811959009 0 0.30916813764674339 0.38371520530725362 0 0.31402738116511192 0.39640868586822903 0 0.29769595388288578 0.38856618811959009 0 0.30103973626508412 0.37393001845066609 0 0.29769595388288578 0.38856618811959009 0 0.30916813764674339 0.38371520530725362 0 0.30103973626508412 0.37393001845066609 0 0.2949846934959599 0.37813488750545782 0 0.29769595388288578 0.38856618811959009 0 0.30103973626508412 0.37393001845066609 0 0.30916813764674339 0.38371520530725362 0 0.30822948250808302 0.37585122621143691 0 0.31639743397056341 0.377401376404571 0 0.30916813764674339 0.38371520530725362 0 0.30822948250808302 0.37585122621143691 0 0.30103973626508412 0.37393001845066609 0 0.31639743397056341 0.377401376404571 0 0.31770155165048442 0.38725274020132761 0 0.32442236347929893 0.38314270900358799 0 0.30916813764674339 0.38371520530725362 0 0.31639743397056341 0.377401376404571 0 0.31770155165048442 0.38725274020132761 0 0.30916813764674339 0.38371520530725362 0 0.31770155165048442 0.38725274020132761 0 0.31402738116511192 0.39640868586822903 0 0.32442236347929893 0.38314270900358799 0 0.33102126608008742 0.38792999601588418 0 0.3252597200959807 0.39386085788689151 0 0.31770155165048442 0.38725274020132761 0 0.32442236347929893 0.38314270900358799 0 0.3252597200959807 0.39386085788689151 0 0.32442236347929893 0.38314270900358799 0 0.33033939230015041 0.37768374485751222 0 0.32454133433499588 0.37212435075831879 0 0.31639743397056341 0.377401376404571 0 0.32442236347929893 0.38314270900358799 0 0.32454133433499588 0.37212435075831879 0 0.33033939230015041 0.37768374485751222 0 0.33655751475364748 0.38226554753368869 0 0.3367923942874233 0.37052755481984911 0 0.33780147286707768 0.39406687675256669 0 0.34653699238706381 0.37584457959385048 0 0.33655751475364748 0.38226554753368869 0 0.33780147286707768 0.39406687675256669 0 0.34653699238706381 0.37584457959385048 0 0.33033939230015041 0.37768374485751222 0 0.33102126608008742 0.38792999601588418 0 0.33655751475364748 0.38226554753368869 0 0.32442236347929893 0.38314270900358799 0 0.33033939230015041 0.37768374485751222 0 0.33102126608008742 0.38792999601588418 0 0.33102126608008742 0.38792999601588418 0 0.33655751475364748 0.38226554753368869 0 0.33780147286707768 0.39406687675256669 0 0.33655751475364748 0.38226554753368869 0 0.34653699238706381 0.37584457959385048 0 0.3367923942874233 0.37052755481984911 0 0.34107305885848999 0.40321252611324532 0 0.330358808447338 0.40425118361686768 0 0.34673560772734152 0.41062872592742672 0 0.330358808447338 0.40425118361686768 0 0.321349309308535 0.40339011527325958 0 0.34673560772734152 0.41062872592742672 0 0.34107305885848999 0.40321252611324532 0 0.33780147286707768 0.39406687675256669 0 0.330358808447338 0.40425118361686768 0 0.34107305885848999 0.40321252611324532 0 0.33780147286707768 0.39406687675256669 0 0.34489910636695548 0.40013874292309759 0 0.33780147286707768 0.39406687675256669 0 0.34757228123807032 0.39514578968338748 0 0.34489910636695548 0.40013874292309759 0 0.33102126608008742 0.38792999601588418 0 0.33780147286707768 0.39406687675256669 0 0.3252597200959807 0.39386085788689151 0 0.33780147286707768 0.39406687675256669 0 0.330358808447338 0.40425118361686768 0 0.3252597200959807 0.39386085788689151 0 0.330358808447338 0.40425118361686768 0 0.321349309308535 0.40339011527325958 0 0.31402738116511192 0.39640868586822903 0 0.330358808447338 0.40425118361686768 0 0.3252597200959807 0.39386085788689151 0 0.31402738116511192 0.39640868586822903 0 0.330358808447338 0.40425118361686768 0 0.31402738116511192 0.39640868586822903 0 0.31770155165048442 0.38725274020132761 0 0.3252597200959807 0.39386085788689151 0 0.31402738116511192 0.39640868586822903 0 0.30761435032256829 0.41547636128313792 0 0.321349309308535 0.40339011527325958 0 0.3213797918180531 0.42519740513218179 0 0.321349309308535 0.40339011527325958 0 0.3213797918180531 0.42519740513218179 0 0.33613783919233481 0.42300066264927688 0 0.30878098795435288 0.4330107797964563 0 0.30761435032256829 0.41547636128313792 0 0.3213797918180531 0.42519740513218179 0 0.32146058160958502 0.43938239923666922 0 0.30878098795435288 0.4330107797964563 0 0.3213797918180531 0.42519740513218179 0 0.32146058160958502 0.43938239923666922 0 0.3213797918180531 0.42519740513218179 0 0.33324359782373297 0.43491575574025571 0 0.33324359782373297 0.43491575574025571 0 0.33613783919233481 0.42300066264927688 0 0.34911054540060532 0.43140654506954701 0 0.3402577354876144 0.44371790825716678 0 0.33324359782373297 0.43491575574025571 0 0.34911054540060532 0.43140654506954701 0 0.3213797918180531 0.42519740513218179 0 0.33324359782373297 0.43491575574025571 0 0.33613783919233481 0.42300066264927688 0 0.321349309308535 0.40339011527325958 0 0.34673560772734152 0.41062872592742672 0 0.321349309308535 0.40339011527325958 0 0.33613783919233481 0.42300066264927688 0 0.34673560772734152 0.41062872592742672 0 0.34673560772734152 0.41062872592742672 0 0.36347146244019662 0.41540076217440702 0 0.35878951223348382 0.40388463571122529 0 0.33613783919233481 0.42300066264927688 0 0.34673560772734152 0.41062872592742672 0 0.34911054540060532 0.43140654506954701 0 0.34107305885848999 0.40321252611324532 0 0.34623965468449941 0.40628973937498142 0 0.34673560772734152 0.41062872592742672 0 0.34623965468449941 0.40628973937498142 0 0.34673560772734152 0.41062872592742672 0 0.34673560772734152 0.41062872592742672 0 0.34911054540060532 0.43140654506954701 0 0.34623965468449941 0.40628973937498142 0 0.34673560772734152 0.41062872592742672 0 0.3518090641866401 0.40197878269130671 0 0.34673560772734152 0.41062872592742672 0 0.36166832673390809 0.42817692990116529 0 0.36347146244019662 0.41540076217440702 0 0.34673560772734152 0.41062872592742672 0 0.36347146244019662 0.41540076217440702 0 0.34673560772734152 0.41062872592742672 0 0.34911054540060532 0.43140654506954701 0 0.36166832673390809 0.42817692990116529 0 0.36759308160263382 0.44069077566344278 0 0.34911054540060532 0.43140654506954701 0 0.36166832673390809 0.42817692990116529 0 0.36166832673390809 0.42817692990116529 0 0.37461525171859988 0.43019365704791368 0 0.37102625942533612 0.41929375164671939 0 0.36759308160263382 0.44069077566344278 0 0.36166832673390809 0.42817692990116529 0 0.37461525171859988 0.43019365704791368 0 0.36347146244019662 0.41540076217440702 0 0.37102625942533612 0.41929375164671939 0 0.38020731715305239 0.42017279842138422 0 0.36347146244019662 0.41540076217440702 0 0.37209493371354091 0.40659424812207351 0 0.38020731715305239 0.42017279842138422 0 0.36347146244019662 0.41540076217440702 0 0.38020731715305239 0.42017279842138422 0 0.36347146244019662 0.41540076217440702 0 0.37209493371354091 0.40659424812207351 0 0.35878951223348382 0.40388463571122529 0 0.36166832673390809 0.42817692990116529 0 0.36347146244019662 0.41540076217440702 0 0.37102625942533612 0.41929375164671939 0 0.37209493371354091 0.40659424812207351 0 0.36553506409241882 0.39735961870647812 0 0.37646299548540302 0.39618012433209843 0 0.37209493371354091 0.40659424812207351 0 0.36553506409241882 0.39735961870647812 0 0.35878951223348382 0.40388463571122529 0 0.36553506409241882 0.39735961870647812 0 0.36721554665477091 0.38759835152755551 0 0.35619283196438689 0.39287225633943212 0 0.36553506409241882 0.39735961870647812 0 0.35878951223348382 0.40388463571122529 0 0.35619283196438689 0.39287225633943212 0 0.36553506409241882 0.39735961870647812 0 0.36721554665477091 0.38759835152755551 0 0.37646299548540302 0.39618012433209843 0 0.36721554665477091 0.38759835152755551 0 0.37927713716371919 0.38447561026290222 0 0.37646299548540302 0.39618012433209843 0 0.36721554665477091 0.38759835152755551 0 0.36859946894306378 0.37510046181231282 0 0.37927713716371919 0.38447561026290222 0 0.36859946894306378 0.37510046181231282 0 0.35720475670829621 0.38014238291503638 0 0.36101871522548451 0.37190545065412572 0 0.36721554665477091 0.38759835152755551 0 0.36859946894306378 0.37510046181231282 0 0.35720475670829621 0.38014238291503638 0 0.36721554665477091 0.38759835152755551 0 0.35720475670829621 0.38014238291503638 0 0.35619283196438689 0.39287225633943212 0 0.33780147286707768 0.39406687675256669 0 0.34653699238706381 0.37584457959385048 0 0.34906905739731903 0.38759822771964292 0 0.35720475670829621 0.38014238291503638 0 0.34906905739731903 0.38759822771964292 0 0.35619283196438689 0.39287225633943212 0 0.35720475670829621 0.38014238291503638 0 0.34653699238706381 0.37584457959385048 0 0.35606263023444551 0.37008304547179521 0 0.35720475670829621 0.38014238291503638 0 0.34653699238706381 0.37584457959385048 0 0.34906905739731903 0.38759822771964292 0 0.33780147286707768 0.39406687675256669 0 0.34906905739731903 0.38759822771964292 0 0.34757228123807032 0.39514578968338748 0 0.34906905739731903 0.38759822771964292 0 0.34757228123807032 0.39514578968338748 0 0.35619283196438689 0.39287225633943212 0 0.34107305885848999 0.40321252611324532 0 0.34623965468449941 0.40628973937498142 0 0.34489910636695548 0.40013874292309759 0 0.34623965468449941 0.40628973937498142 0 0.34489910636695548 0.40013874292309759 0 0.3518090641866401 0.40197878269130671 0 0.34757228123807032 0.39514578968338748 0 0.34489910636695548 0.40013874292309759 0 0.3518090641866401 0.40197878269130671 0 0.34673560772734152 0.41062872592742672 0 0.3518090641866401 0.40197878269130671 0 0.35878951223348382 0.40388463571122529 0 0.3518090641866401 0.40197878269130671 0 0.35878951223348382 0.40388463571122529 0 0.35619283196438689 0.39287225633943212 0 0.34757228123807032 0.39514578968338748 0 0.3518090641866401 0.40197878269130671 0 0.35619283196438689 0.39287225633943212 0 0.35527251190705539 0.35762228243513688 0 0.35504514861607289 0.34481684927319378 0 0.36385823718965721 0.33971245611457918 0 0.35527251190705539 0.35762228243513688 0 0.36002218795423879 0.35699948966148509 0 0.35527251190705539 0.35762228243513688 0 0.35504514861607289 0.34481684927319378 0 0.34803422391006339 0.3476603823782114 0 0.35527251190705539 0.35762228243513688 0 0.34330192176654051 0.3591919046497849 0 0.35527251190705539 0.35762228243513688 0 0.34803422391006339 0.3476603823782114 0 0.34330192176654051 0.3591919046497849 0 0.34879398239122128 0.36623035869744919 0 0.34330192176654051 0.3591919046497849 0 0.34653699238706381 0.37584457959385048 0 0.35527251190705539 0.35762228243513688 0 0.34879398239122128 0.36623035869744919 0 0.34653699238706381 0.37584457959385048 0 0.35527251190705539 0.35762228243513688 0 0.35606263023444551 0.37008304547179521 0 0.34653699238706381 0.37584457959385048 0 0.35527251190705539 0.35762228243513688 0 0.35527251190705539 0.35762228243513688 0 0.34879398239122128 0.36623035869744919 0 0.34330192176654051 0.3591919046497849 0 0.34653699238706381 0.37584457959385048 0 0.34879398239122128 0.36623035869744919 0 0.3367923942874233 0.37052755481984911 0 0.35720475670829621 0.38014238291503638 0 0.35606263023444551 0.37008304547179521 0 0.36101871522548451 0.37190545065412572 0 0.35606263023444551 0.37008304547179521 0 0.36028017494433268 0.36490053176082882 0 0.36101871522548451 0.37190545065412572 0 0.35527251190705539 0.35762228243513688 0 0.35606263023444551 0.37008304547179521 0 0.36028017494433268 0.36490053176082882 0 0.35527251190705539 0.35762228243513688 0 0.36028017494433268 0.36490053176082882 0 0.36002218795423879 0.35699948966148509 0 0.36028017494433268 0.36490053176082882 0 0.36517133294745813 0.36172966377999433 0 0.36002218795423879 0.35699948966148509 0 0.36028017494433268 0.36490053176082882 0 0.36517133294745813 0.36172966377999433 0 0.36546759267325268 0.36776440321565279 0 0.36028017494433268 0.36490053176082882 0 0.36101871522548451 0.37190545065412572 0 0.36546759267325268 0.36776440321565279 0 0.36859946894306378 0.37510046181231282 0 0.36101871522548451 0.37190545065412572 0 0.36546759267325268 0.36776440321565279 0 0.36859946894306378 0.37510046181231282 0 0.36546759267325268 0.36776440321565279 0 0.37226827130592433 0.36518590807100237 0 0.36859946894306378 0.37510046181231282 0 0.37226827130592433 0.36518590807100237 0 0.3806406261938996 0.37286873145149591 0 0.37226827130592433 0.36518590807100237 0 0.36900178089622759 0.3552009353235786 0 0.3774158997637807 0.35809612644963279 0 0.36517133294745813 0.36172966377999433 0 0.37226827130592433 0.36518590807100237 0 0.36900178089622759 0.3552009353235786 0 0.36517133294745813 0.36172966377999433 0 0.36546759267325268 0.36776440321565279 0 0.37226827130592433 0.36518590807100237 0 0.36900178089622759 0.3552009353235786 0 0.37543545364944891 0.34965282560090127 0 0.3774158997637807 0.35809612644963279 0 0.35527251190705539 0.35762228243513688 0 0.36385823718965721 0.33971245611457918 0 0.35527251190705539 0.35762228243513688 0 0.36002218795423879 0.35699948966148509 0 0.36385823718965721 0.33971245611457918 0 0.36900178089622759 0.3552009353235786 0 0.36002218795423879 0.35699948966148509 0 0.36385823718965721 0.33971245611457918 0 0.36517133294745813 0.36172966377999433 0 0.36900178089622759 0.3552009353235786 0 0.36002218795423879 0.35699948966148509 0 0.36900178089622759 0.3552009353235786 0 0.36385823718965721 0.33971245611457918 0 0.37543545364944891 0.34965282560090127 0 0.36385823718965721 0.33971245611457918 0 0.37244396247226769 0.32180262979402602 0 0.36385823718965721 0.33971245611457918 0 0.38127304779083809 0.34120769568174653 0 0.37543545364944891 0.34965282560090127 0 0.36385823718965721 0.33971245611457918 0 0.37244396247226769 0.32180262979402602 0 0.38062769900083199 0.32878151859563198 0 0.36385823718965721 0.33971245611457918 0 0.37244396247226769 0.32180262979402602 0 0.35301562145752119 0.33427227616485028 0 0.37244396247226769 0.32180262979402602 0 0.35301562145752119 0.33427227616485028 0 0.37244396247226769 0.32180262979402602 0 0.3560941029259902 0.31769871315621201 0 0.37515378582598907 0.31614993721102608 0 0.37244396247226769 0.32180262979402602 0 0.3560941029259902 0.31769871315621201 0 0.35301562145752119 0.33427227616485028 0 0.37244396247226769 0.32180262979402602 0 0.37515378582598907 0.31614993721102608 0 0.3560941029259902 0.31769871315621201 0 0.35301562145752119 0.33427227616485028 0 0.3380867099691599 0.3253619683241612 0 0.3560941029259902 0.31769871315621201 0 0.3380867099691599 0.3253619683241612 0 0.33924651782773668 0.30825433687432641 0 0.34803422391006339 0.3476603823782114 0 0.35301562145752119 0.33427227616485028 0 0.33358728044277453 0.34674192253567482 0 0.35504514861607289 0.34481684927319378 0 0.34803422391006339 0.3476603823782114 0 0.35301562145752119 0.33427227616485028 0 0.35504514861607289 0.34481684927319378 0 0.36385823718965721 0.33971245611457918 0 0.35301562145752119 0.33427227616485028 0 0.35301562145752119 0.33427227616485028 0 0.33358728044277453 0.34674192253567482 0 0.35301562145752119 0.33427227616485028 0 0.3380867099691599 0.3253619683241612 0 0.33358728044277453 0.34674192253567482 0 0.3380867099691599 0.3253619683241612 0 0.32339584829622708 0.3336809001352643 0 0.33358728044277453 0.34674192253567482 0 0.32339584829622708 0.3336809001352643 0 0.33358728044277453 0.34674192253567482 0 0.3380867099691599 0.3253619683241612 0 0.32463220034621743 0.31372695477561119 0 0.33924651782773668 0.30825433687432641 0 0.3380867099691599 0.3253619683241612 0 0.32463220034621743 0.31372695477561119 0 0.32339584829622708 0.3336809001352643 0 0.32463220034621743 0.31372695477561119 0 0.31320441614968042 0.32061987773485318 0 0.32339584829622708 0.3336809001352643 0 0.31320441614968042 0.32061987773485318 0 0.32339584829622708 0.3336809001352643 0 0.31320441614968042 0.32061987773485318 0 0.31302546459621983 0.34033689908909093 0 0.31320441614968042 0.32061987773485318 0 0.32339584829622708 0.3336809001352643 0 0.31302546459621983 0.34033689908909093 0 0.32339584829622708 0.3336809001352643 0 0.32137009955926038 0.34499898845333521 0 0.33358728044277453 0.34674192253567482 0 0.32339584829622708 0.3336809001352643 0 0.31302546459621983 0.34033689908909093 0 0.32137009955926038 0.34499898845333521 0 0.32137009955926038 0.34499898845333521 0 0.33358728044277453 0.34674192253567482 0 0.31284651304275901 0.36005392044332862 0 0.33358728044277453 0.34674192253567482 0 0.31284651304275901 0.36005392044332862 0 0.31302546459621983 0.34033689908909093 0 0.31284651304275901 0.36005392044332862 0 0.33358728044277453 0.34674192253567482 0 0.32805999021241139 0.36119047565426632 0 0.31284651304275901 0.36005392044332862 0 0.31302546459621983 0.34033689908909093 0 0.32137009955926038 0.34499898845333521 0 0.31284651304275901 0.36005392044332862 0 0.33358728044277453 0.34674192253567482 0 0.34330192176654051 0.3591919046497849 0 0.32805999021241139 0.36119047565426632 0 0.33358728044277453 0.34674192253567482 0 0.34330192176654051 0.3591919046497849 0 0.34803422391006339 0.3476603823782114 0 0.33358728044277453 0.34674192253567482 0 0.34330192176654051 0.3591919046497849 0 0.34879398239122128 0.36623035869744919 0 0.34330192176654051 0.3591919046497849 0 0.3367923942874233 0.37052755481984911 0 0.34330192176654051 0.3591919046497849 0 0.3367923942874233 0.37052755481984911 0 0.32805999021241139 0.36119047565426632 0 0.34330192176654051 0.3591919046497849 0 0.32805999021241139 0.36119047565426632 0 0.3367923942874233 0.37052755481984911 0 0.32454133433499588 0.37212435075831879 0 0.32805999021241139 0.36119047565426632 0 0.33033939230015041 0.37768374485751222 0 0.3367923942874233 0.37052755481984911 0 0.32454133433499588 0.37212435075831879 0 0.32454133433499588 0.37212435075831879 0 0.32805999021241139 0.36119047565426632 0 0.3189127221117144 0.36898927193428049 0 0.32805999021241139 0.36119047565426632 0 0.31281805865828222 0.36318904665874518 0 0.32805999021241139 0.36119047565426632 0 0.31281805865828222 0.36318904665874518 0 0.3189127221117144 0.36898927193428049 0 0.31281805865828222 0.36318904665874518 0 0.31274679338231881 0.37104111019549979 0 0.32805999021241139 0.36119047565426632 0 0.31281805865828222 0.36318904665874518 0 0.31284651304275901 0.36005392044332862 0 0.31281805865828222 0.36318904665874518 0 0.31284651304275901 0.36005392044332862 0 0.31281805865828222 0.36318904665874518 0 0.31274679338231881 0.37104111019549979 0 0.3189127221117144 0.36898927193428049 0 0.31639743397056341 0.377401376404571 0 0.32454133433499588 0.37212435075831879 0 0.3189127221117144 0.36898927193428049 0 0.31639743397056341 0.377401376404571 0 0.31274679338231881 0.37104111019549979 0 0.3189127221117144 0.36898927193428049 0 0.30822948250808302 0.37585122621143691 0 0.30671499161451848 0.36398930040537641 0 0.30103973626508412 0.37393001845066609 0 0.30822948250808302 0.37585122621143691 0 0.31274679338231881 0.37104111019549979 0 0.30671499161451848 0.36398930040537641 0 0.30822948250808302 0.37585122621143691 0 0.31639743397056341 0.377401376404571 0 0.31274679338231881 0.37104111019549979 0 0.31281805865828222 0.36318904665874518 0 0.30671499161451848 0.36398930040537641 0 0.31281805865828222 0.36318904665874518 0 0.31274679338231881 0.37104111019549979 0 0.30671499161451848 0.36398930040537641 0 0.31281805865828222 0.36318904665874518 0 0.31284651304275901 0.36005392044332862 0 0.30671499161451848 0.36398930040537641 0 0.31284651304275901 0.36005392044332862 0 0.30671499161451848 0.36398930040537641 0 0.30671499161451848 0.36398930040537641 0 0.29396210666239347 0.37217445452841919 0 0.30671499161451848 0.36398930040537641 0 0.30103973626508412 0.37393001845066609 0 0.29396210666239347 0.37217445452841919 0 0.3107713256461706 0.35142275162123149 0 0.28531418873874947 0.35036805591371362 0 0.3107713256461706 0.35142275162123149 0 0.28531418873874947 0.35036805591371362 0 0.2978773360874028 0.34232597160953349 0 0.31302546459621983 0.34033689908909093 0 0.31284651304275901 0.36005392044332862 0 0.3107713256461706 0.35142275162123149 0 0.30671499161451848 0.36398930040537641 0 0.3107713256461706 0.35142275162123149 0 0.28531418873874947 0.35036805591371362 0 0.31302546459621983 0.34033689908909093 0 0.3107713256461706 0.35142275162123149 0 0.2978773360874028 0.34232597160953349 0 0.31284651304275901 0.36005392044332862 0 0.30671499161451848 0.36398930040537641 0 0.3107713256461706 0.35142275162123149 0 0.30671499161451848 0.36398930040537641 0 0.28307161757500138 0.36708949552406278 0 0.30671499161451848 0.36398930040537641 0 0.28531418873874947 0.35036805591371362 0 0.28307161757500138 0.36708949552406278 0 0.30671499161451848 0.36398930040537641 0 0.29396210666239347 0.37217445452841919 0 0.28307161757500138 0.36708949552406278 0 0.2949846934959599 0.37813488750545782 0 0.30103973626508412 0.37393001845066609 0 0.29396210666239347 0.37217445452841919 0 0.28847277150592981 0.37746057468263761 0 0.29396210666239347 0.37217445452841919 0 0.28307161757500138 0.36708949552406278 0 0.27856209870918508 0.37937793938116909 0 0.28847277150592981 0.37746057468263761 0 0.28307161757500138 0.36708949552406278 0 0.28307161757500138 0.36708949552406278 0 0.2707705249353588 0.35970184910440078 0 0.25942824353548422 0.3701896906427487 0 0.28307161757500138 0.36708949552406278 0 0.25942824353548422 0.3701896906427487 0 0.27856209870918508 0.37937793938116909 0 0.25942824353548422 0.3701896906427487 0 0.27856209870918508 0.37937793938116909 0 0.28307161757500138 0.36708949552406278 0 0.25942824353548422 0.3701896906427487 0 0.28531418873874947 0.35036805591371362 0 0.2707705249353588 0.35970184910440078 0 0.25985705183132851 0.34931336020619558 0 0.28531418873874947 0.35036805591371362 0 0.25985705183132851 0.34931336020619558 0 0.28220408768517058 0.33727061774597028 0 0.28531418873874947 0.35036805591371362 0 0.28307161757500138 0.36708949552406278 0 0.2707705249353588 0.35970184910440078 0 0.28531418873874947 0.35036805591371362 0 0.25985705183132851 0.34931336020619558 0 0.23975277161822009 0.36074135268991742 0 0.25985705183132851 0.34931336020619558 0 0.25942824353548422 0.3701896906427487 0 0.2707705249353588 0.35970184910440078 0 0.25985705183132851 0.34931336020619558 0 0.25942824353548422 0.3701896906427487 0 0.25425045627425169 0.32892326829153973 0 0.26946476493592098 0.32662060732959752 0 0.25732352252861429 0.31170377556311513 0 0.24144820878411541 0.31794920375138142 0 0.25425045627425169 0.32892326829153973 0 0.25732352252861429 0.31170377556311513 0 0.24772732657349961 0.34061391323805368 0 0.25985705183132851 0.34931336020619558 0 0.25425045627425169 0.32892326829153973 0 0.25985705183132851 0.34931336020619558 0 0.25425045627425169 0.32892326829153973 0 0.26946476493592098 0.32662060732959752 0 0.25985705183132851 0.34931336020619558 0 0.26946476493592098 0.32662060732959752 0 0.28220408768517058 0.33727061774597028 0 0.26946476493592098 0.32662060732959752 0 0.28890898123097752 0.31982929152172918 0 0.28220408768517058 0.33727061774597028 0 0.26946476493592098 0.32662060732959752 0 0.28890898123097752 0.31982929152172918 0 0.27569002894757488 0.30517544319486212 0 0.26946476493592098 0.32662060732959752 0 0.27569002894757488 0.30517544319486212 0 0.25732352252861429 0.31170377556311513 0 0.28531418873874947 0.35036805591371362 0 0.28220408768517058 0.33727061774597028 0 0.2978773360874028 0.34232597160953349 0 0.28890898123097752 0.31982929152172918 0 0.28220408768517058 0.33727061774597028 0 0.29807161377070368 0.33223153367766151 0 0.28220408768517058 0.33727061774597028 0 0.2978773360874028 0.34232597160953349 0 0.29807161377070368 0.33223153367766151 0 0.31320441614968042 0.32061987773485318 0 0.31302546459621983 0.34033689908909093 0 0.29807161377070368 0.33223153367766151 0 0.31302546459621983 0.34033689908909093 0 0.2978773360874028 0.34232597160953349 0 0.29807161377070368 0.33223153367766151 0 0.31320441614968042 0.32061987773485318 0 0.28890898123097752 0.31982929152172918 0 0.29481897589681538 0.29705766944743089 0 0.31320441614968042 0.32061987773485318 0 0.28890898123097752 0.31982929152172918 0 0.29807161377070368 0.33223153367766151 0 0.31320441614968042 0.32061987773485318 0 0.29481897589681538 0.29705766944743089 0 0.29481897589681538 0.29705766944743089 0 0.27569002894757488 0.30517544319486212 0 0.27643353564395129 0.273495461160008 0 0.31320441614968042 0.32061987773485318 0 0.29481897589681538 0.29705766944743089 0 0.31337116041400059 0.30224786499345863 0 0.29481897589681538 0.29705766944743089 0 0.29623767854898048 0.28041420112579207 0 0.3135379046783201 0.28387585225206391 0 0.29481897589681538 0.29705766944743089 0 0.3135379046783201 0.28387585225206391 0 0.31337116041400059 0.30224786499345863 0 0.29481897589681538 0.29705766944743089 0 0.27643353564395129 0.273495461160008 0 0.29481897589681538 0.29705766944743089 0 0.27643353564395129 0.273495461160008 0 0.29623767854898048 0.28041420112579207 0 0.28890898123097752 0.31982929152172918 0 0.29481897589681538 0.29705766944743089 0 0.27569002894757488 0.30517544319486212 0 0.27569002894757488 0.30517544319486212 0 0.25894087221403389 0.29572233245569518 0 0.27643353564395129 0.273495461160008 0 0.25894087221403389 0.29572233245569518 0 0.27643353564395129 0.273495461160008 0 0.24144820878411541 0.31794920375138142 0 0.25894087221403389 0.29572233245569518 0 0.24144820878411541 0.31794920375138142 0 0.25894087221403389 0.29572233245569518 0 0.25732352252861429 0.31170377556311513 0 0.27569002894757488 0.30517544319486212 0 0.25894087221403389 0.29572233245569518 0 0.25732352252861429 0.31170377556311513 0 0.24580151068289099 0.27363729747472648 0 0.25933000645894172 0.25157611021901422 0 0.27643353564395129 0.273495461160008 0 0.24580151068289099 0.27363729747472648 0 0.25894087221403389 0.29572233245569518 0 0.27643353564395129 0.273495461160008 0 0.25933000645894172 0.25157611021901422 0 0.28694034111612898 0.26014509779799561 0 0.25933000645894172 0.25157611021901422 0 0.28694034111612898 0.26014509779799561 0 0.2731172397574792 0.24256290321852991 0 0.25933000645894172 0.25157611021901422 0 0.27643353564395129 0.273495461160008 0 0.25933000645894172 0.25157611021901422 0 0.27643353564395129 0.273495461160008 0 0.28694034111612898 0.26014509779799561 0 0.28694034111612898 0.26014509779799561 0 0.2731172397574792 0.24256290321852991 0 0.29513857327887272 0.24972809915948049 0 0.28694034111612898 0.26014509779799561 0 0.28975382907128872 0.26951698362557353 0 0.29940376097609478 0.26401317441849842 0 0.28694034111612898 0.26014509779799561 0 0.29940376097609478 0.26401317441849842 0 0.28694034111612898 0.26014509779799561 0 0.29940376097609478 0.26401317441849842 0 0.29513857327887272 0.24972809915948049 0 0.28694034111612898 0.26014509779799561 0 0.29513857327887272 0.24972809915948049 0 0.27643353564395129 0.273495461160008 0 0.29623767854898048 0.28041420112579207 0 0.28975382907128872 0.26951698362557353 0 0.29623767854898048 0.28041420112579207 0 0.28975382907128872 0.26951698362557353 0 0.29940376097609478 0.26401317441849842 0 0.27643353564395129 0.273495461160008 0 0.28694034111612898 0.26014509779799561 0 0.27643353564395129 0.273495461160008 0 0.28694034111612898 0.26014509779799561 0 0.28975382907128872 0.26951698362557353 0 0.29623767854898048 0.28041420112579207 0 0.30856661454496093 0.2714506897318979 0 0.29940376097609478 0.26401317441849842 0 0.29623767854898048 0.28041420112579207 0 0.30856661454496093 0.2714506897318979 0 0.3135379046783201 0.28387585225206391 0 0.30856661454496093 0.2714506897318979 0 0.29940376097609478 0.26401317441849842 0 0.30726535604800248 0.2618909758573007 0 0.30856661454496093 0.2714506897318979 0 0.30726535604800248 0.2618909758573007 0 0.31503466717035927 0.26703667826581529 0 0.30726535604800248 0.2618909758573007 0 0.31818316426972387 0.25722623771081238 0 0.29513857327887272 0.24972809915948049 0 0.31818316426972387 0.25722623771081238 0 0.29513857327887272 0.24972809915948049 0 0.29940376097609478 0.26401317441849842 0 0.30726535604800248 0.2618909758573007 0 0.29513857327887272 0.24972809915948049 0 0.31818316426972387 0.25722623771081238 0 0.33779402892669591 0.26360712684734489 0 0.31818316426972387 0.25722623771081238 0 0.32463810111848379 0.27066603533553579 0 0.31503466717035927 0.26703667826581529 0 0.30726535604800248 0.2618909758573007 0 0.31818316426972387 0.25722623771081238 0 0.31503466717035927 0.26703667826581529 0 0.31818316426972387 0.25722623771081238 0 0.33201922052591171 0.26863344931662569 0 0.32463810111848379 0.27066603533553579 0 0.31818316426972387 0.25722623771081238 0 0.32463810111848379 0.27066603533553579 0 0.31818316426972387 0.25722623771081238 0 0.33084089493006752 0.25143756927828481 0 0.32215285561373952 0.2458190294923166 0 0.31818316426972387 0.25722623771081238 0 0.33779402892669591 0.26360712684734489 0 0.33201922052591171 0.26863344931662569 0 0.31818316426972387 0.25722623771081238 0 0.33084089493006752 0.25143756927828481 0 0.33779402892669591 0.26360712684734489 0 0.33084089493006752 0.25143756927828481 0 0.33779402892669591 0.26360712684734489 0 0.34285969426899532 0.24925208607327889 0 0.32463810111848379 0.27066603533553579 0 0.32827981970570669 0.28669119978183882 0 0.34147666268764992 0.28582733596070181 0 0.32463810111848379 0.27066603533553579 0 0.34147666268764992 0.28582733596070181 0 0.33664097460728448 0.27289311166856162 0 0.32463810111848379 0.27066603533553579 0 0.34147666268764992 0.28582733596070181 0 0.33664097460728448 0.27289311166856162 0 0.34147666268764992 0.28582733596070181 0 0.3464619661737362 0.2754999027051907 0 0.33779402892669591 0.26360712684734489 0 0.33664097460728448 0.27289311166856162 0 0.3464619661737362 0.2754999027051907 0 0.33779402892669591 0.26360712684734489 0 0.33664097460728448 0.27289311166856162 0 0.33201922052591171 0.26863344931662569 0 0.33664097460728448 0.27289311166856162 0 0.33201922052591171 0.26863344931662569 0 0.32463810111848379 0.27066603533553579 0 0.32046588774764262 0.27961015831029068 0 0.32463810111848379 0.27066603533553579 0 0.32827981970570669 0.28669119978183882 0 0.32046588774764262 0.27961015831029068 0 0.32463810111848379 0.27066603533553579 0 0.31616731322579938 0.27478641946127869 0 0.32463810111848379 0.27066603533553579 0 0.32827981970570669 0.28669119978183882 0 0.32463810111848379 0.27066603533553579 0 0.31503466717035927 0.26703667826581529 0 0.31616731322579938 0.27478641946127869 0 0.30856661454496093 0.2714506897318979 0 0.31503466717035927 0.26703667826581529 0 0.31616731322579938 0.27478641946127869 0 0.30856661454496093 0.2714506897318979 0 0.31616731322579938 0.27478641946127869 0 0.3135379046783201 0.28387585225206391 0 0.32046588774764262 0.27961015831029068 0 0.31616731322579938 0.27478641946127869 0 0.3135379046783201 0.28387585225206391 0 0.3135379046783201 0.28387585225206391 0 0.31337116041400059 0.30224786499345863 0 0.3135379046783201 0.28387585225206391 0 0.31337116041400059 0.30224786499345863 0 0.32397169697611827 0.29748468546433499 0 0.3135379046783201 0.28387585225206391 0 0.32397169697611827 0.29748468546433499 0 0.32827981970570669 0.28669119978183882 0 0.32046588774764262 0.27961015831029068 0 0.3135379046783201 0.28387585225206391 0 0.32827981970570669 0.28669119978183882 0 0.31320441614968042 0.32061987773485318 0 0.31337116041400059 0.30224786499345863 0 0.32463220034621743 0.31372695477561119 0 0.31320441614968042 0.32061987773485318 0 0.31337116041400059 0.30224786499345863 0 0.32463220034621743 0.31372695477561119 0 0.31337116041400059 0.30224786499345863 0 0.32397169697611827 0.29748468546433499 0 0.32463220034621743 0.31372695477561119 0 0.32397169697611827 0.29748468546433499 0 0.33924651782773668 0.30825433687432641 0 0.32397169697611827 0.29748468546433499 0 0.33924651782773668 0.30825433687432641 0 0.33554111411041487 0.29638566690029322 0 0.32397169697611827 0.29748468546433499 0 0.32827981970570669 0.28669119978183882 0 0.33554111411041487 0.29638566690029322 0 0.32827981970570669 0.28669119978183882 0 0.33554111411041487 0.29638566690029322 0 0.34147666268764992 0.28582733596070181 0 0.34147666268764992 0.28582733596070181 0 0.35899327106338319 0.28518392306546658 0 0.35831522425681611 0.30098863658586777 0 0.33554111411041487 0.29638566690029322 0 0.34147666268764992 0.28582733596070181 0 0.35831522425681611 0.30098863658586777 0 0.34147666268764992 0.28582733596070181 0 0.35831522425681611 0.30098863658586777 0 0.34147666268764992 0.28582733596070181 0 0.35899327106338319 0.28518392306546658 0 0.3464619661737362 0.2754999027051907 0 0.3560941029259902 0.31769871315621201 0 0.33924651782773668 0.30825433687432641 0 0.35831522425681611 0.30098863658586777 0 0.33924651782773668 0.30825433687432641 0 0.33554111411041487 0.29638566690029322 0 0.35831522425681611 0.30098863658586777 0 0.35831522425681611 0.30098863658586777 0 0.37515378582598907 0.31614993721102608 0 0.3560941029259902 0.31769871315621201 0 0.35831522425681611 0.30098863658586777 0 0.37515378582598907 0.31614993721102608 0 0.35831522425681611 0.30098863658586777 0 0.37134937161871567 0.29694909379495088 0 0.37515378582598907 0.31614993721102608 0 0.35899327106338319 0.28518392306546658 0 0.35831522425681611 0.30098863658586777 0 0.37134937161871567 0.29694909379495088 0 0.35899327106338319 0.28518392306546658 0 0.37134937161871567 0.29694909379495088 0 0.37701575824063849 0.27636890512041301 0 0.35899327106338319 0.28518392306546658 0 0.35740489358366728 0.26998801598387862 0 0.37701575824063849 0.27636890512041301 0 0.35740489358366728 0.26998801598387862 0 0.37701575824063849 0.27636890512041301 0 0.35740489358366728 0.26998801598387862 0 0.37701575824063849 0.27636890512041301 0 0.37585797484324479 0.27359628800569852 0 0.36978785820605081 0.2634652438420278 0 0.35740489358366728 0.26998801598387862 0 0.37585797484324479 0.27359628800569852 0 0.36978785820605081 0.2634652438420278 0 0.36430736403106673 0.25323084233556958 0 0.35740489358366728 0.26998801598387862 0 0.36430736403106673 0.25323084233556958 0 0.38158120036622462 0.25704582904296452 0 0.36883678126117009 0.24474921281383891 0 0.36978785820605081 0.2634652438420278 0 0.36430736403106673 0.25323084233556958 0 0.38158120036622462 0.25704582904296452 0 0.36430736403106673 0.25323084233556958 0 0.3516968734478001 0.25648411558653872 0 0.35740489358366728 0.26998801598387862 0 0.33779402892669591 0.26360712684734489 0 0.3516968734478001 0.25648411558653872 0 0.35740489358366728 0.26998801598387862 0 0.36430736403106673 0.25323084233556958 0 0.3516968734478001 0.25648411558653872 0 0.35611838642857491 0.246342506692621 0 0.3516968734478001 0.25648411558653872 0 0.34285969426899532 0.24925208607327889 0 0.35611838642857491 0.246342506692621 0 0.33779402892669591 0.26360712684734489 0 0.3516968734478001 0.25648411558653872 0 0.34285969426899532 0.24925208607327889 0 0.33779402892669591 0.26360712684734489 0 0.35740489358366728 0.26998801598387862 0 0.33779402892669591 0.26360712684734489 0 0.3464619661737362 0.2754999027051907 0 0.35740489358366728 0.26998801598387862 0 0.35899327106338319 0.28518392306546658 0 0.3464619661737362 0.2754999027051907 0 0.35740489358366728 0.26998801598387862 0 0.39190226405776102 0.28121260502405149 0 0.41317832675617211 0.28229755779105348 0 0.41243841254427471 0.27429615924938161 0 0.39190226405776102 0.28121260502405149 0 0.40194164981753971 0.26027044237566649 0 0.39190226405776102 0.28121260502405149 0 0.40194164981753971 0.26027044237566649 0 0.41243841254427471 0.27429615924938161 0 0.39190226405776102 0.28121260502405149 0 0.40194164981753971 0.26027044237566649 0 0.39044063242546889 0.26699771926417132 0 0.40194164981753971 0.26027044237566649 0 0.39769101060800582 0.25070658361372339 0 0.41198103557731919 0.23932827972728199 0 0.40194164981753971 0.26027044237566649 0 0.39769101060800582 0.25070658361372339 0 0.39044063242546889 0.26699771926417132 0 0.36978785820605081 0.2634652438420278 0 0.38158120036622462 0.25704582904296452 0 0.37585797484324479 0.27359628800569852 0 0.39769101060800582 0.25070658361372339 0 0.38158120036622462 0.25704582904296452 0 0.39044063242546889 0.26699771926417132 0 0.38158120036622462 0.25704582904296452 0 0.38888383497305651 0.2802304830374524 0 0.38158120036622462 0.25704582904296452 0 0.38888383497305651 0.2802304830374524 0 0.37585797484324479 0.27359628800569852 0 0.38158120036622462 0.25704582904296452 0 0.39044063242546889 0.26699771926417132 0 0.38888383497305651 0.2802304830374524 0 0.38888383497305651 0.2802304830374524 0 0.37701575824063849 0.27636890512041301 0 0.39190226405776102 0.28121260502405149 0 0.39044063242546889 0.26699771926417132 0 0.38888383497305651 0.2802304830374524 0 0.38888383497305651 0.2802304830374524 0 0.37701575824063849 0.27636890512041301 0 0.39026737329499972 0.28462298779896961 0 0.39190226405776102 0.28121260502405149 0 0.38888383497305651 0.2802304830374524 0 0.38888383497305651 0.2802304830374524 0 0.37701575824063849 0.27636890512041301 0 0.37585797484324479 0.27359628800569852 0 0.37701575824063849 0.27636890512041301 0 0.37585797484324479 0.27359628800569852 0 0.37701575824063849 0.27636890512041301 0 0.38502710627648312 0.29555418686320151 0 0.37701575824063849 0.27636890512041301 0 0.38502710627648312 0.29555418686320151 0 0.39026737329499972 0.28462298779896961 0 0.37134937161871567 0.29694909379495088 0 0.37701575824063849 0.27636890512041301 0 0.38502710627648312 0.29555418686320151 0 0.38502710627648312 0.29555418686320151 0 0.39026737329499972 0.28462298779896961 0 0.38888383497305651 0.2802304830374524 0 0.39026737329499972 0.28462298779896961 0 0.39190226405776102 0.28121260502405149 0 0.38888383497305651 0.2802304830374524 0 0.39026737329499972 0.28462298779896961 0 0.38502710627648312 0.29555418686320151 0 0.37515378582598907 0.31614993721102608 0 0.38502710627648312 0.29555418686320151 0 0.39101152567342889 0.30988545442066417 0 0.37515378582598907 0.31614993721102608 0 0.37134937161871567 0.29694909379495088 0 0.38502710627648312 0.29555418686320151 0 0.37515378582598907 0.31614993721102608 0 0.38502710627648312 0.29555418686320151 0 0.39101152567342889 0.30988545442066417 0 0.39701150870167101 0.3060344994401889 0 0.40902352893598187 0.29832485277466869 0 0.40022930768868847 0.31625047766647407 0 0.39101152567342889 0.30988545442066417 0 0.39701150870167101 0.3060344994401889 0 0.40022930768868847 0.31625047766647407 0 0.39101152567342889 0.30988545442066417 0 0.39701150870167101 0.3060344994401889 0 0.38502710627648312 0.29555418686320151 0 0.39101152567342889 0.30988545442066417 0 0.39701150870167101 0.3060344994401889 0 0.39701150870167101 0.3060344994401889 0 0.40902352893598187 0.29832485277466869 0 0.39701150870167101 0.3060344994401889 0 0.40897301833268468 0.29071342270257622 0 0.40902352893598187 0.29832485277466869 0 0.39701150870167101 0.3060344994401889 0 0.40022930768868847 0.31625047766647407 0 0.39026737329499972 0.28462298779896961 0 0.39701150870167101 0.3060344994401889 0 0.40897301833268468 0.29071342270257622 0 0.39026737329499972 0.28462298779896961 0 0.39701150870167101 0.3060344994401889 0 0.38502710627648312 0.29555418686320151 0 0.39026737329499972 0.28462298779896961 0 0.39701150870167101 0.3060344994401889 0 0.39190226405776102 0.28121260502405149 0 0.42017879089249599 0.29041308578075731 0 0.39190226405776102 0.28121260502405149 0 0.39026737329499972 0.28462298779896961 0 0.40897301833268468 0.29071342270257622 0 0.39190226405776102 0.28121260502405149 0 0.39026737329499972 0.28462298779896961 0 0.39190226405776102 0.28121260502405149 0 0.41317832675617211 0.28229755779105348 0 0.42017879089249599 0.29041308578075731 0 0.39190226405776102 0.28121260502405149 0 0.40897301833268468 0.29071342270257622 0 0.42017879089249599 0.29041308578075731 0 0.40897301833268468 0.29071342270257622 0 0.40902352893598187 0.29832485277466869 0 0.40897301833268468 0.29071342270257622 0 0.41657877378617431 0.29347568776076638 0 0.40902352893598187 0.29832485277466869 0 0.41657877378617431 0.29347568776076638 0 0.40902352893598187 0.29832485277466869 0 0.40897301833268468 0.29071342270257622 0 0.42017879089249599 0.29041308578075731 0 0.41657877378617431 0.29347568776076638 0 0.42017879089249599 0.29041308578075731 0 0.41657877378617431 0.29347568776076638 0 0.42551908370445118 0.30048575741543099 0 0.41317832675617211 0.28229755779105348 0 0.4201945647687137 0.28509485942812779 0 0.42176773931566031 0.28057846811846188 0 0.41317832675617211 0.28229755779105348 0 0.42017879089249599 0.29041308578075731 0 0.4201945647687137 0.28509485942812779 0 0.40902352893598187 0.29832485277466869 0 0.40920794206707828 0.3261140209893324 0 0.40902352893598187 0.29832485277466869 0 0.41949781835998801 0.30951283203213781 0 0.40920794206707828 0.3261140209893324 0 0.41657877378617431 0.29347568776076638 0 0.40902352893598187 0.29832485277466869 0 0.41765480119664872 0.30044978249575072 0 0.40902352893598187 0.29832485277466869 0 0.41765480119664872 0.30044978249575072 0 0.41949781835998801 0.30951283203213781 0 0.41657877378617431 0.29347568776076638 0 0.41765480119664872 0.30044978249575072 0 0.42551908370445118 0.30048575741543099 0 0.41765480119664872 0.30044978249575072 0 0.41949781835998801 0.30951283203213781 0 0.42551908370445118 0.30048575741543099 0 0.42551908370445118 0.30048575741543099 0 0.43181637178898469 0.3081410290781324 0 0.44845531772723352 0.29961356653745552 0 0.41949781835998801 0.30951283203213781 0 0.42551908370445118 0.30048575741543099 0 0.43181637178898469 0.3081410290781324 0 0.42017879089249599 0.29041308578075731 0 0.42551908370445118 0.30048575741543099 0 0.44845531772723352 0.29961356653745552 0 0.42017879089249599 0.29041308578075731 0 0.42941107398530393 0.28677442597534297 0 0.44845531772723352 0.29961356653745552 0 0.42017879089249599 0.29041308578075731 0 0.44845531772723352 0.29961356653745552 0 0.42941107398530393 0.28677442597534297 0 0.42858348957370401 0.2789473700085135 0 0.42176773931566031 0.28057846811846188 0 0.4201945647687137 0.28509485942812779 0 0.42941107398530393 0.28677442597534297 0 0.42176773931566031 0.28057846811846188 0 0.42017879089249599 0.29041308578075731 0 0.4201945647687137 0.28509485942812779 0 0.42941107398530393 0.28677442597534297 0 0.42941107398530393 0.28677442597534297 0 0.43728654163401559 0.28599920597874262 0 0.42858348957370401 0.2789473700085135 0 0.43728654163401559 0.28599920597874262 0 0.43519112619902428 0.27385722433306442 0 0.42858348957370401 0.2789473700085135 0 0.43519112619902428 0.27385722433306442 0 0.42914305563336053 0.27260321679491689 0 0.42858348957370401 0.2789473700085135 0 0.43519112619902428 0.27385722433306442 0 0.42914305563336053 0.27260321679491689 0 0.43051069958662108 0.26262303157993422 0 0.42914305563336053 0.27260321679491689 0 0.42245907254963699 0.27355577880365739 0 0.42102902552668292 0.26656789501187189 0 0.42914305563336053 0.27260321679491689 0 0.42102902552668292 0.26656789501187189 0 0.43051069958662108 0.26262303157993422 0 0.42914305563336053 0.27260321679491689 0 0.42858348957370401 0.2789473700085135 0 0.42245907254963699 0.27355577880365739 0 0.42858348957370401 0.2789473700085135 0 0.42245907254963699 0.27355577880365739 0 0.42176773931566031 0.28057846811846188 0 0.42245907254963699 0.27355577880365739 0 0.42176773931566031 0.28057846811846188 0 0.41243841254427471 0.27429615924938161 0 0.40194164981753971 0.26027044237566649 0 0.42102902552668292 0.26656789501187189 0 0.41243841254427471 0.27429615924938161 0 0.41317832675617211 0.28229755779105348 0 0.42176773931566031 0.28057846811846188 0 0.41243841254427471 0.27429615924938161 0 0.42245907254963699 0.27355577880365739 0 0.42102902552668292 0.26656789501187189 0 0.41243841254427471 0.27429615924938161 0 0.40194164981753971 0.26027044237566649 0 0.42102902552668292 0.26656789501187189 0 0.4214236879189977 0.25385601230963539 0 0.40194164981753971 0.26027044237566649 0 0.4214236879189977 0.25385601230963539 0 0.41198103557731919 0.23932827972728199 0 0.4214236879189977 0.25385601230963539 0 0.43051069958662108 0.26262303157993422 0 0.43063296504362181 0.25380982229139198 0 0.43519112619902428 0.27385722433306442 0 0.43051069958662108 0.26262303157993422 0 0.44036363658667538 0.25645444177873772 0 0.42102902552668292 0.26656789501187189 0 0.4214236879189977 0.25385601230963539 0 0.43051069958662108 0.26262303157993422 0 0.43063296504362181 0.25380982229139198 0 0.44036363658667538 0.25645444177873772 0 0.43023383608219318 0.2423058034972608 0 0.43051069958662108 0.26262303157993422 0 0.43063296504362181 0.25380982229139198 0 0.44036363658667538 0.25645444177873772 0 0.44036363658667538 0.25645444177873772 0 0.44566657192315851 0.26233784949019018 0 0.44988817805137449 0.25477347674998468 0 0.44566657192315851 0.26233784949019018 0 0.44988817805137449 0.25477347674998468 0 0.45963687631606082 0.26163327473548831 0 0.44036363658667538 0.25645444177873772 0 0.44988817805137449 0.25477347674998468 0 0.44684841970518652 0.2445411477309167 0 0.44566657192315851 0.26233784949019018 0 0.46377771461543882 0.27646206063761608 0 0.444515551331573 0.28595968545284989 0 0.43519112619902428 0.27385722433306442 0 0.44036363658667538 0.25645444177873772 0 0.444515551331573 0.28595968545284989 0 0.44036363658667538 0.25645444177873772 0 0.44566657192315851 0.26233784949019018 0 0.444515551331573 0.28595968545284989 0 0.44036363658667538 0.25645444177873772 0 0.444515551331573 0.28595968545284989 0 0.44566657192315851 0.26233784949019018 0 0.46377771461543882 0.27646206063761608 0 0.44566657192315851 0.26233784949019018 0 0.46377771461543882 0.27646206063761608 0 0.45963687631606082 0.26163327473548831 0 0.46377771461543882 0.27646206063761608 0 0.45963687631606082 0.26163327473548831 0 0.4740483249193963 0.25704937579464482 0 0.45963687631606082 0.26163327473548831 0 0.4740483249193963 0.25704937579464482 0 0.45692538572579128 0.24890067001459051 0 0.44988817805137449 0.25477347674998468 0 0.45963687631606082 0.26163327473548831 0 0.45692538572579128 0.24890067001459051 0 0.46377771461543882 0.27646206063761608 0 0.48361495842727242 0.27200274467265589 0 0.48188885730771902 0.29058627178504198 0 0.46377771461543882 0.27646206063761608 0 0.4740483249193963 0.25704937579464482 0 0.48361495842727242 0.27200274467265589 0 0.48361495842727242 0.27200274467265589 0 0.5 0.2786399186163081 0 0.48188885730771902 0.29058627178504198 0 0.48361495842727242 0.27200274467265589 0 0.5 0.2786399186163081 0 0.5 0.25256935430014837 0 0.4740483249193963 0.25704937579464482 0 0.48361495842727242 0.27200274467265589 0 0.5 0.25256935430014837 0 0.49185040091682442 0.30041779165638949 0 0.47566991111203649 0.31795532524429609 0 0.49019297254582761 0.31434565782655832 0 0.49185040091682442 0.30041779165638949 0 0.49999999999999939 0.30471048293246777 0 0.48188885730771902 0.29058627178504198 0 0.49999999999999939 0.30471048293246777 0 0.48188885730771902 0.29058627178504198 0 0.49185040091682442 0.30041779165638949 0 0.49999999999999939 0.30471048293246777 0 0.49019297254582761 0.31434565782655832 0 0.5 0.2786399186163081 0 0.49999999999999939 0.30471048293246777 0 0.48188885730771902 0.29058627178504198 0 0.46377771461543882 0.27646206063761608 0 0.48188885730771902 0.29058627178504198 0 0.46377771461543882 0.27646206063761608 0 0.48188885730771902 0.29058627178504198 0 0.46907842464992699 0.29225481657292579 0 0.48188885730771902 0.29058627178504198 0 0.46907842464992699 0.29225481657292579 0 0.47681421042754718 0.30038519750321979 0 0.49185040091682442 0.30041779165638949 0 0.47681421042754718 0.30038519750321979 0 0.47566991111203649 0.31795532524429609 0 0.49185040091682442 0.30041779165638949 0 0.47566991111203649 0.31795532524429609 0 0.47681421042754718 0.30038519750321979 0 0.46462924760385022 0.30284017064709262 0 0.47566991111203649 0.31795532524429609 0 0.46907842464992699 0.29225481657292579 0 0.47681421042754718 0.30038519750321979 0 0.46462924760385022 0.30284017064709262 0 0.49185040091682442 0.30041779165638949 0 0.48188885730771902 0.29058627178504198 0 0.47681421042754718 0.30038519750321979 0 0.46462924760385022 0.30284017064709262 0 0.44845531772723352 0.29961356653745552 0 0.45595021591771862 0.31694495759805258 0 0.46462924760385022 0.30284017064709262 0 0.45828209329508018 0.29100038229165859 0 0.44845531772723352 0.29961356653745552 0 0.46377771461543882 0.27646206063761608 0 0.46907842464992699 0.29225481657292579 0 0.45828209329508018 0.29100038229165859 0 0.46377771461543882 0.27646206063761608 0 0.45828209329508018 0.29100038229165859 0 0.444515551331573 0.28595968545284989 0 0.46907842464992699 0.29225481657292579 0 0.46462924760385022 0.30284017064709262 0 0.45828209329508018 0.29100038229165859 0 0.42941107398530393 0.28677442597534297 0 0.43728654163401559 0.28599920597874262 0 0.44845531772723352 0.29961356653745552 0 0.45828209329508018 0.29100038229165859 0 0.444515551331573 0.28595968545284989 0 0.44845531772723352 0.29961356653745552 0 0.43728654163401559 0.28599920597874262 0 0.444515551331573 0.28595968545284989 0 0.44845531772723352 0.29961356653745552 0 0.43728654163401559 0.28599920597874262 0 0.43519112619902428 0.27385722433306442 0 0.444515551331573 0.28595968545284989 0 0.43181637178898469 0.3081410290781324 0 0.44845531772723352 0.29961356653745552 0 0.44154965556794862 0.31361467052655922 0 0.44845531772723352 0.29961356653745552 0 0.44154965556794862 0.31361467052655922 0 0.45595021591771862 0.31694495759805258 0 0.4406910703786891 0.32966016318026709 0 0.45948942130724868 0.33549285883220281 0 0.45595021591771862 0.31694495759805258 0 0.44154965556794862 0.31361467052655922 0 0.4406910703786891 0.32966016318026709 0 0.45595021591771862 0.31694495759805258 0 0.4406910703786891 0.32966016318026709 0 0.45948942130724868 0.33549285883220281 0 0.44330893150246092 0.35303039242010947 0 0.46462924760385022 0.30284017064709262 0 0.45595021591771862 0.31694495759805258 0 0.47566991111203649 0.31795532524429609 0 0.45948942130724868 0.33549285883220281 0 0.45595021591771862 0.31694495759805258 0 0.47566991111203649 0.31795532524429609 0 0.45948942130724868 0.33549285883220281 0 0.47566991111203649 0.31795532524429609 0 0.45948942130724868 0.33549285883220281 0 0.47566991111203649 0.31795532524429609 0 0.48471640080795791 0.34448362128997861 0 0.47566991111203649 0.31795532524429609 0 0.5 0.33170550997296228 0 0.48471640080795791 0.34448362128997861 0 0.49999999999999939 0.30471048293246777 0 0.5 0.33170550997296228 0 0.49019297254582761 0.31434565782655832 0 0.47566991111203649 0.31795532524429609 0 0.5 0.33170550997296228 0 0.49019297254582761 0.31434565782655832 0 0.5 0.35870053701345678 0 0.48140772818349942 0.37068496863394979 0 0.5 0.38569556405395128 0 0.5 0.33170550997296228 0 0.5 0.35870053701345678 0 0.48471640080795791 0.34448362128997861 0 0.5 0.35870053701345678 0 0.48471640080795791 0.34448362128997861 0 0.48140772818349942 0.37068496863394979 0 0.48471640080795791 0.34448362128997861 0 0.48140772818349942 0.37068496863394979 0 0.46561957858498698 0.35508120247922292 0 0.45948942130724868 0.33549285883220281 0 0.48471640080795791 0.34448362128997861 0 0.46561957858498698 0.35508120247922292 0 0.48471640080795791 0.34448362128997861 0 0.48140772818349942 0.37068496863394979 0 0.45917541112376842 0.37171417121987399 0 0.46561957858498698 0.35508120247922292 0 0.44330893150246092 0.35303039242010947 0 0.48140772818349942 0.37068496863394979 0 0.45917541112376842 0.37171417121987399 0 0.46561957858498698 0.35508120247922292 0 0.45948942130724868 0.33549285883220281 0 0.46561957858498698 0.35508120247922292 0 0.44330893150246092 0.35303039242010947 0 0.45948942130724868 0.33549285883220281 0 0.44330893150246092 0.35303039242010947 0 0.45917541112376842 0.37171417121987399 0 0.44330893150246092 0.35303039242010947 0 0.44134471465003172 0.3763175360886995 0 0.44330893150246092 0.35303039242010947 0 0.42712844169767289 0.37056792600801608 0 0.44330893150246092 0.35303039242010947 0 0.42712844169767289 0.37056792600801608 0 0.44134471465003172 0.3763175360886995 0 0.44330893150246092 0.35303039242010947 0 0.42712844169767289 0.37056792600801608 0 0.42354541570953419 0.35637413201886331 0 0.42712844169767289 0.37056792600801608 0 0.41512881148608988 0.36764064382418798 0 0.42354541570953419 0.35637413201886331 0 0.42712844169767289 0.37056792600801608 0 0.4200533000412236 0.37351230578811612 0 0.41512881148608988 0.36764064382418798 0 0.4200533000412236 0.37351230578811612 0 0.41512881148608988 0.36764064382418798 0 0.41288476442111433 0.37239015717754642 0 0.4200533000412236 0.37351230578811612 0 0.41288476442111433 0.37239015717754642 0 0.41334401692486822 0.37810977951538971 0 0.41512881148608988 0.36764064382418798 0 0.40948844431921022 0.36838283461890498 0 0.40939235519817307 0.35390318920399599 0 0.40948844431921022 0.36838283461890498 0 0.40939235519817307 0.35390318920399599 0 0.40343393112959081 0.36118438324656832 0 0.40948844431921022 0.36838283461890498 0 0.40939235519817307 0.35390318920399599 0 0.41512881148608988 0.36764064382418798 0 0.40939235519817307 0.35390318920399599 0 0.40948844431921022 0.36838283461890498 0 0.4072476632330676 0.37343506413256772 0 0.41288476442111433 0.37239015717754642 0 0.4072476632330676 0.37343506413256772 0 0.41288476442111433 0.37239015717754642 0 0.41334401692486822 0.37810977951538971 0 0.41512881148608988 0.36764064382418798 0 0.40948844431921022 0.36838283461890498 0 0.41288476442111433 0.37239015717754642 0 0.40939235519817307 0.35390318920399599 0 0.42354541570953419 0.35637413201886331 0 0.42497089640733221 0.33989780088110172 0 0.40671895628996418 0.34457095385923581 0 0.40939235519817307 0.35390318920399599 0 0.40475821372796511 0.34280551758316719 0 0.40939235519817307 0.35390318920399599 0 0.40475821372796511 0.34280551758316719 0 0.41512881148608988 0.36764064382418798 0 0.40939235519817307 0.35390318920399599 0 0.42354541570953419 0.35637413201886331 0 0.44330893150246092 0.35303039242010947 0 0.42354541570953419 0.35637413201886331 0 0.42497089640733221 0.33989780088110172 0 0.4406910703786891 0.32966016318026709 0 0.42497089640733221 0.33989780088110172 0 0.42795562576167012 0.32115675278125511 0 0.4406910703786891 0.32966016318026709 0 0.44330893150246092 0.35303039242010947 0 0.42497089640733221 0.33989780088110172 0 0.44154965556794862 0.31361467052655922 0 0.4406910703786891 0.32966016318026709 0 0.42795562576167012 0.32115675278125511 0 0.43181637178898469 0.3081410290781324 0 0.44154965556794862 0.31361467052655922 0 0.42795562576167012 0.32115675278125511 0 0.41949781835998801 0.30951283203213781 0 0.43181637178898469 0.3081410290781324 0 0.42795562576167012 0.32115675278125511 0 0.41949781835998801 0.30951283203213781 0 0.42795562576167012 0.32115675278125511 0 0.40920794206707828 0.3261140209893324 0 0.40939235519817307 0.35390318920399599 0 0.40920794206707828 0.3261140209893324 0 0.40671895628996418 0.34457095385923581 0 0.40939235519817307 0.35390318920399599 0 0.40920794206707828 0.3261140209893324 0 0.40671895628996418 0.34457095385923581 0 0.40920794206707828 0.3261140209893324 0 0.40475821372796511 0.34280551758316719 0 0.42497089640733221 0.33989780088110172 0 0.42795562576167012 0.32115675278125511 0 0.40920794206707828 0.3261140209893324 0 0.40939235519817307 0.35390318920399599 0 0.42497089640733221 0.33989780088110172 0 0.40920794206707828 0.3261140209893324 0 0.40475821372796511 0.34280551758316719 0 0.39788486970069559 0.32634548600191632 0 0.40475821372796511 0.34280551758316719 0 0.3912247729639009 0.33062012020976073 0 0.39788486970069559 0.32634548600191632 0 0.40920794206707828 0.3261140209893324 0 0.40475821372796511 0.34280551758316719 0 0.39788486970069559 0.32634548600191632 0 0.40671895628996418 0.34457095385923581 0 0.40475821372796511 0.34280551758316719 0 0.40475821372796511 0.34280551758316719 0 0.3912247729639009 0.33062012020976073 0 0.40475821372796511 0.34280551758316719 0 0.3912247729639009 0.33062012020976073 0 0.39236912175157512 0.34623415966068 0 0.39101152567342889 0.30988545442066417 0 0.39788486970069559 0.32634548600191632 0 0.40902352893598187 0.29832485277466869 0 0.40920794206707828 0.3261140209893324 0 0.40022930768868847 0.31625047766647407 0 0.39101152567342889 0.30988545442066417 0 0.40022930768868847 0.31625047766647407 0 0.39788486970069559 0.32634548600191632 0 0.39101152567342889 0.30988545442066417 0 0.39788486970069559 0.32634548600191632 0 0.38928467232142833 0.32027164385265489 0 0.40920794206707828 0.3261140209893324 0 0.40022930768868847 0.31625047766647407 0 0.39788486970069559 0.32634548600191632 0 0.3912247729639009 0.33062012020976073 0 0.39788486970069559 0.32634548600191632 0 0.38928467232142833 0.32027164385265489 0 0.39101152567342889 0.30988545442066417 0 0.3776913321998383 0.31843472283635232 0 0.37515378582598907 0.31614993721102608 0 0.39101152567342889 0.30988545442066417 0 0.38928467232142833 0.32027164385265489 0 0.3776913321998383 0.31843472283635232 0 0.39101152567342889 0.30988545442066417 0 0.3776913321998383 0.31843472283635232 0 0.3912247729639009 0.33062012020976073 0 0.3776913321998383 0.31843472283635232 0 0.38062769900083199 0.32878151859563198 0 0.3912247729639009 0.33062012020976073 0 0.38928467232142833 0.32027164385265489 0 0.3776913321998383 0.31843472283635232 0 0.3912247729639009 0.33062012020976073 0 0.3776913321998383 0.31843472283635232 0 0.37244396247226769 0.32180262979402602 0 0.3776913321998383 0.31843472283635232 0 0.38062769900083199 0.32878151859563198 0 0.37244396247226769 0.32180262979402602 0 0.3776913321998383 0.31843472283635232 0 0.37515378582598907 0.31614993721102608 0 0.37244396247226769 0.32180262979402602 0 0.3776913321998383 0.31843472283635232 0 0.3776913321998383 0.31843472283635232 0 0.37515378582598907 0.31614993721102608 0 0.36385823718965721 0.33971245611457918 0 0.38062769900083199 0.32878151859563198 0 0.38127304779083809 0.34120769568174653 0 0.3912247729639009 0.33062012020976073 0 0.38127304779083809 0.34120769568174653 0 0.39236912175157512 0.34623415966068 0 0.3912247729639009 0.33062012020976073 0 0.38062769900083199 0.32878151859563198 0 0.38127304779083809 0.34120769568174653 0 0.38127304779083809 0.34120769568174653 0 0.37543545364944891 0.34965282560090127 0 0.38412300218961498 0.352245093908926 0 0.38127304779083809 0.34120769568174653 0 0.38412300218961498 0.352245093908926 0 0.39236912175157512 0.34623415966068 0 0.38412300218961498 0.352245093908926 0 0.38481193589815249 0.36080730650521697 0 0.39167295113229361 0.35663219953583503 0 0.38412300218961498 0.352245093908926 0 0.39236912175157512 0.34623415966068 0 0.39167295113229361 0.35663219953583503 0 0.37543545364944891 0.34965282560090127 0 0.38412300218961498 0.352245093908926 0 0.3774158997637807 0.35809612644963279 0 0.38412300218961498 0.352245093908926 0 0.3774158997637807 0.35809612644963279 0 0.38481193589815249 0.36080730650521697 0 0.37226827130592433 0.36518590807100237 0 0.3774158997637807 0.35809612644963279 0 0.37996840013495081 0.36495064855953152 0 0.3774158997637807 0.35809612644963279 0 0.37996840013495081 0.36495064855953152 0 0.38481193589815249 0.36080730650521697 0 0.37996840013495081 0.36495064855953152 0 0.3806406261938996 0.37286873145149591 0 0.38541131238530552 0.36720243759626292 0 0.37226827130592433 0.36518590807100237 0 0.37996840013495081 0.36495064855953152 0 0.3806406261938996 0.37286873145149591 0 0.3806406261938996 0.37286873145149591 0 0.38541131238530552 0.36720243759626292 0 0.39127790685191438 0.37175840914193697 0 0.3806406261938996 0.37286873145149591 0 0.39127790685191438 0.37175840914193697 0 0.38829268577774961 0.37968178923843349 0 0.38541131238530552 0.36720243759626292 0 0.39176978259222722 0.36444162687504078 0 0.39127790685191438 0.37175840914193697 0 0.37996840013495081 0.36495064855953152 0 0.38541131238530552 0.36720243759626292 0 0.38481193589815249 0.36080730650521697 0 0.38541131238530552 0.36720243759626292 0 0.38481193589815249 0.36080730650521697 0 0.39176978259222722 0.36444162687504078 0 0.38481193589815249 0.36080730650521697 0 0.39176978259222722 0.36444162687504078 0 0.39167295113229361 0.35663219953583503 0 0.39176978259222722 0.36444162687504078 0 0.39775181086595701 0.36101695484229818 0 0.40039882329204901 0.3686397209046483 0 0.39176978259222722 0.36444162687504078 0 0.39775181086595701 0.36101695484229818 0 0.39167295113229361 0.35663219953583503 0 0.39127790685191438 0.37175840914193697 0 0.40039882329204901 0.3686397209046483 0 0.40089906622598048 0.37841487580810079 0 0.39176978259222722 0.36444162687504078 0 0.39127790685191438 0.37175840914193697 0 0.40039882329204901 0.3686397209046483 0 0.4072476632330676 0.37343506413256772 0 0.40039882329204901 0.3686397209046483 0 0.40089906622598048 0.37841487580810079 0 0.40948844431921022 0.36838283461890498 0 0.4072476632330676 0.37343506413256772 0 0.40039882329204901 0.3686397209046483 0 0.40948844431921022 0.36838283461890498 0 0.40039882329204901 0.3686397209046483 0 0.40343393112959081 0.36118438324656832 0 0.39775181086595701 0.36101695484229818 0 0.40039882329204901 0.3686397209046483 0 0.40343393112959081 0.36118438324656832 0 0.40939235519817307 0.35390318920399599 0 0.40343393112959081 0.36118438324656832 0 0.40013822197256438 0.35397921666299381 0 0.39775181086595701 0.36101695484229818 0 0.40343393112959081 0.36118438324656832 0 0.40013822197256438 0.35397921666299381 0 0.40475821372796511 0.34280551758316719 0 0.40013822197256438 0.35397921666299381 0 0.39236912175157512 0.34623415966068 0 0.40939235519817307 0.35390318920399599 0 0.40475821372796511 0.34280551758316719 0 0.40013822197256438 0.35397921666299381 0 0.40013822197256438 0.35397921666299381 0 0.39236912175157512 0.34623415966068 0 0.39167295113229361 0.35663219953583503 0 0.39775181086595701 0.36101695484229818 0 0.40013822197256438 0.35397921666299381 0 0.39167295113229361 0.35663219953583503 0 0.39435887495177518 0.3883977955361666 0 0.4078258312226134 0.40625217548337678 0 0.39435887495177518 0.3883977955361666 0 0.38810325087669068 0.40656754938684853 0 0.4078258312226134 0.40625217548337678 0 0.39435887495177518 0.3883977955361666 0 0.4078258312226134 0.40625217548337678 0 0.41134018629313862 0.38766331403254828 0 0.40089906622598048 0.37841487580810079 0 0.39435887495177518 0.3883977955361666 0 0.41134018629313862 0.38766331403254828 0 0.40089906622598048 0.37841487580810079 0 0.39435887495177518 0.3883977955361666 0 0.38829268577774961 0.37968178923843349 0 0.39127790685191438 0.37175840914193697 0 0.40089906622598048 0.37841487580810079 0 0.38829268577774961 0.37968178923843349 0 0.39435887495177518 0.3883977955361666 0 0.38829268577774961 0.37968178923843349 0 0.37927713716371919 0.38447561026290222 0 0.39435887495177518 0.3883977955361666 0 0.37927713716371919 0.38447561026290222 0 0.37646299548540302 0.39618012433209843 0 0.36859946894306378 0.37510046181231282 0 0.3806406261938996 0.37286873145149591 0 0.37927713716371919 0.38447561026290222 0 0.3806406261938996 0.37286873145149591 0 0.38829268577774961 0.37968178923843349 0 0.37927713716371919 0.38447561026290222 0 0.37209493371354091 0.40659424812207351 0 0.37646299548540302 0.39618012433209843 0 0.38810325087669068 0.40656754938684853 0 0.39435887495177518 0.3883977955361666 0 0.37646299548540302 0.39618012433209843 0 0.38810325087669068 0.40656754938684853 0 0.38810325087669068 0.40656754938684853 0 0.38020731715305239 0.42017279842138422 0 0.40075005232325162 0.4221396769259862 0 0.37209493371354091 0.40659424812207351 0 0.38810325087669068 0.40656754938684853 0 0.38020731715305239 0.42017279842138422 0 0.38020731715305239 0.42017279842138422 0 0.40075005232325162 0.4221396769259862 0 0.37102625942533612 0.41929375164671939 0 0.38020731715305239 0.42017279842138422 0 0.36759308160263382 0.44069077566344278 0 0.37461525171859988 0.43019365704791368 0 0.38830529052380591 0.44015566481631141 0 0.37461525171859988 0.43019365704791368 0 0.38393856106725471 0.43036137444007128 0 0.38830529052380591 0.44015566481631141 0 0.37461525171859988 0.43019365704791368 0 0.37102625942533612 0.41929375164671939 0 0.38020731715305239 0.42017279842138422 0 0.37461525171859988 0.43019365704791368 0 0.38020731715305239 0.42017279842138422 0 0.38393856106725471 0.43036137444007128 0 0.38020731715305239 0.42017279842138422 0 0.38393856106725471 0.43036137444007128 0 0.39262638487356072 0.43092337747467618 0 0.38393856106725471 0.43036137444007128 0 0.39262638487356072 0.43092337747467618 0 0.38830529052380591 0.44015566481631141 0 0.38020731715305239 0.42017279842138422 0 0.40572439316185183 0.42744869879935099 0 0.38020731715305239 0.42017279842138422 0 0.39262638487356072 0.43092337747467618 0 0.40572439316185183 0.42744869879935099 0 0.38020731715305239 0.42017279842138422 0 0.40075005232325162 0.4221396769259862 0 0.40572439316185183 0.42744869879935099 0 0.39262638487356072 0.43092337747467618 0 0.40118761986914558 0.43952235518589611 0 0.38830529052380591 0.44015566481631141 0 0.39262638487356072 0.43092337747467618 0 0.40572439316185183 0.42744869879935099 0 0.40118761986914558 0.43952235518589611 0 0.38810325087669068 0.40656754938684853 0 0.40075005232325162 0.4221396769259862 0 0.4078258312226134 0.40625217548337678 0 0.4078258312226134 0.40625217548337678 0 0.42129278749345078 0.42410655543058762 0 0.40075005232325162 0.4221396769259862 0 0.4078258312226134 0.40625217548337678 0 0.42129278749345078 0.42410655543058762 0 0.4078258312226134 0.40625217548337678 0 0.42129278749345078 0.42410655543058762 0 0.42673989509381582 0.4132059168484718 0 0.4078258312226134 0.40625217548337678 0 0.42673989509381582 0.4132059168484718 0 0.42474503390221019 0.40248733428761119 0 0.40075005232325162 0.4221396769259862 0 0.42129278749345078 0.42410655543058762 0 0.40572439316185183 0.42744869879935099 0 0.42129278749345078 0.42410655543058762 0 0.40118761986914558 0.43952235518589611 0 0.40075005232325162 0.4221396769259862 0 0.40572439316185183 0.42744869879935099 0 0.42129278749345078 0.42410655543058762 0 0.42129278749345078 0.42410655543058762 0 0.43705569978741882 0.42561578646063708 0 0.42129278749345078 0.42410655543058762 0 0.43705569978741882 0.42561578646063708 0 0.43339993500078339 0.44015811209457673 0 0.42129278749345078 0.42410655543058762 0 0.43339993500078339 0.44015811209457673 0 0.43705569978741882 0.42561578646063708 0 0.43698629937090572 0.43867900635118828 0 0.43705569978741882 0.42561578646063708 0 0.43339993500078339 0.44015811209457673 0 0.43698629937090572 0.43867900635118828 0 0.42129278749345078 0.42410655543058762 0 0.43705569978741882 0.42561578646063708 0 0.42673989509381582 0.4132059168484718 0 0.42673989509381582 0.4132059168484718 0 0.43524690122100218 0.40561243733630881 0 0.42474503390221019 0.40248733428761119 0 0.43705569978741882 0.42561578646063708 0 0.42673989509381582 0.4132059168484718 0 0.4371140643415341 0.41462984368780109 0 0.43705569978741882 0.42561578646063708 0 0.4371140643415341 0.41462984368780109 0 0.42673989509381582 0.4132059168484718 0 0.4371140643415341 0.41462984368780109 0 0.43524690122100218 0.40561243733630881 0 0.43524690122100218 0.40561243733630881 0 0.43569998742214888 0.3933443479117148 0 0.42474503390221019 0.40248733428761119 0 0.43569998742214888 0.3933443479117148 0 0.42474503390221019 0.40248733428761119 0 0.42084421921265991 0.39429823540113879 0 0.4078258312226134 0.40625217548337678 0 0.42474503390221019 0.40248733428761119 0 0.42084421921265991 0.39429823540113879 0 0.4078258312226134 0.40625217548337678 0 0.42084421921265991 0.39429823540113879 0 0.41134018629313862 0.38766331403254828 0 0.4072476632330676 0.37343506413256772 0 0.40089906622598048 0.37841487580810079 0 0.41334401692486822 0.37810977951538971 0 0.40089906622598048 0.37841487580810079 0 0.41334401692486822 0.37810977951538971 0 0.41134018629313862 0.38766331403254828 0 0.42084421921265991 0.39429823540113879 0 0.41134018629313862 0.38766331403254828 0 0.42461005722318851 0.38174400529044311 0 0.41334401692486822 0.37810977951538971 0 0.41134018629313862 0.38766331403254828 0 0.42461005722318851 0.38174400529044311 0 0.4200533000412236 0.37351230578811612 0 0.41334401692486822 0.37810977951538971 0 0.42461005722318851 0.38174400529044311 0 0.42712844169767289 0.37056792600801608 0 0.42461005722318851 0.38174400529044311 0 0.44134471465003172 0.3763175360886995 0 0.42712844169767289 0.37056792600801608 0 0.4200533000412236 0.37351230578811612 0 0.42461005722318851 0.38174400529044311 0 0.43569998742214888 0.3933443479117148 0 0.42461005722318851 0.38174400529044311 0 0.44134471465003172 0.3763175360886995 0 0.43569998742214888 0.3933443479117148 0 0.42084421921265991 0.39429823540113879 0 0.42461005722318851 0.38174400529044311 0 0.43569998742214888 0.3933443479117148 0 0.44134471465003172 0.3763175360886995 0 0.45129800536115999 0.38886835367358302 0 0.45917541112376842 0.37171417121987399 0 0.44134471465003172 0.3763175360886995 0 0.45129800536115999 0.38886835367358302 0 0.45129800536115999 0.38886835367358302 0 0.44509838420544823 0.40216959163598659 0 0.45791809867633448 0.40520343338059173 0 0.43524690122100218 0.40561243733630881 0 0.44509838420544823 0.40216959163598659 0 0.44557545897167711 0.41076151088581891 0 0.43524690122100218 0.40561243733630881 0 0.43569998742214888 0.3933443479117148 0 0.44509838420544823 0.40216959163598659 0 0.43569998742214888 0.3933443479117148 0 0.45129800536115999 0.38886835367358302 0 0.44509838420544823 0.40216959163598659 0 0.44509838420544823 0.40216959163598659 0 0.45791809867633448 0.40520343338059173 0 0.44557545897167711 0.41076151088581891 0 0.45129800536115999 0.38886835367358302 0 0.45791809867633448 0.40520343338059173 0 0.46557965978076071 0.386671448577184 0 0.45791809867633448 0.40520343338059173 0 0.47809905555904098 0.39688631597792118 0 0.46483654347747699 0.41445487952559362 0 0.45791809867633448 0.40520343338059173 0 0.46557965978076071 0.386671448577184 0 0.47809905555904098 0.39688631597792118 0 0.45917541112376842 0.37171417121987399 0 0.45129800536115999 0.38886835367358302 0 0.46557965978076071 0.386671448577184 0 0.48140772818349942 0.37068496863394979 0 0.45917541112376842 0.37171417121987399 0 0.46557965978076071 0.386671448577184 0 0.48140772818349942 0.37068496863394979 0 0.46557965978076071 0.386671448577184 0 0.47809905555904098 0.39688631597792118 0 0.48140772818349942 0.37068496863394979 0 0.47809905555904098 0.39688631597792118 0 0.47809905555904098 0.39688631597792118 0 0.5 0.38569556405395128 0 0.50000000000000022 0.41269059109444578 0 0.48140772818349942 0.37068496863394979 0 0.47809905555904098 0.39688631597792118 0 0.5 0.38569556405395128 0 0.48592361876799173 0.4322808795144219 0 0.5 0.43549330157510729 0 0.50000000000000022 0.41269059109444578 0 0.48592361876799173 0.4322808795144219 0 0.50000000000000022 0.41269059109444578 0 0.47479038293458331 0.42308766332189268 0 0.50000000000000022 0.41269059109444578 0 0.47479038293458331 0.42308766332189268 0 0.47809905555904098 0.39688631597792118 0 0.47479038293458331 0.42308766332189268 0 0.46483654347747699 0.41445487952559362 0 0.47809905555904098 0.39688631597792118 0 0.47479038293458331 0.42308766332189268 0 0.47809905555904098 0.39688631597792118 0 0.50000000000000022 0.41269059109444578 0 0.47479038293458331 0.42308766332189268 0 0.48592361876799173 0.4322808795144219 0 0.47479038293458331 0.42308766332189268 0 0.47285450605513613 0.4384178540934382 0 0.47479038293458331 0.42308766332189268 0 0.47285450605513613 0.4384178540934382 0 0.47479038293458331 0.42308766332189268 0 0.46816708550875968 0.42859456778243737 0 0.47285450605513613 0.4384178540934382 0 0.46577366324085728 0.43645823601247918 0 0.46816708550875968 0.42859456778243737 0 0.47285450605513613 0.4384178540934382 0 0.46577366324085728 0.43645823601247918 0 0.46816708550875968 0.42859456778243737 0 0.46270574546087218 0.42807166797101948 0 0.46577366324085728 0.43645823601247918 0 0.46270574546087218 0.42807166797101948 0 0.45888974341956829 0.44163474561981753 0 0.47479038293458331 0.42308766332189268 0 0.46270574546087218 0.42807166797101948 0 0.47479038293458331 0.42308766332189268 0 0.46816708550875968 0.42859456778243737 0 0.46270574546087218 0.42807166797101948 0 0.46816708550875968 0.42859456778243737 0 0.46270574546087218 0.42807166797101948 0 0.47479038293458331 0.42308766332189268 0 0.46270574546087218 0.42807166797101948 0 0.46483654347747699 0.41445487952559362 0 0.46270574546087218 0.42807166797101948 0 0.46483654347747699 0.41445487952559362 0 0.45066943475655352 0.41902531697654138 0 0.45791809867633448 0.40520343338059173 0 0.46483654347747699 0.41445487952559362 0 0.45066943475655352 0.41902531697654138 0 0.45791809867633448 0.40520343338059173 0 0.44557545897167711 0.41076151088581891 0 0.45066943475655352 0.41902531697654138 0 0.43705569978741882 0.42561578646063708 0 0.4371140643415341 0.41462984368780109 0 0.45066943475655352 0.41902531697654138 0 0.4371140643415341 0.41462984368780109 0 0.44557545897167711 0.41076151088581891 0 0.45066943475655352 0.41902531697654138 0 0.4371140643415341 0.41462984368780109 0 0.43524690122100218 0.40561243733630881 0 0.44557545897167711 0.41076151088581891 0 0.43705569978741882 0.42561578646063708 0 0.46270574546087218 0.42807166797101948 0 0.45066943475655352 0.41902531697654138 0 0.46270574546087218 0.42807166797101948 0 0.43698629937090572 0.43867900635118828 0 0.43705569978741882 0.42561578646063708 0 0.46270574546087218 0.42807166797101948 0 0.46270574546087218 0.42807166797101948 0 0.44866911095318313 0.44343620090681052 0 0.43698629937090572 0.43867900635118828 0 0.43705569978741882 0.42561578646063708 0 0.46270574546087218 0.42807166797101948 0 0.43698629937090572 0.43867900635118828 0 0.44866911095318313 0.44343620090681052 0 0.43698629937090572 0.43867900635118828 0 0.43695341254739239 0.44486928342201271 0 0.44258026038828302 0.45232931204585031 0 0.43695341254739239 0.44486928342201271 0 0.44258026038828302 0.45232931204585031 0 0.44866911095318313 0.44343620090681052 0 0.43695341254739239 0.44486928342201271 0 0.44258026038828302 0.45232931204585031 0 0.44866911095318313 0.44343620090681052 0 0.45735360368167149 0.45449192974984542 0 0.44258026038828302 0.45232931204585031 0 0.44739354250497521 0.46399702312409119 0 0.43682091928266131 0.4698084514871369 0 0.44258026038828302 0.45232931204585031 0 0.43682091928266131 0.4698084514871369 0 0.43695341254739239 0.44486928342201271 0 0.44258026038828302 0.45232931204585031 0 0.44739354250497521 0.46399702312409119 0 0.45735360368167149 0.45449192974984542 0 0.45735360368167149 0.45449192974984542 0 0.46877808630569923 0.46744883487752148 0 0.45646779426241929 0.47036711717442781 0 0.44739354250497521 0.46399702312409119 0 0.45735360368167149 0.45449192974984542 0 0.45646779426241929 0.47036711717442781 0 0.45735360368167149 0.45449192974984542 0 0.47091862917568972 0.45374804486498371 0 0.46877808630569923 0.46744883487752148 0 0.46270574546087218 0.42807166797101948 0 0.44866911095318313 0.44343620090681052 0 0.45888974341956829 0.44163474561981753 0 0.45735360368167149 0.45449192974984542 0 0.45888974341956829 0.44163474561981753 0 0.46596666510049423 0.44541038537880201 0 0.44866911095318313 0.44343620090681052 0 0.45735360368167149 0.45449192974984542 0 0.45888974341956829 0.44163474561981753 0 0.45735360368167149 0.45449192974984542 0 0.46596666510049423 0.44541038537880201 0 0.47091862917568972 0.45374804486498371 0 0.46577366324085728 0.43645823601247918 0 0.46596666510049423 0.44541038537880201 0 0.47285450605513613 0.4384178540934382 0 0.46577366324085728 0.43645823601247918 0 0.45888974341956829 0.44163474561981753 0 0.46596666510049423 0.44541038537880201 0 0.48592361876799173 0.4322808795144219 0 0.47285450605513613 0.4384178540934382 0 0.48545912707908301 0.44677529635365909 0 0.47285450605513613 0.4384178540934382 0 0.47091862917568972 0.45374804486498371 0 0.48545912707908301 0.44677529635365909 0 0.47285450605513613 0.4384178540934382 0 0.47091862917568972 0.45374804486498371 0 0.46596666510049423 0.44541038537880201 0 0.47285450605513613 0.4384178540934382 0 0.47091862917568972 0.45374804486498371 0 0.47091862917568972 0.45374804486498371 0 0.48305800847568092 0.46241568601823541 0 0.48545912707908301 0.44677529635365909 0 0.47091862917568972 0.45374804486498371 0 0.46877808630569923 0.46744883487752148 0 0.48305800847568092 0.46241568601823541 0 0.48305800847568092 0.46241568601823541 0 0.5 0.45829601205576881 0 0.50000000000000089 0.48109872253643032 0 0.48305800847568092 0.46241568601823541 0 0.5 0.45829601205576881 0 0.48545912707908301 0.44677529635365909 0 0.5 0.43549330157510729 0 0.5 0.45829601205576881 0 0.48545912707908301 0.44677529635365909 0 0.48592361876799173 0.4322808795144219 0 0.5 0.43549330157510729 0 0.48545912707908301 0.44677529635365909 0 0.5 0.5 0 0.50000000000000089 0.48109872253643032 0 0.4829041993806128 0.50000000000000067 0 0.50000000000000089 0.48109872253643032 0 0.47986744683130561 0.47910819589288223 0 0.4829041993806128 0.50000000000000067 0 0.50000000000000089 0.48109872253643032 0 0.4829041993806128 0.50000000000000067 0 0.48305800847568092 0.46241568601823541 0 0.50000000000000089 0.48109872253643032 0 0.47986744683130561 0.47910819589288223 0 0.46877808630569923 0.46744883487752148 0 0.48305800847568092 0.46241568601823541 0 0.47986744683130561 0.47910819589288223 0 0.46877808630569923 0.46744883487752148 0 0.47986744683130561 0.47910819589288223 0 0.46500303540742838 0.48456203556475569 0 0.47986744683130561 0.47910819589288223 0 0.4829041993806128 0.50000000000000067 0 0.46500303540742838 0.48456203556475569 0 0.45771353671668341 0.5 0 0.46500303540742838 0.48456203556475569 0 0.44971862934670609 0.48049474177639878 0 0.4829041993806128 0.50000000000000067 0 0.45771353671668341 0.5 0 0.46500303540742838 0.48456203556475569 0 0.46877808630569923 0.46744883487752148 0 0.46500303540742838 0.48456203556475569 0 0.45646779426241929 0.47036711717442781 0 0.46500303540742838 0.48456203556475569 0 0.45646779426241929 0.47036711717442781 0 0.44971862934670609 0.48049474177639878 0 0.44971862934670609 0.48049474177639878 0 0.43668842601792962 0.49474761955226099 0 0.43682091928266131 0.4698084514871369 0 0.44739354250497521 0.46399702312409119 0 0.45646779426241929 0.47036711717442781 0 0.44971862934670609 0.48049474177639878 0 0.44739354250497521 0.46399702312409119 0 0.44971862934670609 0.48049474177639878 0 0.43682091928266131 0.4698084514871369 0 0.45771353671668341 0.5 0 0.43252287405275402 0.5 0 0.43668842601792962 0.49474761955226099 0 0.45771353671668341 0.5 0 0.44971862934670609 0.48049474177639878 0 0.43668842601792962 0.49474761955226099 0 0.43252287405275402 0.5 0 0.43668842601792962 0.49474761955226099 0 0.42053369884778752 0.48554601440730177 0 0.43252287405275402 0.5 0 0.40733221138882458 0.5 0 0.42053369884778752 0.48554601440730177 0 0.40733221138882458 0.5 0 0.42053369884778752 0.48554601440730177 0 0.39737309988203728 0.4785145783150947 0 0.42053369884778752 0.48554601440730177 0 0.41738392403412738 0.46803773280906408 0 0.39737309988203728 0.4785145783150947 0 0.43668842601792962 0.49474761955226099 0 0.42053369884778752 0.48554601440730177 0 0.43682091928266131 0.4698084514871369 0 0.42053369884778752 0.48554601440730177 0 0.43682091928266131 0.4698084514871369 0 0.41738392403412738 0.46803773280906408 0 0.43668842601792962 0.49474761955226099 0 0.43682091928266131 0.4698084514871369 0 0.43682091928266131 0.4698084514871369 0 0.43695341254739239 0.44486928342201271 0 0.43682091928266131 0.4698084514871369 0 0.42530513857525132 0.45522681732147191 0 0.43695341254739239 0.44486928342201271 0 0.43682091928266131 0.4698084514871369 0 0.42530513857525132 0.45522681732147191 0 0.41738392403412738 0.46803773280906408 0 0.43339993500078339 0.44015811209457673 0 0.43698629937090572 0.43867900635118828 0 0.43695341254739239 0.44486928342201271 0 0.43339993500078339 0.44015811209457673 0 0.43698629937090572 0.43867900635118828 0 0.43339993500078339 0.44015811209457673 0 0.43695341254739239 0.44486928342201271 0 0.43698629937090572 0.43867900635118828 0 0.43695341254739239 0.44486928342201271 0 0.42530513857525132 0.45522681732147191 0 0.43339993500078339 0.44015811209457673 0 0.43695341254739239 0.44486928342201271 0 0.42129278749345078 0.42410655543058762 0 0.43339993500078339 0.44015811209457673 0 0.40688676358289999 0.45109280251431533 0 0.42129278749345078 0.42410655543058762 0 0.40688676358289999 0.45109280251431533 0 0.40118761986914558 0.43952235518589611 0 0.43339993500078339 0.44015811209457673 0 0.40688676358289999 0.45109280251431533 0 0.42530513857525132 0.45522681732147191 0 0.43339993500078339 0.44015811209457673 0 0.40688676358289999 0.45109280251431533 0 0.42530513857525132 0.45522681732147191 0 0.40688676358289999 0.45109280251431533 0 0.41738392403412738 0.46803773280906408 0 0.40688676358289999 0.45109280251431533 0 0.41738392403412738 0.46803773280906408 0 0.39737309988203728 0.4785145783150947 0 0.40688676358289999 0.45109280251431533 0 0.38037359216501598 0.46202749293405271 0 0.39737309988203728 0.4785145783150947 0 0.40688676358289999 0.45109280251431533 0 0.38037359216501598 0.46202749293405271 0 0.40688676358289999 0.45109280251431533 0 0.38830529052380591 0.44015566481631141 0 0.38037359216501598 0.46202749293405271 0 0.40688676358289999 0.45109280251431533 0 0.40118761986914558 0.43952235518589611 0 0.38830529052380591 0.44015566481631141 0 0.36759308160263382 0.44069077566344278 0 0.38830529052380591 0.44015566481631141 0 0.38037359216501598 0.46202749293405271 0 0.37318866431135761 0.48174232907414499 0 0.38037359216501598 0.46202749293405271 0 0.39737309988203728 0.4785145783150947 0 0.37318866431135761 0.48174232907414499 0 0.38214154872489497 0.5 0 0.39737309988203728 0.4785145783150947 0 0.40733221138882458 0.5 0 0.38214154872489497 0.5 0 0.39737309988203728 0.4785145783150947 0 0.32947592647403429 0.0901621911687642 0 0.33532117623289792 0.080580236175288908 0 0.33565589059461098 0.10517835023954369 0 0.32947592647403429 0.0901621911687642 0 0.33532117623289792 0.080580236175288908 0 0.33277616035619961 0.073942932289610769 0 0.33532117623289792 0.080580236175288908 0 0.33565589059461098 0.10517835023954369 0 0.33532117623289792 0.080580236175288908 0 0.34090483650267878 0.092858705205274353 0 0.33565589059461098 0.10517835023954369 0 0.33532117623289792 0.080580236175288908 0 0.34090483650267878 0.092858705205274353 0 0.34317733798846478 0.085575227135666343 0 0.34090483650267878 0.092858705205274353 0 0.34317733798846478 0.085575227135666343 0 0.34650598249495568 0.092405835749461665 0 0.33532117623289792 0.080580236175288908 0 0.34317733798846478 0.085575227135666343 0 0.34283077156500802 0.079335176543093258 0 0.32962162476220702 0.06347927202523812 0 0.33277616035619961 0.073942932289610769 0 0.33498646187118442 0.055982122111034073 0 0.33532117623289792 0.080580236175288908 0 0.33498646187118442 0.055982122111034073 0 0.33532117623289792 0.080580236175288908 0 0.34154436272040362 0.073897558242921338 0 0.33969340283432148 0.066839369098377399 0 0.33532117623289792 0.080580236175288908 0 0.34283077156500802 0.079335176543093258 0 0.34154436272040362 0.073897558242921338 0 0.33532117623289792 0.080580236175288908 0 0.33277616035619961 0.073942932289610769 0 0.33498646187118442 0.055982122111034073 0 0.33532117623289792 0.080580236175288908 0 0.33969340283432148 0.066839369098377399 0 0.33498646187118442 0.055982122111034073 0 0.33969340283432148 0.066839369098377399 0 0.33921798947349441 0.060436859139996961 0 0.34209538759911817 0.062404009856164733 0 0.33969340283432148 0.066839369098377399 0 0.34499503910883039 0.067735429064858438 0 0.34209538759911817 0.062404009856164733 0 0.34154436272040362 0.073897558242921338 0 0.33969340283432148 0.066839369098377399 0 0.34499503910883039 0.067735429064858438 0 0.32962162476220702 0.06347927202523812 0 0.33277616035619961 0.073942932289610769 0 0.32760233033581893 0.069750646398253541 0 0.33277616035619961 0.073942932289610769 0 0.32279972607268942 0.073135002240846653 0 0.32760233033581893 0.069750646398253541 0 0.33277616035619961 0.073942932289610769 0 0.32279972607268942 0.073135002240846653 0 0.32051126608383801 0.081836032876382178 0 0.32279972607268942 0.073135002240846653 0 0.32760233033581893 0.069750646398253541 0 0.31996797702451901 0.064085906817923491 0 0.32962162476220702 0.06347927202523812 0 0.32760233033581893 0.069750646398253541 0 0.31996797702451901 0.064085906817923491 0 0.32279972607268942 0.073135002240846653 0 0.31996797702451901 0.064085906817923491 0 0.31490463301179988 0.070790843342330281 0 0.31996797702451901 0.064085906817923491 0 0.31490463301179988 0.070790843342330281 0 0.30737465903828121 0.063118819825089004 0 0.32279972607268942 0.073135002240846653 0 0.31633415134578158 0.077160905093590568 0 0.31490463301179988 0.070790843342330281 0 0.32279972607268942 0.073135002240846653 0 0.31633415134578158 0.077160905093590568 0 0.32051126608383801 0.081836032876382178 0 0.31633415134578158 0.077160905093590568 0 0.31490463301179988 0.070790843342330281 0 0.30804665157772859 0.076453582734201747 0 0.32947592647403429 0.0901621911687642 0 0.33277616035619961 0.073942932289610769 0 0.31523557394740931 0.096454212744800122 0 0.33277616035619961 0.073942932289610769 0 0.32051126608383801 0.081836032876382178 0 0.31523557394740931 0.096454212744800122 0 0.31633415134578158 0.077160905093590568 0 0.31398052983791208 0.085205207409029746 0 0.30804665157772859 0.076453582734201747 0 0.33277616035619961 0.073942932289610769 0 0.31523557394740931 0.096454212744800122 0 0.31633415134578158 0.077160905093590568 0 0.31398052983791208 0.085205207409029746 0 0.32051126608383801 0.081836032876382178 0 0.31398052983791208 0.085205207409029746 0 0.32051126608383801 0.081836032876382178 0 0.31523557394740931 0.096454212744800122 0 0.31398052983791208 0.085205207409029746 0 0.31523557394740931 0.096454212744800122 0 0.30977500623480297 0.094121303596174113 0 0.31523557394740931 0.096454212744800122 0 0.33565589059461098 0.10517835023954369 0 0.31523557394740931 0.096454212744800122 0 0.30977500623480297 0.094121303596174113 0 0.32947592647403429 0.0901621911687642 0 0.31523557394740931 0.096454212744800122 0 0.33565589059461098 0.10517835023954369 0 0.31523557394740931 0.096454212744800122 0 0.32799137801582928 0.10731035614261129 0 0.33565589059461098 0.10517835023954369 0 0.31523557394740931 0.096454212744800122 0 0.31828261083984283 0.1048892718492936 0 0.31161214929344988 0.1095185583394164 0 0.31828261083984283 0.1048892718492936 0 0.31830079617283741 0.1126527891229132 0 0.31161214929344988 0.1095185583394164 0 0.31828261083984283 0.1048892718492936 0 0.32245321916115272 0.108749512710588 0 0.31830079617283741 0.1126527891229132 0 0.31828261083984283 0.1048892718492936 0 0.32245321916115272 0.108749512710588 0 0.32799137801582928 0.10731035614261129 0 0.31523557394740931 0.096454212744800122 0 0.31828261083984283 0.1048892718492936 0 0.32799137801582928 0.10731035614261129 0 0.31830079617283741 0.1126527891229132 0 0.32459639739545881 0.1238335895582441 0 0.3105325881499289 0.1169724059092154 0 0.32459639739545881 0.1238335895582441 0 0.3105325881499289 0.1169724059092154 0 0.30915168392987391 0.12618718950294749 0 0.31830079617283741 0.1126527891229132 0 0.3105325881499289 0.1169724059092154 0 0.31161214929344988 0.1095185583394164 0 0.31830079617283741 0.1126527891229132 0 0.32512090974022989 0.1131073507342321 0 0.32459639739545881 0.1238335895582441 0 0.32245321916115272 0.108749512710588 0 0.31830079617283741 0.1126527891229132 0 0.32512090974022989 0.1131073507342321 0 0.32245321916115272 0.108749512710588 0 0.32799137801582928 0.10731035614261129 0 0.32512090974022989 0.1131073507342321 0 0.32799137801582928 0.10731035614261129 0 0.32512090974022989 0.1131073507342321 0 0.33050068917613312 0.1147905216930088 0 0.32512090974022989 0.1131073507342321 0 0.32459639739545881 0.1238335895582441 0 0.33050068917613312 0.1147905216930088 0 0.32459639739545881 0.1238335895582441 0 0.33887202918455678 0.118792126007953 0 0.34443169349996849 0.13055627056741179 0 0.33571577503413103 0.1095792497600635 0 0.33565589059461098 0.10517835023954369 0 0.35911559081709299 0.1152009984610369 0 0.32459639739545881 0.1238335895582441 0 0.33050068917613312 0.1147905216930088 0 0.33887202918455678 0.118792126007953 0 0.33050068917613312 0.1147905216930088 0 0.33571577503413103 0.1095792497600635 0 0.33887202918455678 0.118792126007953 0 0.32799137801582928 0.10731035614261129 0 0.33050068917613312 0.1147905216930088 0 0.33266766964566957 0.1083341575044129 0 0.33050068917613312 0.1147905216930088 0 0.33571577503413103 0.1095792497600635 0 0.33266766964566957 0.1083341575044129 0 0.33571577503413103 0.1095792497600635 0 0.33266766964566957 0.1083341575044129 0 0.33565589059461098 0.10517835023954369 0 0.33571577503413103 0.1095792497600635 0 0.33565589059461098 0.10517835023954369 0 0.32799137801582928 0.10731035614261129 0 0.33266766964566957 0.1083341575044129 0 0.33565589059461098 0.10517835023954369 0 0.34090483650267878 0.092858705205274353 0 0.33565589059461098 0.10517835023954369 0 0.34733959184469698 0.1010805360425715 0 0.33565589059461098 0.10517835023954369 0 0.34733959184469698 0.1010805360425715 0 0.35911559081709299 0.1152009984610369 0 0.34090483650267878 0.092858705205274353 0 0.34733959184469698 0.1010805360425715 0 0.34650598249495568 0.092405835749461665 0 0.34733959184469698 0.1010805360425715 0 0.35567178267421912 0.0944711503599064 0 0.34650598249495568 0.092405835749461665 0 0.34733959184469698 0.1010805360425715 0 0.35567178267421912 0.0944711503599064 0 0.35911559081709299 0.1152009984610369 0 0.33887202918455678 0.118792126007953 0 0.35911559081709299 0.1152009984610369 0 0.34443169349996849 0.13055627056741179 0 0.33571577503413103 0.1095792497600635 0 0.33887202918455678 0.118792126007953 0 0.35911559081709299 0.1152009984610369 0 0.33565589059461098 0.10517835023954369 0 0.35911559081709299 0.1152009984610369 0 0.35911559081709299 0.1152009984610369 0 0.38257529103957533 0.12522364668252911 0 0.35911559081709299 0.1152009984610369 0 0.36214561989453808 0.13455472503582941 0 0.38257529103957533 0.12522364668252911 0 0.35911559081709299 0.1152009984610369 0 0.38257529103957533 0.12522364668252911 0 0.38023948013423192 0.1082954779422447 0 0.35911559081709299 0.1152009984610369 0 0.37087998821928547 0.095379791376698289 0 0.38023948013423192 0.1082954779422447 0 0.35567178267421912 0.0944711503599064 0 0.35911559081709299 0.1152009984610369 0 0.37087998821928547 0.095379791376698289 0 0.37087998821928547 0.095379791376698289 0 0.36402871843243101 0.082075660413048021 0 0.37826408423317831 0.078025493116255493 0 0.35567178267421912 0.0944711503599064 0 0.37087998821928547 0.095379791376698289 0 0.36402871843243101 0.082075660413048021 0 0.35567178267421912 0.0944711503599064 0 0.36402871843243101 0.082075660413048021 0 0.35032392314678318 0.082696182005213573 0 0.36402871843243101 0.082075660413048021 0 0.35032392314678318 0.082696182005213573 0 0.35787529935766499 0.072686120576477053 0 0.34283077156500802 0.079335176543093258 0 0.35032392314678318 0.082696182005213573 0 0.34804304176797951 0.073960662834438848 0 0.34317733798846478 0.085575227135666343 0 0.34283077156500802 0.079335176543093258 0 0.35032392314678318 0.082696182005213573 0 0.34317733798846478 0.085575227135666343 0 0.35032392314678318 0.082696182005213573 0 0.34650598249495568 0.092405835749461665 0 0.35567178267421912 0.0944711503599064 0 0.35032392314678318 0.082696182005213573 0 0.34650598249495568 0.092405835749461665 0 0.34499503910883039 0.067735429064858438 0 0.34804304176797951 0.073960662834438848 0 0.35162341438397421 0.067393256190333914 0 0.34499503910883039 0.067735429064858438 0 0.35162341438397421 0.067393256190333914 0 0.34816520952405838 0.061559370172567449 0 0.34499503910883039 0.067735429064858438 0 0.34816520952405838 0.061559370172567449 0 0.34209538759911817 0.062404009856164733 0 0.34154436272040362 0.073897558242921338 0 0.34499503910883039 0.067735429064858438 0 0.34804304176797951 0.073960662834438848 0 0.34283077156500802 0.079335176543093258 0 0.34154436272040362 0.073897558242921338 0 0.34804304176797951 0.073960662834438848 0 0.34804304176797951 0.073960662834438848 0 0.35787529935766499 0.072686120576477053 0 0.35162341438397421 0.067393256190333914 0 0.35032392314678318 0.082696182005213573 0 0.34804304176797951 0.073960662834438848 0 0.35787529935766499 0.072686120576477053 0 0.35162341438397421 0.067393256190333914 0 0.34816520952405838 0.061559370172567449 0 0.35729305629783747 0.060695736220336187 0 0.35787529935766499 0.072686120576477053 0 0.35162341438397421 0.067393256190333914 0 0.35729305629783747 0.060695736220336187 0 0.35787529935766499 0.072686120576477053 0 0.36862736152008851 0.068121488118488768 0 0.35729305629783747 0.060695736220336187 0 0.36402871843243101 0.082075660413048021 0 0.35787529935766499 0.072686120576477053 0 0.36862736152008851 0.068121488118488768 0 0.36402871843243101 0.082075660413048021 0 0.36862736152008851 0.068121488118488768 0 0.37826408423317831 0.078025493116255493 0 0.36862736152008851 0.068121488118488768 0 0.36838348233918489 0.055665138606747502 0 0.37894948866811312 0.063408514195723825 0 0.36862736152008851 0.068121488118488768 0 0.36838348233918489 0.055665138606747502 0 0.35729305629783747 0.060695736220336187 0 0.36838348233918489 0.055665138606747502 0 0.356273709442124 0.045099058920270822 0 0.35729305629783747 0.060695736220336187 0 0.36838348233918489 0.055665138606747502 0 0.37071873772007918 0.043391986722389933 0 0.356273709442124 0.045099058920270822 0 0.36838348233918489 0.055665138606747502 0 0.37071873772007918 0.043391986722389933 0 0.37946994248149618 0.052811618606571457 0 0.37071873772007918 0.043391986722389933 0 0.356273709442124 0.045099058920270822 0 0.36670660797298932 0.02358760611472362 0 0.356273709442124 0.045099058920270822 0 0.34903451994953988 0.03264784309989581 0 0.36670660797298932 0.02358760611472362 0 0.356273709442124 0.045099058920270822 0 0.34526731984579251 0.042148169984533079 0 0.34738692456651848 0.052776056943420482 0 0.356273709442124 0.045099058920270822 0 0.34903451994953988 0.03264784309989581 0 0.34526731984579251 0.042148169984533079 0 0.34526731984579251 0.042148169984533079 0 0.34738692456651848 0.052776056943420482 0 0.34076446329190507 0.047715034831316498 0 0.34738692456651848 0.052776056943420482 0 0.34816520952405838 0.061559370172567449 0 0.35729305629783747 0.060695736220336187 0 0.34738692456651848 0.052776056943420482 0 0.34816520952405838 0.061559370172567449 0 0.34152986266655921 0.056284817070815653 0 0.34816520952405838 0.061559370172567449 0 0.34209538759911817 0.062404009856164733 0 0.34152986266655921 0.056284817070815653 0 0.356273709442124 0.045099058920270822 0 0.34738692456651848 0.052776056943420482 0 0.35729305629783747 0.060695736220336187 0 0.35962780628892171 0.0029283534002974079 0 0.36670660797298932 0.02358760611472362 0 0.38202126979674728 0.0016257403202125471 0 0.36670660797298932 0.02358760611472362 0 0.34169542231774119 0.0081689964314487929 0 0.36670660797298932 0.02358760611472362 0 0.34169542231774119 0.0081689964314487929 0 0.34296529068654402 0.022176337388167919 0 0.34903451994953988 0.03264784309989581 0 0.36670660797298932 0.02358760611472362 0 0.34296529068654402 0.022176337388167919 0 0.35962780628892171 0.0029283534002974079 0 0.34169542231774119 0.0081689964314487929 0 0.33875701322577201 -0.010660491715663641 0 0.35962780628892171 0.0029283534002974079 0 0.36670660797298932 0.02358760611472362 0 0.34169542231774119 0.0081689964314487929 0 0.34169542231774119 0.0081689964314487929 0 0.31668423666249312 -0.0072496132518260273 0 0.34169542231774119 0.0081689964314487929 0 0.34296529068654402 0.022176337388167919 0 0.32273815568297859 0.01509323324799218 0 0.34296529068654402 0.022176337388167919 0 0.32273815568297859 0.01509323324799218 0 0.33465174750947091 0.031384008046779197 0 0.34903451994953988 0.03264784309989581 0 0.34296529068654402 0.022176337388167919 0 0.33465174750947091 0.031384008046779197 0 0.32273815568297859 0.01509323324799218 0 0.30696788696067528 0.011260977800671489 0 0.31031079988587063 0.030995555142770342 0 0.32436695753284878 0.02963013853698921 0 0.32273815568297859 0.01509323324799218 0 0.31031079988587063 0.030995555142770342 0 0.32436695753284878 0.02963013853698921 0 0.32273815568297859 0.01509323324799218 0 0.33465174750947091 0.031384008046779197 0 0.34169542231774119 0.0081689964314487929 0 0.32273815568297859 0.01509323324799218 0 0.31668423666249312 -0.0072496132518260273 0 0.32273815568297859 0.01509323324799218 0 0.30696788696067528 0.011260977800671489 0 0.31668423666249312 -0.0072496132518260273 0 0.33299378912178412 0.052996582938162257 0 0.33498646187118442 0.055982122111034073 0 0.33269619807731982 0.044067967748028937 0 0.33299378912178412 0.052996582938162257 0 0.33051737217764438 0.057439342168588189 0 0.32446761295540227 0.057299391599918308 0 0.32962162476220702 0.06347927202523812 0 0.33051737217764438 0.057439342168588189 0 0.33498646187118442 0.055982122111034073 0 0.32962162476220702 0.06347927202523812 0 0.33051737217764438 0.057439342168588189 0 0.32446761295540227 0.057299391599918308 0 0.33299378912178412 0.052996582938162257 0 0.33051737217764438 0.057439342168588189 0 0.33498646187118442 0.055982122111034073 0 0.33969340283432148 0.066839369098377399 0 0.33498646187118442 0.055982122111034073 0 0.33921798947349441 0.060436859139996961 0 0.33498646187118442 0.055982122111034073 0 0.33921798947349441 0.060436859139996961 0 0.34152986266655921 0.056284817070815653 0 0.33921798947349441 0.060436859139996961 0 0.34209538759911817 0.062404009856164733 0 0.34152986266655921 0.056284817070815653 0 0.33498646187118442 0.055982122111034073 0 0.34152986266655921 0.056284817070815653 0 0.34076446329190507 0.047715034831316498 0 0.34738692456651848 0.052776056943420482 0 0.34152986266655921 0.056284817070815653 0 0.34076446329190507 0.047715034831316498 0 0.33498646187118442 0.055982122111034073 0 0.34076446329190507 0.047715034831316498 0 0.33465174750947091 0.031384008046779197 0 0.33498646187118442 0.055982122111034073 0 0.33465174750947091 0.031384008046779197 0 0.34526731984579251 0.042148169984533079 0 0.34076446329190507 0.047715034831316498 0 0.33465174750947091 0.031384008046779197 0 0.33498646187118442 0.055982122111034073 0 0.33465174750947091 0.031384008046779197 0 0.33269619807731982 0.044067967748028937 0 0.34903451994953988 0.03264784309989581 0 0.34526731984579251 0.042148169984533079 0 0.33465174750947091 0.031384008046779197 0 0.32436695753284878 0.02963013853698921 0 0.33465174750947091 0.031384008046779197 0 0.33269619807731982 0.044067967748028937 0 0.33269619807731982 0.044067967748028937 0 0.31031079988587063 0.030995555142770342 0 0.33269619807731982 0.044067967748028937 0 0.30823783918916819 0.049795066756136298 0 0.31031079988587063 0.030995555142770342 0 0.32436695753284878 0.02963013853698921 0 0.33269619807731982 0.044067967748028937 0 0.31031079988587063 0.030995555142770342 0 0.33299378912178412 0.052996582938162257 0 0.32446761295540227 0.057299391599918308 0 0.30823783918916819 0.049795066756136298 0 0.33299378912178412 0.052996582938162257 0 0.33269619807731982 0.044067967748028937 0 0.30823783918916819 0.049795066756136298 0 0.33299378912178412 0.052996582938162257 0 0.30823783918916819 0.049795066756136298 0 0.31996797702451901 0.064085906817923491 0 0.32446761295540227 0.057299391599918308 0 0.30823783918916819 0.049795066756136298 0 0.32962162476220702 0.06347927202523812 0 0.31996797702451901 0.064085906817923491 0 0.32446761295540227 0.057299391599918308 0 0.31996797702451901 0.064085906817923491 0 0.30823783918916819 0.049795066756136298 0 0.30737465903828121 0.063118819825089004 0 0.30823783918916819 0.049795066756136298 0 0.29436033408655782 0.059250311261576719 0 0.30737465903828121 0.063118819825089004 0 0.30823783918916819 0.049795066756136298 0 0.29364858819061612 0.033957607196965417 0 0.31031079988587063 0.030995555142770342 0 0.29364858819061612 0.033957607196965417 0 0.28348188925655221 0.046593550574110319 0 0.27573267833481419 0.030732837745312259 0 0.30823783918916819 0.049795066756136298 0 0.29364858819061612 0.033957607196965417 0 0.28348188925655221 0.046593550574110319 0 0.30823783918916819 0.049795066756136298 0 0.28348188925655221 0.046593550574110319 0 0.29436033408655782 0.059250311261576719 0 0.28348188925655221 0.046593550574110319 0 0.29436033408655782 0.059250311261576719 0 0.28183493219024108 0.063310283077672044 0 0.30823783918916819 0.049795066756136298 0 0.28348188925655221 0.046593550574110319 0 0.30696788696067528 0.011260977800671489 0 0.31668423666249312 -0.0072496132518260273 0 0.29718084087761248 -0.00045742867309077448 0 0.30696788696067528 0.011260977800671489 0 0.28792540169442138 0.01792314253751174 0 0.29718084087761248 -0.00045742867309077448 0 0.31031079988587063 0.030995555142770342 0 0.28792540169442138 0.01792314253751174 0 0.29364858819061612 0.033957607196965417 0 0.31031079988587063 0.030995555142770342 0 0.28792540169442138 0.01792314253751174 0 0.30696788696067528 0.011260977800671489 0 0.31031079988587063 0.030995555142770342 0 0.28792540169442138 0.01792314253751174 0 0.29364858819061612 0.033957607196965417 0 0.28792540169442138 0.01792314253751174 0 0.27573267833481419 0.030732837745312259 0 0.28792540169442138 0.01792314253751174 0 0.28241787866306112 0.0011469095833447421 0 0.29718084087761248 -0.00045742867309077448 0 0.28792540169442138 0.01792314253751174 0 0.26554000350297241 0.0048507299322529994 0 0.28792540169442138 0.01792314253751174 0 0.27051027850045961 0.017580999312341181 0 0.26554000350297241 0.0048507299322529994 0 0.28792540169442138 0.01792314253751174 0 0.28241787866306112 0.0011469095833447421 0 0.26554000350297241 0.0048507299322529994 0 0.27051027850045961 0.017580999312341181 0 0.26275846254317081 0.013439969769493449 0 0.26554000350297241 0.0048507299322529994 0 0.27051027850045961 0.017580999312341181 0 0.26554000350297241 0.0048507299322529994 0 0.27573267833481419 0.030732837745312259 0 0.27051027850045961 0.017580999312341181 0 0.25992419175121517 0.025389734461324951 0 0.28792540169442138 0.01792314253751174 0 0.27573267833481419 0.030732837745312259 0 0.27051027850045961 0.017580999312341181 0 0.24898720323988541 0.033178416017642383 0 0.24784890528390521 0.023156895577430951 0 0.25992419175121517 0.025389734461324951 0 0.24784890528390521 0.023156895577430951 0 0.25992419175121517 0.025389734461324951 0 0.25474360592552853 0.01481755191828278 0 0.27051027850045961 0.017580999312341181 0 0.25992419175121517 0.025389734461324951 0 0.26275846254317081 0.013439969769493449 0 0.25992419175121517 0.025389734461324951 0 0.26275846254317081 0.013439969769493449 0 0.25474360592552853 0.01481755191828278 0 0.26275846254317081 0.013439969769493449 0 0.26554000350297241 0.0048507299322529994 0 0.25857980897391297 0.0074839920646921692 0 0.26275846254317081 0.013439969769493449 0 0.25474360592552853 0.01481755191828278 0 0.25857980897391297 0.0074839920646921692 0 0.2470455162795947 0.01469040919898796 0 0.25474360592552853 0.01481755191828278 0 0.25099497988274638 0.0064577458443076993 0 0.25474360592552853 0.01481755191828278 0 0.25099497988274638 0.0064577458443076993 0 0.25857980897391297 0.0074839920646921692 0 0.25099497988274638 0.0064577458443076993 0 0.25747072455547149 0.00013850891538732049 0 0.2471597475602246 -0.0042098564474911636 0 0.25099497988274638 0.0064577458443076993 0 0.25747072455547149 0.00013850891538732049 0 0.25857980897391297 0.0074839920646921692 0 0.25747072455547149 0.00013850891538732049 0 0.26554000350297241 0.0048507299322529994 0 0.25857980897391297 0.0074839920646921692 0 0.25747072455547149 0.00013850891538732049 0 0.26554000350297241 0.0048507299322529994 0 0.28348188925655221 0.046593550574110319 0 0.26655043322777111 0.059491884379718682 0 0.25872593932393612 0.043392034392084333 0 0.28348188925655221 0.046593550574110319 0 0.26655043322777111 0.059491884379718682 0 0.28183493219024108 0.063310283077672044 0 0.28348188925655221 0.046593550574110319 0 0.27573267833481419 0.030732837745312259 0 0.25872593932393612 0.043392034392084333 0 0.28348188925655221 0.046593550574110319 0 0.25872593932393612 0.043392034392084333 0 0.24898720323988541 0.033178416017642383 0 0.25992419175121517 0.025389734461324951 0 0.25872593932393612 0.043392034392084333 0 0.27573267833481419 0.030732837745312259 0 0.25992419175121517 0.025389734461324951 0 0.25872593932393612 0.043392034392084333 0 0.26655043322777111 0.059491884379718682 0 0.25872593932393612 0.043392034392084333 0 0.25345862362690841 0.055986016951952537 0 0.24146536745794861 0.044043188993151169 0 0.25872593932393612 0.043392034392084333 0 0.25345862362690841 0.055986016951952537 0 0.26655043322777111 0.059491884379718682 0 0.25345862362690841 0.055986016951952537 0 0.25825193906831112 0.064477969990544517 0 0.25345862362690841 0.055986016951952537 0 0.25025696560716282 0.070440101888901763 0 0.25825193906831112 0.064477969990544517 0 0.25025696560716282 0.070440101888901763 0 0.26274173381140231 0.071993876741605081 0 0.25825193906831112 0.064477969990544517 0 0.25025696560716282 0.070440101888901763 0 0.26274173381140231 0.071993876741605081 0 0.26059319846874762 0.082007458489164436 0 0.26655043322777111 0.059491884379718682 0 0.26274173381140231 0.071993876741605081 0 0.25825193906831112 0.064477969990544517 0 0.25025696560716282 0.070440101888901763 0 0.26059319846874762 0.082007458489164436 0 0.25904856375637703 0.096837014784652217 0 0.25025696560716282 0.070440101888901763 0 0.25904856375637703 0.096837014784652217 0 0.25025696560716282 0.070440101888901763 0 0.25134549599301542 0.093113001833606171 0 0.25904856375637703 0.096837014784652217 0 0.26274173381140231 0.071993876741605081 0 0.26059319846874762 0.082007458489164436 0 0.269056001978975 0.08264541269258488 0 0.26059319846874762 0.082007458489164436 0 0.26521916594415479 0.090231852247843178 0 0.269056001978975 0.08264541269258488 0 0.26059319846874762 0.082007458489164436 0 0.26521916594415479 0.090231852247843178 0 0.25904856375637703 0.096837014784652217 0 0.27207706844959562 0.09043556254963514 0 0.269056001978975 0.08264541269258488 0 0.2777726931835694 0.084984700291543674 0 0.26521916594415479 0.090231852247843178 0 0.27207706844959562 0.09043556254963514 0 0.269056001978975 0.08264541269258488 0 0.2777726931835694 0.084984700291543674 0 0.2743461595583892 0.07448260506136356 0 0.28507078870188662 0.078738825990649186 0 0.269056001978975 0.08264541269258488 0 0.2777726931835694 0.084984700291543674 0 0.2743461595583892 0.07448260506136356 0 0.27207706844959562 0.09043556254963514 0 0.2777726931835694 0.084984700291543674 0 0.27873149412094239 0.094696560783835648 0 0.26655043322777111 0.059491884379718682 0 0.26274173381140231 0.071993876741605081 0 0.2743461595583892 0.07448260506136356 0 0.26274173381140231 0.071993876741605081 0 0.269056001978975 0.08264541269258488 0 0.2743461595583892 0.07448260506136356 0 0.2743461595583892 0.07448260506136356 0 0.28183493219024108 0.063310283077672044 0 0.28507078870188662 0.078738825990649186 0 0.26655043322777111 0.059491884379718682 0 0.2743461595583892 0.07448260506136356 0 0.28183493219024108 0.063310283077672044 0 0.29436033408655782 0.059250311261576719 0 0.28183493219024108 0.063310283077672044 0 0.29453825518038612 0.071127798301142686 0 0.29453825518038612 0.071127798301142686 0 0.28507078870188662 0.078738825990649186 0 0.29468278708232942 0.08447975218253985 0 0.28183493219024108 0.063310283077672044 0 0.29453825518038612 0.071127798301142686 0 0.28507078870188662 0.078738825990649186 0 0.2777726931835694 0.084984700291543674 0 0.28507078870188662 0.078738825990649186 0 0.28736571362840102 0.088366273728839581 0 0.28507078870188662 0.078738825990649186 0 0.28736571362840102 0.088366273728839581 0 0.29468278708232942 0.08447975218253985 0 0.2777726931835694 0.084984700291543674 0 0.28736571362840102 0.088366273728839581 0 0.27873149412094239 0.094696560783835648 0 0.28736571362840102 0.088366273728839581 0 0.28595833760110112 0.097689608214238721 0 0.27873149412094239 0.094696560783835648 0 0.28736571362840102 0.088366273728839581 0 0.29248885867984181 0.093661243003696146 0 0.28595833760110112 0.097689608214238721 0 0.29248885867984181 0.093661243003696146 0 0.29468278708232942 0.08447975218253985 0 0.30059752206250617 0.097987828394355631 0 0.28736571362840102 0.088366273728839581 0 0.29248885867984181 0.093661243003696146 0 0.29468278708232942 0.08447975218253985 0 0.30804665157772859 0.076453582734201747 0 0.30977500623480297 0.094121303596174113 0 0.30059752206250617 0.097987828394355631 0 0.29468278708232942 0.08447975218253985 0 0.30804665157772859 0.076453582734201747 0 0.30059752206250617 0.097987828394355631 0 0.30804665157772859 0.076453582734201747 0 0.30059752206250617 0.097987828394355631 0 0.31398052983791208 0.085205207409029746 0 0.30804665157772859 0.076453582734201747 0 0.30977500623480297 0.094121303596174113 0 0.31490463301179988 0.070790843342330281 0 0.30804665157772859 0.076453582734201747 0 0.30737465903828121 0.063118819825089004 0 0.29453825518038612 0.071127798301142686 0 0.30804665157772859 0.076453582734201747 0 0.30737465903828121 0.063118819825089004 0 0.29436033408655782 0.059250311261576719 0 0.29453825518038612 0.071127798301142686 0 0.30737465903828121 0.063118819825089004 0 0.29453825518038612 0.071127798301142686 0 0.29468278708232942 0.08447975218253985 0 0.30804665157772859 0.076453582734201747 0 0.29779197693054371 0.1188410187182391 0 0.30059752206250617 0.097987828394355631 0 0.29314839254728547 0.11952207405451019 0 0.29779197693054371 0.1188410187182391 0 0.3105325881499289 0.1169724059092154 0 0.29779197693054371 0.1188410187182391 0 0.3105325881499289 0.1169724059092154 0 0.30915168392987391 0.12618718950294749 0 0.29779197693054371 0.1188410187182391 0 0.3105325881499289 0.1169724059092154 0 0.31161214929344988 0.1095185583394164 0 0.31523557394740931 0.096454212744800122 0 0.29779197693054371 0.1188410187182391 0 0.31523557394740931 0.096454212744800122 0 0.29779197693054371 0.1188410187182391 0 0.30059752206250617 0.097987828394355631 0 0.31523557394740931 0.096454212744800122 0 0.29779197693054371 0.1188410187182391 0 0.31161214929344988 0.1095185583394164 0 0.31523557394740931 0.096454212744800122 0 0.30977500623480297 0.094121303596174113 0 0.30059752206250617 0.097987828394355631 0 0.30059752206250617 0.097987828394355631 0 0.29052670303627598 0.1091271208036696 0 0.29135706276245238 0.1015339550369538 0 0.30059752206250617 0.097987828394355631 0 0.29314839254728547 0.11952207405451019 0 0.30059752206250617 0.097987828394355631 0 0.29052670303627598 0.1091271208036696 0 0.29314839254728547 0.11952207405451019 0 0.29248885867984181 0.093661243003696146 0 0.30059752206250617 0.097987828394355631 0 0.29135706276245238 0.1015339550369538 0 0.29248885867984181 0.093661243003696146 0 0.29135706276245238 0.1015339550369538 0 0.28595833760110112 0.097689608214238721 0 0.29135706276245238 0.1015339550369538 0 0.28595833760110112 0.097689608214238721 0 0.28467298986659301 0.10621617739662439 0 0.28595833760110112 0.097689608214238721 0 0.28467298986659301 0.10621617739662439 0 0.27862311293065112 0.10234998337139301 0 0.29052670303627598 0.1091271208036696 0 0.29135706276245238 0.1015339550369538 0 0.28467298986659301 0.10621617739662439 0 0.28467298986659301 0.10621617739662439 0 0.28137440986598611 0.1136112590298704 0 0.27812958788795927 0.107644081280749 0 0.29052670303627598 0.1091271208036696 0 0.28137440986598611 0.1136112590298704 0 0.29314839254728547 0.11952207405451019 0 0.29052670303627598 0.1091271208036696 0 0.28467298986659301 0.10621617739662439 0 0.28137440986598611 0.1136112590298704 0 0.29314839254728547 0.11952207405451019 0 0.26784016190559068 0.1232339276804028 0 0.28986467446423858 0.1290147794416939 0 0.29779197693054371 0.1188410187182391 0 0.28986467446423858 0.1290147794416939 0 0.29779197693054371 0.1188410187182391 0 0.29314839254728547 0.11952207405451019 0 0.28986467446423858 0.1290147794416939 0 0.29314839254728547 0.11952207405451019 0 0.28986467446423858 0.1290147794416939 0 0.29779197693054371 0.1188410187182391 0 0.29314839254728547 0.11952207405451019 0 0.29314839254728547 0.11952207405451019 0 0.26784016190559068 0.1232339276804028 0 0.27226762443554209 0.11073118326949789 0 0.26784016190559068 0.1232339276804028 0 0.25904856375637703 0.096837014784652217 0 0.28137440986598611 0.1136112590298704 0 0.29314839254728547 0.11952207405451019 0 0.26784016190559068 0.1232339276804028 0 0.28137440986598611 0.1136112590298704 0 0.27226762443554209 0.11073118326949789 0 0.26784016190559068 0.1232339276804028 0 0.28137440986598611 0.1136112590298704 0 0.27226762443554209 0.11073118326949789 0 0.27812958788795927 0.107644081280749 0 0.26784016190559068 0.1232339276804028 0 0.26403720678618231 0.1237916913956502 0 0.27873149412094239 0.094696560783835648 0 0.27862311293065112 0.10234998337139301 0 0.26907964521769162 0.10079388712199901 0 0.28595833760110112 0.097689608214238721 0 0.27873149412094239 0.094696560783835648 0 0.27862311293065112 0.10234998337139301 0 0.27429208111026487 0.1053603607824667 0 0.27862311293065112 0.10234998337139301 0 0.26907964521769162 0.10079388712199901 0 0.27429208111026487 0.1053603607824667 0 0.27862311293065112 0.10234998337139301 0 0.27812958788795927 0.107644081280749 0 0.28467298986659301 0.10621617739662439 0 0.27862311293065112 0.10234998337139301 0 0.27812958788795927 0.107644081280749 0 0.27226762443554209 0.11073118326949789 0 0.27429208111026487 0.1053603607824667 0 0.27812958788795927 0.107644081280749 0 0.27226762443554209 0.11073118326949789 0 0.26907964521769162 0.10079388712199901 0 0.25904856375637703 0.096837014784652217 0 0.27226762443554209 0.11073118326949789 0 0.27429208111026487 0.1053603607824667 0 0.26907964521769162 0.10079388712199901 0 0.27207706844959562 0.09043556254963514 0 0.27873149412094239 0.094696560783835648 0 0.26907964521769162 0.10079388712199901 0 0.26521916594415479 0.090231852247843178 0 0.27207706844959562 0.09043556254963514 0 0.26907964521769162 0.10079388712199901 0 0.26784016190559068 0.1232339276804028 0 0.25904856375637703 0.096837014784652217 0 0.26049436997613412 0.1079191076236217 0 0.26521916594415479 0.090231852247843178 0 0.26907964521769162 0.10079388712199901 0 0.25904856375637703 0.096837014784652217 0 0.25134549599301542 0.093113001833606171 0 0.26049436997613412 0.1079191076236217 0 0.25311691439803963 0.1010492937196204 0 0.25134549599301542 0.093113001833606171 0 0.26049436997613412 0.1079191076236217 0 0.25134549599301542 0.093113001833606171 0 0.25904856375637703 0.096837014784652217 0 0.26049436997613412 0.1079191076236217 0 0.25311691439803963 0.1010492937196204 0 0.26403720678618231 0.1237916913956502 0 0.26049436997613412 0.1079191076236217 0 0.25311691439803963 0.1010492937196204 0 0.26403720678618231 0.1237916913956502 0 0.26784016190559068 0.1232339276804028 0 0.25904856375637703 0.096837014784652217 0 0.23877516526528131 0.12749677065403409 0 0.25311691439803963 0.1010492937196204 0 0.26403720678618231 0.1237916913956502 0 0.26784016190559068 0.1232339276804028 0 0.26049436997613412 0.1079191076236217 0 0.26403720678618231 0.1237916913956502 0 0.2489748085747415 0.14238586728697381 0 0.23877516526528131 0.12749677065403409 0 0.26403720678618231 0.1237916913956502 0 0.2489748085747415 0.14238586728697381 0 0.26403720678618231 0.1237916913956502 0 0.27705573921233068 0.1509038447217991 0 0.23877516526528131 0.12749677065403409 0 0.26403720678618231 0.1237916913956502 0 0.26784016190559068 0.1232339276804028 0 0.28986467446423858 0.1290147794416939 0 0.28472014539306079 0.13561717767583259 0 0.26403720678618231 0.1237916913956502 0 0.27705573921233068 0.1509038447217991 0 0.26784016190559068 0.1232339276804028 0 0.27705573921233068 0.1509038447217991 0 0.26784016190559068 0.1232339276804028 0 0.27705573921233068 0.1509038447217991 0 0.28472014539306079 0.13561717767583259 0 0.26784016190559068 0.1232339276804028 0 0.26403720678618231 0.1237916913956502 0 0.27705573921233068 0.1509038447217991 0 0.2489748085747415 0.14238586728697381 0 0.27705573921233068 0.1509038447217991 0 0.25301653249277928 0.16364512933074629 0 0.27705573921233068 0.1509038447217991 0 0.25301653249277928 0.16364512933074629 0 0.26658063814503419 0.175159318275625 0 0.2491207205124025 0.18912300576219279 0 0.26658063814503419 0.175159318275625 0 0.26910720522038789 0.19711006045598889 0 0.2491207205124025 0.18912300576219279 0 0.25301653249277928 0.16364512933074629 0 0.26658063814503419 0.175159318275625 0 0.28589588726413301 0.18121494093478829 0 0.28841360001121558 0.18126071752460679 0 0.26910720522038789 0.19711006045598889 0 0.28516004894346481 0.17523716324046809 0 0.26910720522038789 0.19711006045598889 0 0.28589588726413301 0.18121494093478829 0 0.28516004894346481 0.17523716324046809 0 0.26910720522038789 0.19711006045598889 0 0.26658063814503419 0.175159318275625 0 0.28516004894346481 0.17523716324046809 0 0.26910720522038789 0.19711006045598889 0 0.27705573921233068 0.1509038447217991 0 0.28516004894346481 0.17523716324046809 0 0.27705573921233068 0.1509038447217991 0 0.26658063814503419 0.175159318275625 0 0.28516004894346481 0.17523716324046809 0 0.28736186524305979 0.17236719097291739 0 0.29977337596052311 0.15618932383469061 0 0.27705573921233068 0.1509038447217991 0 0.28858043918331749 0.1604521377369488 0 0.28736186524305979 0.17236719097291739 0 0.28736186524305979 0.17236719097291739 0 0.29072224811124631 0.1793654617898259 0 0.29977337596052311 0.15618932383469061 0 0.27705573921233068 0.1509038447217991 0 0.28736186524305979 0.17236719097291739 0 0.27705573921233068 0.1509038447217991 0 0.28516004894346481 0.17523716324046809 0 0.28736186524305979 0.17236719097291739 0 0.28858043918331749 0.1604521377369488 0 0.28736186524305979 0.17236719097291739 0 0.29977337596052311 0.15618932383469061 0 0.28589588726413301 0.18121494093478829 0 0.28841360001121558 0.18126071752460679 0 0.28841360001121558 0.18126071752460679 0 0.28516004894346481 0.17523716324046809 0 0.29072224811124631 0.1793654617898259 0 0.28589588726413301 0.18121494093478829 0 0.28841360001121558 0.18126071752460679 0 0.28516004894346481 0.17523716324046809 0 0.28736186524305979 0.17236719097291739 0 0.29072224811124631 0.1793654617898259 0 0.28516004894346481 0.17523716324046809 0 0.28736186524305979 0.17236719097291739 0 0.29072224811124631 0.1793654617898259 0 0.28516004894346481 0.17523716324046809 0 0.28736186524305979 0.17236719097291739 0 0.29072224811124631 0.1793654617898259 0 0.29166064742898817 0.1813197547431912 0 0.30436046564585878 0.17401919735283311 0 0.28841360001121558 0.18126071752460679 0 0.29166064742898817 0.1813197547431912 0 0.28986537892493841 0.1907362010186163 0 0.28841360001121558 0.18126071752460679 0 0.29072224811124631 0.1793654617898259 0 0.28841360001121558 0.18126071752460679 0 0.29072224811124631 0.1793654617898259 0 0.29166064742898817 0.1813197547431912 0 0.28841360001121558 0.18126071752460679 0 0.29166064742898817 0.1813197547431912 0 0.29072224811124631 0.1793654617898259 0 0.29166064742898817 0.1813197547431912 0 0.29166064742898817 0.1813197547431912 0 0.31303048529522609 0.1954901176923238 0 0.32104843074838518 0.18185407801111039 0 0.29166064742898817 0.1813197547431912 0 0.30436046564585878 0.17401919735283311 0 0.32104843074838518 0.18185407801111039 0 0.29166064742898817 0.1813197547431912 0 0.32104843074838518 0.18185407801111039 0 0.29072224811124631 0.1793654617898259 0 0.30436046564585878 0.17401919735283311 0 0.31226087470522262 0.1616835961252375 0 0.29072224811124631 0.1793654617898259 0 0.31226087470522262 0.1616835961252375 0 0.29072224811124631 0.1793654617898259 0 0.31226087470522262 0.1616835961252375 0 0.29977337596052311 0.15618932383469061 0 0.30436046564585878 0.17401919735283311 0 0.31226087470522262 0.1616835961252375 0 0.31583055223933532 0.1718583466035507 0 0.29977337596052311 0.15618932383469061 0 0.31218488667799088 0.14001145669646739 0 0.31226087470522262 0.1616835961252375 0 0.29977337596052311 0.15618932383469061 0 0.31218488667799088 0.14001145669646739 0 0.29977337596052311 0.15618932383469061 0 0.2983693518225114 0.14312494966125511 0 0.31218488667799088 0.14001145669646739 0 0.31218488667799088 0.14001145669646739 0 0.30915168392987391 0.12618718950294749 0 0.30065257049544641 0.13127747663257111 0 0.29779197693054371 0.1188410187182391 0 0.30915168392987391 0.12618718950294749 0 0.30065257049544641 0.13127747663257111 0 0.2983693518225114 0.14312494966125511 0 0.30065257049544641 0.13127747663257111 0 0.29538553194348149 0.13544414854636369 0 0.2983693518225114 0.14312494966125511 0 0.31218488667799088 0.14001145669646739 0 0.30065257049544641 0.13127747663257111 0 0.28986467446423858 0.1290147794416939 0 0.28472014539306079 0.13561717767583259 0 0.28257446004032999 0.1500896269119697 0 0.2983693518225114 0.14312494966125511 0 0.29538553194348149 0.13544414854636369 0 0.29162648783267248 0.1417081772799304 0 0.28986467446423858 0.1290147794416939 0 0.28257446004032999 0.1500896269119697 0 0.29162648783267248 0.1417081772799304 0 0.28986467446423858 0.1290147794416939 0 0.28257446004032999 0.1500896269119697 0 0.29538553194348149 0.13544414854636369 0 0.28986467446423858 0.1290147794416939 0 0.29162648783267248 0.1417081772799304 0 0.30065257049544641 0.13127747663257111 0 0.29538553194348149 0.13544414854636369 0 0.28986467446423858 0.1290147794416939 0 0.29779197693054371 0.1188410187182391 0 0.30065257049544641 0.13127747663257111 0 0.28986467446423858 0.1290147794416939 0 0.28986467446423858 0.1290147794416939 0 0.28472014539306079 0.13561717767583259 0 0.27705573921233068 0.1509038447217991 0 0.28472014539306079 0.13561717767583259 0 0.28257446004032999 0.1500896269119697 0 0.28257446004032999 0.1500896269119697 0 0.29167044090346328 0.1517394622628479 0 0.29162648783267248 0.1417081772799304 0 0.28497026983486029 0.1532962679083914 0 0.28257446004032999 0.1500896269119697 0 0.29167044090346328 0.1517394622628479 0 0.27705573921233068 0.1509038447217991 0 0.28858043918331749 0.1604521377369488 0 0.28497026983486029 0.1532962679083914 0 0.27705573921233068 0.1509038447217991 0 0.28497026983486029 0.1532962679083914 0 0.28257446004032999 0.1500896269119697 0 0.28858043918331749 0.1604521377369488 0 0.28497026983486029 0.1532962679083914 0 0.29167044090346328 0.1517394622628479 0 0.28858043918331749 0.1604521377369488 0 0.29977337596052311 0.15618932383469061 0 0.29167044090346328 0.1517394622628479 0 0.29977337596052311 0.15618932383469061 0 0.2983693518225114 0.14312494966125511 0 0.29167044090346328 0.1517394622628479 0 0.2983693518225114 0.14312494966125511 0 0.29167044090346328 0.1517394622628479 0 0.29162648783267248 0.1417081772799304 0 0.25933000645894172 0.25157611021901422 0 0.2731172397574792 0.24256290321852991 0 0.25384493972390137 0.2445466193227451 0 0.2731172397574792 0.24256290321852991 0 0.25384493972390137 0.2445466193227451 0 0.26306448563691531 0.23287484750968371 0 0.25933000645894172 0.25157611021901422 0 0.25384493972390137 0.2445466193227451 0 0.25384493972390137 0.2445466193227451 0 0.2500150798737153 0.22104710959833829 0 0.26306448563691531 0.23287484750968371 0 0.2500150798737153 0.22104710959833829 0 0.26306448563691531 0.23287484750968371 0 0.27528068319256532 0.22334275789912139 0 0.2731172397574792 0.24256290321852991 0 0.26306448563691531 0.23287484750968371 0 0.27528068319256532 0.22334275789912139 0 0.2731172397574792 0.24256290321852991 0 0.27528068319256532 0.22334275789912139 0 0.28536372676892369 0.22859576600843451 0 0.2500150798737153 0.22104710959833829 0 0.27528068319256532 0.22334275789912139 0 0.27535341962450222 0.20672325268963879 0 0.27528068319256532 0.22334275789912139 0 0.27535341962450222 0.20672325268963879 0 0.28700169083073801 0.21647722050108939 0 0.24952928570714011 0.21318230820655429 0 0.26714104518572529 0.1987241549042251 0 0.24952928570714011 0.21318230820655429 0 0.2500150798737153 0.22104710959833829 0 0.26714104518572529 0.1987241549042251 0 0.2500150798737153 0.22104710959833829 0 0.26714104518572529 0.1987241549042251 0 0.24952928570714011 0.21318230820655429 0 0.25176877608350462 0.2008112079738272 0 0.26714104518572529 0.1987241549042251 0 0.2500150798737153 0.22104710959833829 0 0.27535341962450222 0.20672325268963879 0 0.26714104518572529 0.1987241549042251 0 0.2491207205124025 0.18912300576219279 0 0.25176877608350462 0.2008112079738272 0 0.26714104518572529 0.1987241549042251 0 0.2491207205124025 0.18912300576219279 0 0.26910720522038789 0.19711006045598889 0 0.2491207205124025 0.18912300576219279 0 0.26714104518572529 0.1987241549042251 0 0.26910720522038789 0.19711006045598889 0 0.27535341962450222 0.20672325268963879 0 0.26910720522038789 0.19711006045598889 0 0.28650459977978521 0.2040624557323856 0 0.26910720522038789 0.19711006045598889 0 0.28650459977978521 0.2040624557323856 0 0.28841360001121558 0.18126071752460679 0 0.26910720522038789 0.19711006045598889 0 0.27535341962450222 0.20672325268963879 0 0.26714104518572529 0.1987241549042251 0 0.26910720522038789 0.19711006045598889 0 0.26714104518572529 0.1987241549042251 0 0.26910720522038789 0.19711006045598889 0 0.26910720522038789 0.19711006045598889 0 0.28986537892493841 0.1907362010186163 0 0.28650459977978521 0.2040624557323856 0 0.29833659363552623 0.19522295605836471 0 0.30501253984206661 0.20912615737353701 0 0.28650459977978521 0.2040624557323856 0 0.28841360001121558 0.18126071752460679 0 0.26910720522038789 0.19711006045598889 0 0.28986537892493841 0.1907362010186163 0 0.28986537892493841 0.1907362010186163 0 0.29833659363552623 0.19522295605836471 0 0.28650459977978521 0.2040624557323856 0 0.29166064742898817 0.1813197547431912 0 0.29833659363552623 0.19522295605836471 0 0.29166064742898817 0.1813197547431912 0 0.28986537892493841 0.1907362010186163 0 0.29833659363552623 0.19522295605836471 0 0.29166064742898817 0.1813197547431912 0 0.29833659363552623 0.19522295605836471 0 0.31303048529522609 0.1954901176923238 0 0.30501253984206661 0.20912615737353701 0 0.31303048529522609 0.1954901176923238 0 0.29833659363552623 0.19522295605836471 0 0.30501253984206661 0.20912615737353701 0 0.31303048529522609 0.1954901176923238 0 0.30501253984206661 0.20912615737353701 0 0.31523619773248662 0.20408009092754539 0 0.31303048529522609 0.1954901176923238 0 0.29833659363552623 0.19522295605836471 0 0.30501253984206661 0.20912615737353701 0 0.30501253984206661 0.20912615737353701 0 0.3039019943391833 0.21101485100878059 0 0.28650459977978521 0.2040624557323856 0 0.30501253984206661 0.20912615737353701 0 0.3039019943391833 0.21101485100878059 0 0.30501253984206661 0.20912615737353701 0 0.3063984877315481 0.212012506652524 0 0.31449024662171771 0.2104703036080425 0 0.30501253984206661 0.20912615737353701 0 0.31523619773248662 0.20408009092754539 0 0.31449024662171771 0.2104703036080425 0 0.30501253984206661 0.20912615737353701 0 0.3063984877315481 0.212012506652524 0 0.30501253984206661 0.20912615737353701 0 0.3063984877315481 0.212012506652524 0 0.3039019943391833 0.21101485100878059 0 0.3063984877315481 0.212012506652524 0 0.30352025538624849 0.2144356268157798 0 0.3133793276302137 0.22655067389614869 0 0.3063984877315481 0.212012506652524 0 0.3039019943391833 0.21101485100878059 0 0.3039019943391833 0.21101485100878059 0 0.29560572127946833 0.2251242396681761 0 0.3039019943391833 0.21101485100878059 0 0.30352025538624849 0.2144356268157798 0 0.29560572127946833 0.2251242396681761 0 0.3063984877315481 0.212012506652524 0 0.3039019943391833 0.21101485100878059 0 0.30352025538624849 0.2144356268157798 0 0.3039019943391833 0.21101485100878059 0 0.28650459977978521 0.2040624557323856 0 0.28700169083073801 0.21647722050108939 0 0.3039019943391833 0.21101485100878059 0 0.28700169083073801 0.21647722050108939 0 0.29560572127946833 0.2251242396681761 0 0.3039019943391833 0.21101485100878059 0 0.28650459977978521 0.2040624557323856 0 0.27535341962450222 0.20672325268963879 0 0.28650459977978521 0.2040624557323856 0 0.28700169083073801 0.21647722050108939 0 0.27528068319256532 0.22334275789912139 0 0.28700169083073801 0.21647722050108939 0 0.28536372676892369 0.22859576600843451 0 0.29560572127946833 0.2251242396681761 0 0.28730944821975318 0.23923362832757161 0 0.29560572127946833 0.2251242396681761 0 0.29686418423525079 0.23642228197899551 0 0.28730944821975318 0.23923362832757161 0 0.28536372676892369 0.22859576600843451 0 0.29560572127946833 0.2251242396681761 0 0.28730944821975318 0.23923362832757161 0 0.28700169083073801 0.21647722050108939 0 0.28536372676892369 0.22859576600843451 0 0.29560572127946833 0.2251242396681761 0 0.30352025538624849 0.2144356268157798 0 0.30940299416290801 0.23160316076075321 0 0.3133793276302137 0.22655067389614869 0 0.30352025538624849 0.2144356268157798 0 0.29560572127946833 0.2251242396681761 0 0.30940299416290801 0.23160316076075321 0 0.30352025538624849 0.2144356268157798 0 0.30940299416290801 0.23160316076075321 0 0.3063984877315481 0.212012506652524 0 0.3133793276302137 0.22655067389614869 0 0.30940299416290801 0.23160316076075321 0 0.3133793276302137 0.22655067389614869 0 0.29560572127946833 0.2251242396681761 0 0.30940299416290801 0.23160316076075321 0 0.29686418423525079 0.23642228197899551 0 0.30940299416290801 0.23160316076075321 0 0.29513857327887272 0.24972809915948049 0 0.30940299416290801 0.23160316076075321 0 0.29513857327887272 0.24972809915948049 0 0.29686418423525079 0.23642228197899551 0 0.31818316426972387 0.25722623771081238 0 0.30940299416290801 0.23160316076075321 0 0.29513857327887272 0.24972809915948049 0 0.2731172397574792 0.24256290321852991 0 0.29513857327887272 0.24972809915948049 0 0.2731172397574792 0.24256290321852991 0 0.29513857327887272 0.24972809915948049 0 0.28730944821975318 0.23923362832757161 0 0.29513857327887272 0.24972809915948049 0 0.29686418423525079 0.23642228197899551 0 0.28730944821975318 0.23923362832757161 0 0.2731172397574792 0.24256290321852991 0 0.28536372676892369 0.22859576600843451 0 0.28730944821975318 0.23923362832757161 0 0.34285969426899532 0.24925208607327889 0 0.33321473157118248 0.24128336626767241 0 0.34527292685078798 0.23834092789224601 0 0.33321473157118248 0.24128336626767241 0 0.33121038715833429 0.23100364088330541 0 0.34527292685078798 0.23834092789224601 0 0.33321473157118248 0.24128336626767241 0 0.32590226224884272 0.23505311119298031 0 0.33121038715833429 0.23100364088330541 0 0.33084089493006752 0.25143756927828481 0 0.33321473157118248 0.24128336626767241 0 0.32215285561373952 0.2458190294923166 0 0.33084089493006752 0.25143756927828481 0 0.34285969426899532 0.24925208607327889 0 0.33321473157118248 0.24128336626767241 0 0.31818316426972387 0.25722623771081238 0 0.30940299416290801 0.23160316076075321 0 0.31818316426972387 0.25722623771081238 0 0.30940299416290801 0.23160316076075321 0 0.32215285561373952 0.2458190294923166 0 0.30940299416290801 0.23160316076075321 0 0.32215285561373952 0.2458190294923166 0 0.31731699220060722 0.23475118084154609 0 0.33321473157118248 0.24128336626767241 0 0.32215285561373952 0.2458190294923166 0 0.32590226224884272 0.23505311119298031 0 0.32215285561373952 0.2458190294923166 0 0.31731699220060722 0.23475118084154609 0 0.32590226224884272 0.23505311119298031 0 0.31731699220060722 0.23475118084154609 0 0.32590226224884272 0.23505311119298031 0 0.32200225951649158 0.2283990640106964 0 0.32590226224884272 0.23505311119298031 0 0.32200225951649158 0.2283990640106964 0 0.33121038715833429 0.23100364088330541 0 0.31731699220060722 0.23475118084154609 0 0.32200225951649158 0.2283990640106964 0 0.3133793276302137 0.22655067389614869 0 0.31731699220060722 0.23475118084154609 0 0.3133793276302137 0.22655067389614869 0 0.30940299416290801 0.23160316076075321 0 0.31731699220060722 0.23475118084154609 0 0.3133793276302137 0.22655067389614869 0 0.32200225951649158 0.2283990640106964 0 0.3133793276302137 0.22655067389614869 0 0.32041323109633918 0.21761311743574141 0 0.3133793276302137 0.22655067389614869 0 0.32041323109633918 0.21761311743574141 0 0.32200225951649158 0.2283990640106964 0 0.33121038715833429 0.23100364088330541 0 0.32041323109633918 0.21761311743574141 0 0.33121038715833429 0.23100364088330541 0 0.34288253092466031 0.22659236162411309 0 0.32041323109633918 0.21761311743574141 0 0.34288253092466031 0.22659236162411309 0 0.32226081711777299 0.2152655014268601 0 0.32041323109633918 0.21761311743574141 0 0.34288253092466031 0.22659236162411309 0 0.32041323109633918 0.21761311743574141 0 0.33121038715833429 0.23100364088330541 0 0.34288253092466031 0.22659236162411309 0 0.34527292685078798 0.23834092789224601 0 0.34288253092466031 0.22659236162411309 0 0.32795238140697031 0.20778431624093369 0 0.35525878128763838 0.21677375706925911 0 0.34288253092466031 0.22659236162411309 0 0.32226081711777299 0.2152655014268601 0 0.32795238140697031 0.20778431624093369 0 0.32795238140697031 0.20778431624093369 0 0.34382124610301212 0.20052082912637309 0 0.35525878128763838 0.21677375706925911 0 0.32795238140697031 0.20778431624093369 0 0.35525878128763838 0.21677375706925911 0 0.32226081711777299 0.2152655014268601 0 0.31923570809945923 0.2125519320525899 0 0.32109413908799028 0.2084722942450622 0 0.32226081711777299 0.2152655014268601 0 0.32041323109633918 0.21761311743574141 0 0.31923570809945923 0.2125519320525899 0 0.32226081711777299 0.2152655014268601 0 0.32041323109633918 0.21761311743574141 0 0.3063984877315481 0.212012506652524 0 0.32041323109633918 0.21761311743574141 0 0.31449024662171771 0.2104703036080425 0 0.3063984877315481 0.212012506652524 0 0.32041323109633918 0.21761311743574141 0 0.3063984877315481 0.212012506652524 0 0.3133793276302137 0.22655067389614869 0 0.32041323109633918 0.21761311743574141 0 0.32041323109633918 0.21761311743574141 0 0.31923570809945923 0.2125519320525899 0 0.31449024662171771 0.2104703036080425 0 0.31523619773248662 0.20408009092754539 0 0.32109413908799028 0.2084722942450622 0 0.32307404619802282 0.19844755308256051 0 0.31523619773248662 0.20408009092754539 0 0.31449024662171771 0.2104703036080425 0 0.32109413908799028 0.2084722942450622 0 0.31923570809945923 0.2125519320525899 0 0.31449024662171771 0.2104703036080425 0 0.32109413908799028 0.2084722942450622 0 0.32109413908799028 0.2084722942450622 0 0.32795238140697031 0.20778431624093369 0 0.32307404619802282 0.19844755308256051 0 0.32226081711777299 0.2152655014268601 0 0.32109413908799028 0.2084722942450622 0 0.32795238140697031 0.20778431624093369 0 0.32307404619802282 0.19844755308256051 0 0.33209026727440438 0.19279838934387661 0 0.32104843074838518 0.18185407801111039 0 0.32795238140697031 0.20778431624093369 0 0.32307404619802282 0.19844755308256051 0 0.33209026727440438 0.19279838934387661 0 0.32307404619802282 0.19844755308256051 0 0.31303048529522609 0.1954901176923238 0 0.32104843074838518 0.18185407801111039 0 0.31523619773248662 0.20408009092754539 0 0.32307404619802282 0.19844755308256051 0 0.31303048529522609 0.1954901176923238 0 0.31303048529522609 0.1954901176923238 0 0.32104843074838518 0.18185407801111039 0 0.32795238140697031 0.20778431624093369 0 0.33209026727440438 0.19279838934387661 0 0.34382124610301212 0.20052082912637309 0 0.33209026727440438 0.19279838934387661 0 0.34382124610301212 0.20052082912637309 0 0.34411333819229428 0.18227343991349801 0 0.34382124610301212 0.20052082912637309 0 0.36020742204179412 0.19867811941397129 0 0.34411333819229428 0.18227343991349801 0 0.36020742204179412 0.19867811941397129 0 0.34411333819229428 0.18227343991349801 0 0.36717824563620338 0.18269280181588601 0 0.36020742204179412 0.19867811941397129 0 0.37365211512771168 0.20686980750760459 0 0.3782166182729747 0.1933668958558957 0 0.36020742204179412 0.19867811941397129 0 0.36717824563620338 0.18269280181588601 0 0.3782166182729747 0.1933668958558957 0 0.36020742204179412 0.19867811941397129 0 0.37365211512771168 0.20686980750760459 0 0.35525878128763838 0.21677375706925911 0 0.37365211512771168 0.20686980750760459 0 0.37475831855490688 0.21531477433497609 0 0.35525878128763838 0.21677375706925911 0 0.34382124610301212 0.20052082912637309 0 0.36020742204179412 0.19867811941397129 0 0.35525878128763838 0.21677375706925911 0 0.34288253092466031 0.22659236162411309 0 0.36535183075298111 0.23557160581248551 0 0.34527292685078798 0.23834092789224601 0 0.34288253092466031 0.22659236162411309 0 0.36535183075298111 0.23557160581248551 0 0.34288253092466031 0.22659236162411309 0 0.35525878128763838 0.21677375706925911 0 0.36535183075298111 0.23557160581248551 0 0.35525878128763838 0.21677375706925911 0 0.37427856575939211 0.23386117504847689 0 0.38256518116830668 0.22576319789758451 0 0.35525878128763838 0.21677375706925911 0 0.37427856575939211 0.23386117504847689 0 0.36535183075298111 0.23557160581248551 0 0.35525878128763838 0.21677375706925911 0 0.38256518116830668 0.22576319789758451 0 0.37475831855490688 0.21531477433497609 0 0.35525878128763838 0.21677375706925911 0 0.38256518116830668 0.22576319789758451 0 0.38158120036622462 0.25704582904296452 0 0.37427856575939211 0.23386117504847689 0 0.36883678126117009 0.24474921281383891 0 0.37427856575939211 0.23386117504847689 0 0.36535183075298111 0.23557160581248551 0 0.36883678126117009 0.24474921281383891 0 0.36430736403106673 0.25323084233556958 0 0.36883678126117009 0.24474921281383891 0 0.35611838642857491 0.246342506692621 0 0.36535183075298111 0.23557160581248551 0 0.36883678126117009 0.24474921281383891 0 0.35611838642857491 0.246342506692621 0 0.36535183075298111 0.23557160581248551 0 0.35611838642857491 0.246342506692621 0 0.34527292685078798 0.23834092789224601 0 0.34285969426899532 0.24925208607327889 0 0.35611838642857491 0.246342506692621 0 0.34527292685078798 0.23834092789224601 0 0.33379950129919961 0.14400173046065001 0 0.34889098259295231 0.14851356874877711 0 0.34443169349996849 0.13055627056741179 0 0.33379950129919961 0.14400173046065001 0 0.33135276687299309 0.16432959657075 0 0.34889098259295231 0.14851356874877711 0 0.32459639739545881 0.1238335895582441 0 0.33379950129919961 0.14400173046065001 0 0.34443169349996849 0.13055627056741179 0 0.32459639739545881 0.1238335895582441 0 0.31218488667799088 0.14001145669646739 0 0.30915168392987391 0.12618718950294749 0 0.32459639739545881 0.1238335895582441 0 0.31218488667799088 0.14001145669646739 0 0.32459639739545881 0.1238335895582441 0 0.31218488667799088 0.14001145669646739 0 0.33379950129919961 0.14400173046065001 0 0.31226087470522262 0.1616835961252375 0 0.31218488667799088 0.14001145669646739 0 0.33379950129919961 0.14400173046065001 0 0.31226087470522262 0.1616835961252375 0 0.33379950129919961 0.14400173046065001 0 0.31226087470522262 0.1616835961252375 0 0.33379950129919961 0.14400173046065001 0 0.33135276687299309 0.16432959657075 0 0.31226087470522262 0.1616835961252375 0 0.31583055223933532 0.1718583466035507 0 0.33135276687299309 0.16432959657075 0 0.31583055223933532 0.1718583466035507 0 0.32104843074838518 0.18185407801111039 0 0.33135276687299309 0.16432959657075 0 0.32104843074838518 0.18185407801111039 0 0.33135276687299309 0.16432959657075 0 0.30436046564585878 0.17401919735283311 0 0.31583055223933532 0.1718583466035507 0 0.32104843074838518 0.18185407801111039 0 0.32104843074838518 0.18185407801111039 0 0.33135276687299309 0.16432959657075 0 0.34411333819229428 0.18227343991349801 0 0.32104843074838518 0.18185407801111039 0 0.34411333819229428 0.18227343991349801 0 0.33209026727440438 0.19279838934387661 0 0.32104843074838518 0.18185407801111039 0 0.34411333819229428 0.18227343991349801 0 0.33135276687299309 0.16432959657075 0 0.35056560142656351 0.16417578903007879 0 0.34889098259295231 0.14851356874877711 0 0.33135276687299309 0.16432959657075 0 0.35056560142656351 0.16417578903007879 0 0.34411333819229428 0.18227343991349801 0 0.34411333819229428 0.18227343991349801 0 0.36717824563620338 0.18269280181588601 0 0.35056560142656351 0.16417578903007879 0 0.34411333819229428 0.18227343991349801 0 0.36717824563620338 0.18269280181588601 0 0.36717824563620338 0.18269280181588601 0 0.36724568943659319 0.16702308146021361 0 0.38322555377988232 0.16757400402501799 0 0.35056560142656351 0.16417578903007879 0 0.36724568943659319 0.16702308146021361 0 0.36801335690372389 0.15364973096987161 0 0.36724568943659319 0.16702308146021361 0 0.36801335690372389 0.15364973096987161 0 0.38322555377988232 0.16757400402501799 0 0.35056560142656351 0.16417578903007879 0 0.36717824563620338 0.18269280181588601 0 0.36724568943659319 0.16702308146021361 0 0.36801335690372389 0.15364973096987161 0 0.36214561989453808 0.13455472503582941 0 0.3784288519638066 0.14068463976687051 0 0.36801335690372389 0.15364973096987161 0 0.34889098259295231 0.14851356874877711 0 0.36214561989453808 0.13455472503582941 0 0.35056560142656351 0.16417578903007879 0 0.36801335690372389 0.15364973096987161 0 0.34889098259295231 0.14851356874877711 0 0.34889098259295231 0.14851356874877711 0 0.34443169349996849 0.13055627056741179 0 0.36214561989453808 0.13455472503582941 0 0.35911559081709299 0.1152009984610369 0 0.34443169349996849 0.13055627056741179 0 0.36214561989453808 0.13455472503582941 0 0.36214561989453808 0.13455472503582941 0 0.38257529103957533 0.12522364668252911 0 0.3784288519638066 0.14068463976687051 0 0.38257529103957533 0.12522364668252911 0 0.3909808876237289 0.1386661019544419 0 0.3784288519638066 0.14068463976687051 0 0.40215314881171971 0.12943133699188999 0 0.3909808876237289 0.1386661019544419 0 0.40419439449084649 0.14535804032680341 0 0.38257529103957533 0.12522364668252911 0 0.40215314881171971 0.12943133699188999 0 0.3909808876237289 0.1386661019544419 0 0.3909808876237289 0.1386661019544419 0 0.40419439449084649 0.14535804032680341 0 0.3884291043574668 0.15132899419168061 0 0.40419439449084649 0.14535804032680341 0 0.3884291043574668 0.15132899419168061 0 0.40203310872254611 0.16006879767032611 0 0.36801335690372389 0.15364973096987161 0 0.3884291043574668 0.15132899419168061 0 0.3784288519638066 0.14068463976687051 0 0.3909808876237289 0.1386661019544419 0 0.3884291043574668 0.15132899419168061 0 0.3784288519638066 0.14068463976687051 0 0.36801335690372389 0.15364973096987161 0 0.3884291043574668 0.15132899419168061 0 0.38322555377988232 0.16757400402501799 0 0.36717824563620338 0.18269280181588601 0 0.38991373940181617 0.1850273425175285 0 0.3782166182729747 0.1933668958558957 0 0.36717824563620338 0.18269280181588601 0 0.38322555377988232 0.16757400402501799 0 0.38991373940181617 0.1850273425175285 0 0.38991373940181617 0.1850273425175285 0 0.40092831218789488 0.17461987383507041 0 0.40715230098497562 0.18628055594051901 0 0.38322555377988232 0.16757400402501799 0 0.38991373940181617 0.1850273425175285 0 0.40092831218789488 0.17461987383507041 0 0.3884291043574668 0.15132899419168061 0 0.38322555377988232 0.16757400402501799 0 0.40203310872254611 0.16006879767032611 0 0.38322555377988232 0.16757400402501799 0 0.40092831218789488 0.17461987383507041 0 0.40203310872254611 0.16006879767032611 0 0.40092831218789488 0.17461987383507041 0 0.40203310872254611 0.16006879767032611 0 0.412180276872262 0.16784599360050689 0 0.40203310872254611 0.16006879767032611 0 0.412180276872262 0.16784599360050689 0 0.41931480752873501 0.1561873032819896 0 0.412180276872262 0.16784599360050689 0 0.42428140510752149 0.1725062514454988 0 0.41931480752873501 0.1561873032819896 0 0.41364350049116339 0.178169370994812 0 0.42428140510752149 0.1725062514454988 0 0.42083371094102728 0.18935899441336099 0 0.40715230098497562 0.18628055594051901 0 0.41364350049116339 0.178169370994812 0 0.42083371094102728 0.18935899441336099 0 0.40092831218789488 0.17461987383507041 0 0.40715230098497562 0.18628055594051901 0 0.41364350049116339 0.178169370994812 0 0.40092831218789488 0.17461987383507041 0 0.412180276872262 0.16784599360050689 0 0.41364350049116339 0.178169370994812 0 0.412180276872262 0.16784599360050689 0 0.41364350049116339 0.178169370994812 0 0.42428140510752149 0.1725062514454988 0 0.42083371094102728 0.18935899441336099 0 0.44093497525037872 0.17893035016728279 0 0.42428140510752149 0.1725062514454988 0 0.42083371094102728 0.18935899441336099 0 0.44093497525037872 0.17893035016728279 0 0.42083371094102728 0.18935899441336099 0 0.43085442352710818 0.18887799435375591 0 0.44093497525037872 0.17893035016728279 0 0.42428140510752149 0.1725062514454988 0 0.43434594961710887 0.1624161008003267 0 0.44093497525037872 0.17893035016728279 0 0.42428140510752149 0.1725062514454988 0 0.43434594961710887 0.1624161008003267 0 0.41931480752873501 0.1561873032819896 0 0.43434594961710887 0.1624161008003267 0 0.4368111932001712 0.1452439418489653 0 0.41931480752873501 0.1561873032819896 0 0.4368111932001712 0.1452439418489653 0 0.42072346033561903 0.13835080100526451 0 0.41931480752873501 0.1561873032819896 0 0.4368111932001712 0.1452439418489653 0 0.43048336346106941 0.1259692990475377 0 0.42072346033561903 0.13835080100526451 0 0.43048336346106941 0.1259692990475377 0 0.42072346033561903 0.13835080100526451 0 0.41628309039226657 0.12022525353706071 0 0.40215314881171971 0.12943133699188999 0 0.42072346033561903 0.13835080100526451 0 0.41628309039226657 0.12022525353706071 0 0.40215314881171971 0.12943133699188999 0 0.40419439449084649 0.14535804032680341 0 0.42072346033561903 0.13835080100526451 0 0.40419439449084649 0.14535804032680341 0 0.42072346033561903 0.13835080100526451 0 0.41931480752873501 0.1561873032819896 0 0.40419439449084649 0.14535804032680341 0 0.40203310872254611 0.16006879767032611 0 0.41931480752873501 0.1561873032819896 0 0.40227278839675912 0.24102989082061299 0 0.39244148688764591 0.24173064346507411 0 0.38256518116830668 0.22576319789758451 0 0.39769101060800582 0.25070658361372339 0 0.40227278839675912 0.24102989082061299 0 0.41198103557731919 0.23932827972728199 0 0.39769101060800582 0.25070658361372339 0 0.40227278839675912 0.24102989082061299 0 0.39244148688764591 0.24173064346507411 0 0.39769101060800582 0.25070658361372339 0 0.38158120036622462 0.25704582904296452 0 0.39244148688764591 0.24173064346507411 0 0.39244148688764591 0.24173064346507411 0 0.38384324124691299 0.2367637484819646 0 0.38256518116830668 0.22576319789758451 0 0.38158120036622462 0.25704582904296452 0 0.39244148688764591 0.24173064346507411 0 0.38384324124691299 0.2367637484819646 0 0.38158120036622462 0.25704582904296452 0 0.37427856575939211 0.23386117504847689 0 0.38158120036622462 0.25704582904296452 0 0.37427856575939211 0.23386117504847689 0 0.38384324124691299 0.2367637484819646 0 0.37427856575939211 0.23386117504847689 0 0.38384324124691299 0.2367637484819646 0 0.38256518116830668 0.22576319789758451 0 0.38256518116830668 0.22576319789758451 0 0.3925553508495041 0.21987249077093091 0 0.38755719663597082 0.21185233486545629 0 0.40227278839675912 0.24102989082061299 0 0.38256518116830668 0.22576319789758451 0 0.40987158104897498 0.2347526387259099 0 0.3925553508495041 0.21987249077093091 0 0.39937069851101831 0.22531596123612241 0 0.40072832708272088 0.21655846908456061 0 0.38256518116830668 0.22576319789758451 0 0.40987158104897498 0.2347526387259099 0 0.38256518116830668 0.22576319789758451 0 0.39937069851101831 0.22531596123612241 0 0.40987158104897498 0.2347526387259099 0 0.38256518116830668 0.22576319789758451 0 0.3925553508495041 0.21987249077093091 0 0.39937069851101831 0.22531596123612241 0 0.39937069851101831 0.22531596123612241 0 0.40875273067035162 0.22198000359588399 0 0.40987158104897498 0.2347526387259099 0 0.39937069851101831 0.22531596123612241 0 0.40072832708272088 0.21655846908456061 0 0.40875273067035162 0.22198000359588399 0 0.40072832708272088 0.21655846908456061 0 0.39940625302973881 0.20601713213608169 0 0.41003645260038663 0.21149130386400061 0 0.39940625302973881 0.20601713213608169 0 0.38755719663597082 0.21185233486545629 0 0.39120434178382341 0.1983636500749151 0 0.3925553508495041 0.21987249077093091 0 0.40072832708272088 0.21655846908456061 0 0.38755719663597082 0.21185233486545629 0 0.40072832708272088 0.21655846908456061 0 0.39940625302973881 0.20601713213608169 0 0.38755719663597082 0.21185233486545629 0 0.37475831855490688 0.21531477433497609 0 0.38256518116830668 0.22576319789758451 0 0.38755719663597082 0.21185233486545629 0 0.37365211512771168 0.20686980750760459 0 0.37475831855490688 0.21531477433497609 0 0.38755719663597082 0.21185233486545629 0 0.37365211512771168 0.20686980750760459 0 0.38755719663597082 0.21185233486545629 0 0.38265756795512013 0.20261317207596791 0 0.38755719663597082 0.21185233486545629 0 0.38265756795512013 0.20261317207596791 0 0.39120434178382341 0.1983636500749151 0 0.38265756795512013 0.20261317207596791 0 0.3782166182729747 0.1933668958558957 0 0.39120434178382341 0.1983636500749151 0 0.37365211512771168 0.20686980750760459 0 0.38265756795512013 0.20261317207596791 0 0.3782166182729747 0.1933668958558957 0 0.38991373940181617 0.1850273425175285 0 0.3782166182729747 0.1933668958558957 0 0.39120434178382341 0.1983636500749151 0 0.38991373940181617 0.1850273425175285 0 0.39120434178382341 0.1983636500749151 0 0.40175863725897248 0.1957894829442994 0 0.38991373940181617 0.1850273425175285 0 0.40715230098497562 0.18628055594051901 0 0.40175863725897248 0.1957894829442994 0 0.39940625302973881 0.20601713213608169 0 0.39120434178382341 0.1983636500749151 0 0.40175863725897248 0.1957894829442994 0 0.39940625302973881 0.20601713213608169 0 0.40175863725897248 0.1957894829442994 0 0.40942805547444361 0.20209129294011191 0 0.40715230098497562 0.18628055594051901 0 0.4116334310926954 0.19512092380212059 0 0.42083371094102728 0.18935899441336099 0 0.40715230098497562 0.18628055594051901 0 0.40175863725897248 0.1957894829442994 0 0.4116334310926954 0.19512092380212059 0 0.4116334310926954 0.19512092380212059 0 0.40942805547444361 0.20209129294011191 0 0.41899445080405789 0.20208429277231191 0 0.40175863725897248 0.1957894829442994 0 0.4116334310926954 0.19512092380212059 0 0.40942805547444361 0.20209129294011191 0 0.4116334310926954 0.19512092380212059 0 0.41899445080405789 0.20208429277231191 0 0.42083371094102728 0.18935899441336099 0 0.42083371094102728 0.18935899441336099 0 0.43085442352710818 0.18887799435375591 0 0.43205980709687919 0.19744395443051321 0 0.43205980709687919 0.19744395443051321 0 0.44093497525037872 0.17893035016728279 0 0.43085442352710818 0.18887799435375591 0 0.43205980709687919 0.19744395443051321 0 0.44093497525037872 0.17893035016728279 0 0.43085442352710818 0.18887799435375591 0 0.43205980709687919 0.19744395443051321 0 0.41899445080405789 0.20208429277231191 0 0.42083371094102728 0.18935899441336099 0 0.43205980709687919 0.19744395443051321 0 0.43205980709687919 0.19744395443051321 0 0.42202042133709877 0.21838611707889741 0 0.43205980709687919 0.19744395443051321 0 0.42202042133709877 0.21838611707889741 0 0.43621172184177781 0.22694919810462541 0 0.41899445080405789 0.20208429277231191 0 0.43205980709687919 0.19744395443051321 0 0.42202042133709877 0.21838611707889741 0 0.43205980709687919 0.19744395443051321 0 0.43621172184177781 0.22694919810462541 0 0.41899445080405789 0.20208429277231191 0 0.42202042133709877 0.21838611707889741 0 0.41003645260038663 0.21149130386400061 0 0.40942805547444361 0.20209129294011191 0 0.41899445080405789 0.20208429277231191 0 0.41003645260038663 0.21149130386400061 0 0.39940625302973881 0.20601713213608169 0 0.40942805547444361 0.20209129294011191 0 0.41003645260038663 0.21149130386400061 0 0.42202042133709877 0.21838611707889741 0 0.41003645260038663 0.21149130386400061 0 0.40875273067035162 0.22198000359588399 0 0.40072832708272088 0.21655846908456061 0 0.41003645260038663 0.21149130386400061 0 0.40875273067035162 0.22198000359588399 0 0.42202042133709877 0.21838611707889741 0 0.41198103557731919 0.23932827972728199 0 0.40987158104897498 0.2347526387259099 0 0.42202042133709877 0.21838611707889741 0 0.41198103557731919 0.23932827972728199 0 0.42202042133709877 0.21838611707889741 0 0.40875273067035162 0.22198000359588399 0 0.40987158104897498 0.2347526387259099 0 0.42202042133709877 0.21838611707889741 0 0.43023383608219318 0.2423058034972608 0 0.41198103557731919 0.23932827972728199 0 0.42202042133709877 0.21838611707889741 0 0.43621172184177781 0.22694919810462541 0 0.43023383608219318 0.2423058034972608 0 0.44036363658667538 0.25645444177873772 0 0.43621172184177781 0.22694919810462541 0 0.43023383608219318 0.2423058034972608 0 0.4214236879189977 0.25385601230963539 0 0.43063296504362181 0.25380982229139198 0 0.43023383608219318 0.2423058034972608 0 0.40194164981753971 0.26027044237566649 0 0.41198103557731919 0.23932827972728199 0 0.4214236879189977 0.25385601230963539 0 0.43023383608219318 0.2423058034972608 0 0.41198103557731919 0.23932827972728199 0 0.40227278839675912 0.24102989082061299 0 0.41198103557731919 0.23932827972728199 0 0.40987158104897498 0.2347526387259099 0 0.4740483249193963 0.25704937579464482 0 0.46622008092528899 0.23730849393509351 0 0.45692538572579128 0.24890067001459051 0 0.46622008092528899 0.23730849393509351 0 0.45692538572579128 0.24890067001459051 0 0.45214538520962 0.2360355253178022 0 0.44036363658667538 0.25645444177873772 0 0.43621172184177781 0.22694919810462541 0 0.44988817805137449 0.25477347674998468 0 0.45692538572579128 0.24890067001459051 0 0.44684841970518652 0.2445411477309167 0 0.43621172184177781 0.22694919810462541 0 0.44684841970518652 0.2445411477309167 0 0.45214538520962 0.2360355253178022 0 0.44036363658667538 0.25645444177873772 0 0.43621172184177781 0.22694919810462541 0 0.44684841970518652 0.2445411477309167 0 0.45692538572579128 0.24890067001459051 0 0.44684841970518652 0.2445411477309167 0 0.45214538520962 0.2360355253178022 0 0.43621172184177781 0.22694919810462541 0 0.45214538520962 0.2360355253178022 0 0.45724208537746341 0.22101034800530919 0 0.43621172184177781 0.22694919810462541 0 0.45724208537746341 0.22101034800530919 0 0.44822228149005161 0.209546005775858 0 0.46622008092528899 0.23730849393509351 0 0.45724208537746341 0.22101034800530919 0 0.47120345985146239 0.22194979655047761 0 0.46622008092528899 0.23730849393509351 0 0.45214538520962 0.2360355253178022 0 0.45724208537746341 0.22101034800530919 0 0.45724208537746341 0.22101034800530919 0 0.46192785708352713 0.20557149838980829 0 0.4703596021235053 0.2119284966139611 0 0.45724208537746341 0.22101034800530919 0 0.4703596021235053 0.2119284966139611 0 0.47120345985146239 0.22194979655047761 0 0.46192785708352713 0.20557149838980829 0 0.44822228149005161 0.209546005775858 0 0.45184646923256189 0.19487380581793129 0 0.45724208537746341 0.22101034800530919 0 0.46192785708352713 0.20557149838980829 0 0.44822228149005161 0.209546005775858 0 0.43205980709687919 0.19744395443051321 0 0.43621172184177781 0.22694919810462541 0 0.44822228149005161 0.209546005775858 0 0.43205980709687919 0.19744395443051321 0 0.44822228149005161 0.209546005775858 0 0.45184646923256189 0.19487380581793129 0 0.43205980709687919 0.19744395443051321 0 0.45184646923256189 0.19487380581793129 0 0.44093497525037872 0.17893035016728279 0 0.45184646923256189 0.19487380581793129 0 0.46761730785753952 0.1940387560823616 0 0.46031658661699232 0.18371227006176241 0 0.46192785708352713 0.20557149838980829 0 0.45184646923256189 0.19487380581793129 0 0.46761730785753952 0.1940387560823616 0 0.46761730785753952 0.1940387560823616 0 0.47750287511170691 0.191559691883019 0 0.47231035401765747 0.1831517867978342 0 0.46192785708352713 0.20557149838980829 0 0.46761730785753952 0.1940387560823616 0 0.47716371805005348 0.20036456844244979 0 0.46761730785753952 0.1940387560823616 0 0.47716371805005348 0.20036456844244979 0 0.47750287511170691 0.191559691883019 0 0.47716371805005348 0.20036456844244979 0 0.48471292562149693 0.19343658633627339 0 0.48624618431907268 0.20088430703963481 0 0.47716371805005348 0.20036456844244979 0 0.47750287511170691 0.191559691883019 0 0.48471292562149693 0.19343658633627339 0 0.47750287511170691 0.191559691883019 0 0.48471292562149693 0.19343658633627339 0 0.48237432250511481 0.18524259987139791 0 0.49053664832355098 0.19418525997359459 0 0.49602556211092569 0.20447828496424289 0 0.49516575558632281 0.17785974315541611 0 0.49602556211092569 0.20447828496424289 0 0.49516575558632281 0.17785974315541611 0 0.48471292562149693 0.19343658633627339 0 0.48237432250511481 0.18524259987139791 0 0.48944886813742361 0.1871417723229844 0 0.5 0.20042822566782911 0 0.49602556211092569 0.20447828496424289 0 0.49516575558632281 0.17785974315541611 0 0.48471292562149693 0.19343658633627339 0 0.49053664832355098 0.19418525997359459 0 0.48944886813742361 0.1871417723229844 0 0.49053664832355098 0.19418525997359459 0 0.49028827921581358 0.2018959020037587 0 0.49602556211092569 0.20447828496424289 0 0.49053664832355098 0.19418525997359459 0 0.49028827921581358 0.2018959020037587 0 0.48624618431907268 0.20088430703963481 0 0.48471292562149693 0.19343658633627339 0 0.49053664832355098 0.19418525997359459 0 0.48624618431907268 0.20088430703963481 0 0.5 0.20042822566782911 0 0.49602556211092569 0.20447828496424289 0 0.5 0.22649878998398881 0 0.48624618431907268 0.20088430703963481 0 0.48834472210970492 0.20803575603756241 0 0.48057452516361071 0.20935604896983859 0 0.48834472210970492 0.20803575603756241 0 0.49602556211092569 0.20447828496424289 0 0.48945067050334728 0.21698174984399901 0 0.49602556211092569 0.20447828496424289 0 0.48945067050334728 0.21698174984399901 0 0.5 0.22649878998398881 0 0.49028827921581358 0.2018959020037587 0 0.48624618431907268 0.20088430703963481 0 0.48834472210970492 0.20803575603756241 0 0.49028827921581358 0.2018959020037587 0 0.48834472210970492 0.20803575603756241 0 0.49602556211092569 0.20447828496424289 0 0.48834472210970492 0.20803575603756241 0 0.48945067050334728 0.21698174984399901 0 0.48057452516361071 0.20935604896983859 0 0.48945067050334728 0.21698174984399901 0 0.48057452516361071 0.20935604896983859 0 0.47120345985146239 0.22194979655047761 0 0.47716371805005348 0.20036456844244979 0 0.48624618431907268 0.20088430703963481 0 0.48057452516361071 0.20935604896983859 0 0.47716371805005348 0.20036456844244979 0 0.48057452516361071 0.20935604896983859 0 0.4703596021235053 0.2119284966139611 0 0.46192785708352713 0.20557149838980829 0 0.47716371805005348 0.20036456844244979 0 0.4703596021235053 0.2119284966139611 0 0.48057452516361071 0.20935604896983859 0 0.4703596021235053 0.2119284966139611 0 0.47120345985146239 0.22194979655047761 0 0.48945067050334728 0.21698174984399901 0 0.47120345985146239 0.22194979655047761 0 0.48348708936658252 0.23539292673472531 0 0.46622008092528899 0.23730849393509351 0 0.47120345985146239 0.22194979655047761 0 0.48348708936658252 0.23539292673472531 0 0.48945067050334728 0.21698174984399901 0 0.5 0.22649878998398881 0 0.48348708936658252 0.23539292673472531 0 0.5 0.25256935430014837 0 0.5 0.22649878998398881 0 0.48348708936658252 0.23539292673472531 0 0.4740483249193963 0.25704937579464482 0 0.5 0.25256935430014837 0 0.48348708936658252 0.23539292673472531 0 0.4740483249193963 0.25704937579464482 0 0.46622008092528899 0.23730849393509351 0 0.48348708936658252 0.23539292673472531 0 0.4679971511720461 0.1506943020344185 0 0.4598397587470866 0.13949496434850531 0 0.45038736699873461 0.15921265725789499 0 0.4598397587470866 0.13949496434850531 0 0.45038736699873461 0.15921265725789499 0 0.4679971511720461 0.1506943020344185 0 0.4598397587470866 0.13949496434850531 0 0.47487446437755382 0.13821420949409011 0 0.4598397587470866 0.13949496434850531 0 0.46929215049543421 0.11977727143911331 0 0.45720848020021793 0.1213798587835129 0 0.4598397587470866 0.13949496434850531 0 0.46929215049543421 0.11977727143911331 0 0.4598397587470866 0.13949496434850531 0 0.47487446437755382 0.13821420949409011 0 0.46929215049543421 0.11977727143911331 0 0.4598397587470866 0.13949496434850531 0 0.44563656006934532 0.1285890180489275 0 0.45720848020021793 0.1213798587835129 0 0.4368111932001712 0.1452439418489653 0 0.43048336346106941 0.1259692990475377 0 0.44563656006934532 0.1285890180489275 0 0.4368111932001712 0.1452439418489653 0 0.4598397587470866 0.13949496434850531 0 0.44563656006934532 0.1285890180489275 0 0.43434594961710887 0.1624161008003267 0 0.4368111932001712 0.1452439418489653 0 0.45038736699873461 0.15921265725789499 0 0.4368111932001712 0.1452439418489653 0 0.4598397587470866 0.13949496434850531 0 0.45038736699873461 0.15921265725789499 0 0.43434594961710887 0.1624161008003267 0 0.45038736699873461 0.15921265725789499 0 0.44093497525037872 0.17893035016728279 0 0.45038736699873461 0.15921265725789499 0 0.44093497525037872 0.17893035016728279 0 0.46762046215604908 0.16508577575693401 0 0.45038736699873461 0.15921265725789499 0 0.44093497525037872 0.17893035016728279 0 0.45184646923256189 0.19487380581793129 0 0.44093497525037872 0.17893035016728279 0 0.46031658661699232 0.18371227006176241 0 0.46031658661699232 0.18371227006176241 0 0.46762046215604908 0.16508577575693401 0 0.47231035401765747 0.1831517867978342 0 0.44093497525037872 0.17893035016728279 0 0.46762046215604908 0.16508577575693401 0 0.44093497525037872 0.17893035016728279 0 0.46031658661699232 0.18371227006176241 0 0.46762046215604908 0.16508577575693401 0 0.46761730785753952 0.1940387560823616 0 0.46031658661699232 0.18371227006176241 0 0.47231035401765747 0.1831517867978342 0 0.4679971511720461 0.1506943020344185 0 0.45038736699873461 0.15921265725789499 0 0.46762046215604908 0.16508577575693401 0 0.46762046215604908 0.16508577575693401 0 0.4872830259946872 0.16479120627583049 0 0.49430594906172171 0.15124120134658939 0 0.46762046215604908 0.16508577575693401 0 0.48136257944214522 0.17601711673429171 0 0.4872830259946872 0.16479120627583049 0 0.46762046215604908 0.16508577575693401 0 0.49430594906172171 0.15124120134658939 0 0.46762046215604908 0.16508577575693401 0 0.47231035401765747 0.1831517867978342 0 0.48136257944214522 0.17601711673429171 0 0.47750287511170691 0.191559691883019 0 0.47231035401765747 0.1831517867978342 0 0.48237432250511481 0.18524259987139791 0 0.48136257944214522 0.17601711673429171 0 0.48237432250511481 0.18524259987139791 0 0.48772058464307022 0.18038422956049749 0 0.47231035401765747 0.1831517867978342 0 0.48136257944214522 0.17601711673429171 0 0.48237432250511481 0.18524259987139791 0 0.5 0.20042822566782911 0 0.5 0.1743576613516695 0 0.49516575558632281 0.17785974315541611 0 0.49053664832355098 0.19418525997359459 0 0.48944886813742361 0.1871417723229844 0 0.49516575558632281 0.17785974315541611 0 0.48944886813742361 0.1871417723229844 0 0.48772058464307022 0.18038422956049749 0 0.49516575558632281 0.17785974315541611 0 0.48237432250511481 0.18524259987139791 0 0.48944886813742361 0.1871417723229844 0 0.48772058464307022 0.18038422956049749 0 0.48788298641655631 0.17476307393150889 0 0.49516575558632281 0.17785974315541611 0 0.4872830259946872 0.16479120627583049 0 0.48772058464307022 0.18038422956049749 0 0.48788298641655631 0.17476307393150889 0 0.49516575558632281 0.17785974315541611 0 0.48136257944214522 0.17601711673429171 0 0.48772058464307022 0.18038422956049749 0 0.48788298641655631 0.17476307393150889 0 0.49516575558632281 0.17785974315541611 0 0.49430594906172171 0.15124120134658939 0 0.5 0.1743576613516695 0 0.49516575558632281 0.17785974315541611 0 0.49430594906172171 0.15124120134658939 0 0.49516575558632281 0.17785974315541611 0 0.4872830259946872 0.16479120627583049 0 0.49430594906172171 0.15124120134658939 0 0.5 0.1743576613516695 0 0.49430594906172171 0.15124120134658939 0 0.50000000000000155 0.14828709703550991 0 0.48136257944214522 0.17601711673429171 0 0.48788298641655631 0.17476307393150889 0 0.4872830259946872 0.16479120627583049 0 0.49430594906172171 0.15124120134658939 0 0.50000000000000155 0.14828709703550991 0 0.49344544952639202 0.1246012047866923 0 0.49430594906172171 0.15124120134658939 0 0.47796977671379498 0.14863863729007881 0 0.48505085680160409 0.1379576978183612 0 0.49430594906172171 0.15124120134658939 0 0.50000000000000155 0.14828709703550991 0 0.4679971511720461 0.1506943020344185 0 0.46762046215604908 0.16508577575693401 0 0.47796977671379498 0.14863863729007881 0 0.46762046215604908 0.16508577575693401 0 0.49430594906172171 0.15124120134658939 0 0.47796977671379498 0.14863863729007881 0 0.47796977671379498 0.14863863729007881 0 0.47487446437755382 0.13821420949409011 0 0.48505085680160409 0.1379576978183612 0 0.4679971511720461 0.1506943020344185 0 0.47796977671379498 0.14863863729007881 0 0.47487446437755382 0.13821420949409011 0 0.47487446437755382 0.13821420949409011 0 0.48082121107991999 0.1268529595781622 0 0.46929215049543421 0.11977727143911331 0 0.47487446437755382 0.13821420949409011 0 0.46929215049543421 0.11977727143911331 0 0.47487446437755382 0.13821420949409011 0 0.48082121107991999 0.1268529595781622 0 0.48505085680160409 0.1379576978183612 0 0.49430594906172171 0.15124120134658939 0 0.49344544952639202 0.1246012047866923 0 0.50000000000000155 0.14828709703550991 0 0.49344544952639202 0.1246012047866923 0 0.5 0.1189939347435285 0 0.49430594906172171 0.15124120134658939 0 0.48505085680160409 0.1379576978183612 0 0.49344544952639202 0.1246012047866923 0 0.48082121107991999 0.1268529595781622 0 0.48505085680160409 0.1379576978183612 0 0.49344544952639202 0.1246012047866923 0 0.49344544952639202 0.1246012047866923 0 0.5 0.1189939347435285 0 0.49084344151620268 0.11032680598071851 0 0.49344544952639202 0.1246012047866923 0 0.48637183938005107 0.1214578593414168 0 0.49084344151620268 0.11032680598071851 0 0.48082121107991999 0.1268529595781622 0 0.49344544952639202 0.1246012047866923 0 0.48637183938005107 0.1214578593414168 0 0.48637183938005107 0.1214578593414168 0 0.49084344151620268 0.11032680598071851 0 0.48343074048124762 0.11429779521054489 0 0.5 0.1189939347435285 0 0.49084344151620268 0.11032680598071851 0 0.5 0.089700772451547284 0 0.49047424459570987 0.097509203219102739 0 0.48502337315593441 0.10324932528679311 0 0.48606546736522438 0.084788125843453327 0 0.49084344151620268 0.11032680598071851 0 0.49047424459570987 0.097509203219102739 0 0.5 0.089700772451547284 0 0.49084344151620268 0.11032680598071851 0 0.48502337315593441 0.10324932528679311 0 0.48343074048124762 0.11429779521054489 0 0.49084344151620268 0.11032680598071851 0 0.49047424459570987 0.097509203219102739 0 0.48502337315593441 0.10324932528679311 0 0.47430297182128789 0.1093246961801463 0 0.47050309454290179 0.089531591055492868 0 0.46451221447301932 0.1039903798001398 0 0.47430297182128789 0.1093246961801463 0 0.48606546736522438 0.084788125843453327 0 0.47050309454290179 0.089531591055492868 0 0.48502337315593441 0.10324932528679311 0 0.47430297182128789 0.1093246961801463 0 0.48606546736522438 0.084788125843453327 0 0.47430297182128789 0.1093246961801463 0 0.48606546736522438 0.084788125843453327 0 0.48502337315593441 0.10324932528679311 0 0.47430297182128789 0.1093246961801463 0 0.48343074048124762 0.11429779521054489 0 0.47430297182128789 0.1093246961801463 0 0.46451221447301932 0.1039903798001398 0 0.47430297182128789 0.1093246961801463 0 0.46929215049543421 0.11977727143911331 0 0.46451221447301932 0.1039903798001398 0 0.47430297182128789 0.1093246961801463 0 0.46929215049543421 0.11977727143911331 0 0.48343074048124762 0.11429779521054489 0 0.47430297182128789 0.1093246961801463 0 0.46929215049543421 0.11977727143911331 0 0.48082121107991999 0.1268529595781622 0 0.48637183938005107 0.1214578593414168 0 0.48343074048124762 0.11429779521054489 0 0.48082121107991999 0.1268529595781622 0 0.46929215049543421 0.11977727143911331 0 0.48343074048124762 0.11429779521054489 0 0.47430297182128789 0.1093246961801463 0 0.48343074048124762 0.11429779521054489 0 0.48606546736522438 0.084788125843453327 0 0.49782796290915771 0.060251555506758828 0 0.5 0.089700772451547284 0 0.49999999999999539 0.060407610159565951 0 0.49782796290915771 0.060251555506758828 0 0.48606546736522438 0.084788125843453327 0 0.47455481161098317 0.058579446148603657 0 0.49782796290915771 0.060251555506758828 0 0.48606546736522438 0.084788125843453327 0 0.5 0.089700772451547284 0 0.49782796290915771 0.060251555506758828 0 0.49047424459570987 0.097509203219102739 0 0.48606546736522438 0.084788125843453327 0 0.5 0.089700772451547284 0 0.48606546736522438 0.084788125843453327 0 0.47050309454290179 0.089531591055492868 0 0.46261405797056931 0.067314190175525493 0 0.48606546736522438 0.084788125843453327 0 0.46261405797056931 0.067314190175525493 0 0.47455481161098317 0.058579446148603657 0 0.45762445880802749 0.08124190538348576 0 0.45073670314303488 0.058493430966832002 0 0.46261405797056931 0.067314190175525493 0 0.45762445880802749 0.08124190538348576 0 0.45073670314303488 0.058493430966832002 0 0.45762445880802749 0.08124190538348576 0 0.43974161286525548 0.090494567249743835 0 0.46451221447301932 0.1039903798001398 0 0.47050309454290179 0.089531591055492868 0 0.45762445880802749 0.08124190538348576 0 0.46451221447301932 0.1039903798001398 0 0.45762445880802749 0.08124190538348576 0 0.46451221447301932 0.1039903798001398 0 0.47050309454290179 0.089531591055492868 0 0.46261405797056931 0.067314190175525493 0 0.45762445880802749 0.08124190538348576 0 0.45762445880802749 0.08124190538348576 0 0.43974161286525548 0.090494567249743835 0 0.44594615309866581 0.072436294642079041 0 0.43974161286525548 0.090494567249743835 0 0.44594615309866581 0.072436294642079041 0 0.43550184101463452 0.0780296581636548 0 0.43974161286525548 0.090494567249743835 0 0.44594615309866581 0.072436294642079041 0 0.43974161286525548 0.090494567249743835 0 0.43832662395797117 0.094612882944921206 0 0.45762445880802749 0.08124190538348576 0 0.44594615309866581 0.072436294642079041 0 0.45073670314303488 0.058493430966832002 0 0.44594615309866581 0.072436294642079041 0 0.43133756619107583 0.0634305600616758 0 0.43550184101463452 0.0780296581636548 0 0.44594615309866581 0.072436294642079041 0 0.43133756619107583 0.0634305600616758 0 0.44234708332241229 0.061364152180739429 0 0.44594615309866581 0.072436294642079041 0 0.43133756619107583 0.0634305600616758 0 0.44594615309866581 0.072436294642079041 0 0.45073670314303488 0.058493430966832002 0 0.44234708332241229 0.061364152180739429 0 0.44594615309866581 0.072436294642079041 0 0.45073670314303488 0.058493430966832002 0 0.45720848020021793 0.1213798587835129 0 0.46451221447301932 0.1039903798001398 0 0.44827245902400958 0.1148732603906817 0 0.46929215049543421 0.11977727143911331 0 0.46451221447301932 0.1039903798001398 0 0.46929215049543421 0.11977727143911331 0 0.45720848020021793 0.1213798587835129 0 0.46451221447301932 0.1039903798001398 0 0.43974161286525548 0.090494567249743835 0 0.46451221447301932 0.1039903798001398 0 0.44149994351033311 0.10462836118203329 0 0.46451221447301932 0.1039903798001398 0 0.44149994351033311 0.10462836118203329 0 0.44827245902400958 0.1148732603906817 0 0.43974161286525548 0.090494567249743835 0 0.46451221447301932 0.1039903798001398 0 0.43832662395797117 0.094612882944921206 0 0.44149994351033311 0.10462836118203329 0 0.43424904756422228 0.1012404829594423 0 0.43974161286525548 0.090494567249743835 0 0.43832662395797117 0.094612882944921206 0 0.44149994351033311 0.10462836118203329 0 0.44149994351033311 0.10462836118203329 0 0.43796191748646912 0.11718649710648581 0 0.44827245902400958 0.1148732603906817 0 0.44563656006934532 0.1285890180489275 0 0.45720848020021793 0.1213798587835129 0 0.44827245902400958 0.1148732603906817 0 0.43048336346106941 0.1259692990475377 0 0.44563656006934532 0.1285890180489275 0 0.43796191748646912 0.11718649710648581 0 0.44563656006934532 0.1285890180489275 0 0.43796191748646912 0.11718649710648581 0 0.44827245902400958 0.1148732603906817 0 0.43048336346106941 0.1259692990475377 0 0.42922231504475861 0.109721218409806 0 0.41628309039226657 0.12022525353706071 0 0.43048336346106941 0.1259692990475377 0 0.43796191748646912 0.11718649710648581 0 0.42922231504475861 0.109721218409806 0 0.44149994351033311 0.10462836118203329 0 0.43796191748646912 0.11718649710648581 0 0.42922231504475861 0.109721218409806 0 0.42922231504475861 0.109721218409806 0 0.41628309039226657 0.12022525353706071 0 0.4151234941480737 0.1037526891740559 0 0.41628309039226657 0.12022525353706071 0 0.4151234941480737 0.1037526891740559 0 0.39772111799630039 0.1102787422188483 0 0.4151234941480737 0.1037526891740559 0 0.41567316458935738 0.090438296118451195 0 0.40322623116615403 0.091888493636890514 0 0.4151234941480737 0.1037526891740559 0 0.42794730774382628 0.095999469301008833 0 0.41567316458935738 0.090438296118451195 0 0.42922231504475861 0.109721218409806 0 0.4151234941480737 0.1037526891740559 0 0.42794730774382628 0.095999469301008833 0 0.42922231504475861 0.109721218409806 0 0.42794730774382628 0.095999469301008833 0 0.43424904756422228 0.1012404829594423 0 0.44149994351033311 0.10462836118203329 0 0.42922231504475861 0.109721218409806 0 0.43424904756422228 0.1012404829594423 0 0.43832662395797117 0.094612882944921206 0 0.42794730774382628 0.095999469301008833 0 0.43424904756422228 0.1012404829594423 0 0.43974161286525548 0.090494567249743835 0 0.42397626236444208 0.081905102265430171 0 0.43550184101463452 0.0780296581636548 0 0.43974161286525548 0.090494567249743835 0 0.43832662395797117 0.094612882944921206 0 0.42794730774382628 0.095999469301008833 0 0.43974161286525548 0.090494567249743835 0 0.42794730774382628 0.095999469301008833 0 0.42397626236444208 0.081905102265430171 0 0.43974161286525548 0.090494567249743835 0 0.42397626236444208 0.081905102265430171 0 0.42794730774382628 0.095999469301008833 0 0.42397626236444208 0.081905102265430171 0 0.41567316458935738 0.090438296118451195 0 0.42397626236444208 0.081905102265430171 0 0.43133756619107583 0.0634305600616758 0 0.41821548115255403 0.067123398692898531 0 0.42397626236444208 0.081905102265430171 0 0.43133756619107583 0.0634305600616758 0 0.43550184101463452 0.0780296581636548 0 0.42397626236444208 0.081905102265430171 0 0.41821548115255403 0.067123398692898531 0 0.40821091186362862 0.073315637281116244 0 0.42397626236444208 0.081905102265430171 0 0.40821091186362862 0.073315637281116244 0 0.41821548115255403 0.067123398692898531 0 0.40821091186362862 0.073315637281116244 0 0.4028146718488711 0.064706033862578879 0 0.42397626236444208 0.081905102265430171 0 0.40821091186362862 0.073315637281116244 0 0.41567316458935738 0.090438296118451195 0 0.40821091186362862 0.073315637281116244 0 0.41567316458935738 0.090438296118451195 0 0.40322623116615403 0.091888493636890514 0 0.40821091186362862 0.073315637281116244 0 0.40322623116615403 0.091888493636890514 0 0.39524460278721713 0.079173531904547914 0 0.40322623116615403 0.091888493636890514 0 0.39524460278721713 0.079173531904547914 0 0.38757877826104409 0.094056568614795 0 0.40821091186362862 0.073315637281116244 0 0.39524460278721713 0.079173531904547914 0 0.4028146718488711 0.064706033862578879 0 0.39524460278721713 0.079173531904547914 0 0.4028146718488711 0.064706033862578879 0 0.38859699227956668 0.068658031324783292 0 0.4028146718488711 0.064706033862578879 0 0.38859699227956668 0.068658031324783292 0 0.3903550691551646 0.057169315401496529 0 0.39524460278721713 0.079173531904547914 0 0.38859699227956668 0.068658031324783292 0 0.37826408423317831 0.078025493116255493 0 0.38859699227956668 0.068658031324783292 0 0.37894948866811312 0.063408514195723825 0 0.3903550691551646 0.057169315401496529 0 0.38859699227956668 0.068658031324783292 0 0.37826408423317831 0.078025493116255493 0 0.37894948866811312 0.063408514195723825 0 0.36862736152008851 0.068121488118488768 0 0.37826408423317831 0.078025493116255493 0 0.37894948866811312 0.063408514195723825 0 0.39524460278721713 0.079173531904547914 0 0.37826408423317831 0.078025493116255493 0 0.38757877826104409 0.094056568614795 0 0.37087998821928547 0.095379791376698289 0 0.37826408423317831 0.078025493116255493 0 0.38757877826104409 0.094056568614795 0 0.37087998821928547 0.095379791376698289 0 0.38023948013423192 0.1082954779422447 0 0.38757877826104409 0.094056568614795 0 0.38023948013423192 0.1082954779422447 0 0.38757877826104409 0.094056568614795 0 0.39772111799630039 0.1102787422188483 0 0.38257529103957533 0.12522364668252911 0 0.38023948013423192 0.1082954779422447 0 0.39772111799630039 0.1102787422188483 0 0.40215314881171971 0.12943133699188999 0 0.41628309039226657 0.12022525353706071 0 0.39772111799630039 0.1102787422188483 0 0.38257529103957533 0.12522364668252911 0 0.40215314881171971 0.12943133699188999 0 0.39772111799630039 0.1102787422188483 0 0.4151234941480737 0.1037526891740559 0 0.40322623116615403 0.091888493636890514 0 0.39772111799630039 0.1102787422188483 0 0.40322623116615403 0.091888493636890514 0 0.38757877826104409 0.094056568614795 0 0.39772111799630039 0.1102787422188483 0 0.39436218753231672 0.02113590368811075 0 0.41085092145348429 0.035466320912962652 0 0.41215449154649081 0.020268576158592441 0 0.39436218753231672 0.02113590368811075 0 0.4027220407959507 0.0068609628241748342 0 0.41215449154649081 0.020268576158592441 0 0.39436218753231672 0.02113590368811075 0 0.4027220407959507 0.0068609628241748342 0 0.38202126979674728 0.0016257403202125471 0 0.36670660797298932 0.02358760611472362 0 0.39436218753231672 0.02113590368811075 0 0.38202126979674728 0.0016257403202125471 0 0.36670660797298932 0.02358760611472362 0 0.39436218753231672 0.02113590368811075 0 0.39171779362823728 0.0390062157979984 0 0.37071873772007918 0.043391986722389933 0 0.36670660797298932 0.02358760611472362 0 0.39171779362823728 0.0390062157979984 0 0.37071873772007918 0.043391986722389933 0 0.37946994248149618 0.052811618606571457 0 0.39171779362823728 0.0390062157979984 0 0.36670660797298932 0.02358760611472362 0 0.39171779362823728 0.0390062157979984 0 0.37946994248149618 0.052811618606571457 0 0.3903550691551646 0.057169315401496529 0 0.39171779362823728 0.0390062157979984 0 0.36838348233918489 0.055665138606747502 0 0.37894948866811312 0.063408514195723825 0 0.37946994248149618 0.052811618606571457 0 0.37894948866811312 0.063408514195723825 0 0.37946994248149618 0.052811618606571457 0 0.3903550691551646 0.057169315401496529 0 0.40143220148799658 0.053325795746383881 0 0.39171779362823728 0.0390062157979984 0 0.41672897928348518 0.054424825481273538 0 0.3903550691551646 0.057169315401496529 0 0.40143220148799658 0.053325795746383881 0 0.39171779362823728 0.0390062157979984 0 0.4028146718488711 0.064706033862578879 0 0.3903550691551646 0.057169315401496529 0 0.40143220148799658 0.053325795746383881 0 0.39171779362823728 0.0390062157979984 0 0.41672897928348518 0.054424825481273538 0 0.39436218753231672 0.02113590368811075 0 0.39171779362823728 0.0390062157979984 0 0.41085092145348429 0.035466320912962652 0 0.41085092145348429 0.035466320912962652 0 0.41672897928348518 0.054424825481273538 0 0.42315856374172001 0.04264387421550192 0 0.39171779362823728 0.0390062157979984 0 0.41085092145348429 0.035466320912962652 0 0.41672897928348518 0.054424825481273538 0 0.41085092145348429 0.035466320912962652 0 0.42315856374172001 0.04264387421550192 0 0.42704883683265649 0.026993479262903981 0 0.41821548115255403 0.067123398692898531 0 0.4028146718488711 0.064706033862578879 0 0.41672897928348518 0.054424825481273538 0 0.4028146718488711 0.064706033862578879 0 0.40143220148799658 0.053325795746383881 0 0.41672897928348518 0.054424825481273538 0 0.40143220148799658 0.053325795746383881 0 0.41672897928348518 0.054424825481273538 0 0.43133756619107583 0.0634305600616758 0 0.41672897928348518 0.054424825481273538 0 0.4334813244875898 0.055628433571461647 0 0.41672897928348518 0.054424825481273538 0 0.4334813244875898 0.055628433571461647 0 0.42315856374172001 0.04264387421550192 0 0.41672897928348518 0.054424825481273538 0 0.4334813244875898 0.055628433571461647 0 0.43133756619107583 0.0634305600616758 0 0.41821548115255403 0.067123398692898531 0 0.41672897928348518 0.054424825481273538 0 0.43133756619107583 0.0634305600616758 0 0.41672897928348518 0.054424825481273538 0 0.43133756619107583 0.0634305600616758 0 0.4334813244875898 0.055628433571461647 0 0.44234708332241229 0.061364152180739429 0 0.42315856374172001 0.04264387421550192 0 0.43544005371654038 0.042201266565284203 0 0.42704883683265649 0.026993479262903981 0 0.43544005371654038 0.042201266565284203 0 0.42704883683265649 0.026993479262903981 0 0.44295985755775741 0.030906224104374411 0 0.4334813244875898 0.055628433571461647 0 0.42315856374172001 0.04264387421550192 0 0.43544005371654038 0.042201266565284203 0 0.42704883683265649 0.026993479262903981 0 0.44295985755775741 0.030906224104374411 0 0.42704883683265649 0.026993479262903981 0 0.43359549516192941 0.0144486652876435 0 0.44295985755775741 0.030906224104374411 0 0.42704883683265649 0.026993479262903981 0 0.42297410953636749 0.0076815276236235786 0 0.43359549516192941 0.0144486652876435 0 0.41085092145348429 0.035466320912962652 0 0.42704883683265649 0.026993479262903981 0 0.41215449154649081 0.020268576158592441 0 0.42704883683265649 0.026993479262903981 0 0.41215449154649081 0.020268576158592441 0 0.42297410953636749 0.0076815276236235786 0 0.4027220407959507 0.0068609628241748342 0 0.41215449154649081 0.020268576158592441 0 0.42297410953636749 0.0076815276236235786 0 0.4027220407959507 0.0068609628241748342 0 0.42297410953636749 0.0076815276236235786 0 0.41586236275646948 -0.0080451436689564296 0 0.42297410953636749 0.0076815276236235786 0 0.4367476754283498 0.0044171083123250039 0 0.43386711193933192 -0.0080323110652625804 0 0.42297410953636749 0.0076815276236235786 0 0.43359549516192941 0.0144486652876435 0 0.4367476754283498 0.0044171083123250039 0 0.4367476754283498 0.0044171083123250039 0 0.44662832293839799 0.010627429752393039 0 0.44667333756572242 -0.0026397700367725169 0 0.44662832293839799 0.010627429752393039 0 0.45471793344451528 0.0046277864098249631 0 0.44667333756572242 -0.0026397700367725169 0 0.44662832293839799 0.010627429752393039 0 0.45438699636212732 0.01892620202627366 0 0.45471793344451528 0.0046277864098249631 0 0.43359549516192941 0.0144486652876435 0 0.4367476754283498 0.0044171083123250039 0 0.44662832293839799 0.010627429752393039 0 0.43359549516192941 0.0144486652876435 0 0.44662832293839799 0.010627429752393039 0 0.44295985755775741 0.030906224104374411 0 0.44295985755775741 0.030906224104374411 0 0.45438699636212732 0.01892620202627366 0 0.45887087828285811 0.034818968945844887 0 0.44662832293839799 0.010627429752393039 0 0.44295985755775741 0.030906224104374411 0 0.45438699636212732 0.01892620202627366 0 0.46812918500062589 0.0078727295299568789 0 0.45887087828285811 0.034818968945844887 0 0.47718167944645168 0.024933854838152941 0 0.45438699636212732 0.01892620202627366 0 0.46812918500062589 0.0078727295299568789 0 0.45887087828285811 0.034818968945844887 0 0.46812918500062589 0.0078727295299568789 0 0.45887087828285811 0.034818968945844887 0 0.46812918500062589 0.0078727295299568789 0 0.45471793344451528 0.0046277864098249631 0 0.45777182535570238 -0.01164765922272624 0 0.45438699636212732 0.01892620202627366 0 0.46812918500062589 0.0078727295299568789 0 0.45471793344451528 0.0046277864098249631 0 0.4334813244875898 0.055628433571461647 0 0.45128166031280792 0.056907336790460339 0 0.44761675238845577 0.048189041064836978 0 0.4334813244875898 0.055628433571461647 0 0.45128166031280792 0.056907336790460339 0 0.4334813244875898 0.055628433571461647 0 0.45128166031280792 0.056907336790460339 0 0.44234708332241229 0.061364152180739429 0 0.45128166031280792 0.056907336790460339 0 0.45073670314303488 0.058493430966832002 0 0.44234708332241229 0.061364152180739429 0 0.45128166031280792 0.056907336790460339 0 0.45073670314303488 0.058493430966832002 0 0.4334813244875898 0.055628433571461647 0 0.43544005371654038 0.042201266565284203 0 0.44761675238845577 0.048189041064836978 0 0.45128166031280792 0.056907336790460339 0 0.44761675238845577 0.048189041064836978 0 0.44295985755775741 0.030906224104374411 0 0.45887087828285811 0.034818968945844887 0 0.43544005371654038 0.042201266565284203 0 0.44295985755775741 0.030906224104374411 0 0.44761675238845577 0.048189041064836978 0 0.45128166031280792 0.056907336790460339 0 0.44761675238845577 0.048189041064836978 0 0.45887087828285811 0.034818968945844887 0 0.44295985755775741 0.030906224104374411 0 0.44761675238845577 0.048189041064836978 0 0.45887087828285811 0.034818968945844887 0 0.45128166031280792 0.056907336790460339 0 0.45887087828285811 0.034818968945844887 0 0.46575551403209747 0.047339919975727431 0 0.45887087828285811 0.034818968945844887 0 0.47777914796007809 0.039468779659997233 0 0.45887087828285811 0.034818968945844887 0 0.46575551403209747 0.047339919975727431 0 0.47777914796007809 0.039468779659997233 0 0.45128166031280792 0.056907336790460339 0 0.45887087828285811 0.034818968945844887 0 0.46261405797056931 0.067314190175525493 0 0.45128166031280792 0.056907336790460339 0 0.47455481161098317 0.058579446148603657 0 0.45128166031280792 0.056907336790460339 0 0.46575551403209747 0.047339919975727431 0 0.47455481161098317 0.058579446148603657 0 0.45128166031280792 0.056907336790460339 0 0.47455481161098317 0.058579446148603657 0 0.46261405797056931 0.067314190175525493 0 0.45128166031280792 0.056907336790460339 0 0.45073670314303488 0.058493430966832002 0 0.46575551403209747 0.047339919975727431 0 0.47455481161098317 0.058579446148603657 0 0.47777914796007809 0.039468779659997233 0 0.47455481161098317 0.058579446148603657 0 0.47777914796007809 0.039468779659997233 0 0.48704148202749131 0.052907323804776023 0 0.45887087828285811 0.034818968945844887 0 0.47777914796007809 0.039468779659997233 0 0.47718167944645168 0.024933854838152941 0 0.47777914796007809 0.039468779659997233 0 0.48514687914221799 0.032121901778210303 0 0.47718167944645168 0.024933854838152941 0 0.49668741763729751 0.044118590374152368 0 0.48893927152504402 0.019966382240541428 0 0.48514687914221799 0.032121901778210303 0 0.49668741763729751 0.044118590374152368 0 0.48893927152504402 0.019966382240541428 0 0.50000000000000111 0.044933201188600308 0 0.49668741763729751 0.044118590374152368 0 0.5 0.018022035888800029 0 0.47777914796007809 0.039468779659997233 0 0.48514687914221799 0.032121901778210303 0 0.49668741763729751 0.044118590374152368 0 0.47777914796007809 0.039468779659997233 0 0.49668741763729751 0.044118590374152368 0 0.47777914796007809 0.039468779659997233 0 0.49668741763729751 0.044118590374152368 0 0.48704148202749131 0.052907323804776023 0 0.50000000000000111 0.044933201188600308 0 0.49668741763729751 0.044118590374152368 0 0.47455481161098317 0.058579446148603657 0 0.48704148202749131 0.052907323804776023 0 0.49782796290915771 0.060251555506758828 0 0.47455481161098317 0.058579446148603657 0 0.49782796290915771 0.060251555506758828 0 0.49668741763729751 0.044118590374152368 0 0.49999999999999939 0.054444438328570682 0 0.50000000000000111 0.044933201188600308 0 0.49668741763729751 0.044118590374152368 0 0.49999999999999939 0.054444438328570682 0 0.49668741763729751 0.044118590374152368 0 0.48704148202749131 0.052907323804776023 0 0.49631137251479368 0.0534885186588289 0 0.49668741763729751 0.044118590374152368 0 0.49999999999999939 0.054444438328570682 0 0.49631137251479368 0.0534885186588289 0 0.48704148202749131 0.052907323804776023 0 0.49631137251479368 0.0534885186588289 0 0.49782796290915771 0.060251555506758828 0 0.49999999999999939 0.054444438328570682 0 0.49999999999999539 0.060407610159565951 0 0.49782796290915771 0.060251555506758828 0 0.49999999999999939 0.054444438328570682 0 0.49631137251479368 0.0534885186588289 0 0.49782796290915771 0.060251555506758828 0 0.49999999999999939 0.054444438328570682 0 0.49782796290915771 0.060251555506758828 0 0.49999999999999539 0.060407610159565951 0 0.49782796290915771 0.060251555506758828 0 0.46812918500062589 0.0078727295299568789 0 0.47886031534622842 0.012146785178895321 0 0.48119112541279191 -0.0041858258930699901 0 0.46812918500062589 0.0078727295299568789 0 0.47886031534622842 0.012146785178895321 0 0.47718167944645168 0.024933854838152941 0 0.47886031534622842 0.012146785178895321 0 0.48893927152504402 0.019966382240541428 0 0.48119112541279191 -0.0041858258930699901 0 0.46812918500062589 0.0078727295299568789 0 0.47718167944645168 0.024933854838152941 0 0.48514687914221799 0.032121901778210303 0 0.47718167944645168 0.024933854838152941 0 0.48893927152504402 0.019966382240541428 0 0.47886031534622842 0.012146785178895321 0 0.47718167944645168 0.024933854838152941 0 0.48893927152504402 0.019966382240541428 0 0.49668741763729751 0.044118590374152368 0 0.48893927152504402 0.019966382240541428 0 0.5 0.018022035888800029 0 0.48893927152504402 0.019966382240541428 0 0.5 0.018022035888800029 0 0.49221814534893188 0.0045535808687618773 0 0.48893927152504402 0.019966382240541428 0 0.48119112541279191 -0.0041858258930699901 0 0.48893927152504402 0.019966382240541428 0 0.49221814534893188 0.0045535808687618773 0 0.48119112541279191 -0.0041858258930699901 0 0.5 0.018022035888800029 0 0.49221814534893188 0.0045535808687618773 0 0.5 -0.0088891294110001184 0 0.49221814534893188 0.0045535808687618773 0 0.5 -0.0088891294110001184 0 0.49037072410748372 -0.004818859520816959 0 0.5 -0.0088891294110001184 0 0.48505468083070208 -0.01277483967160328 0 0.49037072410748372 -0.004818859520816959 0 0.49221814534893188 0.0045535808687618773 0 0.49037072410748372 -0.004818859520816959 0 0.48119112541279191 -0.0041858258930699901 0 0.48505468083070208 -0.01277483967160328 0 0.49037072410748372 -0.004818859520816959 0 0.48119112541279191 -0.0041858258930699901 0 0.46812918500062589 0.0078727295299568789 0 0.47479181534877518 -0.011518811274821799 0 0.46812918500062589 0.0078727295299568789 0 0.48119112541279191 -0.0041858258930699901 0 0.47479181534877518 -0.011518811274821799 0 0.48505468083070208 -0.01277483967160328 0 0.47479181534877518 -0.011518811274821799 0 0.47694380167313688 -0.021931234772157152 0 0.48505468083070208 -0.01277483967160328 0 0.48119112541279191 -0.0041858258930699901 0 0.47479181534877518 -0.011518811274821799 0 0.47694380167313688 -0.021931234772157152 0 0.47305991866478808 -0.034930139026607993 0 0.46492758559899883 -0.024226752462468741 0 0.47479181534877518 -0.011518811274821799 0 0.47694380167313688 -0.021931234772157152 0 0.46492758559899883 -0.024226752462468741 0 0.48505468083070208 -0.01277483967160328 0 0.47694380167313688 -0.021931234772157152 0 0.48688500792242029 -0.026205631425283961 0 0.47694380167313688 -0.021931234772157152 0 0.48688500792242029 -0.026205631425283961 0 0.47305991866478808 -0.034930139026607993 0 0.5 -0.0088891294110001184 0 0.48505468083070208 -0.01277483967160328 0 0.48688500792242029 -0.026205631425283961 0 0.5 -0.0088891294110001184 0 0.48688500792242029 -0.026205631425283961 0 0.49999999999999972 -0.03580029471080038 0 0.49999999999999972 -0.03580029471080038 0 0.4844677052012758 -0.041115375932724449 0 0.48707847968762552 -0.058302588512068529 0 0.48688500792242029 -0.026205631425283961 0 0.49999999999999972 -0.03580029471080038 0 0.4844677052012758 -0.041115375932724449 0 0.49999999999999972 -0.03580029471080038 0 0.5 -0.060073709325327462 0 0.48707847968762552 -0.058302588512068529 0 0.49999999999999972 -0.03580029471080038 0 0.48707847968762552 -0.058302588512068529 0 0.5 -0.060073709325327462 0 0.48707847968762552 -0.058302588512068529 0 0.49236913474813182 -0.068649892725809916 0 0.4844677052012758 -0.041115375932724449 0 0.48707847968762552 -0.058302588512068529 0 0.47531511973154522 -0.05033822598886141 0 0.48707847968762552 -0.058302588512068529 0 0.47537872358826411 -0.059122466767976833 0 0.47377802023268389 -0.06731666877537254 0 0.48707847968762552 -0.058302588512068529 0 0.47531511973154522 -0.05033822598886141 0 0.47537872358826411 -0.059122466767976833 0 0.47531511973154522 -0.05033822598886141 0 0.47537872358826411 -0.059122466767976833 0 0.46534327470120168 -0.060532383795604848 0 0.47537872358826411 -0.059122466767976833 0 0.46534327470120168 -0.060532383795604848 0 0.47377802023268389 -0.06731666877537254 0 0.48688500792242029 -0.026205631425283961 0 0.4844677052012758 -0.041115375932724449 0 0.47305991866478808 -0.034930139026607993 0 0.4844677052012758 -0.041115375932724449 0 0.47531511973154522 -0.05033822598886141 0 0.47305991866478808 -0.034930139026607993 0 0.47531511973154522 -0.05033822598886141 0 0.47305991866478808 -0.034930139026607993 0 0.46361598864710191 -0.045857822668814399 0 0.47305991866478808 -0.034930139026607993 0 0.46361598864710191 -0.045857822668814399 0 0.46039230914702711 -0.035558182066368758 0 0.47305991866478808 -0.034930139026607993 0 0.46039230914702711 -0.035558182066368758 0 0.46492758559899883 -0.024226752462468741 0 0.46361598864710191 -0.045857822668814399 0 0.45479803959822079 -0.043088431174828169 0 0.46039230914702711 -0.035558182066368758 0 0.45479803959822079 -0.043088431174828169 0 0.46039230914702711 -0.035558182066368758 0 0.44741446571078058 -0.031168047975410281 0 0.47531511973154522 -0.05033822598886141 0 0.46361598864710191 -0.045857822668814399 0 0.46534327470120168 -0.060532383795604848 0 0.46361598864710191 -0.045857822668814399 0 0.46534327470120168 -0.060532383795604848 0 0.45587467719795699 -0.052591978345609081 0 0.46361598864710191 -0.045857822668814399 0 0.45479803959822079 -0.043088431174828169 0 0.45587467719795699 -0.052591978345609081 0 0.46534327470120168 -0.060532383795604848 0 0.45587467719795699 -0.052591978345609081 0 0.45311881130135162 -0.061154264698498183 0 0.45311881130135162 -0.061154264698498183 0 0.44004092671985762 -0.05714704712176237 0 0.44631545298724229 -0.066673492110515778 0 0.45311881130135162 -0.061154264698498183 0 0.44723621396522328 -0.049999173448461581 0 0.44004092671985762 -0.05714704712176237 0 0.45479803959822079 -0.043088431174828169 0 0.45587467719795699 -0.052591978345609081 0 0.44723621396522328 -0.049999173448461581 0 0.45587467719795699 -0.052591978345609081 0 0.45311881130135162 -0.061154264698498183 0 0.44723621396522328 -0.049999173448461581 0 0.44723621396522328 -0.049999173448461581 0 0.44004092671985762 -0.05714704712176237 0 0.44004092671985762 -0.05714704712176237 0 0.44741446571078058 -0.031168047975410281 0 0.44741446571078058 -0.031168047975410281 0 0.43321639670759482 -0.030224516926975691 0 0.43694968168863818 -0.050890898134933443 0 0.44004092671985762 -0.05714704712176237 0 0.44741446571078058 -0.031168047975410281 0 0.43694968168863818 -0.050890898134933443 0 0.45479803959822079 -0.043088431174828169 0 0.44723621396522328 -0.049999173448461581 0 0.44741446571078058 -0.031168047975410281 0 0.44723621396522328 -0.049999173448461581 0 0.44004092671985762 -0.05714704712176237 0 0.44741446571078058 -0.031168047975410281 0 0.44741446571078058 -0.031168047975410281 0 0.43694968168863818 -0.050890898134933443 0 0.44741446571078058 -0.031168047975410281 0 0.44893130392265801 -0.025823811149644799 0 0.43959064703757 -0.021764634686686529 0 0.44741446571078058 -0.031168047975410281 0 0.43959064703757 -0.021764634686686529 0 0.43321639670759482 -0.030224516926975691 0 0.44741446571078058 -0.031168047975410281 0 0.45777182535570238 -0.01164765922272624 0 0.44741446571078058 -0.031168047975410281 0 0.44893130392265801 -0.025823811149644799 0 0.45777182535570238 -0.01164765922272624 0 0.44741446571078058 -0.031168047975410281 0 0.44893130392265801 -0.025823811149644799 0 0.44893130392265801 -0.025823811149644799 0 0.44548456609600579 -0.013998445363968199 0 0.45777182535570238 -0.01164765922272624 0 0.44893130392265801 -0.025823811149644799 0 0.43959064703757 -0.021764634686686529 0 0.44548456609600579 -0.013998445363968199 0 0.44667333756572242 -0.0026397700367725169 0 0.44548456609600579 -0.013998445363968199 0 0.43386711193933192 -0.0080323110652625804 0 0.45471793344451528 0.0046277864098249631 0 0.44667333756572242 -0.0026397700367725169 0 0.45777182535570238 -0.01164765922272624 0 0.43959064703757 -0.021764634686686529 0 0.44548456609600579 -0.013998445363968199 0 0.43386711193933192 -0.0080323110652625804 0 0.4367476754283498 0.0044171083123250039 0 0.44667333756572242 -0.0026397700367725169 0 0.43386711193933192 -0.0080323110652625804 0 0.44667333756572242 -0.0026397700367725169 0 0.44548456609600579 -0.013998445363968199 0 0.45777182535570238 -0.01164765922272624 0 0.46812918500062589 0.0078727295299568789 0 0.47479181534877518 -0.011518811274821799 0 0.45777182535570238 -0.01164765922272624 0 0.46812918500062589 0.0078727295299568789 0 0.45777182535570238 -0.01164765922272624 0 0.47479181534877518 -0.011518811274821799 0 0.45777182535570238 -0.01164765922272624 0 0.46492758559899883 -0.024226752462468741 0 0.44741446571078058 -0.031168047975410281 0 0.45777182535570238 -0.01164765922272624 0 0.46492758559899883 -0.024226752462468741 0 0.46039230914702711 -0.035558182066368758 0 0.44741446571078058 -0.031168047975410281 0 0.46492758559899883 -0.024226752462468741 0 0.47653335145070691 -0.12429085624092211 0 0.48174228177642431 -0.11516476929486 0 0.49439980166231801 -0.1164205408849641 0 0.47653335145070691 -0.12429085624092211 0 0.48174228177642431 -0.11516476929486 0 0.46741729153400502 -0.1172799937326168 0 0.48174228177642431 -0.11516476929486 0 0.47639609577500308 -0.1071856635816945 0 0.46741729153400502 -0.1172799937326168 0 0.48174228177642431 -0.11516476929486 0 0.48789995832194349 -0.11116555520302859 0 0.47639609577500308 -0.1071856635816945 0 0.49432867113496909 -0.1130997122871034 0 0.5 -0.10862053855438179 0 0.49999999999999989 -0.13289395316890901 0 0.49439980166231801 -0.1164205408849641 0 0.49432867113496909 -0.1130997122871034 0 0.49999999999999989 -0.13289395316890901 0 0.49432867113496909 -0.1130997122871034 0 0.49999999999999989 -0.13289395316890901 0 0.49439980166231801 -0.1164205408849641 0 0.49432867113496909 -0.1130997122871034 0 0.48789995832194349 -0.11116555520302859 0 0.49432867113496909 -0.1130997122871034 0 0.48789995832194349 -0.11116555520302859 0 0.48596022540839601 -0.10453944430038099 0 0.48174228177642431 -0.11516476929486 0 0.49439980166231801 -0.1164205408849641 0 0.48789995832194349 -0.11116555520302859 0 0.5 -0.10862053855438179 0 0.48865734226993851 -0.093305471405297685 0 0.5 -0.084347123939854551 0 0.49432867113496909 -0.1130997122871034 0 0.5 -0.10862053855438179 0 0.48865734226993851 -0.093305471405297685 0 0.49432867113496909 -0.1130997122871034 0 0.48865734226993851 -0.093305471405297685 0 0.49432867113496909 -0.1130997122871034 0 0.48596022540839601 -0.10453944430038099 0 0.48865734226993851 -0.093305471405297685 0 0.48596022540839601 -0.10453944430038099 0 0.47971781770278438 -0.098395513898847181 0 0.48865734226993851 -0.093305471405297685 0 0.47971781770278438 -0.098395513898847181 0 0.47792768270375652 -0.089623133941451993 0 0.48865734226993851 -0.093305471405297685 0 0.48789995832194349 -0.11116555520302859 0 0.48596022540839601 -0.10453944430038099 0 0.47639609577500308 -0.1071856635816945 0 0.48596022540839601 -0.10453944430038099 0 0.47971781770278438 -0.098395513898847181 0 0.47639609577500308 -0.1071856635816945 0 0.47639609577500308 -0.1071856635816945 0 0.46964774235682771 -0.097323856265410708 0 0.4614850108767834 -0.1063878331767024 0 0.47971781770278438 -0.098395513898847181 0 0.46964774235682771 -0.097323856265410708 0 0.47792768270375652 -0.089623133941451993 0 0.47971781770278438 -0.098395513898847181 0 0.47639609577500308 -0.1071856635816945 0 0.46964774235682771 -0.097323856265410708 0 0.47792768270375652 -0.089623133941451993 0 0.48865734226993851 -0.093305471405297685 0 0.48298601340490788 -0.073511230523491983 0 0.47415695937525149 -0.080804882313336893 0 0.47792768270375652 -0.089623133941451993 0 0.48298601340490788 -0.073511230523491983 0 0.46964774235682771 -0.097323856265410708 0 0.47792768270375652 -0.089623133941451993 0 0.46487971163530578 -0.086520427346941292 0 0.47415695937525149 -0.080804882313336893 0 0.47792768270375652 -0.089623133941451993 0 0.46487971163530578 -0.086520427346941292 0 0.48865734226993851 -0.093305471405297685 0 0.48298601340490788 -0.073511230523491983 0 0.48865734226993851 -0.093305471405297685 0 0.49179582462410287 -0.078520101778215418 0 0.48298601340490788 -0.073511230523491983 0 0.48865734226993851 -0.093305471405297685 0 0.5 -0.084347123939854551 0 0.49179582462410287 -0.078520101778215418 0 0.49179582462410287 -0.078520101778215418 0 0.49236913474813182 -0.068649892725809916 0 0.48298601340490788 -0.073511230523491983 0 0.5 -0.060073709325327462 0 0.5 -0.084347123939854551 0 0.49236913474813182 -0.068649892725809916 0 0.5 -0.084347123939854551 0 0.49179582462410287 -0.078520101778215418 0 0.49236913474813182 -0.068649892725809916 0 0.48707847968762552 -0.058302588512068529 0 0.49236913474813182 -0.068649892725809916 0 0.48298601340490788 -0.073511230523491983 0 0.48707847968762552 -0.058302588512068529 0 0.47415695937525149 -0.080804882313336893 0 0.48298601340490788 -0.073511230523491983 0 0.48707847968762552 -0.058302588512068529 0 0.47415695937525149 -0.080804882313336893 0 0.47377802023268389 -0.06731666877537254 0 0.48707847968762552 -0.058302588512068529 0 0.47415695937525149 -0.080804882313336893 0 0.47415695937525149 -0.080804882313336893 0 0.47377802023268389 -0.06731666877537254 0 0.46353226738537961 -0.07363319149972769 0 0.46534327470120168 -0.060532383795604848 0 0.47377802023268389 -0.06731666877537254 0 0.46353226738537961 -0.07363319149972769 0 0.46534327470120168 -0.060532383795604848 0 0.46353226738537961 -0.07363319149972769 0 0.45833897748969971 -0.067101124508855067 0 0.46353226738537961 -0.07363319149972769 0 0.45833897748969971 -0.067101124508855067 0 0.45136155657086591 -0.073084658041589534 0 0.46353226738537961 -0.07363319149972769 0 0.45136155657086591 -0.073084658041589534 0 0.45516310411147382 -0.082486606393866235 0 0.46534327470120168 -0.060532383795604848 0 0.45311881130135162 -0.061154264698498183 0 0.45833897748969971 -0.067101124508855067 0 0.45311881130135162 -0.061154264698498183 0 0.45833897748969971 -0.067101124508855067 0 0.45136155657086591 -0.073084658041589534 0 0.45311881130135162 -0.061154264698498183 0 0.44631545298724229 -0.066673492110515778 0 0.45136155657086591 -0.073084658041589534 0 0.44004092671985762 -0.05714704712176237 0 0.44255416634775202 -0.073590217559866278 0 0.43302369902409438 -0.081870663900948312 0 0.44004092671985762 -0.05714704712176237 0 0.44631545298724229 -0.066673492110515778 0 0.44255416634775202 -0.073590217559866278 0 0.44255416634775202 -0.073590217559866278 0 0.45136155657086591 -0.073084658041589534 0 0.44565649441841532 -0.085739664583822164 0 0.44631545298724229 -0.066673492110515778 0 0.44255416634775202 -0.073590217559866278 0 0.45136155657086591 -0.073084658041589534 0 0.45136155657086591 -0.073084658041589534 0 0.44565649441841532 -0.085739664583822164 0 0.45516310411147382 -0.082486606393866235 0 0.44565649441841532 -0.085739664583822164 0 0.44123493879923409 -0.097590691699700499 0 0.43302369902409438 -0.081870663900948312 0 0.44255416634775202 -0.073590217559866278 0 0.44565649441841532 -0.085739664583822164 0 0.43302369902409438 -0.081870663900948312 0 0.44565649441841532 -0.085739664583822164 0 0.45453684803103461 -0.094975734371091344 0 0.44123493879923409 -0.097590691699700499 0 0.44565649441841532 -0.085739664583822164 0 0.45516310411147382 -0.082486606393866235 0 0.45453684803103461 -0.094975734371091344 0 0.45516310411147382 -0.082486606393866235 0 0.46487971163530578 -0.086520427346941292 0 0.45453684803103461 -0.094975734371091344 0 0.47415695937525149 -0.080804882313336893 0 0.46353226738537961 -0.07363319149972769 0 0.46487971163530578 -0.086520427346941292 0 0.46353226738537961 -0.07363319149972769 0 0.45516310411147382 -0.082486606393866235 0 0.46487971163530578 -0.086520427346941292 0 0.46964774235682771 -0.097323856265410708 0 0.46487971163530578 -0.086520427346941292 0 0.45453684803103461 -0.094975734371091344 0 0.46964774235682771 -0.097323856265410708 0 0.4614850108767834 -0.1063878331767024 0 0.45453684803103461 -0.094975734371091344 0 0.4614850108767834 -0.1063878331767024 0 0.45453684803103461 -0.094975734371091344 0 0.44924971518774259 -0.1057456563717829 0 0.45453684803103461 -0.094975734371091344 0 0.44123493879923409 -0.097590691699700499 0 0.44924971518774259 -0.1057456563717829 0 0.44123493879923409 -0.097590691699700499 0 0.44924971518774259 -0.1057456563717829 0 0.43991163785031229 -0.1104320091089467 0 0.43991163785031229 -0.1104320091089467 0 0.44908014038134858 -0.11934201350247341 0 0.43336998754557932 -0.12159295788546159 0 0.44924971518774259 -0.1057456563717829 0 0.43991163785031229 -0.1104320091089467 0 0.44908014038134858 -0.11934201350247341 0 0.44908014038134858 -0.11934201350247341 0 0.46741729153400502 -0.1172799937326168 0 0.46063053461824499 -0.13148793758122421 0 0.47653335145070691 -0.12429085624092211 0 0.46741729153400502 -0.1172799937326168 0 0.46063053461824499 -0.13148793758122421 0 0.4614850108767834 -0.1063878331767024 0 0.44908014038134858 -0.11934201350247341 0 0.46741729153400502 -0.1172799937326168 0 0.4614850108767834 -0.1063878331767024 0 0.44924971518774259 -0.1057456563717829 0 0.44908014038134858 -0.11934201350247341 0 0.47639609577500308 -0.1071856635816945 0 0.4614850108767834 -0.1063878331767024 0 0.46741729153400502 -0.1172799937326168 0 0.40743141707026292 -0.124186865533741 0 0.41481310520166309 -0.1098488106712676 0 0.41898924363256862 -0.1313178974593209 0 0.41481310520166309 -0.1098488106712676 0 0.42600647132833153 -0.1065942806801346 0 0.41898924363256862 -0.1313178974593209 0 0.40743141707026292 -0.124186865533741 0 0.41481310520166309 -0.1098488106712676 0 0.40370056055159897 -0.11355510914341101 0 0.43336998754557932 -0.12159295788546159 0 0.42600647132833153 -0.1065942806801346 0 0.41898924363256862 -0.1313178974593209 0 0.42600647132833153 -0.1065942806801346 0 0.41898924363256862 -0.1313178974593209 0 0.43991163785031229 -0.1104320091089467 0 0.43336998754557932 -0.12159295788546159 0 0.42600647132833153 -0.1065942806801346 0 0.44123493879923409 -0.097590691699700499 0 0.42600647132833153 -0.1065942806801346 0 0.43302369902409438 -0.081870663900948312 0 0.42600647132833153 -0.1065942806801346 0 0.41890154225967458 -0.097391502694109316 0 0.43302369902409438 -0.081870663900948312 0 0.42600647132833153 -0.1065942806801346 0 0.43302369902409438 -0.081870663900948312 0 0.44123493879923409 -0.097590691699700499 0 0.43991163785031229 -0.1104320091089467 0 0.42600647132833153 -0.1065942806801346 0 0.41258042825912972 -0.09681933133266396 0 0.40370056055159897 -0.11355510914341101 0 0.41481310520166309 -0.1098488106712676 0 0.41258042825912972 -0.09681933133266396 0 0.40370056055159897 -0.11355510914341101 0 0.41481310520166309 -0.1098488106712676 0 0.41890154225967458 -0.097391502694109316 0 0.41258042825912972 -0.09681933133266396 0 0.41890154225967458 -0.097391502694109316 0 0.41258042825912972 -0.09681933133266396 0 0.41481310520166309 -0.1098488106712676 0 0.42600647132833153 -0.1065942806801346 0 0.41890154225967458 -0.097391502694109316 0 0.41258042825912972 -0.09681933133266396 0 0.40114725366971488 -0.095784429087599182 0 0.41890154225967458 -0.097391502694109316 0 0.41258042825912972 -0.09681933133266396 0 0.42648489766649572 -0.07061374829445663 0 0.41258042825912972 -0.09681933133266396 0 0.41381607566810508 -0.083199088691027684 0 0.42648489766649572 -0.07061374829445663 0 0.41258042825912972 -0.09681933133266396 0 0.42648489766649572 -0.07061374829445663 0 0.41381607566810508 -0.083199088691027684 0 0.4042940239314276 -0.083944258843526298 0 0.40114725366971488 -0.095784429087599182 0 0.41258042825912972 -0.09681933133266396 0 0.41381607566810508 -0.083199088691027684 0 0.40114725366971488 -0.095784429087599182 0 0.41381607566810508 -0.083199088691027684 0 0.40114725366971488 -0.095784429087599182 0 0.41381607566810508 -0.083199088691027684 0 0.40660008278454562 -0.076115913220961007 0 0.4042940239314276 -0.083944258843526298 0 0.41890154225967458 -0.097391502694109316 0 0.43302369902409438 -0.081870663900948312 0 0.42648489766649572 -0.07061374829445663 0 0.44004092671985762 -0.05714704712176237 0 0.43302369902409438 -0.081870663900948312 0 0.44004092671985762 -0.05714704712176237 0 0.43302369902409438 -0.081870663900948312 0 0.42648489766649572 -0.07061374829445663 0 0.44004092671985762 -0.05714704712176237 0 0.42648489766649572 -0.07061374829445663 0 0.40660008278454562 -0.076115913220961007 0 0.41392467613471801 -0.069560491316642561 0 0.40366542742723172 -0.059387927489029768 0 0.42648489766649572 -0.07061374829445663 0 0.41392467613471801 -0.069560491316642561 0 0.42063538174169701 -0.057634502500857901 0 0.41381607566810508 -0.083199088691027684 0 0.42648489766649572 -0.07061374829445663 0 0.41392467613471801 -0.069560491316642561 0 0.41381607566810508 -0.083199088691027684 0 0.42648489766649572 -0.07061374829445663 0 0.41381607566810508 -0.083199088691027684 0 0.40660008278454562 -0.076115913220961007 0 0.41392467613471801 -0.069560491316642561 0 0.39677344842215762 -0.084831362985996986 0 0.40366542742723172 -0.059387927489029768 0 0.38892735569855458 -0.071428653584605803 0 0.40366542742723172 -0.059387927489029768 0 0.38377401975295289 -0.058480097150683003 0 0.38892735569855458 -0.071428653584605803 0 0.39677344842215762 -0.084831362985996986 0 0.40366542742723172 -0.059387927489029768 0 0.40660008278454562 -0.076115913220961007 0 0.39677344842215762 -0.084831362985996986 0 0.40366542742723172 -0.059387927489029768 0 0.37564745168350028 -0.07256940500574105 0 0.38892735569855458 -0.071428653584605803 0 0.38377401975295289 -0.058480097150683003 0 0.37564745168350028 -0.07256940500574105 0 0.38377401975295289 -0.058480097150683003 0 0.36864952290635328 -0.06061279701218833 0 0.37564745168350028 -0.07256940500574105 0 0.38892735569855458 -0.071428653584605803 0 0.38477643120693128 -0.081874475291578416 0 0.38892735569855458 -0.071428653584605803 0 0.38477643120693128 -0.081874475291578416 0 0.39677344842215762 -0.084831362985996986 0 0.37564745168350028 -0.07256940500574105 0 0.38477643120693128 -0.081874475291578416 0 0.37416301086466019 -0.084488518593128281 0 0.38477643120693128 -0.081874475291578416 0 0.38255953491292799 -0.094101915475865466 0 0.37416301086466019 -0.084488518593128281 0 0.39677344842215762 -0.084831362985996986 0 0.38255953491292799 -0.094101915475865466 0 0.38477643120693128 -0.081874475291578416 0 0.39677344842215762 -0.084831362985996986 0 0.38255953491292799 -0.094101915475865466 0 0.39677344842215762 -0.084831362985996986 0 0.4000173451881418 -0.08952019153623092 0 0.39398222024802082 -0.095135868259976719 0 0.39677344842215762 -0.084831362985996986 0 0.39398222024802082 -0.095135868259976719 0 0.38255953491292799 -0.094101915475865466 0 0.39677344842215762 -0.084831362985996986 0 0.39398222024802082 -0.095135868259976719 0 0.4000173451881418 -0.08952019153623092 0 0.40114725366971488 -0.095784429087599182 0 0.39398222024802082 -0.095135868259976719 0 0.39677344842215762 -0.084831362985996986 0 0.39959625707574309 -0.085695903282583183 0 0.4042940239314276 -0.083944258843526298 0 0.40660008278454562 -0.076115913220961007 0 0.39677344842215762 -0.084831362985996986 0 0.4042940239314276 -0.083944258843526298 0 0.4042940239314276 -0.083944258843526298 0 0.4000173451881418 -0.08952019153623092 0 0.40114725366971488 -0.095784429087599182 0 0.39677344842215762 -0.084831362985996986 0 0.39959625707574309 -0.085695903282583183 0 0.4000173451881418 -0.08952019153623092 0 0.39959625707574309 -0.085695903282583183 0 0.4042940239314276 -0.083944258843526298 0 0.4000173451881418 -0.08952019153623092 0 0.41258042825912972 -0.09681933133266396 0 0.40092873533046741 -0.10441515053274331 0 0.40370056055159897 -0.11355510914341101 0 0.41258042825912972 -0.09681933133266396 0 0.40114725366971488 -0.095784429087599182 0 0.40092873533046741 -0.10441515053274331 0 0.40092873533046741 -0.10441515053274331 0 0.3974077241751251 -0.1101098164936677 0 0.40370056055159897 -0.11355510914341101 0 0.40114725366971488 -0.095784429087599182 0 0.40092873533046741 -0.10441515053274331 0 0.39110400880121121 -0.10576149367752601 0 0.40092873533046741 -0.10441515053274331 0 0.39110400880121121 -0.10576149367752601 0 0.3974077241751251 -0.1101098164936677 0 0.39110400880121121 -0.10576149367752601 0 0.39398222024802082 -0.095135868259976719 0 0.38770181335995269 -0.098511369316914496 0 0.40114725366971488 -0.095784429087599182 0 0.39110400880121121 -0.10576149367752601 0 0.39398222024802082 -0.095135868259976719 0 0.40114725366971488 -0.095784429087599182 0 0.39110400880121121 -0.10576149367752601 0 0.39110400880121121 -0.10576149367752601 0 0.39398222024802082 -0.095135868259976719 0 0.40114725366971488 -0.095784429087599182 0 0.39398222024802082 -0.095135868259976719 0 0.38126039708302328 -0.097719849608258108 0 0.38485152153862218 -0.1045101091984698 0 0.38099084871604622 -0.12358288802424 0 0.39398222024802082 -0.095135868259976719 0 0.38255953491292799 -0.094101915475865466 0 0.39398222024802082 -0.095135868259976719 0 0.38770181335995269 -0.098511369316914496 0 0.38255953491292799 -0.094101915475865466 0 0.38126039708302328 -0.097719849608258108 0 0.37794662915294341 -0.1072835713945732 0 0.37805340755955691 -0.1161667966647305 0 0.38770181335995269 -0.098511369316914496 0 0.3844412672666031 -0.099882106220187825 0 0.38485152153862218 -0.1045101091984698 0 0.3844412672666031 -0.099882106220187825 0 0.38126039708302328 -0.097719849608258108 0 0.38485152153862218 -0.1045101091984698 0 0.38770181335995269 -0.098511369316914496 0 0.3844412672666031 -0.099882106220187825 0 0.38255953491292799 -0.094101915475865466 0 0.38255953491292799 -0.094101915475865466 0 0.38126039708302328 -0.097719849608258108 0 0.36728471270507329 -0.10406441039040069 0 0.3844412672666031 -0.099882106220187825 0 0.38255953491292799 -0.094101915475865466 0 0.38126039708302328 -0.097719849608258108 0 0.38126039708302328 -0.097719849608258108 0 0.37794662915294341 -0.1072835713945732 0 0.37645261806144448 -0.1046905476931399 0 0.37794662915294341 -0.1072835713945732 0 0.37509747467983501 -0.11165342048337849 0 0.37470231875839072 -0.10733920627910511 0 0.37794662915294341 -0.1072835713945732 0 0.37645261806144448 -0.1046905476931399 0 0.37470231875839072 -0.10733920627910511 0 0.38126039708302328 -0.097719849608258108 0 0.37645261806144448 -0.1046905476931399 0 0.37344832723863147 -0.10425286016468061 0 0.39110400880121121 -0.10576149367752601 0 0.38770181335995269 -0.098511369316914496 0 0.38485152153862218 -0.1045101091984698 0 0.39110400880121121 -0.10576149367752601 0 0.38485152153862218 -0.1045101091984698 0 0.38655162012296912 -0.1102838842471036 0 0.39110400880121121 -0.10576149367752601 0 0.38655162012296912 -0.1102838842471036 0 0.38126039708302328 -0.097719849608258108 0 0.38099084871604622 -0.12358288802424 0 0.38126039708302328 -0.097719849608258108 0 0.37805340755955691 -0.1161667966647305 0 0.38099084871604622 -0.12358288802424 0 0.38485152153862218 -0.1045101091984698 0 0.38655162012296912 -0.1102838842471036 0 0.38099084871604622 -0.12358288802424 0 0.39110400880121121 -0.10576149367752601 0 0.38613396114641441 -0.1241096469189331 0 0.39110400880121121 -0.10576149367752601 0 0.38613396114641441 -0.1241096469189331 0 0.3938975920172228 -0.11670751262099061 0 0.39110400880121121 -0.10576149367752601 0 0.38655162012296912 -0.1102838842471036 0 0.38613396114641441 -0.1241096469189331 0 0.37794662915294341 -0.1072835713945732 0 0.37805340755955691 -0.1161667966647305 0 0.37509747467983501 -0.11165342048337849 0 0.37805340755955691 -0.1161667966647305 0 0.37509747467983501 -0.11165342048337849 0 0.37212277994158272 -0.115950577809429 0 0.37805340755955691 -0.1161667966647305 0 0.38099084871604622 -0.12358288802424 0 0.373297658075465 -0.12312681369454399 0 0.38655162012296912 -0.1102838842471036 0 0.38099084871604622 -0.12358288802424 0 0.38613396114641441 -0.1241096469189331 0 0.38613396114641441 -0.1241096469189331 0 0.39226537828793379 -0.1229714364071476 0 0.3911989989712657 -0.12720080669893649 0 0.3938975920172228 -0.11670751262099061 0 0.40370056055159897 -0.11355510914341101 0 0.39713427764850429 -0.1269178815242378 0 0.39226537828793379 -0.1229714364071476 0 0.3938975920172228 -0.11670751262099061 0 0.39713427764850429 -0.1269178815242378 0 0.38613396114641441 -0.1241096469189331 0 0.39226537828793379 -0.1229714364071476 0 0.3938975920172228 -0.11670751262099061 0 0.3974077241751251 -0.1101098164936677 0 0.3938975920172228 -0.11670751262099061 0 0.40370056055159897 -0.11355510914341101 0 0.39110400880121121 -0.10576149367752601 0 0.3974077241751251 -0.1101098164936677 0 0.3938975920172228 -0.11670751262099061 0 0.40743141707026292 -0.124186865533741 0 0.40370056055159897 -0.11355510914341101 0 0.39713427764850429 -0.1269178815242378 0 0.40960155083713912 -0.025333510624147671 0 0.43321639670759482 -0.030224516926975691 0 0.40960155083713912 -0.025333510624147671 0 0.41586236275646948 -0.0080451436689564296 0 0.42642761385562111 -0.018680023394405779 0 0.40960155083713912 -0.025333510624147671 0 0.41586236275646948 -0.0080451436689564296 0 0.40012548213281768 -0.0096506892410577593 0 0.42297410953636749 0.0076815276236235786 0 0.41586236275646948 -0.0080451436689564296 0 0.43386711193933192 -0.0080323110652625804 0 0.41586236275646948 -0.0080451436689564296 0 0.43386711193933192 -0.0080323110652625804 0 0.42642761385562111 -0.018680023394405779 0 0.43959064703757 -0.021764634686686529 0 0.43386711193933192 -0.0080323110652625804 0 0.42642761385562111 -0.018680023394405779 0 0.40960155083713912 -0.025333510624147671 0 0.42642761385562111 -0.018680023394405779 0 0.43321639670759482 -0.030224516926975691 0 0.43959064703757 -0.021764634686686529 0 0.42642761385562111 -0.018680023394405779 0 0.43321639670759482 -0.030224516926975691 0 0.43321639670759482 -0.030224516926975691 0 0.43694968168863818 -0.050890898134933443 0 0.41755717616328758 -0.043757372615560737 0 0.42648489766649572 -0.07061374829445663 0 0.43694968168863818 -0.050890898134933443 0 0.42063538174169701 -0.057634502500857901 0 0.43694968168863818 -0.050890898134933443 0 0.42063538174169701 -0.057634502500857901 0 0.41755717616328758 -0.043757372615560737 0 0.44004092671985762 -0.05714704712176237 0 0.42648489766649572 -0.07061374829445663 0 0.43694968168863818 -0.050890898134933443 0 0.42648489766649572 -0.07061374829445663 0 0.43694968168863818 -0.050890898134933443 0 0.41392467613471801 -0.069560491316642561 0 0.42063538174169701 -0.057634502500857901 0 0.40366542742723172 -0.059387927489029768 0 0.42063538174169701 -0.057634502500857901 0 0.41755717616328758 -0.043757372615560737 0 0.40366542742723172 -0.059387927489029768 0 0.40960155083713912 -0.025333510624147671 0 0.43321639670759482 -0.030224516926975691 0 0.41755717616328758 -0.043757372615560737 0 0.40960155083713912 -0.025333510624147671 0 0.41755717616328758 -0.043757372615560737 0 0.39124885777754298 -0.040546420795919559 0 0.41755717616328758 -0.043757372615560737 0 0.39124885777754298 -0.040546420795919559 0 0.40366542742723172 -0.059387927489029768 0 0.39124885777754298 -0.040546420795919559 0 0.40366542742723172 -0.059387927489029768 0 0.38377401975295289 -0.058480097150683003 0 0.39124885777754298 -0.040546420795919559 0 0.38377401975295289 -0.058480097150683003 0 0.37002427397660381 -0.047582728708248777 0 0.39124885777754298 -0.040546420795919559 0 0.36703651842784718 -0.030784735033792959 0 0.37002427397660381 -0.047582728708248777 0 0.39124885777754298 -0.040546420795919559 0 0.38598670496668341 -0.020442504321319659 0 0.36703651842784718 -0.030784735033792959 0 0.40960155083713912 -0.025333510624147671 0 0.38598670496668341 -0.020442504321319659 0 0.40012548213281768 -0.0096506892410577593 0 0.40960155083713912 -0.025333510624147671 0 0.38598670496668341 -0.020442504321319659 0 0.40960155083713912 -0.025333510624147671 0 0.39124885777754298 -0.040546420795919559 0 0.38598670496668341 -0.020442504321319659 0 0.4027220407959507 0.0068609628241748342 0 0.38202126979674728 0.0016257403202125471 0 0.40012548213281768 -0.0096506892410577593 0 0.4027220407959507 0.0068609628241748342 0 0.41586236275646948 -0.0080451436689564296 0 0.40012548213281768 -0.0096506892410577593 0 0.38202126979674728 0.0016257403202125471 0 0.38598670496668341 -0.020442504321319659 0 0.36237185909622771 -0.01555149801849165 0 0.38202126979674728 0.0016257403202125471 0 0.38598670496668341 -0.020442504321319659 0 0.40012548213281768 -0.0096506892410577593 0 0.35962780628892171 0.0029283534002974079 0 0.38202126979674728 0.0016257403202125471 0 0.36237185909622771 -0.01555149801849165 0 0.38598670496668341 -0.020442504321319659 0 0.36237185909622771 -0.01555149801849165 0 0.36703651842784718 -0.030784735033792959 0 0.38598670496668341 -0.020442504321319659 0 0.36237185909622771 -0.01555149801849165 0 0.36237185909622771 -0.01555149801849165 0 0.34720221218489011 -0.02933954601418667 0 0.33875701322577201 -0.010660491715663641 0 0.36237185909622771 -0.01555149801849165 0 0.36703651842784718 -0.030784735033792959 0 0.34720221218489011 -0.02933954601418667 0 0.35962780628892171 0.0029283534002974079 0 0.36237185909622771 -0.01555149801849165 0 0.33875701322577201 -0.010660491715663641 0 0.36237185909622771 -0.01555149801849165 0 0.33875701322577201 -0.010660491715663641 0 0.34169542231774119 0.0081689964314487929 0 0.33875701322577201 -0.010660491715663641 0 0.31668423666249312 -0.0072496132518260273 0 0.34720221218489011 -0.02933954601418667 0 0.33875701322577201 -0.010660491715663641 0 0.33045661019772049 -0.031801588981780128 0 0.33875701322577201 -0.010660491715663641 0 0.31668423666249312 -0.0072496132518260273 0 0.33045661019772049 -0.031801588981780128 0 0.31668423666249312 -0.0072496132518260273 0 0.31276848754004988 -0.033759403380116397 0 0.33045661019772049 -0.031801588981780128 0 0.33729324338623262 -0.047285041055936949 0 0.31770645329974462 -0.069670472774840939 0 0.3191980520368064 -0.049431502413126202 0 0.33729324338623262 -0.047285041055936949 0 0.31770645329974462 -0.069670472774840939 0 0.3191980520368064 -0.049431502413126202 0 0.31276848754004988 -0.033759403380116397 0 0.33045661019772049 -0.031801588981780128 0 0.3191980520368064 -0.049431502413126202 0 0.33045661019772049 -0.031801588981780128 0 0.33729324338623262 -0.047285041055936949 0 0.34720221218489011 -0.02933954601418667 0 0.33045661019772049 -0.031801588981780128 0 0.33729324338623262 -0.047285041055936949 0 0.33729324338623262 -0.047285041055936949 0 0.33694541980099152 -0.062361008659909831 0 0.31770645329974462 -0.069670472774840939 0 0.33729324338623262 -0.047285041055936949 0 0.33694541980099152 -0.062361008659909831 0 0.35246802716580528 -0.055809888992548178 0 0.35246802716580528 -0.055809888992548178 0 0.35469563913384178 -0.042033838062784483 0 0.37002427397660381 -0.047582728708248777 0 0.33729324338623262 -0.047285041055936949 0 0.35246802716580528 -0.055809888992548178 0 0.35469563913384178 -0.042033838062784483 0 0.36703651842784718 -0.030784735033792959 0 0.34720221218489011 -0.02933954601418667 0 0.35469563913384178 -0.042033838062784483 0 0.34720221218489011 -0.02933954601418667 0 0.33729324338623262 -0.047285041055936949 0 0.35469563913384178 -0.042033838062784483 0 0.36703651842784718 -0.030784735033792959 0 0.35469563913384178 -0.042033838062784483 0 0.37002427397660381 -0.047582728708248777 0 0.35246802716580528 -0.055809888992548178 0 0.36864952290635328 -0.06061279701218833 0 0.35969142958967881 -0.069933046084275044 0 0.35246802716580528 -0.055809888992548178 0 0.37002427397660381 -0.047582728708248777 0 0.36864952290635328 -0.06061279701218833 0 0.38377401975295289 -0.058480097150683003 0 0.37002427397660381 -0.047582728708248777 0 0.36864952290635328 -0.06061279701218833 0 0.37564745168350028 -0.07256940500574105 0 0.36864952290635328 -0.06061279701218833 0 0.35969142958967881 -0.069933046084275044 0 0.37564745168350028 -0.07256940500574105 0 0.35969142958967881 -0.069933046084275044 0 0.36231343652170123 -0.081337420547268544 0 0.38255953491292799 -0.094101915475865466 0 0.36551819999824031 -0.09255937664518743 0 0.37564745168350028 -0.07256940500574105 0 0.37416301086466019 -0.084488518593128281 0 0.36231343652170123 -0.081337420547268544 0 0.38255953491292799 -0.094101915475865466 0 0.37416301086466019 -0.084488518593128281 0 0.36551819999824031 -0.09255937664518743 0 0.37416301086466019 -0.084488518593128281 0 0.36551819999824031 -0.09255937664518743 0 0.36231343652170123 -0.081337420547268544 0 0.36551819999824031 -0.09255937664518743 0 0.34847686508355258 -0.091016837814508006 0 0.36231343652170123 -0.081337420547268544 0 0.34847686508355258 -0.091016837814508006 0 0.35099107039217892 -0.079911414393002603 0 0.36551819999824031 -0.09255937664518743 0 0.36231343652170123 -0.081337420547268544 0 0.34847686508355258 -0.091016837814508006 0 0.34847686508355258 -0.091016837814508006 0 0.34124938455875281 -0.086002916041754307 0 0.34847686508355258 -0.091016837814508006 0 0.34205635902839948 -0.09043566973394071 0 0.34124938455875281 -0.086002916041754307 0 0.34847686508355258 -0.091016837814508006 0 0.34205635902839948 -0.09043566973394071 0 0.35099107039217892 -0.079911414393002603 0 0.34826906630148158 -0.07080365483429775 0 0.34124938455875281 -0.086002916041754307 0 0.34847686508355258 -0.091016837814508006 0 0.35099107039217892 -0.079911414393002603 0 0.34124938455875281 -0.086002916041754307 0 0.33694541980099152 -0.062361008659909831 0 0.35246802716580528 -0.055809888992548178 0 0.34826906630148158 -0.07080365483429775 0 0.35246802716580528 -0.055809888992548178 0 0.35969142958967881 -0.069933046084275044 0 0.34826906630148158 -0.07080365483429775 0 0.35969142958967881 -0.069933046084275044 0 0.36231343652170123 -0.081337420547268544 0 0.35099107039217892 -0.079911414393002603 0 0.35969142958967881 -0.069933046084275044 0 0.35099107039217892 -0.079911414393002603 0 0.34826906630148158 -0.07080365483429775 0 0.36505687826152178 -0.1123159032433703 0 0.36728471270507329 -0.10406441039040069 0 0.34695168433892759 -0.1173259520920481 0 0.3637568385380851 -0.12162095742681819 0 0.373297658075465 -0.12312681369454399 0 0.37212277994158272 -0.115950577809429 0 0.3637568385380851 -0.12162095742681819 0 0.373297658075465 -0.12312681369454399 0 0.36827101832246367 -0.12943955730339521 0 0.37805340755955691 -0.1161667966647305 0 0.373297658075465 -0.12312681369454399 0 0.37212277994158272 -0.115950577809429 0 0.37509747467983501 -0.11165342048337849 0 0.37165338025414207 -0.10997616878653051 0 0.37470231875839072 -0.10733920627910511 0 0.37509747467983501 -0.11165342048337849 0 0.37212277994158272 -0.115950577809429 0 0.37165338025414207 -0.10997616878653051 0 0.37212277994158272 -0.115950577809429 0 0.37165338025414207 -0.10997616878653051 0 0.36505687826152178 -0.1123159032433703 0 0.3637568385380851 -0.12162095742681819 0 0.37212277994158272 -0.115950577809429 0 0.36505687826152178 -0.1123159032433703 0 0.36551819999824031 -0.09255937664518743 0 0.34847686508355258 -0.091016837814508006 0 0.36728471270507329 -0.10406441039040069 0 0.38255953491292799 -0.094101915475865466 0 0.36551819999824031 -0.09255937664518743 0 0.36728471270507329 -0.10406441039040069 0 0.38126039708302328 -0.097719849608258108 0 0.37344832723863147 -0.10425286016468061 0 0.36728471270507329 -0.10406441039040069 0 0.37165338025414207 -0.10997616878653051 0 0.37219615891115809 -0.1066524177996877 0 0.36728471270507329 -0.10406441039040069 0 0.37165338025414207 -0.10997616878653051 0 0.36505687826152178 -0.1123159032433703 0 0.36728471270507329 -0.10406441039040069 0 0.37165338025414207 -0.10997616878653051 0 0.37219615891115809 -0.1066524177996877 0 0.37470231875839072 -0.10733920627910511 0 0.37219615891115809 -0.1066524177996877 0 0.37470231875839072 -0.10733920627910511 0 0.37344832723863147 -0.10425286016468061 0 0.37645261806144448 -0.1046905476931399 0 0.37470231875839072 -0.10733920627910511 0 0.37344832723863147 -0.10425286016468061 0 0.37219615891115809 -0.1066524177996877 0 0.37344832723863147 -0.10425286016468061 0 0.36728471270507329 -0.10406441039040069 0 0.38255953491292799 -0.094101915475865466 0 0.36728471270507329 -0.10406441039040069 0 0.34695168433892759 -0.1173259520920481 0 0.34205635902839948 -0.09043566973394071 0 0.34847686508355258 -0.091016837814508006 0 0.36728471270507329 -0.10406441039040069 0 0.34695168433892759 -0.1173259520920481 0 0.34847686508355258 -0.091016837814508006 0 0.36728471270507329 -0.10406441039040069 0 0.34847686508355258 -0.091016837814508006 0 0.34695168433892759 -0.1173259520920481 0 0.34205635902839948 -0.09043566973394071 0 0.36728471270507329 -0.10406441039040069 0 0.34695168433892759 -0.1173259520920481 0 0.3637568385380851 -0.12162095742681819 0 0.36505687826152178 -0.1123159032433703 0 0.34695168433892759 -0.1173259520920481 0 0.3637568385380851 -0.12162095742681819 0 0.34695168433892759 -0.1173259520920481 0 0.36123880290971738 -0.13189295292447481 0 0.34695168433892759 -0.1173259520920481 0 0.32896692945687278 -0.11393423777835231 0 0.33803322593400448 -0.10505880710473001 0 0.34695168433892759 -0.1173259520920481 0 0.32896692945687278 -0.11393423777835231 0 0.32999202081958062 -0.12838732873293521 0 0.34695168433892759 -0.1173259520920481 0 0.32999202081958062 -0.12838732873293521 0 0.34695168433892759 -0.1173259520920481 0 0.33803322593400448 -0.10505880710473001 0 0.34205635902839948 -0.09043566973394071 0 0.32896692945687278 -0.11393423777835231 0 0.33803322593400448 -0.10505880710473001 0 0.32764850269118528 -0.1005058540606034 0 0.33803322593400448 -0.10505880710473001 0 0.3350770729886583 -0.096308201571264573 0 0.34205635902839948 -0.09043566973394071 0 0.33803322593400448 -0.10505880710473001 0 0.3350770729886583 -0.096308201571264573 0 0.32764850269118528 -0.1005058540606034 0 0.3350770729886583 -0.096308201571264573 0 0.32764850269118528 -0.1005058540606034 0 0.32952502069433809 -0.08900182563453686 0 0.3173523238320563 -0.10563062679348791 0 0.31847140282444297 -0.090200087513400209 0 0.30185711268008247 -0.087784432778737306 0 0.32764850269118528 -0.1005058540606034 0 0.3173523238320563 -0.10563062679348791 0 0.31847140282444297 -0.090200087513400209 0 0.32896692945687278 -0.11393423777835231 0 0.32764850269118528 -0.1005058540606034 0 0.3173523238320563 -0.10563062679348791 0 0.32896692945687278 -0.11393423777835231 0 0.3173523238320563 -0.10563062679348791 0 0.31489922947947352 -0.12102179814776221 0 0.32896692945687278 -0.11393423777835231 0 0.31489922947947352 -0.12102179814776221 0 0.32999202081958062 -0.12838732873293521 0 0.33694541980099152 -0.062361008659909831 0 0.34826906630148158 -0.07080365483429775 0 0.34124938455875281 -0.086002916041754307 0 0.34124938455875281 -0.086002916041754307 0 0.31770645329974462 -0.069670472774840939 0 0.33694541980099152 -0.062361008659909831 0 0.34124938455875281 -0.086002916041754307 0 0.31770645329974462 -0.069670472774840939 0 0.33694541980099152 -0.062361008659909831 0 0.34124938455875281 -0.086002916041754307 0 0.34124938455875281 -0.086002916041754307 0 0.32952502069433809 -0.08900182563453686 0 0.31770645329974462 -0.069670472774840939 0 0.34205635902839948 -0.09043566973394071 0 0.34124938455875281 -0.086002916041754307 0 0.33670126864742322 -0.089950940404003005 0 0.34205635902839948 -0.09043566973394071 0 0.34124938455875281 -0.086002916041754307 0 0.3350770729886583 -0.096308201571264573 0 0.34205635902839948 -0.09043566973394071 0 0.33670126864742322 -0.089950940404003005 0 0.34205635902839948 -0.09043566973394071 0 0.33670126864742322 -0.089950940404003005 0 0.34124938455875281 -0.086002916041754307 0 0.33670126864742322 -0.089950940404003005 0 0.32952502069433809 -0.08900182563453686 0 0.3350770729886583 -0.096308201571264573 0 0.33670126864742322 -0.089950940404003005 0 0.32952502069433809 -0.08900182563453686 0 0.32952502069433809 -0.08900182563453686 0 0.31847140282444297 -0.090200087513400209 0 0.31770645329974462 -0.069670472774840939 0 0.31847140282444297 -0.090200087513400209 0 0.31770645329974462 -0.069670472774840939 0 0.30185711268008247 -0.087784432778737306 0 0.32764850269118528 -0.1005058540606034 0 0.32952502069433809 -0.08900182563453686 0 0.31847140282444297 -0.090200087513400209 0 0.31770645329974462 -0.069670472774840939 0 0.29295726589214399 -0.072358724681919673 0 0.29639222651379821 -0.054884149188801169 0 0.31770645329974462 -0.069670472774840939 0 0.30185711268008247 -0.087784432778737306 0 0.29295726589214399 -0.072358724681919673 0 0.31770645329974462 -0.069670472774840939 0 0.30185711268008247 -0.087784432778737306 0 0.30185711268008247 -0.087784432778737306 0 0.28600777206041672 -0.1058983927826305 0 0.27849435808678852 -0.085105162008826896 0 0.30185711268008247 -0.087784432778737306 0 0.29295726589214399 -0.072358724681919673 0 0.27849435808678852 -0.085105162008826896 0 0.29295726589214399 -0.072358724681919673 0 0.27203611010869849 -0.061455828714295363 0 0.29639222651379821 -0.054884149188801169 0 0.3173523238320563 -0.10563062679348791 0 0.31489922947947352 -0.12102179814776221 0 0.30161865180235209 -0.1092022248952248 0 0.31489922947947352 -0.12102179814776221 0 0.30161865180235209 -0.1092022248952248 0 0.29818276728878479 -0.1295246798012267 0 0.3173523238320563 -0.10563062679348791 0 0.30185711268008247 -0.087784432778737306 0 0.30161865180235209 -0.1092022248952248 0 0.30185711268008247 -0.087784432778737306 0 0.28600777206041672 -0.1058983927826305 0 0.30185711268008247 -0.087784432778737306 0 0.30161865180235209 -0.1092022248952248 0 0.28600777206041672 -0.1058983927826305 0 0.30161865180235209 -0.1092022248952248 0 0.28600777206041672 -0.1058983927826305 0 0.28396152622885351 -0.1221006941163241 0 0.30161865180235209 -0.1092022248952248 0 0.28396152622885351 -0.1221006941163241 0 0.29818276728878479 -0.1295246798012267 0 0.28600777206041672 -0.1058983927826305 0 0.28396152622885351 -0.1221006941163241 0 0.27015843144075102 -0.1240123527865236 0 0.28600777206041672 -0.1058983927826305 0 0.27015843144075102 -0.1240123527865236 0 0.26299651267147689 -0.1135322950362638 0 0.28600777206041672 -0.1058983927826305 0 0.27015843144075102 -0.1240123527865236 0 0.28600777206041672 -0.1058983927826305 0 0.26193908655172332 -0.099778616189599004 0 0.27849435808678852 -0.085105162008826896 0 0.28600777206041672 -0.1058983927826305 0 0.26193908655172332 -0.099778616189599004 0 0.26299651267147689 -0.1135322950362638 0 0.26193908655172332 -0.099778616189599004 0 0.26299651267147689 -0.1135322950362638 0 0.24379894379493161 -0.11250487873852059 0 0.26299651267147689 -0.1135322950362638 0 0.25307832950956188 -0.12546723468404561 0 0.24379894379493161 -0.11250487873852059 0 0.27015843144075102 -0.1240123527865236 0 0.26299651267147689 -0.1135322950362638 0 0.25307832950956188 -0.12546723468404561 0 0.29295726589214399 -0.072358724681919673 0 0.27849435808678852 -0.085105162008826896 0 0.27203611010869849 -0.061455828714295363 0 0.27849435808678852 -0.085105162008826896 0 0.25548491960858971 -0.078406524054481799 0 0.27203611010869849 -0.061455828714295363 0 0.26193908655172332 -0.099778616189599004 0 0.27849435808678852 -0.085105162008826896 0 0.25548491960858971 -0.078406524054481799 0 0.26193908655172332 -0.099778616189599004 0 0.25548491960858971 -0.078406524054481799 0 0.24325324569035511 -0.095765154759331339 0 0.25548491960858971 -0.078406524054481799 0 0.27203611010869849 -0.061455828714295363 0 0.2436501633852933 -0.051215294890519659 0 0.27203611010869849 -0.061455828714295363 0 0.26024784800152262 -0.043773306648376947 0 0.2436501633852933 -0.051215294890519659 0 0.27203611010869849 -0.061455828714295363 0 0.27507799972785152 -0.040097825602761893 0 0.29639222651379821 -0.054884149188801169 0 0.27203611010869849 -0.061455828714295363 0 0.27507799972785152 -0.040097825602761893 0 0.26024784800152262 -0.043773306648376947 0 0.27507799972785152 -0.040097825602761893 0 0.25376377294190638 -0.02531150201672052 0 0.27507799972785152 -0.040097825602761893 0 0.26024784800152262 -0.043773306648376947 0 0.25376377294190638 -0.02531150201672052 0 0.26024784800152262 -0.043773306648376947 0 0.25376377294190638 -0.02531150201672052 0 0.2436501633852933 -0.051215294890519659 0 0.25376377294190638 -0.02531150201672052 0 0.25965188822243979 -0.01023038604223391 0 0.27385904215491369 -0.02126935689133588 0 0.25376377294190638 -0.02531150201672052 0 0.25965188822243979 -0.01023038604223391 0 0.25376377294190638 -0.02531150201672052 0 0.25034063533258072 -0.014015239688903461 0 0.25965188822243979 -0.01023038604223391 0 0.25747072455547149 0.00013850891538732049 0 0.25965188822243979 -0.01023038604223391 0 0.2471597475602246 -0.0042098564474911636 0 0.25034063533258072 -0.014015239688903461 0 0.25965188822243979 -0.01023038604223391 0 0.2471597475602246 -0.0042098564474911636 0 0.25747072455547149 0.00013850891538732049 0 0.26554000350297241 0.0048507299322529994 0 0.25965188822243979 -0.01023038604223391 0 0.26554000350297241 0.0048507299322529994 0 0.25965188822243979 -0.01023038604223391 0 0.27265695881179758 -0.0070062756675876373 0 0.27385904215491369 -0.02126935689133588 0 0.28837795124302928 -0.01275588815952596 0 0.28241787866306112 0.0011469095833447421 0 0.27265695881179758 -0.0070062756675876373 0 0.28837795124302928 -0.01275588815952596 0 0.28241787866306112 0.0011469095833447421 0 0.26554000350297241 0.0048507299322529994 0 0.27265695881179758 -0.0070062756675876373 0 0.26554000350297241 0.0048507299322529994 0 0.25965188822243979 -0.01023038604223391 0 0.27265695881179758 -0.0070062756675876373 0 0.25965188822243979 -0.01023038604223391 0 0.27265695881179758 -0.0070062756675876373 0 0.27385904215491369 -0.02126935689133588 0 0.27507799972785152 -0.040097825602761893 0 0.25376377294190638 -0.02531150201672052 0 0.27385904215491369 -0.02126935689133588 0 0.27507799972785152 -0.040097825602761893 0 0.27385904215491369 -0.02126935689133588 0 0.2926890412642722 -0.0312269827762038 0 0.27385904215491369 -0.02126935689133588 0 0.2926890412642722 -0.0312269827762038 0 0.28837795124302928 -0.01275588815952596 0 0.2926890412642722 -0.0312269827762038 0 0.28837795124302928 -0.01275588815952596 0 0.30154011151749138 -0.017089863248152589 0 0.28837795124302928 -0.01275588815952596 0 0.29718084087761248 -0.00045742867309077448 0 0.30154011151749138 -0.017089863248152589 0 0.28241787866306112 0.0011469095833447421 0 0.28837795124302928 -0.01275588815952596 0 0.29718084087761248 -0.00045742867309077448 0 0.31668423666249312 -0.0072496132518260273 0 0.29718084087761248 -0.00045742867309077448 0 0.30154011151749138 -0.017089863248152589 0 0.31276848754004988 -0.033759403380116397 0 0.2926890412642722 -0.0312269827762038 0 0.30154011151749138 -0.017089863248152589 0 0.31668423666249312 -0.0072496132518260273 0 0.31276848754004988 -0.033759403380116397 0 0.30154011151749138 -0.017089863248152589 0 0.3191980520368064 -0.049431502413126202 0 0.31276848754004988 -0.033759403380116397 0 0.29639222651379821 -0.054884149188801169 0 0.31276848754004988 -0.033759403380116397 0 0.2926890412642722 -0.0312269827762038 0 0.29639222651379821 -0.054884149188801169 0 0.3191980520368064 -0.049431502413126202 0 0.31770645329974462 -0.069670472774840939 0 0.29639222651379821 -0.054884149188801169 0 0.31770645329974462 -0.069670472774840939 0 0.29639222651379821 -0.054884149188801169 0 0.27507799972785152 -0.040097825602761893 0 0.29639222651379821 -0.054884149188801169 0 0.27507799972785152 -0.040097825602761893 0 0.2926890412642722 -0.0312269827762038 0 0.29639222651379821 -0.054884149188801169 0 0.28698070121143798 -0.20375661429593711 0 0.29976562433602999 -0.2050419052433832 0 0.29289011447968522 -0.21921528491597139 0 0.28698070121143798 -0.20375661429593711 0 0.29289011447968522 -0.21921528491597139 0 0.27980283043314752 -0.2155018419184212 0 0.28698070121143798 -0.20375661429593711 0 0.29546752435938028 -0.18972277648497751 0 0.28080714686243968 -0.1921341171074642 0 0.28698070121143798 -0.20375661429593711 0 0.29546752435938028 -0.18972277648497751 0 0.29976562433602999 -0.2050419052433832 0 0.29546752435938028 -0.18972277648497751 0 0.31093347988477388 -0.18908206602740751 0 0.29976562433602999 -0.2050419052433832 0 0.31093347988477388 -0.18908206602740751 0 0.29976562433602999 -0.2050419052433832 0 0.31434932866790061 -0.20565177972409859 0 0.29976562433602999 -0.2050419052433832 0 0.30947945285045431 -0.223513338041371 0 0.29289011447968522 -0.21921528491597139 0 0.29976562433602999 -0.2050419052433832 0 0.30947945285045431 -0.223513338041371 0 0.31434932866790061 -0.20565177972409859 0 0.30947945285045431 -0.223513338041371 0 0.30312161690947398 -0.24426095551615151 0 0.29239360153289151 -0.23407783357470729 0 0.30947945285045431 -0.223513338041371 0 0.29289011447968522 -0.21921528491597139 0 0.29239360153289151 -0.23407783357470729 0 0.30312161690947398 -0.24426095551615151 0 0.28694766094943702 -0.24741734539740221 0 0.29239360153289151 -0.23407783357470729 0 0.28199544159005141 -0.2369799897027112 0 0.28694766094943702 -0.24741734539740221 0 0.29239360153289151 -0.23407783357470729 0 0.28199544159005141 -0.2369799897027112 0 0.28694766094943702 -0.24741734539740221 0 0.277943669603888 -0.24478247151693469 0 0.29289011447968522 -0.21921528491597139 0 0.29239360153289151 -0.23407783357470729 0 0.28228777853595932 -0.22766531933837361 0 0.28199544159005141 -0.2369799897027112 0 0.29239360153289151 -0.23407783357470729 0 0.28228777853595932 -0.22766531933837361 0 0.29289011447968522 -0.21921528491597139 0 0.28228777853595932 -0.22766531933837361 0 0.27980283043314752 -0.2155018419184212 0 0.28228777853595932 -0.22766531933837361 0 0.27344900163109248 -0.22331810471598379 0 0.27980283043314752 -0.2155018419184212 0 0.27394188961672378 -0.23474933386987079 0 0.26868981439572581 -0.23959115904570871 0 0.26208422348148769 -0.2219923007541125 0 0.28228777853595932 -0.22766531933837361 0 0.27344900163109248 -0.22331810471598379 0 0.27394188961672378 -0.23474933386987079 0 0.28199544159005141 -0.2369799897027112 0 0.28228777853595932 -0.22766531933837361 0 0.27394188961672378 -0.23474933386987079 0 0.27344900163109248 -0.22331810471598379 0 0.27394188961672378 -0.23474933386987079 0 0.26208422348148769 -0.2219923007541125 0 0.27344900163109248 -0.22331810471598379 0 0.26208422348148769 -0.2219923007541125 0 0.26643024433135709 -0.21193379616113331 0 0.277943669603888 -0.24478247151693469 0 0.26868981439572581 -0.23959115904570871 0 0.2783925133346638 -0.26544144645972678 0 0.28199544159005141 -0.2369799897027112 0 0.277943669603888 -0.24478247151693469 0 0.27394188961672378 -0.23474933386987079 0 0.277943669603888 -0.24478247151693469 0 0.27394188961672378 -0.23474933386987079 0 0.26868981439572581 -0.23959115904570871 0 0.27394188961672378 -0.23474933386987079 0 0.26868981439572581 -0.23959115904570871 0 0.26868981439572581 -0.23959115904570871 0 0.2532056918276841 -0.23460617000945991 0 0.25020103332250959 -0.25663574464360273 0 0.26868981439572581 -0.23959115904570871 0 0.25020103332250959 -0.25663574464360273 0 0.26868981439572581 -0.23959115904570871 0 0.26208422348148769 -0.2219923007541125 0 0.26868981439572581 -0.23959115904570871 0 0.2532056918276841 -0.23460617000945991 0 0.26208422348148769 -0.2219923007541125 0 0.2532056918276841 -0.23460617000945991 0 0.26208422348148769 -0.2219923007541125 0 0.24988521161435959 -0.22065093421590709 0 0.26208422348148769 -0.2219923007541125 0 0.25541340096430232 -0.20421965002648601 0 0.26643024433135709 -0.21193379616113331 0 0.26208422348148769 -0.2219923007541125 0 0.25408186593628368 -0.21011597023667741 0 0.25541340096430232 -0.20421965002648601 0 0.26208422348148769 -0.2219923007541125 0 0.25408186593628368 -0.21011597023667741 0 0.24988521161435959 -0.22065093421590709 0 0.26208422348148769 -0.2219923007541125 0 0.25541340096430232 -0.20421965002648601 0 0.25408186593628368 -0.21011597023667741 0 0.25541340096430232 -0.20421965002648601 0 0.26643024433135709 -0.21193379616113331 0 0.26741692855016641 -0.2006921456233598 0 0.26047067490662962 -0.2027389636914064 0 0.25541340096430232 -0.20421965002648601 0 0.26643024433135709 -0.21193379616113331 0 0.26047067490662962 -0.2027389636914064 0 0.25541340096430232 -0.20421965002648601 0 0.26047067490662962 -0.2027389636914064 0 0.27344900163109248 -0.22331810471598379 0 0.26643024433135709 -0.21193379616113331 0 0.27980283043314752 -0.2155018419184212 0 0.26643024433135709 -0.21193379616113331 0 0.27499922251853848 -0.20282143601551861 0 0.26741692855016641 -0.2006921456233598 0 0.26643024433135709 -0.21193379616113331 0 0.27980283043314752 -0.2155018419184212 0 0.27499922251853848 -0.20282143601551861 0 0.28698070121143798 -0.20375661429593711 0 0.27980283043314752 -0.2155018419184212 0 0.27499922251853848 -0.20282143601551861 0 0.28080714686243968 -0.1921341171074642 0 0.27016049652281621 -0.19222612707559211 0 0.2737093615175602 -0.18188977845200141 0 0.28080714686243968 -0.1921341171074642 0 0.27499922251853848 -0.20282143601551861 0 0.27016049652281621 -0.19222612707559211 0 0.28698070121143798 -0.20375661429593711 0 0.28080714686243968 -0.1921341171074642 0 0.27499922251853848 -0.20282143601551861 0 0.26741692855016641 -0.2006921456233598 0 0.27016049652281621 -0.19222612707559211 0 0.26301312726912562 -0.19592305980789479 0 0.27499922251853848 -0.20282143601551861 0 0.26741692855016641 -0.2006921456233598 0 0.27016049652281621 -0.19222612707559211 0 0.27016049652281621 -0.19222612707559211 0 0.26301312726912562 -0.19592305980789479 0 0.26148819898635101 -0.17977235689140411 0 0.25541340096430232 -0.20421965002648601 0 0.24608664359444801 -0.17937095996933211 0 0.25541340096430232 -0.20421965002648601 0 0.26148819898635101 -0.17977235689140411 0 0.25541340096430232 -0.20421965002648601 0 0.26301312726912562 -0.19592305980789479 0 0.26148819898635101 -0.17977235689140411 0 0.25541340096430232 -0.20421965002648601 0 0.26148819898635101 -0.17977235689140411 0 0.24608664359444801 -0.17937095996933211 0 0.25541340096430232 -0.20421965002648601 0 0.26301312726912562 -0.19592305980789479 0 0.26047067490662962 -0.2027389636914064 0 0.26741692855016641 -0.2006921456233598 0 0.26301312726912562 -0.19592305980789479 0 0.26047067490662962 -0.2027389636914064 0 0.26148819898635101 -0.17977235689140411 0 0.25191964289289609 -0.17371596287125671 0 0.24608664359444801 -0.17937095996933211 0 0.26148819898635101 -0.17977235689140411 0 0.25191964289289609 -0.17371596287125671 0 0.25416550914145403 -0.16506446950883469 0 0.26148819898635101 -0.17977235689140411 0 0.25416550914145403 -0.16506446950883469 0 0.26744706059303941 -0.15535900802509789 0 0.26148819898635101 -0.17977235689140411 0 0.26744706059303941 -0.15535900802509789 0 0.28042170565351421 -0.17145978689495589 0 0.26744706059303941 -0.15535900802509789 0 0.28496100078291131 -0.15862886621777489 0 0.26148819898635101 -0.17977235689140411 0 0.28042170565351421 -0.17145978689495589 0 0.26744706059303941 -0.15535900802509789 0 0.26148819898635101 -0.17977235689140411 0 0.28042170565351421 -0.17145978689495589 0 0.2737093615175602 -0.18188977845200141 0 0.28080714686243968 -0.1921341171074642 0 0.28042170565351421 -0.17145978689495589 0 0.2737093615175602 -0.18188977845200141 0 0.27016049652281621 -0.19222612707559211 0 0.26148819898635101 -0.17977235689140411 0 0.2737093615175602 -0.18188977845200141 0 0.27015843144075102 -0.1240123527865236 0 0.25430909082108533 -0.14212631279041679 0 0.27015843144075102 -0.1240123527865236 0 0.25307832950956188 -0.12546723468404561 0 0.25430909082108533 -0.14212631279041679 0 0.25430909082108533 -0.14212631279041679 0 0.26744706059303941 -0.15535900802509789 0 0.2734059221997277 -0.13094565915879169 0 0.25416550914145403 -0.16506446950883469 0 0.25430909082108533 -0.14212631279041679 0 0.26744706059303941 -0.15535900802509789 0 0.26744706059303941 -0.15535900802509789 0 0.28123231717211988 -0.1460242603680231 0 0.2734059221997277 -0.13094565915879169 0 0.26744706059303941 -0.15535900802509789 0 0.28123231717211988 -0.1460242603680231 0 0.28496100078291131 -0.15862886621777489 0 0.26744706059303941 -0.15535900802509789 0 0.2734059221997277 -0.13094565915879169 0 0.27015843144075102 -0.1240123527865236 0 0.25430909082108533 -0.14212631279041679 0 0.2734059221997277 -0.13094565915879169 0 0.28123231717211988 -0.1460242603680231 0 0.2734059221997277 -0.13094565915879169 0 0.28590535169005238 -0.1355154561906293 0 0.28396152622885351 -0.1221006941163241 0 0.2734059221997277 -0.13094565915879169 0 0.28590535169005238 -0.1355154561906293 0 0.28396152622885351 -0.1221006941163241 0 0.27015843144075102 -0.1240123527865236 0 0.2734059221997277 -0.13094565915879169 0 0.28590535169005238 -0.1355154561906293 0 0.29607269378088691 -0.15051008201470989 0 0.29818276728878479 -0.1295246798012267 0 0.28396152622885351 -0.1221006941163241 0 0.28590535169005238 -0.1355154561906293 0 0.29818276728878479 -0.1295246798012267 0 0.28123231717211988 -0.1460242603680231 0 0.28590535169005238 -0.1355154561906293 0 0.29607269378088691 -0.15051008201470989 0 0.28123231717211988 -0.1460242603680231 0 0.29607269378088691 -0.15051008201470989 0 0.28496100078291131 -0.15862886621777489 0 0.29607269378088691 -0.15051008201470989 0 0.31303235730023371 -0.13944870537382259 0 0.29607269378088691 -0.15051008201470989 0 0.31303235730023371 -0.13944870537382259 0 0.31355560164521112 -0.15588897242913219 0 0.31489922947947352 -0.12102179814776221 0 0.29818276728878479 -0.1295246798012267 0 0.31303235730023371 -0.13944870537382259 0 0.29607269378088691 -0.15051008201470989 0 0.29818276728878479 -0.1295246798012267 0 0.31303235730023371 -0.13944870537382259 0 0.29546752435938028 -0.18972277648497751 0 0.28042170565351421 -0.17145978689495589 0 0.29915112526626808 -0.1708386432639187 0 0.29546752435938028 -0.18972277648497751 0 0.28080714686243968 -0.1921341171074642 0 0.28042170565351421 -0.17145978689495589 0 0.29607269378088691 -0.15051008201470989 0 0.28496100078291131 -0.15862886621777489 0 0.29915112526626808 -0.1708386432639187 0 0.28042170565351421 -0.17145978689495589 0 0.28496100078291131 -0.15862886621777489 0 0.29915112526626808 -0.1708386432639187 0 0.29915112526626808 -0.1708386432639187 0 0.31794505204949791 -0.1720905882575077 0 0.31355560164521112 -0.15588897242913219 0 0.29607269378088691 -0.15051008201470989 0 0.29915112526626808 -0.1708386432639187 0 0.31355560164521112 -0.15588897242913219 0 0.31093347988477388 -0.18908206602740751 0 0.29915112526626808 -0.1708386432639187 0 0.31794505204949791 -0.1720905882575077 0 0.29546752435938028 -0.18972277648497751 0 0.31093347988477388 -0.18908206602740751 0 0.29915112526626808 -0.1708386432639187 0 0.31794505204949791 -0.1720905882575077 0 0.32652220554177541 -0.18277013546536669 0 0.33462373788814193 -0.17150663114554629 0 0.31093347988477388 -0.18908206602740751 0 0.31794505204949791 -0.1720905882575077 0 0.32652220554177541 -0.18277013546536669 0 0.31794505204949791 -0.1720905882575077 0 0.33115388825414999 -0.15732487021147551 0 0.33462373788814193 -0.17150663114554629 0 0.31794505204949791 -0.1720905882575077 0 0.33115388825414999 -0.15732487021147551 0 0.31355560164521112 -0.15588897242913219 0 0.33115388825414999 -0.15732487021147551 0 0.33462373788814193 -0.17150663114554629 0 0.35555369118291708 -0.16457723330594429 0 0.32652220554177541 -0.18277013546536669 0 0.34538957165542461 -0.17863190723652089 0 0.340541206502389 -0.19783113356492679 0 0.32652220554177541 -0.18277013546536669 0 0.33462373788814193 -0.17150663114554629 0 0.34538957165542461 -0.17863190723652089 0 0.31303235730023371 -0.13944870537382259 0 0.32999202081958062 -0.12838732873293521 0 0.31489922947947352 -0.12102179814776221 0 0.31303235730023371 -0.13944870537382259 0 0.32999202081958062 -0.12838732873293521 0 0.31303235730023371 -0.13944870537382259 0 0.32742421246328579 -0.1429825242024424 0 0.32999202081958062 -0.12838732873293521 0 0.33115388825414999 -0.15732487021147551 0 0.31355560164521112 -0.15588897242913219 0 0.32742421246328579 -0.1429825242024424 0 0.31303235730023371 -0.13944870537382259 0 0.31355560164521112 -0.15588897242913219 0 0.32742421246328579 -0.1429825242024424 0 0.33115388825414999 -0.15732487021147551 0 0.32742421246328579 -0.1429825242024424 0 0.35125268776092278 -0.1409515926989961 0 0.34695168433892759 -0.1173259520920481 0 0.32999202081958062 -0.12838732873293521 0 0.35125268776092278 -0.1409515926989961 0 0.32742421246328579 -0.1429825242024424 0 0.32999202081958062 -0.12838732873293521 0 0.35125268776092278 -0.1409515926989961 0 0.34695168433892759 -0.1173259520920481 0 0.35125268776092278 -0.1409515926989961 0 0.34695168433892759 -0.1173259520920481 0 0.35125268776092278 -0.1409515926989961 0 0.36123880290971738 -0.13189295292447481 0 0.35125268776092278 -0.1409515926989961 0 0.36345683912401833 -0.14144334123706931 0 0.36123880290971738 -0.13189295292447481 0 0.33115388825414999 -0.15732487021147551 0 0.35125268776092278 -0.1409515926989961 0 0.35555369118291708 -0.16457723330594429 0 0.35125268776092278 -0.1409515926989961 0 0.36502833343663649 -0.15344717083501361 0 0.35555369118291708 -0.16457723330594429 0 0.35125268776092278 -0.1409515926989961 0 0.35555369118291708 -0.16457723330594429 0 0.37259172920887212 -0.15230386375400601 0 0.37101374087094863 -0.14492872055493619 0 0.38072130034906898 -0.14944592644022181 0 0.36502833343663649 -0.15344717083501361 0 0.37259172920887212 -0.15230386375400601 0 0.37360354217883418 -0.16139363718585231 0 0.36502833343663649 -0.15344717083501361 0 0.37259172920887212 -0.15230386375400601 0 0.37101374087094863 -0.14492872055493619 0 0.37101374087094863 -0.14492872055493619 0 0.36345683912401833 -0.14144334123706931 0 0.36875063064186547 -0.13599626917192609 0 0.36502833343663649 -0.15344717083501361 0 0.37101374087094863 -0.14492872055493619 0 0.36345683912401833 -0.14144334123706931 0 0.35125268776092278 -0.1409515926989961 0 0.36502833343663649 -0.15344717083501361 0 0.36345683912401833 -0.14144334123706931 0 0.36345683912401833 -0.14144334123706931 0 0.36875063064186547 -0.13599626917192609 0 0.36123880290971738 -0.13189295292447481 0 0.37101374087094863 -0.14492872055493619 0 0.37431116144718513 -0.13456079329921261 0 0.36875063064186547 -0.13599626917192609 0 0.37431116144718513 -0.13456079329921261 0 0.36875063064186547 -0.13599626917192609 0 0.36827101832246367 -0.12943955730339521 0 0.373297658075465 -0.12312681369454399 0 0.37431116144718513 -0.13456079329921261 0 0.36827101832246367 -0.12943955730339521 0 0.3637568385380851 -0.12162095742681819 0 0.36827101832246367 -0.12943955730339521 0 0.36123880290971738 -0.13189295292447481 0 0.36875063064186547 -0.13599626917192609 0 0.36827101832246367 -0.12943955730339521 0 0.36123880290971738 -0.13189295292447481 0 0.34538957165542461 -0.17863190723652089 0 0.35555369118291708 -0.16457723330594429 0 0.35985469460491343 -0.188202873912892 0 0.35555369118291708 -0.16457723330594429 0 0.36110726508288499 -0.1812116721751719 0 0.35985469460491343 -0.188202873912892 0 0.35555369118291708 -0.16457723330594429 0 0.35985469460491343 -0.188202873912892 0 0.33462373788814193 -0.17150663114554629 0 0.34538957165542461 -0.17863190723652089 0 0.35555369118291708 -0.16457723330594429 0 0.35555369118291708 -0.16457723330594429 0 0.36696988229361499 -0.16943491042575751 0 0.36110726508288499 -0.1812116721751719 0 0.36502833343663649 -0.15344717083501361 0 0.35555369118291708 -0.16457723330594429 0 0.36696988229361499 -0.16943491042575751 0 0.36502833343663649 -0.15344717083501361 0 0.36696988229361499 -0.16943491042575751 0 0.37360354217883418 -0.16139363718585231 0 0.36696988229361499 -0.16943491042575751 0 0.37360354217883418 -0.16139363718585231 0 0.38045175198209191 -0.1753089648562037 0 0.36696988229361499 -0.16943491042575751 0 0.36914022915468708 -0.1782668720650788 0 0.38045175198209191 -0.1753089648562037 0 0.36696988229361499 -0.16943491042575751 0 0.36914022915468708 -0.1782668720650788 0 0.36110726508288499 -0.1812116721751719 0 0.36914022915468708 -0.1782668720650788 0 0.36110726508288499 -0.1812116721751719 0 0.37042988237468999 -0.18678176003925029 0 0.36110726508288499 -0.1812116721751719 0 0.37042988237468999 -0.18678176003925029 0 0.35985469460491343 -0.188202873912892 0 0.36110726508288499 -0.1812116721751719 0 0.35985469460491343 -0.188202873912892 0 0.36914022915468708 -0.1782668720650788 0 0.37042988237468999 -0.18678176003925029 0 0.38045175198209191 -0.1753089648562037 0 0.35985469460491343 -0.188202873912892 0 0.36368535044011852 -0.20924487020350341 0 0.36818868593030918 -0.19755536646121399 0 0.35985469460491343 -0.188202873912892 0 0.36368535044011852 -0.20924487020350341 0 0.37042988237468999 -0.18678176003925029 0 0.36818868593030918 -0.19755536646121399 0 0.38018220361511479 -0.20117200327218551 0 0.35985469460491343 -0.188202873912892 0 0.36368535044011852 -0.20924487020350341 0 0.35569168099065268 -0.211438666649572 0 0.37042988237468999 -0.18678176003925029 0 0.36818868593030918 -0.19755536646121399 0 0.35985469460491343 -0.188202873912892 0 0.36368535044011852 -0.20924487020350341 0 0.35569168099065268 -0.211438666649572 0 0.36686989381823709 -0.23163629435669389 0 0.3729005424108488 -0.21232990491536261 0 0.36368535044011852 -0.20924487020350341 0 0.3708514544209765 -0.22332066949146159 0 0.36818868593030918 -0.19755536646121399 0 0.3729005424108488 -0.21232990491536261 0 0.36368535044011852 -0.20924487020350341 0 0.36818868593030918 -0.19755536646121399 0 0.3729005424108488 -0.21232990491536261 0 0.38018220361511479 -0.20117200327218551 0 0.35569168099065268 -0.211438666649572 0 0.340541206502389 -0.19783113356492679 0 0.34121497724559802 -0.22083579206385781 0 0.35985469460491343 -0.188202873912892 0 0.35569168099065268 -0.211438666649572 0 0.340541206502389 -0.19783113356492679 0 0.35985469460491343 -0.188202873912892 0 0.35569168099065268 -0.211438666649572 0 0.34538957165542461 -0.17863190723652089 0 0.35985469460491343 -0.188202873912892 0 0.340541206502389 -0.19783113356492679 0 0.32652220554177541 -0.18277013546536669 0 0.340541206502389 -0.19783113356492679 0 0.32470216371685717 -0.1971937828841254 0 0.340541206502389 -0.19783113356492679 0 0.32686592255138752 -0.213427806424206 0 0.32470216371685717 -0.1971937828841254 0 0.340541206502389 -0.19783113356492679 0 0.32686592255138752 -0.213427806424206 0 0.34121497724559802 -0.22083579206385781 0 0.32686592255138752 -0.213427806424206 0 0.31434932866790061 -0.20565177972409859 0 0.32470216371685717 -0.1971937828841254 0 0.30947945285045431 -0.223513338041371 0 0.32686592255138752 -0.213427806424206 0 0.31434932866790061 -0.20565177972409859 0 0.31093347988477388 -0.18908206602740751 0 0.31434932866790061 -0.20565177972409859 0 0.32470216371685717 -0.1971937828841254 0 0.31093347988477388 -0.18908206602740751 0 0.32652220554177541 -0.18277013546536669 0 0.32470216371685717 -0.1971937828841254 0 0.30947945285045431 -0.223513338041371 0 0.30312161690947398 -0.24426095551615151 0 0.32732514214293218 -0.23946770745120211 0 0.32732514214293218 -0.23946770745120211 0 0.31908501265015221 -0.25338082040381199 0 0.33265432383720989 -0.25624671888636802 0 0.30312161690947398 -0.24426095551615151 0 0.32732514214293218 -0.23946770745120211 0 0.31908501265015221 -0.25338082040381199 0 0.30312161690947398 -0.24426095551615151 0 0.32732514214293218 -0.23946770745120211 0 0.30947945285045431 -0.223513338041371 0 0.32686592255138752 -0.213427806424206 0 0.32732514214293218 -0.23946770745120211 0 0.32732514214293218 -0.23946770745120211 0 0.34121497724559802 -0.22083579206385781 0 0.35152866737639032 -0.2346744593862517 0 0.32686592255138752 -0.213427806424206 0 0.32732514214293218 -0.23946770745120211 0 0.34121497724559802 -0.22083579206385781 0 0.32732514214293218 -0.23946770745120211 0 0.34125715901687831 -0.24631295959495231 0 0.35152866737639032 -0.2346744593862517 0 0.32732514214293218 -0.23946770745120211 0 0.34125715901687831 -0.24631295959495231 0 0.33265432383720989 -0.25624671888636802 0 0.32732514214293218 -0.23946770745120211 0 0.35152866737639032 -0.2346744593862517 0 0.34125715901687831 -0.24631295959495231 0 0.35152866737639032 -0.2346744593862517 0 0.34684906049028008 -0.26079360906240417 0 0.35152866737639032 -0.2346744593862517 0 0.34684906049028008 -0.26079360906240417 0 0.35152866737639032 -0.2346744593862517 0 0.36686989381823709 -0.23163629435669389 0 0.35553196568426959 -0.25531594324767681 0 0.35569168099065268 -0.211438666649572 0 0.35152866737639032 -0.2346744593862517 0 0.35569168099065268 -0.211438666649572 0 0.34121497724559802 -0.22083579206385781 0 0.35152866737639032 -0.2346744593862517 0 0.35569168099065268 -0.211438666649572 0 0.35152866737639032 -0.2346744593862517 0 0.36686989381823709 -0.23163629435669389 0 0.35152866737639032 -0.2346744593862517 0 0.36686989381823709 -0.23163629435669389 0 0.36368535044011852 -0.20924487020350341 0 0.36686989381823709 -0.23163629435669389 0 0.36368535044011852 -0.20924487020350341 0 0.36686989381823709 -0.23163629435669389 0 0.3708514544209765 -0.22332066949146159 0 0.36686989381823709 -0.23163629435669389 0 0.3708514544209765 -0.22332066949146159 0 0.36686989381823709 -0.23163629435669389 0 0.37980921503834553 -0.23964752323137639 0 0.37117659030456479 -0.25039464930686101 0 0.36686989381823709 -0.23163629435669389 0 0.37117659030456479 -0.25039464930686101 0 0.36686989381823709 -0.23163629435669389 0 0.35553196568426959 -0.25531594324767681 0 0.37117659030456479 -0.25039464930686101 0 0.36686989381823709 -0.23163629435669389 0 0.35553196568426959 -0.25531594324767681 0 0.37980921503834553 -0.23964752323137639 0 0.3921013834865843 -0.2435934775238256 0 0.39124881869475892 -0.22680831027739959 0 0.38152004530313322 -0.2477560543852661 0 0.37980921503834553 -0.23964752323137639 0 0.37117659030456479 -0.25039464930686101 0 0.38152004530313322 -0.2477560543852661 0 0.3921013834865843 -0.2435934775238256 0 0.38299299238303858 -0.25738856747900152 0 0.38152004530313322 -0.2477560543852661 0 0.37980921503834553 -0.23964752323137639 0 0.3921013834865843 -0.2435934775238256 0 0.3921013834865843 -0.2435934775238256 0 0.40605223581183231 -0.22966153362499239 0 0.4130675015364938 -0.24870822911988991 0 0.3921013834865843 -0.2435934775238256 0 0.4130675015364938 -0.24870822911988991 0 0.39517251135287917 -0.25389175787244839 0 0.3921013834865843 -0.2435934775238256 0 0.39124881869475892 -0.22680831027739959 0 0.40605223581183231 -0.22966153362499239 0 0.39124881869475892 -0.22680831027739959 0 0.40605223581183231 -0.22966153362499239 0 0.40856296121029262 -0.21575568814420651 0 0.36686989381823709 -0.23163629435669389 0 0.37980921503834553 -0.23964752323137639 0 0.39124881869475892 -0.22680831027739959 0 0.36686989381823709 -0.23163629435669389 0 0.3708514544209765 -0.22332066949146159 0 0.39124881869475892 -0.22680831027739959 0 0.36686989381823709 -0.23163629435669389 0 0.39124881869475892 -0.22680831027739959 0 0.3708514544209765 -0.22332066949146159 0 0.39124881869475892 -0.22680831027739959 0 0.38264178249473257 -0.214400962554715 0 0.38264178249473257 -0.214400962554715 0 0.38018220361511479 -0.20117200327218551 0 0.3979375605452799 -0.20548874779687981 0 0.3729005424108488 -0.21232990491536261 0 0.3708514544209765 -0.22332066949146159 0 0.38264178249473257 -0.214400962554715 0 0.39124881869475892 -0.22680831027739959 0 0.38264178249473257 -0.214400962554715 0 0.3979375605452799 -0.20548874779687981 0 0.3729005424108488 -0.21232990491536261 0 0.38264178249473257 -0.214400962554715 0 0.38018220361511479 -0.20117200327218551 0 0.38018220361511479 -0.20117200327218551 0 0.38045175198209191 -0.1753089648562037 0 0.37042988237468999 -0.18678176003925029 0 0.38018220361511479 -0.20117200327218551 0 0.38045175198209191 -0.1753089648562037 0 0.38018220361511479 -0.20117200327218551 0 0.3921799901484726 -0.1904969469876249 0 0.3979375605452799 -0.20548874779687981 0 0.38018220361511479 -0.20117200327218551 0 0.3921799901484726 -0.1904969469876249 0 0.38045175198209191 -0.1753089648562037 0 0.3921799901484726 -0.1904969469876249 0 0.3979375605452799 -0.20548874779687981 0 0.40495478824104281 -0.18076513101769351 0 0.3979375605452799 -0.20548874779687981 0 0.40889269949841323 -0.19239402066931099 0 0.40495478824104281 -0.18076513101769351 0 0.3979375605452799 -0.20548874779687981 0 0.40495478824104281 -0.18076513101769351 0 0.39124881869475892 -0.22680831027739959 0 0.3979375605452799 -0.20548874779687981 0 0.40856296121029262 -0.21575568814420651 0 0.3979375605452799 -0.20548874779687981 0 0.40856296121029262 -0.21575568814420651 0 0.41573507620609002 -0.2008387157375536 0 0.40856296121029262 -0.21575568814420651 0 0.41573507620609002 -0.2008387157375536 0 0.4235225655377271 -0.21069268971482319 0 0.40856296121029262 -0.21575568814420651 0 0.4235225655377271 -0.21069268971482319 0 0.41688151046606747 -0.22104413171359061 0 0.40889269949841323 -0.19239402066931099 0 0.41573507620609002 -0.2008387157375536 0 0.41694337300124018 -0.18248348812511711 0 0.3979375605452799 -0.20548874779687981 0 0.40889269949841323 -0.19239402066931099 0 0.41573507620609002 -0.2008387157375536 0 0.41573507620609002 -0.2008387157375536 0 0.43542579586548552 -0.1970866202458213 0 0.4235225655377271 -0.21069268971482319 0 0.41573507620609002 -0.2008387157375536 0 0.43542579586548552 -0.1970866202458213 0 0.41694337300124018 -0.18248348812511711 0 0.43542579586548552 -0.1970866202458213 0 0.41694337300124018 -0.18248348812511711 0 0.43542579586548552 -0.1970866202458213 0 0.4235225655377271 -0.21069268971482319 0 0.43434097378144582 -0.2147673009259394 0 0.4235225655377271 -0.21069268971482319 0 0.42552241940124258 -0.2216928520576591 0 0.41688151046606747 -0.22104413171359061 0 0.4235225655377271 -0.21069268971482319 0 0.43434097378144582 -0.2147673009259394 0 0.42552241940124258 -0.2216928520576591 0 0.43434097378144582 -0.2147673009259394 0 0.42552241940124258 -0.2216928520576591 0 0.43360683506758729 -0.2315397008727032 0 0.42552241940124258 -0.2216928520576591 0 0.43360683506758729 -0.2315397008727032 0 0.41926021215338499 -0.23042043706123899 0 0.43360683506758729 -0.2315397008727032 0 0.4130675015364938 -0.24870822911988991 0 0.4278885898259821 -0.24726295599035389 0 0.43815741487464072 -0.24158193802760419 0 0.4322519361834638 -0.2578521890481949 0 0.43360683506758729 -0.2315397008727032 0 0.4278885898259821 -0.24726295599035389 0 0.4130675015364938 -0.24870822911988991 0 0.43360683506758729 -0.2315397008727032 0 0.4130675015364938 -0.24870822911988991 0 0.41926021215338499 -0.23042043706123899 0 0.43360683506758729 -0.2315397008727032 0 0.4278885898259821 -0.24726295599035389 0 0.43815741487464072 -0.24158193802760419 0 0.40605223581183231 -0.22966153362499239 0 0.4130675015364938 -0.24870822911988991 0 0.41926021215338499 -0.23042043706123899 0 0.40605223581183231 -0.22966153362499239 0 0.40856296121029262 -0.21575568814420651 0 0.41688151046606747 -0.22104413171359061 0 0.42552241940124258 -0.2216928520576591 0 0.41688151046606747 -0.22104413171359061 0 0.41926021215338499 -0.23042043706123899 0 0.40605223581183231 -0.22966153362499239 0 0.41688151046606747 -0.22104413171359061 0 0.41926021215338499 -0.23042043706123899 0 0.40743141707026292 -0.124186865533741 0 0.40251989831697982 -0.1392946288704677 0 0.39713427764850429 -0.1269178815242378 0 0.40251989831697982 -0.1392946288704677 0 0.39713427764850429 -0.1269178815242378 0 0.38926237880221037 -0.13480426194542741 0 0.40251989831697982 -0.1392946288704677 0 0.38926237880221037 -0.13480426194542741 0 0.39020118482069571 -0.14626476200287869 0 0.39713427764850429 -0.1269178815242378 0 0.3911989989712657 -0.12720080669893649 0 0.38926237880221037 -0.13480426194542741 0 0.39226537828793379 -0.1229714364071476 0 0.39713427764850429 -0.1269178815242378 0 0.3911989989712657 -0.12720080669893649 0 0.38099084871604622 -0.12358288802424 0 0.38613396114641441 -0.1241096469189331 0 0.38079417178443031 -0.14245394665822 0 0.38613396114641441 -0.1241096469189331 0 0.3911989989712657 -0.12720080669893649 0 0.38926237880221037 -0.13480426194542741 0 0.38099084871604622 -0.12358288802424 0 0.37431116144718513 -0.13456079329921261 0 0.38079417178443031 -0.14245394665822 0 0.38613396114641441 -0.1241096469189331 0 0.38926237880221037 -0.13480426194542741 0 0.38079417178443031 -0.14245394665822 0 0.38613396114641441 -0.1241096469189331 0 0.38079417178443031 -0.14245394665822 0 0.38099084871604622 -0.12358288802424 0 0.38079417178443031 -0.14245394665822 0 0.38099084871604622 -0.12358288802424 0 0.373297658075465 -0.12312681369454399 0 0.37431116144718513 -0.13456079329921261 0 0.38926237880221037 -0.13480426194542741 0 0.39020118482069571 -0.14626476200287869 0 0.38079417178443031 -0.14245394665822 0 0.39020118482069571 -0.14626476200287869 0 0.38079417178443031 -0.14245394665822 0 0.38072130034906898 -0.14944592644022181 0 0.37431116144718513 -0.13456079329921261 0 0.38079417178443031 -0.14245394665822 0 0.38072130034906898 -0.14944592644022181 0 0.37101374087094863 -0.14492872055493619 0 0.37431116144718513 -0.13456079329921261 0 0.38072130034906898 -0.14944592644022181 0 0.38079417178443031 -0.14245394665822 0 0.38072130034906898 -0.14944592644022181 0 0.37259172920887212 -0.15230386375400601 0 0.37360354217883418 -0.16139363718585231 0 0.38072130034906898 -0.14944592644022181 0 0.39020118482069571 -0.14626476200287869 0 0.38072130034906898 -0.14944592644022181 0 0.38932355158218512 -0.1585351109065139 0 0.40251989831697982 -0.1392946288704677 0 0.39831418682989628 -0.15380638834660579 0 0.41197201593680571 -0.15604151423850721 0 0.39020118482069571 -0.14626476200287869 0 0.39831418682989628 -0.15380638834660579 0 0.38932355158218512 -0.1585351109065139 0 0.40251989831697982 -0.1392946288704677 0 0.39020118482069571 -0.14626476200287869 0 0.39831418682989628 -0.15380638834660579 0 0.39630438436553078 -0.16680310005865681 0 0.40495478824104281 -0.18076513101769351 0 0.41197201593680571 -0.15604151423850721 0 0.39831418682989628 -0.15380638834660579 0 0.39630438436553078 -0.16680310005865681 0 0.41197201593680571 -0.15604151423850721 0 0.39831418682989628 -0.15380638834660579 0 0.39630438436553078 -0.16680310005865681 0 0.38932355158218512 -0.1585351109065139 0 0.38072130034906898 -0.14944592644022181 0 0.38045175198209191 -0.1753089648562037 0 0.37360354217883418 -0.16139363718585231 0 0.38072130034906898 -0.14944592644022181 0 0.38045175198209191 -0.1753089648562037 0 0.38072130034906898 -0.14944592644022181 0 0.38932355158218512 -0.1585351109065139 0 0.38045175198209191 -0.1753089648562037 0 0.39630438436553078 -0.16680310005865681 0 0.38932355158218512 -0.1585351109065139 0 0.38045175198209191 -0.1753089648562037 0 0.39630438436553078 -0.16680310005865681 0 0.38045175198209191 -0.1753089648562037 0 0.39331141536561659 -0.17799310713252381 0 0.3921799901484726 -0.1904969469876249 0 0.38045175198209191 -0.1753089648562037 0 0.39331141536561659 -0.17799310713252381 0 0.3921799901484726 -0.1904969469876249 0 0.39331141536561659 -0.17799310713252381 0 0.40495478824104281 -0.18076513101769351 0 0.39630438436553078 -0.16680310005865681 0 0.39331141536561659 -0.17799310713252381 0 0.40495478824104281 -0.18076513101769351 0 0.40495478824104281 -0.18076513101769351 0 0.41694337300124018 -0.18248348812511711 0 0.41197201593680571 -0.15604151423850721 0 0.40889269949841323 -0.19239402066931099 0 0.40495478824104281 -0.18076513101769351 0 0.41694337300124018 -0.18248348812511711 0 0.41694337300124018 -0.18248348812511711 0 0.43239047874415681 -0.18172421289349161 0 0.43090699031146079 -0.1661698681037394 0 0.43542579586548552 -0.1970866202458213 0 0.41694337300124018 -0.18248348812511711 0 0.43239047874415681 -0.18172421289349161 0 0.43239047874415681 -0.18172421289349161 0 0.43090699031146079 -0.1661698681037394 0 0.44628575579844088 -0.18115687509928891 0 0.41694337300124018 -0.18248348812511711 0 0.43090699031146079 -0.1661698681037394 0 0.41197201593680571 -0.15604151423850721 0 0.40495478824104281 -0.18076513101769351 0 0.41197201593680571 -0.15604151423850721 0 0.41197201593680571 -0.15604151423850721 0 0.41898924363256862 -0.1313178974593209 0 0.40251989831697982 -0.1392946288704677 0 0.41197201593680571 -0.15604151423850721 0 0.41898924363256862 -0.1313178974593209 0 0.43090699031146079 -0.1661698681037394 0 0.41197201593680571 -0.15604151423850721 0 0.43889304721932848 -0.1417487713121669 0 0.41197201593680571 -0.15604151423850721 0 0.41898924363256862 -0.1313178974593209 0 0.43889304721932848 -0.1417487713121669 0 0.43336998754557932 -0.12159295788546159 0 0.41898924363256862 -0.1313178974593209 0 0.43889304721932848 -0.1417487713121669 0 0.40743141707026292 -0.124186865533741 0 0.40251989831697982 -0.1392946288704677 0 0.41898924363256862 -0.1313178974593209 0 0.43090699031146079 -0.1661698681037394 0 0.43889304721932848 -0.1417487713121669 0 0.46232377108639988 -0.15957809702784731 0 0.44908014038134858 -0.11934201350247341 0 0.46063053461824499 -0.13148793758122421 0 0.43889304721932848 -0.1417487713121669 0 0.44908014038134858 -0.11934201350247341 0 0.43336998754557932 -0.12159295788546159 0 0.43889304721932848 -0.1417487713121669 0 0.46063053461824499 -0.13148793758122421 0 0.46232377108639988 -0.15957809702784731 0 0.478361786374359 -0.1379993189564056 0 0.46063053461824499 -0.13148793758122421 0 0.43889304721932848 -0.1417487713121669 0 0.46232377108639988 -0.15957809702784731 0 0.43090699031146079 -0.1661698681037394 0 0.46232377108639988 -0.15957809702784731 0 0.44628575579844088 -0.18115687509928891 0 0.46232377108639988 -0.15957809702784731 0 0.44628575579844088 -0.18115687509928891 0 0.46773990501541679 -0.173431966344088 0 0.46232377108639988 -0.15957809702784731 0 0.44628575579844088 -0.18115687509928891 0 0.43542579586548552 -0.1970866202458213 0 0.43239047874415681 -0.18172421289349161 0 0.44628575579844088 -0.18115687509928891 0 0.44628575579844088 -0.18115687509928891 0 0.45947881584769928 -0.1844539856022053 0 0.45585314814830108 -0.1940869479227581 0 0.44628575579844088 -0.18115687509928891 0 0.46773990501541679 -0.173431966344088 0 0.45947881584769928 -0.1844539856022053 0 0.46773990501541679 -0.173431966344088 0 0.45947881584769928 -0.1844539856022053 0 0.46803645442863878 -0.1891401530426863 0 0.46773990501541679 -0.173431966344088 0 0.48166437682706359 -0.18714999718388031 0 0.46803645442863878 -0.1891401530426863 0 0.46773990501541679 -0.173431966344088 0 0.48166437682706359 -0.18714999718388031 0 0.48613458826106198 -0.1740068535650634 0 0.48166437682706359 -0.18714999718388031 0 0.48613458826106198 -0.1740068535650634 0 0.5 -0.19050062270313259 0 0.48613458826106198 -0.1740068535650634 0 0.5 -0.16169728793602081 0 0.5 -0.19050062270313259 0 0.48613458826106198 -0.1740068535650634 0 0.5 -0.16169728793602081 0 0.48133444889726679 -0.15695805722928521 0 0.46773990501541679 -0.173431966344088 0 0.48613458826106198 -0.1740068535650634 0 0.48133444889726679 -0.15695805722928521 0 0.46232377108639988 -0.15957809702784731 0 0.46773990501541679 -0.173431966344088 0 0.48133444889726679 -0.15695805722928521 0 0.46232377108639988 -0.15957809702784731 0 0.48133444889726679 -0.15695805722928521 0 0.478361786374359 -0.1379993189564056 0 0.46232377108639988 -0.15957809702784731 0 0.478361786374359 -0.1379993189564056 0 0.5 -0.16169728793602081 0 0.48133444889726679 -0.15695805722928521 0 0.49999999999999989 -0.13289395316890901 0 0.48133444889726679 -0.15695805722928521 0 0.49999999999999989 -0.13289395316890901 0 0.478361786374359 -0.1379993189564056 0 0.49439980166231801 -0.1164205408849641 0 0.49999999999999989 -0.13289395316890901 0 0.478361786374359 -0.1379993189564056 0 0.49439980166231801 -0.1164205408849641 0 0.478361786374359 -0.1379993189564056 0 0.47653335145070691 -0.12429085624092211 0 0.46063053461824499 -0.13148793758122421 0 0.478361786374359 -0.1379993189564056 0 0.47653335145070691 -0.12429085624092211 0 0.49439980166231801 -0.1164205408849641 0 0.478361786374359 -0.1379993189564056 0 0.46281163583790708 -0.22691896218864041 0 0.4564911679213226 -0.240796607187341 0 0.45414616859868162 -0.2143711726255173 0 0.45567963861005478 -0.2130893674896952 0 0.47764726812411079 -0.23044619340633549 0 0.4564911679213226 -0.240796607187341 0 0.45414616859868162 -0.2143711726255173 0 0.46281163583790708 -0.22691896218864041 0 0.45567963861005478 -0.2130893674896952 0 0.47764726812411079 -0.23044619340633549 0 0.46281163583790708 -0.22691896218864041 0 0.4564911679213226 -0.240796607187341 0 0.47002471050903671 -0.24237038266498889 0 0.4564911679213226 -0.240796607187341 0 0.47002471050903671 -0.24237038266498889 0 0.46694279794435539 -0.2539684151340395 0 0.4564911679213226 -0.240796607187341 0 0.43815741487464072 -0.24158193802760419 0 0.44184276068704542 -0.23385979296494749 0 0.4564911679213226 -0.240796607187341 0 0.43815741487464072 -0.24158193802760419 0 0.44775248982484872 -0.2511856764295034 0 0.43360683506758729 -0.2315397008727032 0 0.43815741487464072 -0.24158193802760419 0 0.44184276068704542 -0.23385979296494749 0 0.43360683506758729 -0.2315397008727032 0 0.45414616859868162 -0.2143711726255173 0 0.43360683506758729 -0.2315397008727032 0 0.44826832874911482 -0.2282095387047009 0 0.45414616859868162 -0.2143711726255173 0 0.43360683506758729 -0.2315397008727032 0 0.44184276068704542 -0.23385979296494749 0 0.44826832874911482 -0.2282095387047009 0 0.4564911679213226 -0.240796607187341 0 0.44826832874911482 -0.2282095387047009 0 0.45414616859868162 -0.2143711726255173 0 0.43360683506758729 -0.2315397008727032 0 0.44549303039537319 -0.2137877861660443 0 0.45414616859868162 -0.2143711726255173 0 0.43434097378144582 -0.2147673009259394 0 0.43360683506758729 -0.2315397008727032 0 0.44549303039537319 -0.2137877861660443 0 0.4564911679213226 -0.240796607187341 0 0.44184276068704542 -0.23385979296494749 0 0.44826832874911482 -0.2282095387047009 0 0.43542579586548552 -0.1970866202458213 0 0.45390821872973042 -0.2116897523665261 0 0.43542579586548552 -0.1970866202458213 0 0.44549303039537319 -0.2137877861660443 0 0.45390821872973042 -0.2116897523665261 0 0.43542579586548552 -0.1970866202458213 0 0.45390821872973042 -0.2116897523665261 0 0.45323528539930841 -0.20351332795013041 0 0.43542579586548552 -0.1970866202458213 0 0.43434097378144582 -0.2147673009259394 0 0.44549303039537319 -0.2137877861660443 0 0.44549303039537319 -0.2137877861660443 0 0.45414616859868162 -0.2143711726255173 0 0.45390821872973042 -0.2116897523665261 0 0.43542579586548552 -0.1970866202458213 0 0.45585314814830108 -0.1940869479227581 0 0.45323528539930841 -0.20351332795013041 0 0.43542579586548552 -0.1970866202458213 0 0.44628575579844088 -0.18115687509928891 0 0.45585314814830108 -0.1940869479227581 0 0.45585314814830108 -0.1940869479227581 0 0.45323528539930841 -0.20351332795013041 0 0.46157585999248929 -0.2037192833380245 0 0.45585314814830108 -0.1940869479227581 0 0.46672709550996938 -0.1991562341445309 0 0.46157585999248929 -0.2037192833380245 0 0.45585314814830108 -0.1940869479227581 0 0.46672709550996938 -0.1991562341445309 0 0.46803645442863878 -0.1891401530426863 0 0.45947881584769928 -0.1844539856022053 0 0.45585314814830108 -0.1940869479227581 0 0.46803645442863878 -0.1891401530426863 0 0.45567963861005478 -0.2130893674896952 0 0.46857109200588309 -0.21003957961084771 0 0.47764726812411079 -0.23044619340633549 0 0.46281163583790708 -0.22691896218864041 0 0.45414616859868162 -0.2143711726255173 0 0.45567963861005478 -0.2130893674896952 0 0.45567963861005478 -0.2130893674896952 0 0.4567213287931367 -0.21033112049055211 0 0.45962060514399322 -0.20979517125120981 0 0.45567963861005478 -0.2130893674896952 0 0.45962060514399322 -0.20979517125120981 0 0.45414616859868162 -0.2143711726255173 0 0.45390821872973042 -0.2116897523665261 0 0.45414616859868162 -0.2143711726255173 0 0.45567963861005478 -0.2130893674896952 0 0.45390821872973042 -0.2116897523665261 0 0.45414616859868162 -0.2143711726255173 0 0.45567963861005478 -0.2130893674896952 0 0.45567963861005478 -0.2130893674896952 0 0.45390821872973042 -0.2116897523665261 0 0.4567213287931367 -0.21033112049055211 0 0.45567963861005478 -0.2130893674896952 0 0.45390821872973042 -0.2116897523665261 0 0.45390821872973042 -0.2116897523665261 0 0.45532241445919369 -0.20840586880977471 0 0.45323528539930841 -0.20351332795013041 0 0.45323528539930841 -0.20351332795013041 0 0.45761361027031139 -0.2065356203847816 0 0.46157585999248929 -0.2037192833380245 0 0.45532241445919369 -0.20840586880977471 0 0.4567213287931367 -0.21033112049055211 0 0.45761361027031139 -0.2065356203847816 0 0.45390821872973042 -0.2116897523665261 0 0.45532241445919369 -0.20840586880977471 0 0.4567213287931367 -0.21033112049055211 0 0.45532241445919369 -0.20840586880977471 0 0.45323528539930841 -0.20351332795013041 0 0.45761361027031139 -0.2065356203847816 0 0.45761361027031139 -0.2065356203847816 0 0.45962060514399322 -0.20979517125120981 0 0.46157585999248929 -0.2037192833380245 0 0.4567213287931367 -0.21033112049055211 0 0.45761361027031139 -0.2065356203847816 0 0.45962060514399322 -0.20979517125120981 0 0.46672709550996938 -0.1991562341445309 0 0.46857109200588309 -0.21003957961084771 0 0.46157585999248929 -0.2037192833380245 0 0.45962060514399322 -0.20979517125120981 0 0.46857109200588309 -0.21003957961084771 0 0.46157585999248929 -0.2037192833380245 0 0.45567963861005478 -0.2130893674896952 0 0.45962060514399322 -0.20979517125120981 0 0.46857109200588309 -0.21003957961084771 0 0.46857109200588309 -0.21003957961084771 0 0.48103312429368372 -0.21401638129576039 0 0.47764726812411079 -0.23044619340633549 0 0.46857109200588309 -0.21003957961084771 0 0.48103312429368372 -0.21401638129576039 0 0.47771405236688019 -0.20005442635037801 0 0.48103312429368372 -0.21401638129576039 0 0.47771405236688019 -0.20005442635037801 0 0.48680356205507969 -0.20630323543328641 0 0.48166437682706359 -0.18714999718388031 0 0.46803645442863878 -0.1891401530426863 0 0.47771405236688019 -0.20005442635037801 0 0.46672709550996938 -0.1991562341445309 0 0.46803645442863878 -0.1891401530426863 0 0.47771405236688019 -0.20005442635037801 0 0.46672709550996938 -0.1991562341445309 0 0.46857109200588309 -0.21003957961084771 0 0.47771405236688019 -0.20005442635037801 0 0.48166437682706359 -0.18714999718388031 0 0.47771405236688019 -0.20005442635037801 0 0.49036126089038379 -0.19576596109793379 0 0.5 -0.19050062270313259 0 0.49036126089038379 -0.19576596109793379 0 0.5 -0.2193039574702447 0 0.48166437682706359 -0.18714999718388031 0 0.5 -0.19050062270313259 0 0.49036126089038379 -0.19576596109793379 0 0.47771405236688019 -0.20005442635037801 0 0.49036126089038379 -0.19576596109793379 0 0.48680356205507969 -0.20630323543328641 0 0.49036126089038379 -0.19576596109793379 0 0.49498807926427602 -0.2217844902104544 0 0.5 -0.2193039574702447 0 0.49036126089038379 -0.19576596109793379 0 0.48680356205507969 -0.20630323543328641 0 0.49498807926427602 -0.2217844902104544 0 0.49036126089038379 -0.19576596109793379 0 0.49498807926427602 -0.2217844902104544 0 0.48103312429368372 -0.21401638129576039 0 0.48709259895370949 -0.21666845260646639 0 0.48680356205507969 -0.20630323543328641 0 0.48709259895370949 -0.21666845260646639 0 0.48680356205507969 -0.20630323543328641 0 0.49498807926427602 -0.2217844902104544 0 0.48103312429368372 -0.21401638129576039 0 0.48709259895370949 -0.21666845260646639 0 0.48623621217446761 -0.22291908768660701 0 0.49498807926427602 -0.2217844902104544 0 0.5 -0.2193039574702447 0 0.49961489763816719 -0.24780301932297541 0 0.49498807926427602 -0.2217844902104544 0 0.4890860791603921 -0.22769642440953239 0 0.49312863704430859 -0.23454430248677829 0 0.4890860791603921 -0.22769642440953239 0 0.47764726812411079 -0.23044619340633549 0 0.49312863704430859 -0.23454430248677829 0 0.48709259895370949 -0.21666845260646639 0 0.49498807926427602 -0.2217844902104544 0 0.48623621217446761 -0.22291908768660701 0 0.49498807926427602 -0.2217844902104544 0 0.4890860791603921 -0.22769642440953239 0 0.48623621217446761 -0.22291908768660701 0 0.48103312429368372 -0.21401638129576039 0 0.48623621217446761 -0.22291908768660701 0 0.47764726812411079 -0.23044619340633549 0 0.4890860791603921 -0.22769642440953239 0 0.48623621217446761 -0.22291908768660701 0 0.47764726812411079 -0.23044619340633549 0 0.46281163583790708 -0.22691896218864041 0 0.47764726812411079 -0.23044619340633549 0 0.47002471050903671 -0.24237038266498889 0 0.47002471050903671 -0.24237038266498889 0 0.48219468396025811 -0.24422840326976489 0 0.47728713212786977 -0.25368376242546642 0 0.47764726812411079 -0.23044619340633549 0 0.47002471050903671 -0.24237038266498889 0 0.48219468396025811 -0.24422840326976489 0 0.48219468396025811 -0.24422840326976489 0 0.4888458391900205 -0.25083509407788712 0 0.47728713212786977 -0.25368376242546642 0 0.49498807926427602 -0.2217844902104544 0 0.49961489763816719 -0.24780301932297541 0 0.47764726812411079 -0.23044619340633549 0 0.49961489763816719 -0.24780301932297541 0 0.47764726812411079 -0.23044619340633549 0 0.49312863704430859 -0.23454430248677829 0 0.49961489763816719 -0.24780301932297541 0 0.47764726812411079 -0.23044619340633549 0 0.48219468396025811 -0.24422840326976489 0 0.49961489763816719 -0.24780301932297541 0 0.49498807926427602 -0.2217844902104544 0 0.49312863704430859 -0.23454430248677829 0 0.49961489763816719 -0.24780301932297541 0 0.48219468396025811 -0.24422840326976489 0 0.49961489763816719 -0.24780301932297541 0 0.4888458391900205 -0.25083509407788712 0 0.4999999999999995 -0.2499686104923049 0 0.49961489763816719 -0.24780301932297541 0 0.4888458391900205 -0.25083509407788712 0 0.4999999999999995 -0.2499686104923049 0 0.48605759668809922 -0.26225579851558189 0 0.5 -0.27503032629580249 0 0.4999999999999995 -0.2499686104923049 0 0.48605759668809922 -0.26225579851558189 0 0.4888458391900205 -0.25083509407788712 0 0.48605759668809922 -0.26225579851558189 0 0.5 -0.27503032629580249 0 0.47795443918311642 -0.27884224694717052 0 0.5 -0.27503032629580249 0 0.47795443918311642 -0.27884224694717052 0 0.48780457410942818 -0.28967366485625778 0 0.48605759668809922 -0.26225579851558189 0 0.47795443918311642 -0.27884224694717052 0 0.47207481191958628 -0.26576928164323599 0 0.47795443918311642 -0.27884224694717052 0 0.47207481191958628 -0.26576928164323599 0 0.468753970707384 -0.27930518966332768 0 0.48605759668809922 -0.26225579851558189 0 0.4888458391900205 -0.25083509407788712 0 0.47728713212786977 -0.25368376242546642 0 0.48605759668809922 -0.26225579851558189 0 0.47207481191958628 -0.26576928164323599 0 0.47728713212786977 -0.25368376242546642 0 0.47207481191958628 -0.26576928164323599 0 0.47728713212786977 -0.25368376242546642 0 0.46694279794435539 -0.2539684151340395 0 0.47002471050903671 -0.24237038266498889 0 0.47728713212786977 -0.25368376242546642 0 0.46694279794435539 -0.2539684151340395 0 0.4564911679213226 -0.240796607187341 0 0.46694279794435539 -0.2539684151340395 0 0.45883616724396148 -0.26722204174916497 0 0.4564911679213226 -0.240796607187341 0 0.45883616724396148 -0.26722204174916497 0 0.44775248982484872 -0.2511856764295034 0 0.4564911679213226 -0.240796607187341 0 0.45883616724396148 -0.26722204174916497 0 0.47207481191958628 -0.26576928164323599 0 0.46694279794435539 -0.2539684151340395 0 0.45883616724396148 -0.26722204174916497 0 0.47207481191958628 -0.26576928164323599 0 0.468753970707384 -0.27930518966332768 0 0.45883616724396148 -0.26722204174916497 0 0.45883616724396148 -0.26722204174916497 0 0.46118116656660052 -0.29364747631098892 0 0.468753970707384 -0.27930518966332768 0 0.45883616724396148 -0.26722204174916497 0 0.46118116656660052 -0.29364747631098892 0 0.45883616724396148 -0.26722204174916497 0 0.44585009785836488 -0.26462733404298611 0 0.45354278084208921 -0.28767273005836802 0 0.44221769315977211 -0.28028661850394609 0 0.44585009785836488 -0.26462733404298611 0 0.43457846682035628 -0.2713805204311176 0 0.44221769315977211 -0.28028661850394609 0 0.44585009785836488 -0.26462733404298611 0 0.45354278084208921 -0.28767273005836802 0 0.44585009785836488 -0.26462733404298611 0 0.45354278084208921 -0.28767273005836802 0 0.44585009785836488 -0.26462733404298611 0 0.4322519361834638 -0.2578521890481949 0 0.43457846682035628 -0.2713805204311176 0 0.43815741487464072 -0.24158193802760419 0 0.44585009785836488 -0.26462733404298611 0 0.4322519361834638 -0.2578521890481949 0 0.43815741487464072 -0.24158193802760419 0 0.44775248982484872 -0.2511856764295034 0 0.44585009785836488 -0.26462733404298611 0 0.43815741487464072 -0.24158193802760419 0 0.44585009785836488 -0.26462733404298611 0 0.45883616724396148 -0.26722204174916497 0 0.44775248982484872 -0.2511856764295034 0 0.44585009785836488 -0.26462733404298611 0 0.44952440268042537 -0.30189842691133822 0 0.44869928380749141 -0.31245050840384991 0 0.43990124598866992 -0.30586322985545189 0 0.44869928380749141 -0.31245050840384991 0 0.43990124598866992 -0.30586322985545189 0 0.44027899407070548 -0.3175141007846235 0 0.44952440268042537 -0.30189842691133822 0 0.43990124598866992 -0.30586322985545189 0 0.44284550477265372 -0.29315780077006559 0 0.44221769315977211 -0.28028661850394609 0 0.44284550477265372 -0.29315780077006559 0 0.43331704786469422 -0.28582798324360481 0 0.44221769315977211 -0.28028661850394609 0 0.44284550477265372 -0.29315780077006559 0 0.45354278084208921 -0.28767273005836802 0 0.44952440268042537 -0.30189842691133822 0 0.44284550477265372 -0.29315780077006559 0 0.45354278084208921 -0.28767273005836802 0 0.45883616724396148 -0.26722204174916497 0 0.45354278084208921 -0.28767273005836802 0 0.46118116656660052 -0.29364747631098892 0 0.468753970707384 -0.27930518966332768 0 0.46118116656660052 -0.29364747631098892 0 0.47372326862365488 -0.29104490166607788 0 0.46118116656660052 -0.29364747631098892 0 0.47076747220022819 -0.30343874750190131 0 0.47372326862365488 -0.29104490166607788 0 0.44952440268042537 -0.30189842691133822 0 0.45354278084208921 -0.28767273005836802 0 0.46123546382581349 -0.31071812607374988 0 0.45354278084208921 -0.28767273005836802 0 0.46118116656660052 -0.29364747631098892 0 0.46123546382581349 -0.31071812607374988 0 0.46118116656660052 -0.29364747631098892 0 0.46123546382581349 -0.31071812607374988 0 0.47076747220022819 -0.30343874750190131 0 0.45354278084208921 -0.28767273005836802 0 0.46123546382581349 -0.31071812607374988 0 0.44952440268042537 -0.30189842691133822 0 0.44869928380749141 -0.31245050840384991 0 0.46123546382581349 -0.31071812607374988 0 0.47076747220022819 -0.30343874750190131 0 0.48205354242015802 -0.30400040392779232 0 0.4756439195649142 -0.31778282953089743 0 0.46123546382581349 -0.31071812607374988 0 0.47076747220022819 -0.30343874750190131 0 0.4756439195649142 -0.31778282953089743 0 0.47076747220022819 -0.30343874750190131 0 0.48205354242015802 -0.30400040392779232 0 0.47372326862365488 -0.29104490166607788 0 0.47795443918311642 -0.27884224694717052 0 0.468753970707384 -0.27930518966332768 0 0.47372326862365488 -0.29104490166607788 0 0.48205354242015802 -0.30400040392779232 0 0.47372326862365488 -0.29104490166607788 0 0.48780457410942818 -0.28967366485625778 0 0.47795443918311642 -0.27884224694717052 0 0.47372326862365488 -0.29104490166607788 0 0.48780457410942818 -0.28967366485625778 0 0.5 -0.27503032629580249 0 0.48780457410942818 -0.28967366485625778 0 0.50000000000000067 -0.30009204209930002 0 0.48205354242015802 -0.30400040392779232 0 0.50000000000000067 -0.30009204209930002 0 0.49291456260414651 -0.32091647519784078 0 0.50000000000000067 -0.30009204209930002 0 0.49291456260414651 -0.32091647519784078 0 0.48205354242015802 -0.30400040392779232 0 0.48780457410942818 -0.28967366485625778 0 0.50000000000000067 -0.30009204209930002 0 0.48205354242015802 -0.30400040392779232 0 0.49074860023622963 -0.3272823402679399 0 0.49291456260414651 -0.32091647519784078 0 0.50000000000000067 -0.30009204209930002 0 0.5 -0.3272621936933835 0 0.49291456260414651 -0.32091647519784078 0 0.49074860023622963 -0.3272823402679399 0 0.49291456260414651 -0.32091647519784078 0 0.5 -0.3272621936933835 0 0.49291456260414651 -0.32091647519784078 0 0.495513532305279 -0.34122584097677661 0 0.49074860023622963 -0.3272823402679399 0 0.49291456260414651 -0.32091647519784078 0 0.495513532305279 -0.34122584097677661 0 0.5 -0.3272621936933835 0 0.495513532305279 -0.34122584097677661 0 0.5 -0.35443234528746681 0 0.49074860023622963 -0.3272823402679399 0 0.495513532305279 -0.34122584097677661 0 0.48149720047245897 -0.35447263843658022 0 0.49074860023622963 -0.3272823402679399 0 0.48149720047245897 -0.35447263843658022 0 0.49291456260414651 -0.32091647519784078 0 0.495513532305279 -0.34122584097677661 0 0.49074860023622963 -0.3272823402679399 0 0.46892814680953782 -0.33376352208913179 0 0.48149720047245897 -0.35447263843658022 0 0.49074860023622963 -0.3272823402679399 0 0.46892814680953782 -0.33376352208913179 0 0.4756439195649142 -0.31778282953089743 0 0.48205354242015802 -0.30400040392779232 0 0.49074860023622963 -0.3272823402679399 0 0.4756439195649142 -0.31778282953089743 0 0.49775676615263942 -0.36141416892916328 0 0.49999999999999989 -0.38160249688155012 0 0.49109237685982809 -0.3705379094156947 0 0.49775676615263942 -0.36141416892916328 0 0.49999999999999989 -0.38160249688155012 0 0.49775676615263942 -0.36141416892916328 0 0.5 -0.35443234528746681 0 0.49999999999999989 -0.38160249688155012 0 0.48448892520123832 -0.36997858719444782 0 0.49109237685982809 -0.3705379094156947 0 0.48450849960130332 -0.38164315905203411 0 0.49109237685982809 -0.3705379094156947 0 0.49775676615263942 -0.36141416892916328 0 0.48901952712811347 -0.35812935788710337 0 0.48448892520123832 -0.36997858719444782 0 0.49109237685982809 -0.3705379094156947 0 0.48901952712811347 -0.35812935788710337 0 0.48448892520123832 -0.36997858719444782 0 0.48901952712811347 -0.35812935788710337 0 0.48149720047245897 -0.35447263843658022 0 0.495513532305279 -0.34122584097677661 0 0.49775676615263942 -0.36141416892916328 0 0.5 -0.35443234528746681 0 0.495513532305279 -0.34122584097677661 0 0.48901952712811347 -0.35812935788710337 0 0.48149720047245897 -0.35447263843658022 0 0.495513532305279 -0.34122584097677661 0 0.49775676615263942 -0.36141416892916328 0 0.48901952712811347 -0.35812935788710337 0 0.495513532305279 -0.34122584097677661 0 0.49775676615263942 -0.36141416892916328 0 0.46892814680953782 -0.33376352208913179 0 0.48149720047245897 -0.35447263843658022 0 0.46476421725194811 -0.35406090527130379 0 0.48448892520123832 -0.36997858719444782 0 0.48149720047245897 -0.35447263843658022 0 0.4726611348686709 -0.38044225001313919 0 0.48149720047245897 -0.35447263843658022 0 0.4726611348686709 -0.38044225001313919 0 0.46051322931189032 -0.37517803279947659 0 0.48149720047245897 -0.35447263843658022 0 0.46051322931189032 -0.37517803279947659 0 0.48149720047245897 -0.35447263843658022 0 0.46476421725194811 -0.35406090527130379 0 0.46051322931189032 -0.37517803279947659 0 0.48149720047245897 -0.35447263843658022 0 0.4726611348686709 -0.38044225001313919 0 0.4545198295287009 -0.36350385789299128 0 0.46476421725194811 -0.35406090527130379 0 0.46051322931189032 -0.37517803279947659 0 0.45599071010687747 -0.37267340687585621 0 0.4545198295287009 -0.36350385789299128 0 0.46051322931189032 -0.37517803279947659 0 0.46892814680953782 -0.33376352208913179 0 0.46476421725194811 -0.35406090527130379 0 0.45830198770178338 -0.34370613428157709 0 0.4545198295287009 -0.36350385789299128 0 0.45598803376037522 -0.35439209245249848 0 0.46476421725194811 -0.35406090527130379 0 0.45598803376037522 -0.35439209245249848 0 0.45021425568777018 -0.35010552407756579 0 0.45830198770178338 -0.34370613428157709 0 0.45598803376037522 -0.35439209245249848 0 0.46476421725194811 -0.35406090527130379 0 0.45830198770178338 -0.34370613428157709 0 0.45021425568777018 -0.35010552407756579 0 0.45830198770178338 -0.34370613428157709 0 0.44662542531592592 -0.34218517386580399 0 0.45021425568777018 -0.35010552407756579 0 0.44182036581599021 -0.35314085611279722 0 0.44662542531592592 -0.34218517386580399 0 0.44182036581599021 -0.35314085611279722 0 0.44662542531592592 -0.34218517386580399 0 0.43705364604902552 -0.34550432734917741 0 0.44182036581599021 -0.35314085611279722 0 0.44029651791182839 -0.36238461310929643 0 0.43354409728595089 -0.35795786324021961 0 0.44182036581599021 -0.35314085611279722 0 0.44833546584477579 -0.35710336367515227 0 0.44029651791182839 -0.36238461310929643 0 0.45021425568777018 -0.35010552407756579 0 0.44182036581599021 -0.35314085611279722 0 0.44833546584477579 -0.35710336367515227 0 0.4545198295287009 -0.36350385789299128 0 0.45598803376037522 -0.35439209245249848 0 0.44833546584477579 -0.35710336367515227 0 0.45598803376037522 -0.35439209245249848 0 0.45021425568777018 -0.35010552407756579 0 0.44833546584477579 -0.35710336367515227 0 0.45599071010687747 -0.37267340687585621 0 0.44029651791182839 -0.36238461310929643 0 0.44404389214908868 -0.37096132492388761 0 0.45599071010687747 -0.37267340687585621 0 0.4545198295287009 -0.36350385789299128 0 0.44029651791182839 -0.36238461310929643 0 0.45599071010687747 -0.37267340687585621 0 0.44029651791182839 -0.36238461310929643 0 0.4545198295287009 -0.36350385789299128 0 0.44833546584477579 -0.35710336367515227 0 0.44029651791182839 -0.36238461310929643 0 0.44404389214908868 -0.37096132492388761 0 0.43612617841829998 -0.37106238366048161 0 0.44376216215934933 -0.37772489604991621 0 0.44029651791182839 -0.36238461310929643 0 0.44404389214908868 -0.37096132492388761 0 0.43612617841829998 -0.37106238366048161 0 0.45599071010687747 -0.37267340687585621 0 0.44404389214908868 -0.37096132492388761 0 0.44376216215934933 -0.37772489604991621 0 0.44869928380749141 -0.31245050840384991 0 0.46123546382581349 -0.31071812607374988 0 0.44976084414102407 -0.32699917960367447 0 0.46123546382581349 -0.31071812607374988 0 0.46892814680953782 -0.33376352208913179 0 0.46123546382581349 -0.31071812607374988 0 0.46892814680953782 -0.33376352208913179 0 0.44976084414102407 -0.32699917960367447 0 0.46123546382581349 -0.31071812607374988 0 0.46892814680953782 -0.33376352208913179 0 0.4756439195649142 -0.31778282953089743 0 0.46892814680953782 -0.33376352208913179 0 0.45830198770178338 -0.34370613428157709 0 0.44976084414102407 -0.32699917960367447 0 0.45830198770178338 -0.34370613428157709 0 0.44662542531592592 -0.34218517386580399 0 0.44976084414102407 -0.32699917960367447 0 0.43859372457388868 -0.33601231874156667 0 0.44976084414102407 -0.32699917960367447 0 0.43274251513285328 -0.32722867282005752 0 0.44662542531592592 -0.34218517386580399 0 0.43859372457388868 -0.33601231874156667 0 0.43705364604902552 -0.34550432734917741 0 0.44662542531592592 -0.34218517386580399 0 0.43859372457388868 -0.33601231874156667 0 0.44976084414102407 -0.32699917960367447 0 0.44976084414102407 -0.32699917960367447 0 0.44027899407070548 -0.3175141007846235 0 0.43274251513285328 -0.32722867282005752 0 0.44869928380749141 -0.31245050840384991 0 0.44976084414102407 -0.32699917960367447 0 0.44027899407070548 -0.3175141007846235 0 0.44027899407070548 -0.3175141007846235 0 0.43122570205629451 -0.31253385072714229 0 0.43274251513285328 -0.32722867282005752 0 0.42678619223061498 -0.33814424006911992 0 0.4185554315480029 -0.31469184139473633 0 0.43274251513285328 -0.32722867282005752 0 0.42678619223061498 -0.33814424006911992 0 0.4185554315480029 -0.31469184139473633 0 0.43122570205629451 -0.31253385072714229 0 0.43274251513285328 -0.32722867282005752 0 0.4185554315480029 -0.31469184139473633 0 0.43274251513285328 -0.32722867282005752 0 0.42678619223061498 -0.33814424006911992 0 0.43859372457388868 -0.33601231874156667 0 0.43274251513285328 -0.32722867282005752 0 0.42678619223061498 -0.33814424006911992 0 0.43859372457388868 -0.33601231874156667 0 0.42678619223061498 -0.33814424006911992 0 0.43705364604902552 -0.34550432734917741 0 0.42060365341938882 -0.34947437096893008 0 0.39913168916268449 -0.33539778714387308 0 0.42678619223061498 -0.33814424006911992 0 0.41368194144927412 -0.33686583733054293 0 0.40896903125043871 -0.32534734138883648 0 0.41368194144927412 -0.33686583733054293 0 0.42060365341938882 -0.34947437096893008 0 0.39913168916268449 -0.33539778714387308 0 0.42678619223061498 -0.33814424006911992 0 0.41368194144927412 -0.33686583733054293 0 0.42060365341938882 -0.34947437096893008 0 0.41368194144927412 -0.33686583733054293 0 0.40896903125043871 -0.32534734138883648 0 0.39913168916268449 -0.33539778714387308 0 0.40896903125043871 -0.32534734138883648 0 0.4185554315480029 -0.31469184139473633 0 0.39752776804138079 -0.31442974565784843 0 0.42678619223061498 -0.33814424006911992 0 0.40896903125043871 -0.32534734138883648 0 0.4185554315480029 -0.31469184139473633 0 0.42674309575933678 -0.37075734515052039 0 0.43612617841829998 -0.37106238366048161 0 0.42952125334710167 -0.38158152941318801 0 0.42674309575933678 -0.37075734515052039 0 0.43612617841829998 -0.37106238366048161 0 0.43103303028626849 -0.36324025018013922 0 0.44029651791182839 -0.36238461310929643 0 0.43612617841829998 -0.37106238366048161 0 0.43103303028626849 -0.36324025018013922 0 0.44029651791182839 -0.36238461310929643 0 0.43103303028626849 -0.36324025018013922 0 0.43354409728595089 -0.35795786324021961 0 0.44029651791182839 -0.36238461310929643 0 0.43354409728595089 -0.35795786324021961 0 0.43103303028626849 -0.36324025018013922 0 0.42413127557690189 -0.36620248980155973 0 0.42460232571677797 -0.35209581934273843 0 0.42674309575933678 -0.37075734515052039 0 0.43103303028626849 -0.36324025018013922 0 0.42413127557690189 -0.36620248980155973 0 0.42678619223061498 -0.33814424006911992 0 0.43354409728595089 -0.35795786324021961 0 0.42764552202955008 -0.34434767382247022 0 0.42678619223061498 -0.33814424006911992 0 0.43354409728595089 -0.35795786324021961 0 0.42678619223061498 -0.33814424006911992 0 0.43354409728595089 -0.35795786324021961 0 0.43705364604902552 -0.34550432734917741 0 0.42460232571677797 -0.35209581934273843 0 0.43354409728595089 -0.35795786324021961 0 0.43103303028626849 -0.36324025018013922 0 0.42460232571677797 -0.35209581934273843 0 0.43354409728595089 -0.35795786324021961 0 0.44182036581599021 -0.35314085611279722 0 0.43354409728595089 -0.35795786324021961 0 0.43705364604902552 -0.34550432734917741 0 0.42460232571677797 -0.35209581934273843 0 0.43354409728595089 -0.35795786324021961 0 0.42764552202955008 -0.34434767382247022 0 0.42678619223061498 -0.33814424006911992 0 0.42060365341938882 -0.34947437096893008 0 0.42678619223061498 -0.33814424006911992 0 0.42764552202955008 -0.34434767382247022 0 0.42060365341938882 -0.34947437096893008 0 0.42460232571677797 -0.35209581934273843 0 0.42764552202955008 -0.34434767382247022 0 0.42460232571677797 -0.35209581934273843 0 0.42764552202955008 -0.34434767382247022 0 0.42060365341938882 -0.34947437096893008 0 0.42460232571677797 -0.35209581934273843 0 0.42060365341938882 -0.34947437096893008 0 0.42060365341938882 -0.34947437096893008 0 0.41025770788130911 -0.35457254430346219 0 0.40856572234137029 -0.37153510346755431 0 0.42460232571677797 -0.35209581934273843 0 0.42060365341938882 -0.34947437096893008 0 0.40856572234137029 -0.37153510346755431 0 0.42060365341938882 -0.34947437096893008 0 0.41025770788130911 -0.35457254430346219 0 0.39913168916268449 -0.33539778714387308 0 0.42460232571677797 -0.35209581934273843 0 0.40856572234137029 -0.37153510346755431 0 0.41414665054522448 -0.37871654453284109 0 0.41025770788130911 -0.35457254430346219 0 0.40856572234137029 -0.37153510346755431 0 0.40500664434922162 -0.36156673998925271 0 0.42460232571677797 -0.35209581934273843 0 0.41414665054522448 -0.37871654453284109 0 0.42060365341938882 -0.34947437096893008 0 0.40856572234137029 -0.37153510346755431 0 0.42413127557690189 -0.36620248980155973 0 0.42460232571677797 -0.35209581934273843 0 0.41414665054522448 -0.37871654453284109 0 0.42674309575933678 -0.37075734515052039 0 0.42413127557690189 -0.36620248980155973 0 0.41414665054522448 -0.37871654453284109 0 0.39820804949476202 -0.36543282168027019 0 0.38863394510417443 -0.37241944101563751 0 0.39542971533391941 -0.37771130353363541 0 0.40856572234137029 -0.37153510346755431 0 0.39820804949476202 -0.36543282168027019 0 0.39542971533391941 -0.37771130353363541 0 0.40500664434922162 -0.36156673998925271 0 0.39820804949476202 -0.36543282168027019 0 0.4010539406257615 -0.35470547632930188 0 0.40856572234137029 -0.37153510346755431 0 0.40500664434922162 -0.36156673998925271 0 0.39820804949476202 -0.36543282168027019 0 0.39820804949476202 -0.36543282168027019 0 0.39000427834965451 -0.35766329202374381 0 0.38863394510417443 -0.37241944101563751 0 0.41025770788130911 -0.35457254430346219 0 0.4010539406257615 -0.35470547632930188 0 0.39913168916268449 -0.33539778714387308 0 0.38322448005357468 -0.34570470608457432 0 0.39000427834965451 -0.35766329202374381 0 0.39913168916268449 -0.33539778714387308 0 0.4010539406257615 -0.35470547632930188 0 0.39000427834965451 -0.35766329202374381 0 0.39913168916268449 -0.33539778714387308 0 0.39820804949476202 -0.36543282168027019 0 0.4010539406257615 -0.35470547632930188 0 0.39000427834965451 -0.35766329202374381 0 0.41025770788130911 -0.35457254430346219 0 0.40500664434922162 -0.36156673998925271 0 0.4010539406257615 -0.35470547632930188 0 0.38322448005357468 -0.34570470608457432 0 0.36977356565697012 -0.37231951988880552 0 0.38322448005357468 -0.34570470608457432 0 0.39000427834965451 -0.35766329202374381 0 0.36977356565697012 -0.37231951988880552 0 0.39000427834965451 -0.35766329202374381 0 0.38863394510417443 -0.37241944101563751 0 0.36977356565697012 -0.37231951988880552 0 0.39752776804138079 -0.31442974565784843 0 0.39913168916268449 -0.33539778714387308 0 0.37765972490598049 -0.32132120331881581 0 0.40896903125043871 -0.32534734138883648 0 0.39752776804138079 -0.31442974565784843 0 0.39913168916268449 -0.33539778714387308 0 0.38322448005357468 -0.34570470608457432 0 0.39913168916268449 -0.33539778714387308 0 0.37765972490598049 -0.32132120331881581 0 0.38322448005357468 -0.34570470608457432 0 0.37765972490598049 -0.32132120331881581 0 0.36472043153167077 -0.3371009235910592 0 0.39913168916268449 -0.33539778714387308 0 0.37765972490598049 -0.32132120331881581 0 0.39752776804138079 -0.31442974565784843 0 0.37765972490598049 -0.32132120331881581 0 0.3715668737265399 -0.3034476381112351 0 0.39752776804138079 -0.31442974565784843 0 0.38792929215580779 -0.29100404132019092 0 0.3715668737265399 -0.3034476381112351 0 0.39752776804138079 -0.31442974565784843 0 0.38792929215580779 -0.29100404132019092 0 0.41032467086539132 -0.29123944272035251 0 0.38792929215580779 -0.29100404132019092 0 0.39504246741157301 -0.27819175159468817 0 0.41032467086539132 -0.29123944272035251 0 0.38792929215580779 -0.29100404132019092 0 0.37228297391739329 -0.28427396786919051 0 0.3715668737265399 -0.3034476381112351 0 0.38792929215580779 -0.29100404132019092 0 0.38458240212192002 -0.27404385806348919 0 0.37228297391739329 -0.28427396786919051 0 0.38458240212192002 -0.27404385806348919 0 0.38299299238303858 -0.25738856747900152 0 0.37462254555308883 -0.26932346480905961 0 0.38792929215580779 -0.29100404132019092 0 0.38458240212192002 -0.27404385806348919 0 0.39504246741157301 -0.27819175159468817 0 0.38458240212192002 -0.27404385806348919 0 0.37462254555308883 -0.26932346480905961 0 0.37228297391739329 -0.28427396786919051 0 0.38458240212192002 -0.27404385806348919 0 0.38299299238303858 -0.25738856747900152 0 0.3925281680054003 -0.26587675736707661 0 0.38299299238303858 -0.25738856747900152 0 0.37117659030456479 -0.25039464930686101 0 0.37462254555308883 -0.26932346480905961 0 0.38152004530313322 -0.2477560543852661 0 0.38299299238303858 -0.25738856747900152 0 0.37117659030456479 -0.25039464930686101 0 0.38299299238303858 -0.25738856747900152 0 0.39517251135287917 -0.25389175787244839 0 0.3925281680054003 -0.26587675736707661 0 0.3921013834865843 -0.2435934775238256 0 0.38299299238303858 -0.25738856747900152 0 0.39517251135287917 -0.25389175787244839 0 0.4130675015364938 -0.24870822911988991 0 0.3925281680054003 -0.26587675736707661 0 0.4130675015364938 -0.24870822911988991 0 0.3925281680054003 -0.26587675736707661 0 0.40209391018277962 -0.26778704404596881 0 0.4130675015364938 -0.24870822911988991 0 0.39517251135287917 -0.25389175787244839 0 0.3925281680054003 -0.26587675736707661 0 0.40209391018277962 -0.26778704404596881 0 0.41032467086539132 -0.29123944272035251 0 0.39504246741157301 -0.27819175159468817 0 0.40209391018277962 -0.26778704404596881 0 0.41032467086539132 -0.29123944272035251 0 0.38458240212192002 -0.27404385806348919 0 0.39504246741157301 -0.27819175159468817 0 0.3925281680054003 -0.26587675736707661 0 0.39504246741157301 -0.27819175159468817 0 0.3925281680054003 -0.26587675736707661 0 0.40209391018277962 -0.26778704404596881 0 0.40209391018277962 -0.26778704404596881 0 0.4147657395875558 -0.27344532157927681 0 0.41032467086539132 -0.29123944272035251 0 0.40209391018277962 -0.26778704404596881 0 0.4147657395875558 -0.27344532157927681 0 0.41537599384967611 -0.26295827161063212 0 0.4147657395875558 -0.27344532157927681 0 0.41537599384967611 -0.26295827161063212 0 0.42408262380382489 -0.26773907013232268 0 0.4147657395875558 -0.27344532157927681 0 0.42408262380382489 -0.26773907013232268 0 0.42405592620319971 -0.28126083186920142 0 0.4130675015364938 -0.24870822911988991 0 0.40209391018277962 -0.26778704404596881 0 0.41537599384967611 -0.26295827161063212 0 0.41537599384967611 -0.26295827161063212 0 0.42235926146772518 -0.25663272288337752 0 0.42408262380382489 -0.26773907013232268 0 0.4278885898259821 -0.24726295599035389 0 0.4130675015364938 -0.24870822911988991 0 0.42235926146772518 -0.25663272288337752 0 0.4130675015364938 -0.24870822911988991 0 0.41537599384967611 -0.26295827161063212 0 0.42235926146772518 -0.25663272288337752 0 0.4278885898259821 -0.24726295599035389 0 0.42235926146772518 -0.25663272288337752 0 0.4322519361834638 -0.2578521890481949 0 0.42235926146772518 -0.25663272288337752 0 0.4322519361834638 -0.2578521890481949 0 0.42408262380382489 -0.26773907013232268 0 0.42408262380382489 -0.26773907013232268 0 0.43457846682035628 -0.2713805204311176 0 0.42405592620319971 -0.28126083186920142 0 0.4322519361834638 -0.2578521890481949 0 0.42408262380382489 -0.26773907013232268 0 0.43457846682035628 -0.2713805204311176 0 0.44221769315977211 -0.28028661850394609 0 0.43457846682035628 -0.2713805204311176 0 0.43331704786469422 -0.28582798324360481 0 0.43457846682035628 -0.2713805204311176 0 0.43331704786469422 -0.28582798324360481 0 0.42405592620319971 -0.28126083186920142 0 0.43331704786469422 -0.28582798324360481 0 0.42405592620319971 -0.28126083186920142 0 0.42726700827737568 -0.29793265310853417 0 0.44284550477265372 -0.29315780077006559 0 0.43331704786469422 -0.28582798324360481 0 0.42726700827737568 -0.29793265310853417 0 0.43990124598866992 -0.30586322985545189 0 0.44284550477265372 -0.29315780077006559 0 0.42726700827737568 -0.29793265310853417 0 0.43122570205629451 -0.31253385072714229 0 0.4185554315480029 -0.31469184139473633 0 0.42726700827737568 -0.29793265310853417 0 0.43990124598866992 -0.30586322985545189 0 0.44027899407070548 -0.3175141007846235 0 0.43122570205629451 -0.31253385072714229 0 0.43990124598866992 -0.30586322985545189 0 0.43122570205629451 -0.31253385072714229 0 0.42726700827737568 -0.29793265310853417 0 0.4185554315480029 -0.31469184139473633 0 0.42726700827737568 -0.29793265310853417 0 0.41032467086539132 -0.29123944272035251 0 0.4185554315480029 -0.31469184139473633 0 0.39752776804138079 -0.31442974565784843 0 0.41032467086539132 -0.29123944272035251 0 0.4185554315480029 -0.31469184139473633 0 0.41032467086539132 -0.29123944272035251 0 0.42405592620319971 -0.28126083186920142 0 0.42726700827737568 -0.29793265310853417 0 0.41032467086539132 -0.29123944272035251 0 0.4147657395875558 -0.27344532157927681 0 0.42405592620319971 -0.28126083186920142 0 0.41032467086539132 -0.29123944272035251 0 0.43873300126457643 -0.48808025789196691 0 0.5 -0.5 0 0.41852363859958741 -0.49999999999999778 0 0.43873300126457643 -0.48808025789196691 0 0.45915533417638399 -0.47603490319234182 0 0.5 -0.5 0 0.43873300126457643 -0.48808025789196691 0 0.45915533417638399 -0.47603490319234182 0 0.43873300126457643 -0.48808025789196691 0 0.45915533417638399 -0.47603490319234182 0 0.44366569848226661 -0.46620052653634692 0 0.5 -0.5 0 0.47957766708819261 -0.46398954849271828 0 0.50000000000000089 -0.45194419379309458 0 0.45915533417638399 -0.47603490319234182 0 0.5 -0.5 0 0.47957766708819261 -0.46398954849271828 0 0.45915533417638399 -0.47603490319234182 0 0.47957766708819261 -0.46398954849271828 0 0.47957766708819261 -0.46398954849271828 0 0.50000000000000089 -0.45194419379309458 0 0.47957766708819261 -0.46398954849271828 0 0.50000000000000089 -0.45194419379309458 0 0.48062228335777268 -0.44121506790994203 0 0.50000000000000089 -0.45194419379309458 0 0.48062228335777268 -0.44121506790994203 0 0.5 -0.42849696148924632 0 0.47957766708819261 -0.46398954849271828 0 0.48062228335777268 -0.44121506790994203 0 0.45992616414271248 -0.45361323180417579 0 0.48062228335777268 -0.44121506790994203 0 0.45992616414271248 -0.45361323180417579 0 0.46153451181274208 -0.42934795624931371 0 0.45915533417638399 -0.47603490319234182 0 0.45992616414271248 -0.45361323180417579 0 0.44366569848226661 -0.46620052653634692 0 0.45915533417638399 -0.47603490319234182 0 0.47957766708819261 -0.46398954849271828 0 0.45992616414271248 -0.45361323180417579 0 0.45992616414271248 -0.45361323180417579 0 0.44366569848226661 -0.46620052653634692 0 0.437226417314236 -0.447747184772328 0 0.45992616414271248 -0.45361323180417579 0 0.46153451181274208 -0.42934795624931371 0 0.437226417314236 -0.447747184772328 0 0.43907077621103913 -0.42445322710128269 0 0.46153451181274208 -0.42934795624931371 0 0.437226417314236 -0.447747184772328 0 0.43907077621103913 -0.42445322710128269 0 0.45499967194935192 -0.41008640986449091 0 0.43952925815132049 -0.39588342716237201 0 0.43907077621103913 -0.42445322710128269 0 0.45499967194935192 -0.41008640986449091 0 0.46153451181274208 -0.42934795624931371 0 0.45499967194935192 -0.41008640986449091 0 0.46153451181274208 -0.42934795624931371 0 0.47376861330736231 -0.40670229805570052 0 0.48062228335777268 -0.44121506790994203 0 0.46153451181274208 -0.42934795624931371 0 0.48318508169557539 -0.42216240257792009 0 0.48062228335777268 -0.44121506790994203 0 0.48318508169557539 -0.42216240257792009 0 0.5 -0.42849696148924632 0 0.48318508169557539 -0.42216240257792009 0 0.47376861330736231 -0.40670229805570052 0 0.5 -0.40504972918539822 0 0.48318508169557539 -0.42216240257792009 0 0.5 -0.42849696148924632 0 0.5 -0.40504972918539822 0 0.46153451181274208 -0.42934795624931371 0 0.48318508169557539 -0.42216240257792009 0 0.47376861330736231 -0.40670229805570052 0 0.47376861330736231 -0.40670229805570052 0 0.47344825066658258 -0.39299934004973358 0 0.46109520026429518 -0.39404514075378538 0 0.47376861330736231 -0.40670229805570052 0 0.47344825066658258 -0.39299934004973358 0 0.48612897330043242 -0.39370286185270509 0 0.5 -0.40504972918539822 0 0.48612897330043242 -0.39370286185270509 0 0.49999999999999989 -0.38160249688155012 0 0.47376861330736231 -0.40670229805570052 0 0.5 -0.40504972918539822 0 0.48612897330043242 -0.39370286185270509 0 0.48612897330043242 -0.39370286185270509 0 0.49999999999999989 -0.38160249688155012 0 0.48450849960130332 -0.38164315905203411 0 0.49109237685982809 -0.3705379094156947 0 0.49999999999999989 -0.38160249688155012 0 0.48450849960130332 -0.38164315905203411 0 0.48448892520123832 -0.36997858719444782 0 0.48450849960130332 -0.38164315905203411 0 0.4726611348686709 -0.38044225001313919 0 0.47344825066658258 -0.39299934004973358 0 0.48612897330043242 -0.39370286185270509 0 0.48450849960130332 -0.38164315905203411 0 0.47344825066658258 -0.39299934004973358 0 0.48450849960130332 -0.38164315905203411 0 0.4726611348686709 -0.38044225001313919 0 0.47344825066658258 -0.39299934004973358 0 0.4726611348686709 -0.38044225001313919 0 0.46109520026429518 -0.39404514075378538 0 0.4726611348686709 -0.38044225001313919 0 0.46051322931189032 -0.37517803279947659 0 0.46109520026429518 -0.39404514075378538 0 0.46051322931189032 -0.37517803279947659 0 0.46109520026429518 -0.39404514075378538 0 0.43952925815132049 -0.39588342716237201 0 0.45599071010687747 -0.37267340687585621 0 0.46051322931189032 -0.37517803279947659 0 0.44376216215934933 -0.37772489604991621 0 0.45499967194935192 -0.41008640986449091 0 0.47376861330736231 -0.40670229805570052 0 0.46109520026429518 -0.39404514075378538 0 0.45499967194935192 -0.41008640986449091 0 0.46109520026429518 -0.39404514075378538 0 0.43952925815132049 -0.39588342716237201 0 0.46051322931189032 -0.37517803279947659 0 0.43952925815132049 -0.39588342716237201 0 0.44376216215934933 -0.37772489604991621 0 0.46051322931189032 -0.37517803279947659 0 0.43952925815132049 -0.39588342716237201 0 0.43952925815132049 -0.39588342716237201 0 0.44376216215934933 -0.37772489604991621 0 0.42952125334710167 -0.38158152941318801 0 0.42674309575933678 -0.37075734515052039 0 0.42952125334710167 -0.38158152941318801 0 0.41414665054522448 -0.37871654453284109 0 0.43612617841829998 -0.37106238366048161 0 0.44376216215934933 -0.37772489604991621 0 0.42952125334710167 -0.38158152941318801 0 0.43952925815132049 -0.39588342716237201 0 0.41854528699075078 -0.41658882152526738 0 0.43952925815132049 -0.39588342716237201 0 0.42108668488161372 -0.39562151847132249 0 0.41854528699075078 -0.41658882152526738 0 0.43952925815132049 -0.39588342716237201 0 0.42952125334710167 -0.38158152941318801 0 0.42108668488161372 -0.39562151847132249 0 0.41414665054522448 -0.37871654453284109 0 0.40369097537367121 -0.40533726972294398 0 0.42108668488161372 -0.39562151847132249 0 0.41414665054522448 -0.37871654453284109 0 0.40369097537367121 -0.40533726972294398 0 0.42108668488161372 -0.39562151847132249 0 0.40369097537367121 -0.40533726972294398 0 0.41854528699075078 -0.41658882152526738 0 0.40856572234137029 -0.37153510346755431 0 0.41414665054522448 -0.37871654453284109 0 0.39652779126335191 -0.39359583596617842 0 0.42952125334710167 -0.38158152941318801 0 0.42108668488161372 -0.39562151847132249 0 0.41414665054522448 -0.37871654453284109 0 0.39542971533391941 -0.37771130353363541 0 0.3852130684659385 -0.38557331553853641 0 0.39652779126335191 -0.39359583596617842 0 0.40856572234137029 -0.37153510346755431 0 0.39652779126335191 -0.39359583596617842 0 0.40856572234137029 -0.37153510346755431 0 0.39542971533391941 -0.37771130353363541 0 0.39652779126335191 -0.39359583596617842 0 0.38863394510417443 -0.37241944101563751 0 0.39542971533391941 -0.37771130353363541 0 0.3852130684659385 -0.38557331553853641 0 0.3852130684659385 -0.38557331553853641 0 0.37366364049266221 -0.39462383461382272 0 0.36977356565697012 -0.37231951988880552 0 0.38863394510417443 -0.37241944101563751 0 0.3852130684659385 -0.38557331553853641 0 0.36977356565697012 -0.37231951988880552 0 0.38264812544553051 -0.39976587380787337 0 0.39652779126335191 -0.39359583596617842 0 0.38448986018533338 -0.41565656846480259 0 0.39652779126335191 -0.39359583596617842 0 0.38448986018533338 -0.41565656846480259 0 0.38264812544553051 -0.39976587380787337 0 0.37334626682036642 -0.40937981445602689 0 0.37366364049266221 -0.39462383461382272 0 0.3852130684659385 -0.38557331553853641 0 0.38264812544553051 -0.39976587380787337 0 0.37366364049266221 -0.39462383461382272 0 0.3852130684659385 -0.38557331553853641 0 0.38264812544553051 -0.39976587380787337 0 0.39652779126335191 -0.39359583596617842 0 0.39652779126335191 -0.39359583596617842 0 0.40369097537367121 -0.40533726972294398 0 0.38448986018533338 -0.41565656846480259 0 0.41414665054522448 -0.37871654453284109 0 0.39652779126335191 -0.39359583596617842 0 0.40369097537367121 -0.40533726972294398 0 0.40369097537367121 -0.40533726972294398 0 0.38448986018533338 -0.41565656846480259 0 0.38766422539609652 -0.42508597021646671 0 0.40369097537367121 -0.40533726972294398 0 0.38766422539609652 -0.42508597021646671 0 0.39323530020211872 -0.43195799491304721 0 0.40369097537367121 -0.40533726972294398 0 0.39323530020211872 -0.43195799491304721 0 0.40369097537367121 -0.40533726972294398 0 0.40373034805506031 -0.42071640539688299 0 0.39323530020211872 -0.43195799491304721 0 0.38264812544553051 -0.39976587380787337 0 0.38448986018533338 -0.41565656846480259 0 0.37334626682036642 -0.40937981445602689 0 0.38448986018533338 -0.41565656846480259 0 0.37537227125518802 -0.42389619555465169 0 0.38766422539609652 -0.42508597021646671 0 0.38448986018533338 -0.41565656846480259 0 0.37537227125518802 -0.42389619555465169 0 0.37334626682036642 -0.40937981445602689 0 0.38162477995480759 -0.43341507831901588 0 0.37537227125518802 -0.42389619555465169 0 0.37082603694357558 -0.43636697780704192 0 0.38162477995480759 -0.43341507831901588 0 0.37537227125518802 -0.42389619555465169 0 0.38766422539609652 -0.42508597021646671 0 0.38766422539609652 -0.42508597021646671 0 0.38847726654068632 -0.43178215353636801 0 0.39323530020211872 -0.43195799491304721 0 0.38766422539609652 -0.42508597021646671 0 0.39323530020211872 -0.43195799491304721 0 0.38162477995480759 -0.43341507831901588 0 0.38847726654068632 -0.43178215353636801 0 0.39138476060972233 -0.4366695706969424 0 0.38162477995480759 -0.43341507831901588 0 0.38766422539609652 -0.42508597021646671 0 0.38847726654068632 -0.43178215353636801 0 0.39138476060972233 -0.4366695706969424 0 0.39323530020211872 -0.43195799491304721 0 0.40373034805506031 -0.42071640539688299 0 0.39323530020211872 -0.43195799491304721 0 0.39756131583018223 -0.43729421588816397 0 0.39138476060972233 -0.4366695706969424 0 0.39323530020211872 -0.43195799491304721 0 0.39756131583018223 -0.43729421588816397 0 0.38847726654068632 -0.43178215353636801 0 0.39138476060972233 -0.4366695706969424 0 0.39323530020211872 -0.43195799491304721 0 0.39323530020211872 -0.43195799491304721 0 0.39756131583018223 -0.43729421588816397 0 0.39756131583018223 -0.43729421588816397 0 0.42075471344565341 -0.43653236356767061 0 0.41854528699075078 -0.41658882152526738 0 0.39756131583018223 -0.43729421588816397 0 0.41854528699075078 -0.41658882152526738 0 0.40373034805506031 -0.42071640539688299 0 0.39756131583018223 -0.43729421588816397 0 0.41854528699075078 -0.41658882152526738 0 0.40369097537367121 -0.40533726972294398 0 0.40373034805506031 -0.42071640539688299 0 0.41854528699075078 -0.41658882152526738 0 0.43907077621103913 -0.42445322710128269 0 0.43952925815132049 -0.39588342716237201 0 0.41854528699075078 -0.41658882152526738 0 0.43907077621103913 -0.42445322710128269 0 0.42075471344565341 -0.43653236356767061 0 0.437226417314236 -0.447747184772328 0 0.43907077621103913 -0.42445322710128269 0 0.42075471344565341 -0.43653236356767061 0 0.41854528699075078 -0.41658882152526738 0 0.42075471344565341 -0.43653236356767061 0 0.437226417314236 -0.447747184772328 0 0.41128521097498022 -0.45422289655609832 0 0.44366569848226661 -0.46620052653634692 0 0.437226417314236 -0.447747184772328 0 0.42500910611977821 -0.47115157722403272 0 0.437226417314236 -0.447747184772328 0 0.41128521097498022 -0.45422289655609832 0 0.42500910611977821 -0.47115157722403272 0 0.41128521097498022 -0.45422289655609832 0 0.42500910611977821 -0.47115157722403272 0 0.41128521097498022 -0.45422289655609832 0 0.40363942986582418 -0.46726464195734613 0 0.42500910611977821 -0.47115157722403272 0 0.39756131583018223 -0.43729421588816397 0 0.42075471344565341 -0.43653236356767061 0 0.41128521097498022 -0.45422289655609832 0 0.39756131583018223 -0.43729421588816397 0 0.41128521097498022 -0.45422289655609832 0 0.39756131583018223 -0.43729421588816397 0 0.38058041147830901 -0.45404968693573983 0 0.39584199487468641 -0.4539359111267649 0 0.39756131583018223 -0.43729421588816397 0 0.41128521097498022 -0.45422289655609832 0 0.39584199487468641 -0.4539359111267649 0 0.39138476060972233 -0.4366695706969424 0 0.37823621724642709 -0.44317921130958871 0 0.38058041147830901 -0.45404968693573983 0 0.39138476060972233 -0.4366695706969424 0 0.39756131583018223 -0.43729421588816397 0 0.38058041147830901 -0.45404968693573983 0 0.38162477995480759 -0.43341507831901588 0 0.39138476060972233 -0.4366695706969424 0 0.37823621724642709 -0.44317921130958871 0 0.39756131583018223 -0.43729421588816397 0 0.38058041147830901 -0.45404968693573983 0 0.38162477995480759 -0.43341507831901588 0 0.37823621724642709 -0.44317921130958871 0 0.37082603694357558 -0.43636697780704192 0 0.38058041147830901 -0.45404968693573983 0 0.39584199487468641 -0.4539359111267649 0 0.38617653914147171 -0.47547516932989481 0 0.38058041147830901 -0.45404968693573983 0 0.38617653914147171 -0.47547516932989481 0 0.36359950712643702 -0.47080515798331668 0 0.39584199487468641 -0.4539359111267649 0 0.40363942986582418 -0.46726464195734613 0 0.38617653914147171 -0.47547516932989481 0 0.41128521097498022 -0.45422289655609832 0 0.39584199487468641 -0.4539359111267649 0 0.40363942986582418 -0.46726464195734613 0 0.40363942986582418 -0.46726464195734613 0 0.38617653914147171 -0.47547516932989481 0 0.40681355136788072 -0.48221421714480889 0 0.38617653914147171 -0.47547516932989481 0 0.38894278635508839 -0.5 0 0.36870962880001201 -0.48473544716994449 0 0.38617653914147171 -0.47547516932989481 0 0.38894278635508839 -0.5 0 0.40681355136788072 -0.48221421714480889 0 0.38894278635508839 -0.5 0 0.41852363859958741 -0.49999999999999778 0 0.40681355136788072 -0.48221421714480889 0 0.41852363859958741 -0.49999999999999778 0 0.40681355136788072 -0.48221421714480889 0 0.42500910611977821 -0.47115157722403272 0 0.40363942986582418 -0.46726464195734613 0 0.40681355136788072 -0.48221421714480889 0 0.42500910611977821 -0.47115157722403272 0 0.43873300126457643 -0.48808025789196691 0 0.44366569848226661 -0.46620052653634692 0 0.42500910611977821 -0.47115157722403272 0 0.43873300126457643 -0.48808025789196691 0 0.42500910611977821 -0.47115157722403272 0 0.43873300126457643 -0.48808025789196691 0 0.41852363859958741 -0.49999999999999778 0 0.42500910611977821 -0.47115157722403272 0 0.43873300126457643 -0.48808025789196691 0 0.41852363859958741 -0.49999999999999778 0 0.33452290197507489 -0.5 0 0.30864095575112133 -0.48096195588528878 0 0.30968386983956059 -0.5 0 0.32622239588416169 -0.4735844389345884 0 0.33452290197507489 -0.5 0 0.30864095575112133 -0.48096195588528878 0 0.32622239588416169 -0.4735844389345884 0 0.31464155569349028 -0.45401571705744909 0 0.30864095575112133 -0.48096195588528878 0 0.32622239588416169 -0.4735844389345884 0 0.33971647369703523 -0.4800437753658463 0 0.33991518882850508 -0.46488372808108969 0 0.32622239588416169 -0.4735844389345884 0 0.33971647369703523 -0.4800437753658463 0 0.33452290197507489 -0.5 0 0.33971647369703523 -0.4800437753658463 0 0.33452290197507489 -0.5 0 0.35936193411058931 -0.50000000000000133 0 0.35936193411058931 -0.50000000000000133 0 0.35386520169497943 -0.47518304916575688 0 0.33971647369703523 -0.4800437753658463 0 0.35936193411058931 -0.50000000000000133 0 0.35386520169497943 -0.47518304916575688 0 0.35936193411058931 -0.50000000000000133 0 0.36870962880001201 -0.48473544716994449 0 0.35386520169497943 -0.47518304916575688 0 0.38894278635508839 -0.5 0 0.35936193411058931 -0.50000000000000133 0 0.36870962880001201 -0.48473544716994449 0 0.38617653914147171 -0.47547516932989481 0 0.36870962880001201 -0.48473544716994449 0 0.36359950712643702 -0.47080515798331668 0 0.36870962880001201 -0.48473544716994449 0 0.36359950712643702 -0.47080515798331668 0 0.35386520169497943 -0.47518304916575688 0 0.33971647369703523 -0.4800437753658463 0 0.35386520169497943 -0.47518304916575688 0 0.33991518882850508 -0.46488372808108969 0 0.35386520169497943 -0.47518304916575688 0 0.36421808607756129 -0.45444963861083632 0 0.34836846927936982 -0.45036609833151242 0 0.35386520169497943 -0.47518304916575688 0 0.34836846927936982 -0.45036609833151242 0 0.33991518882850508 -0.46488372808108969 0 0.35386520169497943 -0.47518304916575688 0 0.34836846927936982 -0.45036609833151242 0 0.36359950712643702 -0.47080515798331668 0 0.35386520169497943 -0.47518304916575688 0 0.36421808607756129 -0.45444963861083632 0 0.38058041147830901 -0.45404968693573983 0 0.36359950712643702 -0.47080515798331668 0 0.36421808607756129 -0.45444963861083632 0 0.38058041147830901 -0.45404968693573983 0 0.36359950712643702 -0.47080515798331668 0 0.37823621724642709 -0.44317921130958871 0 0.36421808607756129 -0.45444963861083632 0 0.37082603694357558 -0.43636697780704192 0 0.36421808607756129 -0.45444963861083632 0 0.35927659754800589 -0.43570298558802001 0 0.37082603694357558 -0.43636697780704192 0 0.37823621724642709 -0.44317921130958871 0 0.38058041147830901 -0.45404968693573983 0 0.36421808607756129 -0.45444963861083632 0 0.36421808607756129 -0.45444963861083632 0 0.34836846927936982 -0.45036609833151242 0 0.35927659754800589 -0.43570298558802001 0 0.34836846927936982 -0.45036609833151242 0 0.34287173686376038 -0.42554914749726769 0 0.34836846927936982 -0.45036609833151242 0 0.3322529487067063 -0.44656014060104671 0 0.34287173686376038 -0.42554914749726769 0 0.3322529487067063 -0.44656014060104671 0 0.33991518882850508 -0.46488372808108969 0 0.32825802227821582 -0.45976100616854348 0 0.34836846927936982 -0.45036609833151242 0 0.3322529487067063 -0.44656014060104671 0 0.33991518882850508 -0.46488372808108969 0 0.32622239588416169 -0.4735844389345884 0 0.33991518882850508 -0.46488372808108969 0 0.32825802227821582 -0.45976100616854348 0 0.3322529487067063 -0.44656014060104671 0 0.32825802227821582 -0.45976100616854348 0 0.31464155569349028 -0.45401571705744909 0 0.32622239588416169 -0.4735844389345884 0 0.32825802227821582 -0.45976100616854348 0 0.31464155569349028 -0.45401571705744909 0 0.31464155569349028 -0.45401571705744909 0 0.32556686499301968 -0.42999222534819398 0 0.30770192008082542 -0.4297842000217949 0 0.3322529487067063 -0.44656014060104671 0 0.31464155569349028 -0.45401571705744909 0 0.32556686499301968 -0.42999222534819398 0 0.32556686499301968 -0.42999222534819398 0 0.32002150961112441 -0.41297678088873818 0 0.30770192008082542 -0.4297842000217949 0 0.32002150961112441 -0.41297678088873818 0 0.34287173686376038 -0.42554914749726769 0 0.33756976376940412 -0.4016115067939533 0 0.34287173686376038 -0.42554914749726769 0 0.33756976376940412 -0.4016115067939533 0 0.3322529487067063 -0.44656014060104671 0 0.32556686499301968 -0.42999222534819398 0 0.34287173686376038 -0.42554914749726769 0 0.3322529487067063 -0.44656014060104671 0 0.34287173686376038 -0.42554914749726769 0 0.32556686499301968 -0.42999222534819398 0 0.32002150961112441 -0.41297678088873818 0 0.34287173686376038 -0.42554914749726769 0 0.34287173686376038 -0.42554914749726769 0 0.35927659754800589 -0.43570298558802001 0 0.36207062685090641 -0.4200719317496176 0 0.34836846927936982 -0.45036609833151242 0 0.34287173686376038 -0.42554914749726769 0 0.35927659754800589 -0.43570298558802001 0 0.35927659754800589 -0.43570298558802001 0 0.36688638314941902 -0.42900952267483278 0 0.36207062685090641 -0.4200719317496176 0 0.35927659754800589 -0.43570298558802001 0 0.36688638314941902 -0.42900952267483278 0 0.37082603694357558 -0.43636697780704192 0 0.37537227125518802 -0.42389619555465169 0 0.36688638314941902 -0.42900952267483278 0 0.36207062685090641 -0.4200719317496176 0 0.37537227125518802 -0.42389619555465169 0 0.36688638314941902 -0.42900952267483278 0 0.37082603694357558 -0.43636697780704192 0 0.37334626682036642 -0.40937981445602689 0 0.36207062685090641 -0.4200719317496176 0 0.35632265126036539 -0.39893433369303671 0 0.37537227125518802 -0.42389619555465169 0 0.37334626682036642 -0.40937981445602689 0 0.36207062685090641 -0.4200719317496176 0 0.34287173686376038 -0.42554914749726769 0 0.35632265126036539 -0.39893433369303671 0 0.34287173686376038 -0.42554914749726769 0 0.35632265126036539 -0.39893433369303671 0 0.33756976376940412 -0.4016115067939533 0 0.34287173686376038 -0.42554914749726769 0 0.36207062685090641 -0.4200719317496176 0 0.35632265126036539 -0.39893433369303671 0 0.35632265126036539 -0.39893433369303671 0 0.34713355162556547 -0.38710103589735001 0 0.33756976376940412 -0.4016115067939533 0 0.37334626682036642 -0.40937981445602689 0 0.35632265126036539 -0.39893433369303671 0 0.37366364049266221 -0.39462383461382272 0 0.35632265126036539 -0.39893433369303671 0 0.36977356565697012 -0.37231951988880552 0 0.35632265126036539 -0.39893433369303671 0 0.37366364049266221 -0.39462383461382272 0 0.36977356565697012 -0.37231951988880552 0 0.34713355162556547 -0.38710103589735001 0 0.36977356565697012 -0.37231951988880552 0 0.34315842377135691 -0.37358073275126807 0 0.35632265126036539 -0.39893433369303671 0 0.34713355162556547 -0.38710103589735001 0 0.36977356565697012 -0.37231951988880552 0 0.34713355162556547 -0.38710103589735001 0 0.33238703930494201 -0.38491330402125951 0 0.34315842377135691 -0.37358073275126807 0 0.34713355162556547 -0.38710103589735001 0 0.33238703930494201 -0.38491330402125951 0 0.33756976376940412 -0.4016115067939533 0 0.33238703930494201 -0.38491330402125951 0 0.33756976376940412 -0.4016115067939533 0 0.32236650982256593 -0.39677335663297469 0 0.32002150961112441 -0.41297678088873818 0 0.32236650982256593 -0.39677335663297469 0 0.30580834454502381 -0.40000273208370962 0 0.32236650982256593 -0.39677335663297469 0 0.31589571276853778 -0.38271771498759449 0 0.30580834454502381 -0.40000273208370962 0 0.32002150961112441 -0.41297678088873818 0 0.33756976376940412 -0.4016115067939533 0 0.32236650982256593 -0.39677335663297469 0 0.33238703930494201 -0.38491330402125951 0 0.31589571276853778 -0.38271771498759449 0 0.32916483430070409 -0.36491209161083038 0 0.33238703930494201 -0.38491330402125951 0 0.32236650982256593 -0.39677335663297469 0 0.31589571276853778 -0.38271771498759449 0 0.31589571276853778 -0.38271771498759449 0 0.30077019568964208 -0.38740231063968111 0 0.30580834454502381 -0.40000273208370962 0 0.31589571276853778 -0.38271771498759449 0 0.30077019568964208 -0.38740231063968111 0 0.30202196475466447 -0.3757046758235098 0 0.30077019568964208 -0.38740231063968111 0 0.30580834454502381 -0.40000273208370962 0 0.29429110499093569 -0.39592143873518482 0 0.29429110499093569 -0.39592143873518482 0 0.2871888621339842 -0.38434761751706992 0 0.28339701759509273 -0.41193309470027872 0 0.2871888621339842 -0.38434761751706992 0 0.27432085995726552 -0.39619785440628458 0 0.28339701759509273 -0.41193309470027872 0 0.30580834454502381 -0.40000273208370962 0 0.29429110499093569 -0.39592143873518482 0 0.28339701759509273 -0.41193309470027872 0 0.2871888621339842 -0.38434761751706992 0 0.28339701759509273 -0.41193309470027872 0 0.2871888621339842 -0.38434761751706992 0 0.28305146244754031 -0.38369685383200169 0 0.27826884055175999 -0.3882380124821187 0 0.30077019568964208 -0.38740231063968111 0 0.29429110499093569 -0.39592143873518482 0 0.2871888621339842 -0.38434761751706992 0 0.30077019568964208 -0.38740231063968111 0 0.30202196475466447 -0.3757046758235098 0 0.2871888621339842 -0.38434761751706992 0 0.2871888621339842 -0.38434761751706992 0 0.28305146244754031 -0.38369685383200169 0 0.28209797868466152 -0.36878166796026529 0 0.28305146244754031 -0.38369685383200169 0 0.27571780128658291 -0.38331032103997781 0 0.27219475889920652 -0.37726513538453449 0 0.28305146244754031 -0.38369685383200169 0 0.27219475889920652 -0.37726513538453449 0 0.26941708664028929 -0.36927683336389883 0 0.27826884055175999 -0.3882380124821187 0 0.26935614324782448 -0.38404128246125607 0 0.27432085995726552 -0.39619785440628458 0 0.27826884055175999 -0.3882380124821187 0 0.27571780128658291 -0.38331032103997781 0 0.26935614324782448 -0.38404128246125607 0 0.2871888621339842 -0.38434761751706992 0 0.27826884055175999 -0.3882380124821187 0 0.27432085995726552 -0.39619785440628458 0 0.28305146244754031 -0.38369685383200169 0 0.27826884055175999 -0.3882380124821187 0 0.27571780128658291 -0.38331032103997781 0 0.26935614324782448 -0.38404128246125607 0 0.27219475889920652 -0.37726513538453449 0 0.26456748077747838 -0.37613428559076328 0 0.27571780128658291 -0.38331032103997781 0 0.26935614324782448 -0.38404128246125607 0 0.27219475889920652 -0.37726513538453449 0 0.25635448840571567 -0.37789214917184888 0 0.2628833655148014 -0.39598676372973729 0 0.26935614324782448 -0.38404128246125607 0 0.26456748077747838 -0.37613428559076328 0 0.25635448840571567 -0.37789214917184888 0 0.26935614324782448 -0.38404128246125607 0 0.25635448840571567 -0.37789214917184888 0 0.2628833655148014 -0.39598676372973729 0 0.25635448840571567 -0.37789214917184888 0 0.2628833655148014 -0.39598676372973729 0 0.24757731665554211 -0.39397937018667939 0 0.25207415565990432 -0.40529248333692852 0 0.2628833655148014 -0.39598676372973729 0 0.24757731665554211 -0.39397937018667939 0 0.25207415565990432 -0.40529248333692852 0 0.2628833655148014 -0.39598676372973729 0 0.26390514832594941 -0.41038945298422908 0 0.2628833655148014 -0.39598676372973729 0 0.27432085995726552 -0.39619785440628458 0 0.26390514832594941 -0.41038945298422908 0 0.27432085995726552 -0.39619785440628458 0 0.26390514832594941 -0.41038945298422908 0 0.28339701759509273 -0.41193309470027872 0 0.26935614324782448 -0.38404128246125607 0 0.2628833655148014 -0.39598676372973729 0 0.27432085995726552 -0.39619785440628458 0 0.26390514832594941 -0.41038945298422908 0 0.26243344209993058 -0.42923514927863282 0 0.28339701759509273 -0.41193309470027872 0 0.26390514832594941 -0.41038945298422908 0 0.26243344209993058 -0.42923514927863282 0 0.2461001714306674 -0.4182892063022704 0 0.25207415565990432 -0.40529248333692852 0 0.26390514832594941 -0.41038945298422908 0 0.2461001714306674 -0.4182892063022704 0 0.26243344209993058 -0.42923514927863282 0 0.24394066691110711 -0.43689245887928319 0 0.2461001714306674 -0.4182892063022704 0 0.26243344209993058 -0.42923514927863282 0 0.28339701759509273 -0.41193309470027872 0 0.27960517305620131 -0.43951857188348747 0 0.28339701759509273 -0.41193309470027872 0 0.30770192008082542 -0.4297842000217949 0 0.29637889112602539 -0.44251766820231442 0 0.28339701759509273 -0.41193309470027872 0 0.29637889112602539 -0.44251766820231442 0 0.27960517305620131 -0.43951857188348747 0 0.28339701759509273 -0.41193309470027872 0 0.27960517305620131 -0.43951857188348747 0 0.32002150961112441 -0.41297678088873818 0 0.30423219795801659 -0.41367420192363041 0 0.30770192008082542 -0.4297842000217949 0 0.28339701759509273 -0.41193309470027872 0 0.30423219795801659 -0.41367420192363041 0 0.30770192008082542 -0.4297842000217949 0 0.30580834454502381 -0.40000273208370962 0 0.28339701759509273 -0.41193309470027872 0 0.30423219795801659 -0.41367420192363041 0 0.32002150961112441 -0.41297678088873818 0 0.30580834454502381 -0.40000273208370962 0 0.30423219795801659 -0.41367420192363041 0 0.31464155569349028 -0.45401571705744909 0 0.30770192008082542 -0.4297842000217949 0 0.29637889112602539 -0.44251766820231442 0 0.31464155569349028 -0.45401571705744909 0 0.29264107139733919 -0.46898984000204552 0 0.30864095575112133 -0.48096195588528878 0 0.31464155569349028 -0.45401571705744909 0 0.29637889112602539 -0.44251766820231442 0 0.29264107139733919 -0.46898984000204552 0 0.29637889112602539 -0.44251766820231442 0 0.27135170467576558 -0.45876606583748319 0 0.29264107139733919 -0.46898984000204552 0 0.29637889112602539 -0.44251766820231442 0 0.27960517305620131 -0.43951857188348747 0 0.27135170467576558 -0.45876606583748319 0 0.27960517305620131 -0.43951857188348747 0 0.25378485024219122 -0.44736468920457029 0 0.27135170467576558 -0.45876606583748319 0 0.26243344209993058 -0.42923514927863282 0 0.27960517305620131 -0.43951857188348747 0 0.25378485024219122 -0.44736468920457029 0 0.26243344209993058 -0.42923514927863282 0 0.25378485024219122 -0.44736468920457029 0 0.24394066691110711 -0.43689245887928319 0 0.25378485024219122 -0.44736468920457029 0 0.25125852619731792 -0.45960679680412142 0 0.27135170467576558 -0.45876606583748319 0 0.25125852619731792 -0.45960679680412142 0 0.27135170467576558 -0.45876606583748319 0 0.2566778222055624 -0.47370805155112272 0 0.25125852619731792 -0.45960679680412142 0 0.2566778222055624 -0.47370805155112272 0 0.24550694710042301 -0.46913314500442782 0 0.27135170467576558 -0.45876606583748319 0 0.27410080227946471 -0.48038265915823292 0 0.2566778222055624 -0.47370805155112272 0 0.27135170467576558 -0.45876606583748319 0 0.27410080227946471 -0.48038265915823292 0 0.29264107139733919 -0.46898984000204552 0 0.27410080227946471 -0.48038265915823292 0 0.2566778222055624 -0.47370805155112272 0 0.26000580556853198 -0.5 0 0.2566778222055624 -0.47370805155112272 0 0.26000580556853198 -0.5 0 0.24230218856454169 -0.48313180079606288 0 0.27410080227946471 -0.48038265915823292 0 0.26000580556853198 -0.5 0 0.28484483770404628 -0.5 0 0.28484483770404628 -0.5 0 0.29264107139733919 -0.46898984000204552 0 0.30864095575112133 -0.48096195588528878 0 0.27410080227946471 -0.48038265915823292 0 0.28484483770404628 -0.5 0 0.29264107139733919 -0.46898984000204552 0 0.28484483770404628 -0.5 0 0.30864095575112133 -0.48096195588528878 0 0.30968386983956059 -0.5 0 0.33285610941633459 -0.30267524102964261 0 0.32905484390042339 -0.28056116691558908 0 0.34419403755030209 -0.27899559213865971 0 0.33285610941633459 -0.30267524102964261 0 0.34419403755030209 -0.27899559213865971 0 0.33285610941633459 -0.30267524102964261 0 0.31529257228651653 -0.28772803248564283 0 0.30672443514233549 -0.30831479053078997 0 0.33285610941633459 -0.30267524102964261 0 0.32151818128236698 -0.32635488992062539 0 0.30672443514233549 -0.30831479053078997 0 0.33285610941633459 -0.30267524102964261 0 0.31529257228651653 -0.28772803248564283 0 0.32905484390042339 -0.28056116691558908 0 0.31529257228651653 -0.28772803248564283 0 0.32289562459030352 -0.26975245673254439 0 0.32905484390042339 -0.28056116691558908 0 0.31529257228651653 -0.28772803248564283 0 0.32289562459030352 -0.26975245673254439 0 0.30075781405652852 -0.27153579031614872 0 0.32289562459030352 -0.26975245673254439 0 0.31908501265015221 -0.25338082040381199 0 0.33265432383720989 -0.25624671888636802 0 0.32289562459030352 -0.26975245673254439 0 0.31908501265015221 -0.25338082040381199 0 0.30075781405652852 -0.27153579031614872 0 0.32289562459030352 -0.26975245673254439 0 0.33265432383720989 -0.25624671888636802 0 0.3351295780737038 -0.2692699087471131 0 0.33265432383720989 -0.25624671888636802 0 0.3351295780737038 -0.2692699087471131 0 0.34684906049028008 -0.26079360906240417 0 0.34125715901687831 -0.24631295959495231 0 0.33265432383720989 -0.25624671888636802 0 0.34684906049028008 -0.26079360906240417 0 0.3351295780737038 -0.2692699087471131 0 0.34419403755030209 -0.27899559213865971 0 0.34684906049028008 -0.26079360906240417 0 0.32289562459030352 -0.26975245673254439 0 0.32905484390042339 -0.28056116691558908 0 0.3351295780737038 -0.2692699087471131 0 0.32905484390042339 -0.28056116691558908 0 0.3351295780737038 -0.2692699087471131 0 0.34419403755030209 -0.27899559213865971 0 0.34419403755030209 -0.27899559213865971 0 0.35553196568426959 -0.25531594324767681 0 0.34419403755030209 -0.27899559213865971 0 0.35553196568426959 -0.25531594324767681 0 0.35998102210702132 -0.27326513548743231 0 0.35152866737639032 -0.2346744593862517 0 0.35553196568426959 -0.25531594324767681 0 0.34684906049028008 -0.26079360906240417 0 0.34419403755030209 -0.27899559213865971 0 0.35553196568426959 -0.25531594324767681 0 0.34684906049028008 -0.26079360906240417 0 0.35553196568426959 -0.25531594324767681 0 0.36532803091223609 -0.26207479821275742 0 0.35998102210702132 -0.27326513548743231 0 0.35553196568426959 -0.25531594324767681 0 0.36532803091223609 -0.26207479821275742 0 0.37117659030456479 -0.25039464930686101 0 0.36532803091223609 -0.26207479821275742 0 0.37117659030456479 -0.25039464930686101 0 0.37462254555308883 -0.26932346480905961 0 0.37117659030456479 -0.25039464930686101 0 0.37462254555308883 -0.26932346480905961 0 0.36532803091223609 -0.26207479821275742 0 0.35998102210702132 -0.27326513548743231 0 0.37462254555308883 -0.26932346480905961 0 0.35998102210702132 -0.27326513548743231 0 0.37462254555308883 -0.26932346480905961 0 0.37228297391739329 -0.28427396786919051 0 0.35998102210702132 -0.27326513548743231 0 0.37228297391739329 -0.28427396786919051 0 0.35481540458069138 -0.29473124836661357 0 0.37228297391739329 -0.28427396786919051 0 0.35481540458069138 -0.29473124836661357 0 0.3715668737265399 -0.3034476381112351 0 0.34419403755030209 -0.27899559213865971 0 0.35998102210702132 -0.27326513548743231 0 0.35481540458069138 -0.29473124836661357 0 0.33285610941633459 -0.30267524102964261 0 0.34419403755030209 -0.27899559213865971 0 0.35481540458069138 -0.29473124836661357 0 0.33285610941633459 -0.30267524102964261 0 0.35481540458069138 -0.29473124836661357 0 0.35092974431091323 -0.32101440982816498 0 0.35481540458069138 -0.29473124836661357 0 0.3715668737265399 -0.3034476381112351 0 0.35092974431091323 -0.32101440982816498 0 0.35481540458069138 -0.29473124836661357 0 0.35092974431091323 -0.32101440982816498 0 0.37765972490598049 -0.32132120331881581 0 0.36472043153167077 -0.3371009235910592 0 0.35092974431091323 -0.32101440982816498 0 0.37765972490598049 -0.32132120331881581 0 0.3715668737265399 -0.3034476381112351 0 0.35092974431091323 -0.32101440982816498 0 0.35092974431091323 -0.32101440982816498 0 0.34704408404113501 -0.34729757128971661 0 0.36472043153167077 -0.3371009235910592 0 0.35092974431091323 -0.32101440982816498 0 0.34704408404113501 -0.34729757128971661 0 0.38322448005357468 -0.34570470608457432 0 0.36977356565697012 -0.37231951988880552 0 0.36336682542108217 -0.35503692784885188 0 0.38322448005357468 -0.34570470608457432 0 0.36472043153167077 -0.3371009235910592 0 0.36336682542108217 -0.35503692784885188 0 0.36472043153167077 -0.3371009235910592 0 0.36336682542108217 -0.35503692784885188 0 0.34704408404113501 -0.34729757128971661 0 0.36336682542108217 -0.35503692784885188 0 0.34704408404113501 -0.34729757128971661 0 0.34315842377135691 -0.37358073275126807 0 0.36977356565697012 -0.37231951988880552 0 0.36336682542108217 -0.35503692784885188 0 0.34315842377135691 -0.37358073275126807 0 0.34704408404113501 -0.34729757128971661 0 0.34315842377135691 -0.37358073275126807 0 0.33238703930494201 -0.38491330402125951 0 0.32916483430070409 -0.36491209161083038 0 0.34315842377135691 -0.37358073275126807 0 0.34704408404113501 -0.34729757128971661 0 0.32916483430070409 -0.36491209161083038 0 0.34315842377135691 -0.37358073275126807 0 0.34704408404113501 -0.34729757128971661 0 0.32916483430070409 -0.36491209161083038 0 0.32984683236752382 -0.34277363379572051 0 0.31990699150200619 -0.35494627358206959 0 0.32984683236752382 -0.34277363379572051 0 0.30788564512914102 -0.34493438457919462 0 0.31990699150200619 -0.35494627358206959 0 0.3105032573505192 -0.36338088925720169 0 0.30788564512914102 -0.34493438457919462 0 0.32916483430070409 -0.36491209161083038 0 0.31990699150200619 -0.35494627358206959 0 0.32984683236752382 -0.34277363379572051 0 0.32916483430070409 -0.36491209161083038 0 0.31990699150200619 -0.35494627358206959 0 0.3105032573505192 -0.36338088925720169 0 0.31589571276853778 -0.38271771498759449 0 0.32916483430070409 -0.36491209161083038 0 0.3105032573505192 -0.36338088925720169 0 0.33285610941633459 -0.30267524102964261 0 0.35092974431091323 -0.32101440982816498 0 0.32151818128236698 -0.32635488992062539 0 0.35092974431091323 -0.32101440982816498 0 0.32984683236752382 -0.34277363379572051 0 0.32151818128236698 -0.32635488992062539 0 0.35092974431091323 -0.32101440982816498 0 0.34704408404113501 -0.34729757128971661 0 0.32984683236752382 -0.34277363379572051 0 0.32984683236752382 -0.34277363379572051 0 0.32151818128236698 -0.32635488992062539 0 0.30788564512914102 -0.34493438457919462 0 0.33285610941633459 -0.30267524102964261 0 0.32151818128236698 -0.32635488992062539 0 0.32151818128236698 -0.32635488992062539 0 0.29477255121176721 -0.32917666315065192 0 0.30672443514233549 -0.30831479053078997 0 0.32151818128236698 -0.32635488992062539 0 0.29477255121176721 -0.32917666315065192 0 0.30788564512914102 -0.34493438457919462 0 0.29477255121176721 -0.32917666315065192 0 0.30788564512914102 -0.34493438457919462 0 0.29098070667287568 -0.35676214033386089 0 0.29477255121176721 -0.32917666315065192 0 0.27763758530020322 -0.32594647621438227 0 0.27700988093562051 -0.34180343955313502 0 0.29477255121176721 -0.32917666315065192 0 0.29098070667287568 -0.35676214033386089 0 0.27700988093562051 -0.34180343955313502 0 0.29477255121176721 -0.32917666315065192 0 0.29098070667287568 -0.35676214033386089 0 0.29477255121176721 -0.32917666315065192 0 0.27763758530020322 -0.32594647621438227 0 0.28252133168056898 -0.31077754772189281 0 0.29477255121176721 -0.32917666315065192 0 0.28252133168056898 -0.31077754772189281 0 0.30672443514233549 -0.30831479053078997 0 0.31589571276853778 -0.38271771498759449 0 0.30202196475466447 -0.3757046758235098 0 0.3105032573505192 -0.36338088925720169 0 0.30202196475466447 -0.3757046758235098 0 0.3105032573505192 -0.36338088925720169 0 0.29098070667287568 -0.35676214033386089 0 0.3105032573505192 -0.36338088925720169 0 0.30788564512914102 -0.34493438457919462 0 0.29098070667287568 -0.35676214033386089 0 0.29098070667287568 -0.35676214033386089 0 0.27736851150307179 -0.3568183234574992 0 0.27700988093562051 -0.34180343955313502 0 0.2871888621339842 -0.38434761751706992 0 0.29098070667287568 -0.35676214033386089 0 0.2871888621339842 -0.38434761751706992 0 0.29098070667287568 -0.35676214033386089 0 0.28209797868466152 -0.36878166796026529 0 0.30202196475466447 -0.3757046758235098 0 0.2871888621339842 -0.38434761751706992 0 0.29098070667287568 -0.35676214033386089 0 0.29098070667287568 -0.35676214033386089 0 0.28209797868466152 -0.36878166796026529 0 0.27736851150307179 -0.3568183234574992 0 0.28305146244754031 -0.38369685383200169 0 0.28209797868466152 -0.36878166796026529 0 0.26784559653838191 -0.36428261205586671 0 0.28305146244754031 -0.38369685383200169 0 0.26784559653838191 -0.36428261205586671 0 0.28305146244754031 -0.38369685383200169 0 0.26941708664028929 -0.36927683336389883 0 0.26784559653838191 -0.36428261205586671 0 0.27219475889920652 -0.37726513538453449 0 0.26456748077747838 -0.37613428559076328 0 0.26941708664028929 -0.36927683336389883 0 0.28209797868466152 -0.36878166796026529 0 0.26784559653838191 -0.36428261205586671 0 0.27736851150307179 -0.3568183234574992 0 0.26784559653838191 -0.36428261205586671 0 0.26742478256845592 -0.35171464244009942 0 0.27736851150307179 -0.3568183234574992 0 0.26742478256845592 -0.35171464244009942 0 0.27736851150307179 -0.3568183234574992 0 0.27700988093562051 -0.34180343955313502 0 0.26742478256845592 -0.35171464244009942 0 0.27700988093562051 -0.34180343955313502 0 0.2645249343468829 -0.34122131565333691 0 0.26784559653838191 -0.36428261205586671 0 0.25263973062922351 -0.34486837027973172 0 0.24982561129663111 -0.35979753461396008 0 0.26784559653838191 -0.36428261205586671 0 0.26742478256845592 -0.35171464244009942 0 0.25263973062922351 -0.34486837027973172 0 0.26784559653838191 -0.36428261205586671 0 0.25263973062922351 -0.34486837027973172 0 0.26742478256845592 -0.35171464244009942 0 0.25263973062922351 -0.34486837027973172 0 0.2645249343468829 -0.34122131565333691 0 0.26941708664028929 -0.36927683336389883 0 0.26784559653838191 -0.36428261205586671 0 0.24982561129663111 -0.35979753461396008 0 0.25635448840571567 -0.37789214917184888 0 0.244685375660469 -0.37082457697003868 0 0.24982561129663111 -0.35979753461396008 0 0.26941708664028929 -0.36927683336389883 0 0.24982561129663111 -0.35979753461396008 0 0.25635448840571567 -0.37789214917184888 0 0.24982561129663111 -0.35979753461396008 0 0.26456748077747838 -0.37613428559076328 0 0.26941708664028929 -0.36927683336389883 0 0.24982561129663111 -0.35979753461396008 0 0.26456748077747838 -0.37613428559076328 0 0.25635448840571567 -0.37789214917184888 0 0.24982561129663111 -0.35979753461396008 0 0.26709370848087638 -0.31965014721506602 0 0.26637533957523812 -0.30708832893341192 0 0.28252133168056898 -0.31077754772189281 0 0.26709370848087638 -0.31965014721506602 0 0.27763758530020322 -0.32594647621438227 0 0.2670518035032709 -0.3320001606162401 0 0.26709370848087638 -0.31965014721506602 0 0.27763758530020322 -0.32594647621438227 0 0.28252133168056898 -0.31077754772189281 0 0.27763758530020322 -0.32594647621438227 0 0.27700988093562051 -0.34180343955313502 0 0.2670518035032709 -0.3320001606162401 0 0.27700988093562051 -0.34180343955313502 0 0.2670518035032709 -0.3320001606162401 0 0.2645249343468829 -0.34122131565333691 0 0.2670518035032709 -0.3320001606162401 0 0.25849847409784349 -0.335719965377478 0 0.25969532287649189 -0.32422764865142628 0 0.2670518035032709 -0.3320001606162401 0 0.25849847409784349 -0.335719965377478 0 0.2645249343468829 -0.34122131565333691 0 0.25263973062922351 -0.34486837027973172 0 0.25849847409784349 -0.335719965377478 0 0.2645249343468829 -0.34122131565333691 0 0.25263973062922351 -0.34486837027973172 0 0.25849847409784349 -0.335719965377478 0 0.25265298121672408 -0.33525859420974152 0 0.25263973062922351 -0.34486837027973172 0 0.25265298121672408 -0.33525859420974152 0 0.24760088339293451 -0.33261137597632551 0 0.25849847409784349 -0.335719965377478 0 0.25187283674689481 -0.32783466520543098 0 0.25969532287649189 -0.32422764865142628 0 0.25849847409784349 -0.335719965377478 0 0.25265298121672408 -0.33525859420974152 0 0.25187283674689481 -0.32783466520543098 0 0.25265298121672408 -0.33525859420974152 0 0.25187283674689481 -0.32783466520543098 0 0.24760088339293451 -0.33261137597632551 0 0.25187283674689481 -0.32783466520543098 0 0.25309486223231348 -0.32044627157215549 0 0.25969532287649189 -0.32422764865142628 0 0.25187283674689481 -0.32783466520543098 0 0.25309486223231348 -0.32044627157215549 0 0.2475020751845502 -0.32184420185913071 0 0.26709370848087638 -0.31965014721506602 0 0.2670518035032709 -0.3320001606162401 0 0.25969532287649189 -0.32422764865142628 0 0.26709370848087638 -0.31965014721506602 0 0.25969532287649189 -0.32422764865142628 0 0.25853877455866342 -0.31401257623769901 0 0.26709370848087638 -0.31965014721506602 0 0.25853877455866342 -0.31401257623769901 0 0.26637533957523812 -0.30708832893341192 0 0.25309486223231348 -0.32044627157215549 0 0.25853877455866342 -0.31401257623769901 0 0.24772983355334491 -0.31471335422545998 0 0.25309486223231348 -0.32044627157215549 0 0.25969532287649189 -0.32422764865142628 0 0.25853877455866342 -0.31401257623769901 0 0.25853877455866342 -0.31401257623769901 0 0.25427298266855808 -0.30573645410763067 0 0.24772983355334491 -0.31471335422545998 0 0.25427298266855808 -0.30573645410763067 0 0.25014118485144449 -0.29680263714615618 0 0.26090186959010409 -0.29662450906835708 0 0.25427298266855808 -0.30573645410763067 0 0.26090186959010409 -0.29662450906835708 0 0.26637533957523812 -0.30708832893341192 0 0.25853877455866342 -0.31401257623769901 0 0.25427298266855808 -0.30573645410763067 0 0.26637533957523812 -0.30708832893341192 0 0.25265951486612498 -0.28540915111717041 0 0.25014118485144449 -0.29680263714615618 0 0.26090186959010409 -0.29662450906835708 0 0.25265951486612498 -0.28540915111717041 0 0.26090186959010409 -0.29662450906835708 0 0.26758780049759401 -0.28723890893096238 0 0.25265951486612498 -0.28540915111717041 0 0.26758780049759401 -0.28723890893096238 0 0.26433043139789392 -0.27938668233278757 0 0.26758780049759401 -0.28723890893096238 0 0.28002017637987048 -0.28551779477174227 0 0.27203298282728278 -0.28087303078277842 0 0.26758780049759401 -0.28723890893096238 0 0.27203298282728278 -0.28087303078277842 0 0.26433043139789392 -0.27938668233278757 0 0.26090186959010409 -0.29662450906835708 0 0.26758780049759401 -0.28723890893096238 0 0.27526560521834242 -0.2965077406665334 0 0.26758780049759401 -0.28723890893096238 0 0.27526560521834242 -0.2965077406665334 0 0.28002017637987048 -0.28551779477174227 0 0.27526560521834242 -0.2965077406665334 0 0.26637533957523812 -0.30708832893341192 0 0.28252133168056898 -0.31077754772189281 0 0.26090186959010409 -0.29662450906835708 0 0.27526560521834242 -0.2965077406665334 0 0.26637533957523812 -0.30708832893341192 0 0.27526560521834242 -0.2965077406665334 0 0.28252133168056898 -0.31077754772189281 0 0.29338586497645858 -0.2931763688762849 0 0.28252133168056898 -0.31077754772189281 0 0.29338586497645858 -0.2931763688762849 0 0.30672443514233549 -0.30831479053078997 0 0.27526560521834242 -0.2965077406665334 0 0.28002017637987048 -0.28551779477174227 0 0.29338586497645858 -0.2931763688762849 0 0.28002017637987048 -0.28551779477174227 0 0.29338586497645858 -0.2931763688762849 0 0.30075781405652852 -0.27153579031614872 0 0.31529257228651653 -0.28772803248564283 0 0.29338586497645858 -0.2931763688762849 0 0.30075781405652852 -0.27153579031614872 0 0.31529257228651653 -0.28772803248564283 0 0.29338586497645858 -0.2931763688762849 0 0.30672443514233549 -0.30831479053078997 0 0.30312161690947398 -0.24426095551615151 0 0.30075781405652852 -0.27153579031614872 0 0.28939244640751077 -0.26018123492947248 0 0.30312161690947398 -0.24426095551615151 0 0.31908501265015221 -0.25338082040381199 0 0.30075781405652852 -0.27153579031614872 0 0.28002017637987048 -0.28551779477174227 0 0.30075781405652852 -0.27153579031614872 0 0.27774262678745049 -0.27225063695793289 0 0.30075781405652852 -0.27153579031614872 0 0.27774262678745049 -0.27225063695793289 0 0.30075781405652852 -0.27153579031614872 0 0.28939244640751077 -0.26018123492947248 0 0.27774262678745049 -0.27225063695793289 0 0.28939244640751077 -0.26018123492947248 0 0.2783925133346638 -0.26544144645972678 0 0.27774262678745049 -0.27225063695793289 0 0.28694766094943702 -0.24741734539740221 0 0.28939244640751077 -0.26018123492947248 0 0.2783925133346638 -0.26544144645972678 0 0.30312161690947398 -0.24426095551615151 0 0.28694766094943702 -0.24741734539740221 0 0.28939244640751077 -0.26018123492947248 0 0.26868981439572581 -0.23959115904570871 0 0.2783925133346638 -0.26544144645972678 0 0.28694766094943702 -0.24741734539740221 0 0.277943669603888 -0.24478247151693469 0 0.2783925133346638 -0.26544144645972678 0 0.26868981439572581 -0.23959115904570871 0 0.26978385158464002 -0.25969422566244321 0 0.26300965709125212 -0.25739834646097981 0 0.26868981439572581 -0.23959115904570871 0 0.2783925133346638 -0.26544144645972678 0 0.26978385158464002 -0.25969422566244321 0 0.2783925133346638 -0.26544144645972678 0 0.26978385158464002 -0.25969422566244321 0 0.27303057994347102 -0.26627499930123472 0 0.26978385158464002 -0.25969422566244321 0 0.2662033280671296 -0.26771368812483592 0 0.27303057994347102 -0.26627499930123472 0 0.26978385158464002 -0.25969422566244321 0 0.2662033280671296 -0.26771368812483592 0 0.26300965709125212 -0.25739834646097981 0 0.27774262678745049 -0.27225063695793289 0 0.25472743951837262 -0.27296548359971712 0 0.27774262678745049 -0.27225063695793289 0 0.2662033280671296 -0.26771368812483592 0 0.25472743951837262 -0.27296548359971712 0 0.28002017637987048 -0.28551779477174227 0 0.27774262678745049 -0.27225063695793289 0 0.27203298282728278 -0.28087303078277842 0 0.2783925133346638 -0.26544144645972678 0 0.27774262678745049 -0.27225063695793289 0 0.27303057994347102 -0.26627499930123472 0 0.27774262678745049 -0.27225063695793289 0 0.2662033280671296 -0.26771368812483592 0 0.27303057994347102 -0.26627499930123472 0 0.27774262678745049 -0.27225063695793289 0 0.27203298282728278 -0.28087303078277842 0 0.26433043139789392 -0.27938668233278757 0 0.27774262678745049 -0.27225063695793289 0 0.26433043139789392 -0.27938668233278757 0 0.25472743951837262 -0.27296548359971712 0 0.2662033280671296 -0.26771368812483592 0 0.25472743951837262 -0.27296548359971712 0 0.25853536449981601 -0.26367831570728389 0 0.25265951486612498 -0.28540915111717041 0 0.26433043139789392 -0.27938668233278757 0 0.25472743951837262 -0.27296548359971712 0 0.25472743951837262 -0.27296548359971712 0 0.25853536449981601 -0.26367831570728389 0 0.25020103332250959 -0.25663574464360273 0 0.26868981439572581 -0.23959115904570871 0 0.26300965709125212 -0.25739834646097981 0 0.25020103332250959 -0.25663574464360273 0 0.2662033280671296 -0.26771368812483592 0 0.26300965709125212 -0.25739834646097981 0 0.25853536449981601 -0.26367831570728389 0 0.26300965709125212 -0.25739834646097981 0 0.25853536449981601 -0.26367831570728389 0 0.25020103332250959 -0.25663574464360273 0 0.25020103332250959 -0.25663574464360273 0 0.23171225224929459 -0.2736803302414979 0 0.25020103332250959 -0.25663574464360273 0 0.23171225224929459 -0.2736803302414979 0 0.2246033797065928 -0.26274255842303429 0 0.25472743951837262 -0.27296548359971712 0 0.25020103332250959 -0.25663574464360273 0 0.23171225224929459 -0.2736803302414979 0 0.25265951486612498 -0.28540915111717041 0 0.25472743951837262 -0.27296548359971712 0 0.23171225224929459 -0.2736803302414979 0 0.25472743951837262 -0.27296548359971712 0 0.23171225224929459 -0.2736803302414979 0 0.23171225224929459 -0.2736803302414979 0 0.2246033797065928 -0.26274255842303429 0 0.2181870046660393 -0.27410042144915259 0 0.23171225224929459 -0.2736803302414979 0 0.2181870046660393 -0.27410042144915259 0 0.21776081464608851 -0.28654199329542052 0 0.23171225224929459 -0.2736803302414979 0 0.21776081464608851 -0.28654199329542052 0 0.23171225224929459 -0.2736803302414979 0 0.2181870046660393 -0.27410042144915259 0 0.25020103332250959 -0.25663574464360273 0 0.2246033797065928 -0.26274255842303429 0 0.22490999937336131 -0.24839662353886441 0 0.2246033797065928 -0.26274255842303429 0 0.20923723190706209 -0.26408044562777822 0 0.22490999937336131 -0.24839662353886441 0 0.20923723190706209 -0.26408044562777822 0 0.22490999937336131 -0.24839662353886441 0 0.20112092782514659 -0.23976618644775011 0 0.20923723190706209 -0.26408044562777822 0 0.20863340902614849 -0.28026206612122651 0 0.19707314238081669 -0.28098891115988689 0 0.20923723190706209 -0.26408044562777822 0 0.2181870046660393 -0.27410042144915259 0 0.20863340902614849 -0.28026206612122651 0 0.2246033797065928 -0.26274255842303429 0 0.20923723190706209 -0.26408044562777822 0 0.2181870046660393 -0.27410042144915259 0 0.2181870046660393 -0.27410042144915259 0 0.20863340902614849 -0.28026206612122651 0 0.21776081464608851 -0.28654199329542052 0 0.19707314238081669 -0.28098891115988689 0 0.1903369077187507 -0.26257416597042899 0 0.18155860650776201 -0.28114009150550517 0 0.20923723190706209 -0.26408044562777822 0 0.19707314238081669 -0.28098891115988689 0 0.1903369077187507 -0.26257416597042899 0 0.19707314238081669 -0.28098891115988689 0 0.1903369077187507 -0.26257416597042899 0 0.20923723190706209 -0.26408044562777822 0 0.1903369077187507 -0.26257416597042899 0 0.20112092782514659 -0.23976618644775011 0 0.1903369077187507 -0.26257416597042899 0 0.18687160578303541 -0.25310112125746681 0 0.20112092782514659 -0.23976618644775011 0 0.1903369077187507 -0.26257416597042899 0 0.20112092782514659 -0.23976618644775011 0 0.1903369077187507 -0.26257416597042899 0 0.18687160578303541 -0.25310112125746681 0 0.19024744030271409 -0.31190624322760602 0 0.20380937704288349 -0.29940365634934452 0 0.20927511377436661 -0.314345260113501 0 0.19024744030271409 -0.31190624322760602 0 0.18909377430619009 -0.29462898385658493 0 0.20380937704288349 -0.29940365634934452 0 0.19024744030271409 -0.31190624322760602 0 0.20380937704288349 -0.29940365634934452 0 0.19707314238081669 -0.28098891115988689 0 0.18909377430619009 -0.29462898385658493 0 0.20380937704288349 -0.29940365634934452 0 0.19707314238081669 -0.28098891115988689 0 0.20380937704288349 -0.29940365634934452 0 0.19707314238081669 -0.28098891115988689 0 0.18909377430619009 -0.29462898385658493 0 0.18155860650776201 -0.28114009150550517 0 0.21776081464608851 -0.28654199329542052 0 0.20380937704288349 -0.29940365634934452 0 0.20863340902614849 -0.28026206612122651 0 0.21776081464608851 -0.28654199329542052 0 0.20380937704288349 -0.29940365634934452 0 0.20863340902614849 -0.28026206612122651 0 0.19707314238081669 -0.28098891115988689 0 0.20380937704288349 -0.29940365634934452 0 0.21776081464608851 -0.28654199329542052 0 0.20380937704288349 -0.29940365634934452 0 0.2189745522772589 -0.29195350520325147 0 0.21392475695459831 -0.30083421295416612 0 0.2168577013915548 -0.31062018454045431 0 0.2189745522772589 -0.29195350520325147 0 0.2168577013915548 -0.31062018454045431 0 0.2189745522772589 -0.29195350520325147 0 0.21392475695459831 -0.30083421295416612 0 0.20380937704288349 -0.29940365634934452 0 0.2189745522772589 -0.29195350520325147 0 0.20380937704288349 -0.29940365634934452 0 0.20927511377436661 -0.314345260113501 0 0.21392475695459831 -0.30083421295416612 0 0.20380937704288349 -0.29940365634934452 0 0.20927511377436661 -0.314345260113501 0 0.21392475695459831 -0.30083421295416612 0 0.2168577013915548 -0.31062018454045431 0 0.20927511377436661 -0.314345260113501 0 0.2168577013915548 -0.31062018454045431 0 0.22493901745284961 -0.31187021647997171 0 0.2252229945268529 -0.30324589507255068 0 0.2168577013915548 -0.31062018454045431 0 0.2252229945268529 -0.30324589507255068 0 0.2189745522772589 -0.29195350520325147 0 0.2252229945268529 -0.30324589507255068 0 0.23308050178138759 -0.30101035242373508 0 0.22800721377404989 -0.29483102018484808 0 0.22493901745284961 -0.31187021647997171 0 0.2252229945268529 -0.30324589507255068 0 0.231869032688064 -0.310031340018528 0 0.2252229945268529 -0.30324589507255068 0 0.23308050178138759 -0.30101035242373508 0 0.231869032688064 -0.310031340018528 0 0.23171225224929459 -0.2736803302414979 0 0.22787975289803181 -0.28722187709301028 0 0.23835237403541679 -0.29176618780804869 0 0.21776081464608851 -0.28654199329542052 0 0.2189745522772589 -0.29195350520325147 0 0.22787975289803181 -0.28722187709301028 0 0.23171225224929459 -0.2736803302414979 0 0.21776081464608851 -0.28654199329542052 0 0.22787975289803181 -0.28722187709301028 0 0.2252229945268529 -0.30324589507255068 0 0.2189745522772589 -0.29195350520325147 0 0.22800721377404989 -0.29483102018484808 0 0.2189745522772589 -0.29195350520325147 0 0.22800721377404989 -0.29483102018484808 0 0.22787975289803181 -0.28722187709301028 0 0.22800721377404989 -0.29483102018484808 0 0.22787975289803181 -0.28722187709301028 0 0.23835237403541679 -0.29176618780804869 0 0.23308050178138759 -0.30101035242373508 0 0.22800721377404989 -0.29483102018484808 0 0.23835237403541679 -0.29176618780804869 0 0.25265951486612498 -0.28540915111717041 0 0.23171225224929459 -0.2736803302414979 0 0.23835237403541679 -0.29176618780804869 0 0.25265951486612498 -0.28540915111717041 0 0.25014118485144449 -0.29680263714615618 0 0.23835237403541679 -0.29176618780804869 0 0.23308050178138759 -0.30101035242373508 0 0.231869032688064 -0.310031340018528 0 0.2419508938825542 -0.30517731903470002 0 0.231869032688064 -0.310031340018528 0 0.2419508938825542 -0.30517731903470002 0 0.23936687188875061 -0.31558789510204122 0 0.23308050178138759 -0.30101035242373508 0 0.23835237403541679 -0.29176618780804869 0 0.2419508938825542 -0.30517731903470002 0 0.25014118485144449 -0.29680263714615618 0 0.23835237403541679 -0.29176618780804869 0 0.2419508938825542 -0.30517731903470002 0 0.25427298266855808 -0.30573645410763067 0 0.25014118485144449 -0.29680263714615618 0 0.2419508938825542 -0.30517731903470002 0 0.2419508938825542 -0.30517731903470002 0 0.24772983355334491 -0.31471335422545998 0 0.23936687188875061 -0.31558789510204122 0 0.25427298266855808 -0.30573645410763067 0 0.2419508938825542 -0.30517731903470002 0 0.24772983355334491 -0.31471335422545998 0 0.24772983355334491 -0.31471335422545998 0 0.23936687188875061 -0.31558789510204122 0 0.242551095942036 -0.32100609240501082 0 0.25309486223231348 -0.32044627157215549 0 0.24772983355334491 -0.31471335422545998 0 0.2475020751845502 -0.32184420185913071 0 0.24772983355334491 -0.31471335422545998 0 0.242551095942036 -0.32100609240501082 0 0.2475020751845502 -0.32184420185913071 0 0.231869032688064 -0.310031340018528 0 0.23936687188875061 -0.31558789510204122 0 0.2374338647200647 -0.32545412850359678 0 0.231869032688064 -0.310031340018528 0 0.2374338647200647 -0.32545412850359678 0 0.23412467988891039 -0.32122909358761331 0 0.231869032688064 -0.310031340018528 0 0.2374338647200647 -0.32545412850359678 0 0.23936687188875061 -0.31558789510204122 0 0.2374338647200647 -0.32545412850359678 0 0.242551095942036 -0.32100609240501082 0 0.2374338647200647 -0.32545412850359678 0 0.24539215119729599 -0.32575009278989892 0 0.242551095942036 -0.32100609240501082 0 0.2374338647200647 -0.32545412850359678 0 0.23412467988891039 -0.32122909358761331 0 0.2324390764389111 -0.32599132827117439 0 0.2374338647200647 -0.32545412850359678 0 0.23362528537680141 -0.33111175972821227 0 0.2324390764389111 -0.32599132827117439 0 0.2374338647200647 -0.32545412850359678 0 0.23412467988891039 -0.32122909358761331 0 0.2374338647200647 -0.32545412850359678 0 0.24539215119729599 -0.32575009278989892 0 0.24760088339293451 -0.33261137597632551 0 0.24539215119729599 -0.32575009278989892 0 0.242551095942036 -0.32100609240501082 0 0.2475020751845502 -0.32184420185913071 0 0.25187283674689481 -0.32783466520543098 0 0.24539215119729599 -0.32575009278989892 0 0.2475020751845502 -0.32184420185913071 0 0.25263973062922351 -0.34486837027973172 0 0.2374338647200647 -0.32545412850359678 0 0.24362973800834711 -0.34262583155877868 0 0.2374338647200647 -0.32545412850359678 0 0.24362973800834711 -0.34262583155877868 0 0.23596925841221769 -0.33619126495569618 0 0.25263973062922351 -0.34486837027973172 0 0.2374338647200647 -0.32545412850359678 0 0.24760088339293451 -0.33261137597632551 0 0.2374338647200647 -0.32545412850359678 0 0.24362973800834711 -0.34262583155877868 0 0.25263973062922351 -0.34486837027973172 0 0.2374338647200647 -0.32545412850359678 0 0.25187283674689481 -0.32783466520543098 0 0.24539215119729599 -0.32575009278989892 0 0.24760088339293451 -0.33261137597632551 0 0.24362973800834711 -0.34262583155877868 0 0.23596925841221769 -0.33619126495569618 0 0.23464077164883551 -0.34234255114346462 0 0.2374338647200647 -0.32545412850359678 0 0.23596925841221769 -0.33619126495569618 0 0.23362528537680141 -0.33111175972821227 0 0.23362528537680141 -0.33111175972821227 0 0.2286806108941187 -0.32945217273751759 0 0.2324390764389111 -0.32599132827117439 0 0.22410516719745499 -0.33516949401835011 0 0.22075683041219829 -0.34573265928085839 0 0.21474085050585101 -0.32928686387765699 0 0.23362528537680141 -0.33111175972821227 0 0.2286806108941187 -0.32945217273751759 0 0.2309894276698731 -0.33692310979446449 0 0.23596925841221769 -0.33619126495569618 0 0.23362528537680141 -0.33111175972821227 0 0.2309894276698731 -0.33692310979446449 0 0.2286806108941187 -0.32945217273751759 0 0.2309894276698731 -0.33692310979446449 0 0.22410516719745499 -0.33516949401835011 0 0.23464077164883551 -0.34234255114346462 0 0.2309894276698731 -0.33692310979446449 0 0.22863312062591801 -0.34276397372949952 0 0.23596925841221769 -0.33619126495569618 0 0.23464077164883551 -0.34234255114346462 0 0.2309894276698731 -0.33692310979446449 0 0.2309894276698731 -0.33692310979446449 0 0.22863312062591801 -0.34276397372949952 0 0.22410516719745499 -0.33516949401835011 0 0.22863312062591801 -0.34276397372949952 0 0.22410516719745499 -0.33516949401835011 0 0.22075683041219829 -0.34573265928085839 0 0.2286806108941187 -0.32945217273751759 0 0.22410516719745499 -0.33516949401835011 0 0.22369360774040409 -0.32722330634228508 0 0.22410516719745499 -0.33516949401835011 0 0.22369360774040409 -0.32722330634228508 0 0.21474085050585101 -0.32928686387765699 0 0.22369360774040409 -0.32722330634228508 0 0.22261046878993559 -0.3194985142789693 0 0.21474085050585101 -0.32928686387765699 0 0.22369360774040409 -0.32722330634228508 0 0.22261046878993559 -0.3194985142789693 0 0.2283309413146602 -0.32270948679893169 0 0.2168577013915548 -0.31062018454045431 0 0.22493901745284961 -0.31187021647997171 0 0.22261046878993559 -0.3194985142789693 0 0.22493901745284961 -0.31187021647997171 0 0.22261046878993559 -0.3194985142789693 0 0.228374828026884 -0.31706773023280282 0 0.22261046878993559 -0.3194985142789693 0 0.228374828026884 -0.31706773023280282 0 0.2283309413146602 -0.32270948679893169 0 0.231869032688064 -0.310031340018528 0 0.228374828026884 -0.31706773023280282 0 0.23412467988891039 -0.32122909358761331 0 0.22493901745284961 -0.31187021647997171 0 0.231869032688064 -0.310031340018528 0 0.228374828026884 -0.31706773023280282 0 0.23412467988891039 -0.32122909358761331 0 0.2324390764389111 -0.32599132827117439 0 0.2283309413146602 -0.32270948679893169 0 0.2286806108941187 -0.32945217273751759 0 0.2324390764389111 -0.32599132827117439 0 0.2283309413146602 -0.32270948679893169 0 0.2286806108941187 -0.32945217273751759 0 0.22369360774040409 -0.32722330634228508 0 0.2283309413146602 -0.32270948679893169 0 0.228374828026884 -0.31706773023280282 0 0.23412467988891039 -0.32122909358761331 0 0.2283309413146602 -0.32270948679893169 0 0.23952911400756199 -0.36302145895010568 0 0.23529122085441501 -0.35276509694740882 0 0.22949119931694609 -0.36960967453352289 0 0.244685375660469 -0.37082457697003868 0 0.22949119931694609 -0.36960967453352289 0 0.24045882993474879 -0.38174266809933072 0 0.244685375660469 -0.37082457697003868 0 0.23952911400756199 -0.36302145895010568 0 0.22949119931694609 -0.36960967453352289 0 0.244685375660469 -0.37082457697003868 0 0.24982561129663111 -0.35979753461396008 0 0.23952911400756199 -0.36302145895010568 0 0.24362973800834711 -0.34262583155877868 0 0.24982561129663111 -0.35979753461396008 0 0.23529122085441501 -0.35276509694740882 0 0.24362973800834711 -0.34262583155877868 0 0.24982561129663111 -0.35979753461396008 0 0.25263973062922351 -0.34486837027973172 0 0.24362973800834711 -0.34262583155877868 0 0.24982561129663111 -0.35979753461396008 0 0.24982561129663111 -0.35979753461396008 0 0.23952911400756199 -0.36302145895010568 0 0.23529122085441501 -0.35276509694740882 0 0.24982561129663111 -0.35979753461396008 0 0.23529122085441501 -0.35276509694740882 0 0.24362973800834711 -0.34262583155877868 0 0.23464077164883551 -0.34234255114346462 0 0.23529122085441501 -0.35276509694740882 0 0.23529122085441501 -0.35276509694740882 0 0.22075683041219829 -0.34573265928085839 0 0.22949119931694609 -0.36960967453352289 0 0.22075683041219829 -0.34573265928085839 0 0.21940555229579861 -0.35976301805002109 0 0.22949119931694609 -0.36960967453352289 0 0.22075683041219829 -0.34573265928085839 0 0.22949119931694609 -0.36960967453352289 0 0.23529122085441501 -0.35276509694740882 0 0.22075683041219829 -0.34573265928085839 0 0.22863312062591801 -0.34276397372949952 0 0.23529122085441501 -0.35276509694740882 0 0.22075683041219829 -0.34573265928085839 0 0.23464077164883551 -0.34234255114346462 0 0.22863312062591801 -0.34276397372949952 0 0.23529122085441501 -0.35276509694740882 0 0.22949119931694609 -0.36960967453352289 0 0.21008562042365689 -0.37033731659119712 0 0.2212213569389252 -0.38401321254664039 0 0.21940555229579861 -0.35976301805002109 0 0.22949119931694609 -0.36960967453352289 0 0.21008562042365689 -0.37033731659119712 0 0.21008562042365689 -0.37033731659119712 0 0.21328578733437289 -0.34211780904288103 0 0.21008562042365689 -0.37033731659119712 0 0.19721588814415039 -0.3542699714179619 0 0.21328578733437289 -0.34211780904288103 0 0.22075683041219829 -0.34573265928085839 0 0.21940555229579861 -0.35976301805002109 0 0.21328578733437289 -0.34211780904288103 0 0.21940555229579861 -0.35976301805002109 0 0.21008562042365689 -0.37033731659119712 0 0.21328578733437289 -0.34211780904288103 0 0.22075683041219829 -0.34573265928085839 0 0.21328578733437289 -0.34211780904288103 0 0.19721588814415039 -0.3542699714179619 0 0.1791372476032001 -0.356552677362375 0 0.19150965827954169 -0.37955078099249201 0 0.21008562042365689 -0.37033731659119712 0 0.19721588814415039 -0.3542699714179619 0 0.19150965827954169 -0.37955078099249201 0 0.2168577013915548 -0.31062018454045431 0 0.22261046878993559 -0.3194985142789693 0 0.21474085050585101 -0.32928686387765699 0 0.2168577013915548 -0.31062018454045431 0 0.20927511377436661 -0.314345260113501 0 0.21474085050585101 -0.32928686387765699 0 0.2168577013915548 -0.31062018454045431 0 0.21474085050585101 -0.32928686387765699 0 0.20357985250550181 -0.32489912713695912 0 0.20927511377436661 -0.314345260113501 0 0.21474085050585101 -0.32928686387765699 0 0.20927511377436661 -0.314345260113501 0 0.21474085050585101 -0.32928686387765699 0 0.22075683041219829 -0.34573265928085839 0 0.21474085050585101 -0.32928686387765699 0 0.21328578733437289 -0.34211780904288103 0 0.19498564544845851 -0.33326331957437599 0 0.21474085050585101 -0.32928686387765699 0 0.21328578733437289 -0.34211780904288103 0 0.20357985250550181 -0.32489912713695912 0 0.21474085050585101 -0.32928686387765699 0 0.21328578733437289 -0.34211780904288103 0 0.22075683041219829 -0.34573265928085839 0 0.21474085050585101 -0.32928686387765699 0 0.21328578733437289 -0.34211780904288103 0 0.20357985250550181 -0.32489912713695912 0 0.21328578733437289 -0.34211780904288103 0 0.19498564544845851 -0.33326331957437599 0 0.19721588814415039 -0.3542699714179619 0 0.21328578733437289 -0.34211780904288103 0 0.19498564544845851 -0.33326331957437599 0 0.19721588814415039 -0.3542699714179619 0 0.19498564544845851 -0.33326331957437599 0 0.18237919657883911 -0.33999828484581912 0 0.19024744030271409 -0.31190624322760602 0 0.20357985250550181 -0.32489912713695912 0 0.19498564544845851 -0.33326331957437599 0 0.19024744030271409 -0.31190624322760602 0 0.20357985250550181 -0.32489912713695912 0 0.20927511377436661 -0.314345260113501 0 0.19024744030271409 -0.31190624322760602 0 0.17561880345797351 -0.31313515467019148 0 0.17668550356254539 -0.32440883010586818 0 0.19024744030271409 -0.31190624322760602 0 0.17668550356254539 -0.32440883010586818 0 0.19024744030271409 -0.31190624322760602 0 0.19498564544845851 -0.33326331957437599 0 0.17668550356254539 -0.32440883010586818 0 0.17561880345797351 -0.31313515467019148 0 0.17668550356254539 -0.32440883010586818 0 0.16400200408578569 -0.31827194257565788 0 0.19498564544845851 -0.33326331957437599 0 0.17668550356254539 -0.32440883010586818 0 0.18237919657883911 -0.33999828484581912 0 0.16676483692685881 -0.33355457373225772 0 0.1791372476032001 -0.356552677362375 0 0.19498564544845851 -0.33326331957437599 0 0.17668550356254539 -0.32440883010586818 0 0.18237919657883911 -0.33999828484581912 0 0.17668550356254539 -0.32440883010586818 0 0.18237919657883911 -0.33999828484581912 0 0.16676483692685881 -0.33355457373225772 0 0.16676483692685881 -0.33355457373225772 0 0.16143224885930699 -0.32370692173978799 0 0.17668550356254539 -0.32440883010586818 0 0.16676483692685881 -0.33355457373225772 0 0.16676483692685881 -0.33355457373225772 0 0.15836521792478431 -0.3301131953646057 0 0.15206868169920029 -0.33626367306476168 0 0.16676483692685881 -0.33355457373225772 0 0.15836521792478431 -0.3301131953646057 0 0.16143224885930699 -0.32370692173978799 0 0.16143224885930699 -0.32370692173978799 0 0.16013502135133029 -0.32123092964678351 0 0.15319510421377161 -0.32692761292161532 0 0.15836521792478431 -0.3301131953646057 0 0.16143224885930699 -0.32370692173978799 0 0.15319510421377161 -0.32692761292161532 0 0.16143224885930699 -0.32370692173978799 0 0.16013502135133029 -0.32123092964678351 0 0.16400200408578569 -0.31827194257565788 0 0.16143224885930699 -0.32370692173978799 0 0.16400200408578569 -0.31827194257565788 0 0.16143224885930699 -0.32370692173978799 0 0.16013502135133029 -0.32123092964678351 0 0.17668550356254539 -0.32440883010586818 0 0.16400200408578569 -0.31827194257565788 0 0.17668550356254539 -0.32440883010586818 0 0.16143224885930699 -0.32370692173978799 0 0.16400200408578569 -0.31827194257565788 0 0.17668550356254539 -0.32440883010586818 0 0.16676483692685881 -0.33355457373225772 0 0.16143224885930699 -0.32370692173978799 0 0.1791372476032001 -0.356552677362375 0 0.1703688021240003 -0.37268438211413601 0 0.19150965827954169 -0.37955078099249201 0 0.1791372476032001 -0.356552677362375 0 0.16720943070881311 -0.36183649103543369 0 0.1703688021240003 -0.37268438211413601 0 0.1791372476032001 -0.356552677362375 0 0.19150965827954169 -0.37955078099249201 0 0.19721588814415039 -0.3542699714179619 0 0.18237919657883911 -0.33999828484581912 0 0.1791372476032001 -0.356552677362375 0 0.16676483692685881 -0.33355457373225772 0 0.1791372476032001 -0.356552677362375 0 0.1791372476032001 -0.356552677362375 0 0.1624862471494026 -0.35253186727016173 0 0.16720943070881311 -0.36183649103543369 0 0.16676483692685881 -0.33355457373225772 0 0.1791372476032001 -0.356552677362375 0 0.1624862471494026 -0.35253186727016173 0 0.16676483692685881 -0.33355457373225772 0 0.1624862471494026 -0.35253186727016173 0 0.14476658742193901 -0.35383449620013668 0 0.1574771122811322 -0.3660241693102933 0 0.1703688021240003 -0.37268438211413601 0 0.15614092459492951 -0.3821084620672997 0 0.16720943070881311 -0.36183649103543369 0 0.1574771122811322 -0.3660241693102933 0 0.1703688021240003 -0.37268438211413601 0 0.1624862471494026 -0.35253186727016173 0 0.16720943070881311 -0.36183649103543369 0 0.1574771122811322 -0.3660241693102933 0 0.1574771122811322 -0.3660241693102933 0 0.14428548563926091 -0.37342877462161089 0 0.14476658742193901 -0.35383449620013668 0 0.1574771122811322 -0.3660241693102933 0 0.14428548563926091 -0.37342877462161089 0 0.15614092459492951 -0.3821084620672997 0 0.14476658742193901 -0.35383449620013668 0 0.15206868169920029 -0.33626367306476168 0 0.14260592560083141 -0.34131556920530309 0 0.1624862471494026 -0.35253186727016173 0 0.1574771122811322 -0.3660241693102933 0 0.14476658742193901 -0.35383449620013668 0 0.14476658742193901 -0.35383449620013668 0 0.13496373539083151 -0.34779915963192393 0 0.14260592560083141 -0.34131556920530309 0 0.14476658742193901 -0.35383449620013668 0 0.13496373539083151 -0.34779915963192393 0 0.122496978453228 -0.35613318591378929 0 0.14476658742193901 -0.35383449620013668 0 0.1227683379170192 -0.37411441866801581 0 0.14428548563926091 -0.37342877462161089 0 0.14476658742193901 -0.35383449620013668 0 0.1227683379170192 -0.37411441866801581 0 0.14476658742193901 -0.35383449620013668 0 0.1227683379170192 -0.37411441866801581 0 0.122496978453228 -0.35613318591378929 0 0.16400200408578569 -0.31827194257565788 0 0.14350903254972319 -0.31887203216465571 0 0.13717464880108479 -0.3052915768322142 0 0.16013502135133029 -0.32123092964678351 0 0.14350903254972319 -0.31887203216465571 0 0.15319510421377161 -0.32692761292161532 0 0.16013502135133029 -0.32123092964678351 0 0.16400200408578569 -0.31827194257565788 0 0.14350903254972319 -0.31887203216465571 0 0.14350903254972319 -0.31887203216465571 0 0.14407473164156481 -0.33122309306827519 0 0.13541478125224499 -0.32626383313133928 0 0.14350903254972319 -0.31887203216465571 0 0.15319510421377161 -0.32692761292161532 0 0.14407473164156481 -0.33122309306827519 0 0.16676483692685881 -0.33355457373225772 0 0.14476658742193901 -0.35383449620013668 0 0.15319510421377161 -0.32692761292161532 0 0.15206868169920029 -0.33626367306476168 0 0.14407473164156481 -0.33122309306827519 0 0.16676483692685881 -0.33355457373225772 0 0.14476658742193901 -0.35383449620013668 0 0.15206868169920029 -0.33626367306476168 0 0.15836521792478431 -0.3301131953646057 0 0.15319510421377161 -0.32692761292161532 0 0.15206868169920029 -0.33626367306476168 0 0.14260592560083141 -0.34131556920530309 0 0.14407473164156481 -0.33122309306827519 0 0.13715589185062149 -0.33745742406141782 0 0.15206868169920029 -0.33626367306476168 0 0.14260592560083141 -0.34131556920530309 0 0.14407473164156481 -0.33122309306827519 0 0.13496373539083151 -0.34779915963192393 0 0.12869626483080349 -0.33356230690395411 0 0.1185492547077379 -0.34535244466316278 0 0.13715589185062149 -0.33745742406141782 0 0.12869626483080349 -0.33356230690395411 0 0.13541478125224499 -0.32626383313133928 0 0.14407473164156481 -0.33122309306827519 0 0.13715589185062149 -0.33745742406141782 0 0.13541478125224499 -0.32626383313133928 0 0.13496373539083151 -0.34779915963192393 0 0.13715589185062149 -0.33745742406141782 0 0.12869626483080349 -0.33356230690395411 0 0.13496373539083151 -0.34779915963192393 0 0.14260592560083141 -0.34131556920530309 0 0.13715589185062149 -0.33745742406141782 0 0.14350903254972319 -0.31887203216465571 0 0.13541478125224499 -0.32626383313133928 0 0.12432076628891719 -0.31689767271897762 0 0.12869626483080349 -0.33356230690395411 0 0.13541478125224499 -0.32626383313133928 0 0.12432076628891719 -0.31689767271897762 0 0.14350903254972319 -0.31887203216465571 0 0.13717464880108479 -0.3052915768322142 0 0.12432076628891719 -0.31689767271897762 0 0.13717464880108479 -0.3052915768322142 0 0.1315484349202912 -0.27340611545995608 0 0.1103472935163861 -0.29231121108876601 0 0.13717464880108479 -0.3052915768322142 0 0.15433983864041781 -0.291119313394824 0 0.1315484349202912 -0.27340611545995608 0 0.16400200408578569 -0.31827194257565788 0 0.13717464880108479 -0.3052915768322142 0 0.16400200408578569 -0.31827194257565788 0 0.13717464880108479 -0.3052915768322142 0 0.15433983864041781 -0.291119313394824 0 0.1315484349202912 -0.27340611545995608 0 0.1178361446961015 -0.25438522520056522 0 0.1335561985377903 -0.24472646869262221 0 0.1315484349202912 -0.27340611545995608 0 0.1500337050372389 -0.25472409195391782 0 0.1335561985377903 -0.24472646869262221 0 0.1500337050372389 -0.25472409195391782 0 0.15363831303543901 -0.27160720992618842 0 0.16298920910054049 -0.25539579174330118 0 0.15433983864041781 -0.291119313394824 0 0.1315484349202912 -0.27340611545995608 0 0.15363831303543901 -0.27160720992618842 0 0.1315484349202912 -0.27340611545995608 0 0.1500337050372389 -0.25472409195391782 0 0.15363831303543901 -0.27160720992618842 0 0.15363831303543901 -0.27160720992618842 0 0.17006203933913089 -0.2666399150790294 0 0.1664758205639047 -0.2820425093892257 0 0.15363831303543901 -0.27160720992618842 0 0.17006203933913089 -0.2666399150790294 0 0.16298920910054049 -0.25539579174330118 0 0.1500337050372389 -0.25472409195391782 0 0.16298920910054049 -0.25539579174330118 0 0.16456358482649891 -0.24169347422879001 0 0.17006203933913089 -0.2666399150790294 0 0.16298920910054049 -0.25539579174330118 0 0.17517517398518781 -0.25177012561693107 0 0.17006203933913089 -0.2666399150790294 0 0.17517517398518781 -0.25177012561693107 0 0.18058465720363659 -0.26077126576784038 0 0.1903369077187507 -0.26257416597042899 0 0.18058465720363659 -0.26077126576784038 0 0.18687160578303541 -0.25310112125746681 0 0.17517517398518781 -0.25177012561693107 0 0.18058465720363659 -0.26077126576784038 0 0.18687160578303541 -0.25310112125746681 0 0.17006203933913089 -0.2666399150790294 0 0.18058465720363659 -0.26077126576784038 0 0.18155860650776201 -0.28114009150550517 0 0.1903369077187507 -0.26257416597042899 0 0.18155860650776201 -0.28114009150550517 0 0.1903369077187507 -0.26257416597042899 0 0.18058465720363659 -0.26077126576784038 0 0.18155860650776201 -0.28114009150550517 0 0.17006203933913089 -0.2666399150790294 0 0.18155860650776201 -0.28114009150550517 0 0.1664758205639047 -0.2820425093892257 0 0.18909377430619009 -0.29462898385658493 0 0.18155860650776201 -0.28114009150550517 0 0.17278030529677391 -0.29970601704058158 0 0.18155860650776201 -0.28114009150550517 0 0.17278030529677391 -0.29970601704058158 0 0.18155860650776201 -0.28114009150550517 0 0.17278030529677391 -0.29970601704058158 0 0.1664758205639047 -0.2820425093892257 0 0.19024744030271409 -0.31190624322760602 0 0.18909377430619009 -0.29462898385658493 0 0.17278030529677391 -0.29970601704058158 0 0.19024744030271409 -0.31190624322760602 0 0.17561880345797351 -0.31313515467019148 0 0.17278030529677391 -0.29970601704058158 0 0.17561880345797351 -0.31313515467019148 0 0.16400200408578569 -0.31827194257565788 0 0.17278030529677391 -0.29970601704058158 0 0.16400200408578569 -0.31827194257565788 0 0.17278030529677391 -0.29970601704058158 0 0.16400200408578569 -0.31827194257565788 0 0.15433983864041781 -0.291119313394824 0 0.17278030529677391 -0.29970601704058158 0 0.15433983864041781 -0.291119313394824 0 0.17278030529677391 -0.29970601704058158 0 0.1664758205639047 -0.2820425093892257 0 0.15433983864041781 -0.291119313394824 0 0.15363831303543901 -0.27160720992618842 0 0.1664758205639047 -0.2820425093892257 0 0.20155639564280389 -0.49105736580042458 0 0.17972628365540341 -0.48524907922722449 0 0.19409337985161559 -0.5 0 0.20155639564280389 -0.49105736580042458 0 0.17972628365540341 -0.48524907922722449 0 0.19882038478777159 -0.4725073630580538 0 0.18817722108496879 -0.4624262647455506 0 0.17790227641871509 -0.47288241073231091 0 0.20155639564280389 -0.49105736580042458 0 0.19882038478777159 -0.4725073630580538 0 0.17972628365540341 -0.48524907922722449 0 0.19882038478777159 -0.4725073630580538 0 0.17790227641871509 -0.47288241073231091 0 0.20155639564280389 -0.49105736580042458 0 0.19882038478777159 -0.4725073630580538 0 0.21306739959880899 -0.47972660132987738 0 0.19882038478777159 -0.4725073630580538 0 0.21306739959880899 -0.47972660132987738 0 0.2167636959897199 -0.45984346467666742 0 0.20155639564280389 -0.49105736580042458 0 0.21306739959880899 -0.47972660132987738 0 0.22338650763020509 -0.49686565237362212 0 0.20155639564280389 -0.49105736580042458 0 0.2226669248224247 -0.50000000000000067 0 0.22338650763020509 -0.49686565237362212 0 0.19409337985161559 -0.5 0 0.20155639564280389 -0.49105736580042458 0 0.2226669248224247 -0.50000000000000067 0 0.20155639564280389 -0.49105736580042458 0 0.22338650763020509 -0.49686565237362212 0 0.22338650763020509 -0.49686565237362212 0 0.22805788152325121 -0.47651815446888601 0 0.22338650763020509 -0.49686565237362212 0 0.23222833778775401 -0.4891289019096427 0 0.22805788152325121 -0.47651815446888601 0 0.2226669248224247 -0.50000000000000067 0 0.22338650763020509 -0.49686565237362212 0 0.2226669248224247 -0.50000000000000067 0 0.22338650763020509 -0.49686565237362212 0 0.2351667734330177 -0.49999999999999989 0 0.22338650763020509 -0.49686565237362212 0 0.2351667734330177 -0.49999999999999989 0 0.22338650763020509 -0.49686565237362212 0 0.23222833778775401 -0.4891289019096427 0 0.2351667734330177 -0.49999999999999989 0 0.26000580556853198 -0.5 0 0.2351667734330177 -0.49999999999999989 0 0.24230218856454169 -0.48313180079606288 0 0.23222833778775401 -0.4891289019096427 0 0.2351667734330177 -0.49999999999999989 0 0.24230218856454169 -0.48313180079606288 0 0.2566778222055624 -0.47370805155112272 0 0.24550694710042301 -0.46913314500442782 0 0.24230218856454169 -0.48313180079606288 0 0.24230218856454169 -0.48313180079606288 0 0.23715077042401189 -0.46972501732669841 0 0.22805788152325121 -0.47651815446888601 0 0.24550694710042301 -0.46913314500442782 0 0.24230218856454169 -0.48313180079606288 0 0.23715077042401189 -0.46972501732669841 0 0.21306739959880899 -0.47972660132987738 0 0.22338650763020509 -0.49686565237362212 0 0.22805788152325121 -0.47651815446888601 0 0.21306739959880899 -0.47972660132987738 0 0.22805788152325121 -0.47651815446888601 0 0.2167636959897199 -0.45984346467666742 0 0.23222833778775401 -0.4891289019096427 0 0.24230218856454169 -0.48313180079606288 0 0.22805788152325121 -0.47651815446888601 0 0.22805788152325121 -0.47651815446888601 0 0.23272925541629669 -0.45617065656414979 0 0.2167636959897199 -0.45984346467666742 0 0.23715077042401189 -0.46972501732669841 0 0.22805788152325121 -0.47651815446888601 0 0.23442278730982311 -0.45931863014885482 0 0.23272925541629669 -0.45617065656414979 0 0.2286268903085687 -0.44854509188284192 0 0.2167636959897199 -0.45984346467666742 0 0.22805788152325121 -0.47651815446888601 0 0.23272925541629669 -0.45617065656414979 0 0.23442278730982311 -0.45931863014885482 0 0.22805788152325121 -0.47651815446888601 0 0.23272925541629669 -0.45617065656414979 0 0.23272925541629669 -0.45617065656414979 0 0.23442278730982311 -0.45931863014885482 0 0.24550694710042301 -0.46913314500442782 0 0.23715077042401189 -0.46972501732669841 0 0.24146343197392059 -0.46133974760176838 0 0.23715077042401189 -0.46972501732669841 0 0.24146343197392059 -0.46133974760176838 0 0.23442278730982311 -0.45931863014885482 0 0.23272925541629669 -0.45617065656414979 0 0.23442278730982311 -0.45931863014885482 0 0.24093405443751331 -0.45419790934055709 0 0.24146343197392059 -0.46133974760176838 0 0.23442278730982311 -0.45931863014885482 0 0.24093405443751331 -0.45419790934055709 0 0.25378485024219122 -0.44736468920457029 0 0.25125852619731792 -0.45960679680412142 0 0.24093405443751331 -0.45419790934055709 0 0.25125852619731792 -0.45960679680412142 0 0.24146343197392059 -0.46133974760176838 0 0.24093405443751331 -0.45419790934055709 0 0.25125852619731792 -0.45960679680412142 0 0.24550694710042301 -0.46913314500442782 0 0.24146343197392059 -0.46133974760176838 0 0.25378485024219122 -0.44736468920457029 0 0.24093405443751331 -0.45419790934055709 0 0.23454366513327979 -0.44826747887811902 0 0.25378485024219122 -0.44736468920457029 0 0.23454366513327979 -0.44826747887811902 0 0.25378485024219122 -0.44736468920457029 0 0.23454366513327979 -0.44826747887811902 0 0.24394066691110711 -0.43689245887928319 0 0.23272925541629669 -0.45617065656414979 0 0.24093405443751331 -0.45419790934055709 0 0.23454366513327979 -0.44826747887811902 0 0.23454366513327979 -0.44826747887811902 0 0.2362962408027717 -0.43982983573076662 0 0.24394066691110711 -0.43689245887928319 0 0.2362962408027717 -0.43982983573076662 0 0.2286268903085687 -0.44854509188284192 0 0.23110615441628321 -0.43479475490599773 0 0.23272925541629669 -0.45617065656414979 0 0.23454366513327979 -0.44826747887811902 0 0.2286268903085687 -0.44854509188284192 0 0.23454366513327979 -0.44826747887811902 0 0.2362962408027717 -0.43982983573076662 0 0.2286268903085687 -0.44854509188284192 0 0.23272925541629669 -0.45617065656414979 0 0.23454366513327979 -0.44826747887811902 0 0.23272925541629669 -0.45617065656414979 0 0.2286268903085687 -0.44854509188284192 0 0.23454366513327979 -0.44826747887811902 0 0.2286268903085687 -0.44854509188284192 0 0.2286268903085687 -0.44854509188284192 0 0.20389471700483669 -0.44970551680140353 0 0.21625447963222499 -0.42554698825272602 0 0.2286268903085687 -0.44854509188284192 0 0.20389471700483669 -0.44970551680140353 0 0.2167636959897199 -0.45984346467666742 0 0.2286268903085687 -0.44854509188284192 0 0.20389471700483669 -0.44970551680140353 0 0.19882038478777159 -0.4725073630580538 0 0.20389471700483669 -0.44970551680140353 0 0.2167636959897199 -0.45984346467666742 0 0.20389471700483669 -0.44970551680140353 0 0.18817722108496879 -0.4624262647455506 0 0.1791625437011049 -0.45086594171996608 0 0.19882038478777159 -0.4725073630580538 0 0.20389471700483669 -0.44970551680140353 0 0.18817722108496879 -0.4624262647455506 0 0.20389471700483669 -0.44970551680140353 0 0.19401287330235459 -0.42780977636083112 0 0.1791625437011049 -0.45086594171996608 0 0.20389471700483669 -0.44970551680140353 0 0.1791625437011049 -0.45086594171996608 0 0.19401287330235459 -0.42780977636083112 0 0.2038820689558834 -0.40254888462260902 0 0.18454535863730689 -0.40823902432122189 0 0.21625447963222499 -0.42554698825272602 0 0.219159866822765 -0.41135226252755341 0 0.2038820689558834 -0.40254888462260902 0 0.19401287330235459 -0.42780977636083112 0 0.21625447963222499 -0.42554698825272602 0 0.2038820689558834 -0.40254888462260902 0 0.21625447963222499 -0.42554698825272602 0 0.2038820689558834 -0.40254888462260902 0 0.20389471700483669 -0.44970551680140353 0 0.19401287330235459 -0.42780977636083112 0 0.21625447963222499 -0.42554698825272602 0 0.2286268903085687 -0.44854509188284192 0 0.21625447963222499 -0.42554698825272602 0 0.2286268903085687 -0.44854509188284192 0 0.21625447963222499 -0.42554698825272602 0 0.23110615441628321 -0.43479475490599773 0 0.21625447963222499 -0.42554698825272602 0 0.23122863094109319 -0.42326292803324261 0 0.23110615441628321 -0.43479475490599773 0 0.23122863094109319 -0.42326292803324261 0 0.23110615441628321 -0.43479475490599773 0 0.24394066691110711 -0.43689245887928319 0 0.23122863094109319 -0.42326292803324261 0 0.24394066691110711 -0.43689245887928319 0 0.2461001714306674 -0.4182892063022704 0 0.2362962408027717 -0.43982983573076662 0 0.23110615441628321 -0.43479475490599773 0 0.24394066691110711 -0.43689245887928319 0 0.25207415565990432 -0.40529248333692852 0 0.2461001714306674 -0.4182892063022704 0 0.24007322376989129 -0.40517856149606918 0 0.23122863094109319 -0.42326292803324261 0 0.2461001714306674 -0.4182892063022704 0 0.23081044643351151 -0.41270189733162449 0 0.2461001714306674 -0.4182892063022704 0 0.23081044643351151 -0.41270189733162449 0 0.24007322376989129 -0.40517856149606918 0 0.23081044643351151 -0.41270189733162449 0 0.2290742412105522 -0.40433293696845468 0 0.24007322376989129 -0.40517856149606918 0 0.23122863094109319 -0.42326292803324261 0 0.23081044643351151 -0.41270189733162449 0 0.219159866822765 -0.41135226252755341 0 0.21625447963222499 -0.42554698825272602 0 0.23122863094109319 -0.42326292803324261 0 0.219159866822765 -0.41135226252755341 0 0.23081044643351151 -0.41270189733162449 0 0.219159866822765 -0.41135226252755341 0 0.2290742412105522 -0.40433293696845468 0 0.219159866822765 -0.41135226252755341 0 0.22212216930520631 -0.39831003294567002 0 0.2290742412105522 -0.40433293696845468 0 0.22212216930520631 -0.39831003294567002 0 0.2212213569389252 -0.38401321254664039 0 0.21482974268455751 -0.39030407955476548 0 0.22212216930520631 -0.39831003294567002 0 0.23480301122917019 -0.39647547485045842 0 0.2310098364787988 -0.38701206401208921 0 0.22212216930520631 -0.39831003294567002 0 0.2290742412105522 -0.40433293696845468 0 0.23480301122917019 -0.39647547485045842 0 0.2290742412105522 -0.40433293696845468 0 0.24007322376989129 -0.40517856149606918 0 0.23480301122917019 -0.39647547485045842 0 0.24007322376989129 -0.40517856149606918 0 0.23480301122917019 -0.39647547485045842 0 0.24757731665554211 -0.39397937018667939 0 0.23480301122917019 -0.39647547485045842 0 0.24757731665554211 -0.39397937018667939 0 0.24045882993474879 -0.38174266809933072 0 0.25207415565990432 -0.40529248333692852 0 0.24007322376989129 -0.40517856149606918 0 0.24757731665554211 -0.39397937018667939 0 0.25635448840571567 -0.37789214917184888 0 0.244685375660469 -0.37082457697003868 0 0.24045882993474879 -0.38174266809933072 0 0.25635448840571567 -0.37789214917184888 0 0.24757731665554211 -0.39397937018667939 0 0.24045882993474879 -0.38174266809933072 0 0.23480301122917019 -0.39647547485045842 0 0.24045882993474879 -0.38174266809933072 0 0.2310098364787988 -0.38701206401208921 0 0.22949119931694609 -0.36960967453352289 0 0.24045882993474879 -0.38174266809933072 0 0.2310098364787988 -0.38701206401208921 0 0.22949119931694609 -0.36960967453352289 0 0.2310098364787988 -0.38701206401208921 0 0.2212213569389252 -0.38401321254664039 0 0.22212216930520631 -0.39831003294567002 0 0.2310098364787988 -0.38701206401208921 0 0.2212213569389252 -0.38401321254664039 0 0.21008562042365689 -0.37033731659119712 0 0.21482974268455751 -0.39030407955476548 0 0.20688545351294491 -0.39855682413951382 0 0.21008562042365689 -0.37033731659119712 0 0.20688545351294491 -0.39855682413951382 0 0.21008562042365689 -0.37033731659119712 0 0.2212213569389252 -0.38401321254664039 0 0.21482974268455751 -0.39030407955476548 0 0.21482974268455751 -0.39030407955476548 0 0.2131522674568084 -0.40041657830780308 0 0.20688545351294491 -0.39855682413951382 0 0.22212216930520631 -0.39831003294567002 0 0.21482974268455751 -0.39030407955476548 0 0.2131522674568084 -0.40041657830780308 0 0.219159866822765 -0.41135226252755341 0 0.22212216930520631 -0.39831003294567002 0 0.2131522674568084 -0.40041657830780308 0 0.219159866822765 -0.41135226252755341 0 0.2131522674568084 -0.40041657830780308 0 0.2038820689558834 -0.40254888462260902 0 0.2131522674568084 -0.40041657830780308 0 0.20688545351294491 -0.39855682413951382 0 0.2038820689558834 -0.40254888462260902 0 0.2038820689558834 -0.40254888462260902 0 0.19150965827954169 -0.37955078099249201 0 0.18454535863730689 -0.40823902432122189 0 0.2038820689558834 -0.40254888462260902 0 0.19150965827954169 -0.37955078099249201 0 0.20688545351294491 -0.39855682413951382 0 0.2038820689558834 -0.40254888462260902 0 0.19150965827954169 -0.37955078099249201 0 0.21008562042365689 -0.37033731659119712 0 0.20688545351294491 -0.39855682413951382 0 0.19150965827954169 -0.37955078099249201 0 0.1703688021240003 -0.37268438211413601 0 0.19150965827954169 -0.37955078099249201 0 0.1712434286576838 -0.39366432719586308 0 0.19150965827954169 -0.37955078099249201 0 0.1712434286576838 -0.39366432719586308 0 0.18454535863730689 -0.40823902432122189 0 0.1712434286576838 -0.39366432719586308 0 0.16838997812976819 -0.41562162311749112 0 0.18454535863730689 -0.40823902432122189 0 0.1712434286576838 -0.39366432719586308 0 0.15614092459492951 -0.3821084620672997 0 0.1551515125978136 -0.4035770825689774 0 0.1712434286576838 -0.39366432719586308 0 0.1551515125978136 -0.4035770825689774 0 0.16838997812976819 -0.41562162311749112 0 0.1703688021240003 -0.37268438211413601 0 0.1712434286576838 -0.39366432719586308 0 0.15614092459492951 -0.3821084620672997 0 0.1703688021240003 -0.37268438211413601 0 0.15614092459492951 -0.3821084620672997 0 0.14428548563926091 -0.37342877462161089 0 0.15614092459492951 -0.3821084620672997 0 0.141913047065859 -0.39153254202046373 0 0.15614092459492951 -0.3821084620672997 0 0.141913047065859 -0.39153254202046373 0 0.141913047065859 -0.39153254202046373 0 0.1227683379170192 -0.37411441866801581 0 0.14428548563926091 -0.37342877462161089 0 0.141913047065859 -0.39153254202046373 0 0.1227683379170192 -0.37411441866801581 0 0.12606568613086669 -0.38972050186885748 0 0.141913047065859 -0.39153254202046373 0 0.1227683379170192 -0.37411441866801581 0 0.141913047065859 -0.39153254202046373 0 0.1399436834928062 -0.41144846192415913 0 0.1215518656798904 -0.40501912151414893 0 0.12606568613086669 -0.38972050186885748 0 0.141913047065859 -0.39153254202046373 0 0.1215518656798904 -0.40501912151414893 0 0.141913047065859 -0.39153254202046373 0 0.1215518656798904 -0.40501912151414893 0 0.15614092459492951 -0.3821084620672997 0 0.141913047065859 -0.39153254202046373 0 0.1551515125978136 -0.4035770825689774 0 0.141913047065859 -0.39153254202046373 0 0.1551515125978136 -0.4035770825689774 0 0.1399436834928062 -0.41144846192415913 0 0.141913047065859 -0.39153254202046373 0 0.1551515125978136 -0.4035770825689774 0 0.1551515125978136 -0.4035770825689774 0 0.15295575055437219 -0.41859675237497862 0 0.1399436834928062 -0.41144846192415913 0 0.15295575055437219 -0.41859675237497862 0 0.1399436834928062 -0.41144846192415913 0 0.1414873647498093 -0.42765640506031682 0 0.1399436834928062 -0.41144846192415913 0 0.1262310120512124 -0.42202585740567061 0 0.1414873647498093 -0.42765640506031682 0 0.1399436834928062 -0.41144846192415913 0 0.1262310120512124 -0.42202585740567061 0 0.1215518656798904 -0.40501912151414893 0 0.1262310120512124 -0.42202585740567061 0 0.1414873647498093 -0.42765640506031682 0 0.12858703422458159 -0.43808180146997538 0 0.1414873647498093 -0.42765640506031682 0 0.14265321675026141 -0.44101310654581261 0 0.12858703422458159 -0.43808180146997538 0 0.1414873647498093 -0.42765640506031682 0 0.15906311728590211 -0.43411416800315072 0 0.14265321675026141 -0.44101310654581261 0 0.15295575055437219 -0.41859675237497862 0 0.1414873647498093 -0.42765640506031682 0 0.15906311728590211 -0.43411416800315072 0 0.15906311728590211 -0.43411416800315072 0 0.16838997812976819 -0.41562162311749112 0 0.17573119782453961 -0.42886664935547891 0 0.15295575055437219 -0.41859675237497862 0 0.15906311728590211 -0.43411416800315072 0 0.16838997812976819 -0.41562162311749112 0 0.1551515125978136 -0.4035770825689774 0 0.16838997812976819 -0.41562162311749112 0 0.1551515125978136 -0.4035770825689774 0 0.15295575055437219 -0.41859675237497862 0 0.16838997812976819 -0.41562162311749112 0 0.16838997812976819 -0.41562162311749112 0 0.18454535863730689 -0.40823902432122189 0 0.17573119782453961 -0.42886664935547891 0 0.19401287330235459 -0.42780977636083112 0 0.18454535863730689 -0.40823902432122189 0 0.17573119782453961 -0.42886664935547891 0 0.19401287330235459 -0.42780977636083112 0 0.17573119782453961 -0.42886664935547891 0 0.1791625437011049 -0.45086594171996608 0 0.18817722108496879 -0.4624262647455506 0 0.1791625437011049 -0.45086594171996608 0 0.16766903517151971 -0.46154488952563938 0 0.18817722108496879 -0.4624262647455506 0 0.16766903517151971 -0.46154488952563938 0 0.17790227641871509 -0.47288241073231091 0 0.1791625437011049 -0.45086594171996608 0 0.16766903517151971 -0.46154488952563938 0 0.15443037039737301 -0.4520263666385288 0 0.16766903517151971 -0.46154488952563938 0 0.15661612343774481 -0.46268746242302811 0 0.1569841680496587 -0.47325745840656808 0 0.16766903517151971 -0.46154488952563938 0 0.15661612343774481 -0.46268746242302811 0 0.15443037039737301 -0.4520263666385288 0 0.15906311728590211 -0.43411416800315072 0 0.1791625437011049 -0.45086594171996608 0 0.15443037039737301 -0.4520263666385288 0 0.1791625437011049 -0.45086594171996608 0 0.15443037039737301 -0.4520263666385288 0 0.15906311728590211 -0.43411416800315072 0 0.17573119782453961 -0.42886664935547891 0 0.1791625437011049 -0.45086594171996608 0 0.15443037039737301 -0.4520263666385288 0 0.14265321675026141 -0.44101310654581261 0 0.129698197093641 -0.45318679155709141 0 0.15906311728590211 -0.43411416800315072 0 0.15443037039737301 -0.4520263666385288 0 0.14265321675026141 -0.44101310654581261 0 0.15443037039737301 -0.4520263666385288 0 0.129698197093641 -0.45318679155709141 0 0.14265321675026141 -0.44101310654581261 0 0.12858703422458159 -0.43808180146997538 0 0.129698197093641 -0.45318679155709141 0 0.129698197093641 -0.45318679155709141 0 0.1351925096131697 -0.46372406252643639 0 0.1288378849121517 -0.47186293498240311 0 0.129698197093641 -0.45318679155709141 0 0.1351925096131697 -0.46372406252643639 0 0.1459648645693995 -0.46354726537127688 0 0.1351925096131697 -0.46372406252643639 0 0.1459648645693995 -0.46354726537127688 0 0.1360660596806022 -0.47363250608082458 0 0.15443037039737301 -0.4520263666385288 0 0.129698197093641 -0.45318679155709141 0 0.1459648645693995 -0.46354726537127688 0 0.15661612343774481 -0.46268746242302811 0 0.15443037039737301 -0.4520263666385288 0 0.1459648645693995 -0.46354726537127688 0 0.15661612343774481 -0.46268746242302811 0 0.1459648645693995 -0.46354726537127688 0 0.1569841680496587 -0.47325745840656808 0 0.1360660596806022 -0.47363250608082458 0 0.15789617166800299 -0.47944079265402439 0 0.1360660596806022 -0.47363250608082458 0 0.1569841680496587 -0.47325745840656808 0 0.1459648645693995 -0.46354726537127688 0 0.1360660596806022 -0.47363250608082458 0 0.1569841680496587 -0.47325745840656808 0 0.1360660596806022 -0.47363250608082458 0 0.15789617166800299 -0.47944079265402439 0 0.1569841680496587 -0.47325745840656808 0 0.1360660596806022 -0.47363250608082458 0 0.1418620666251672 -0.49185649381036151 0 0.15789617166800299 -0.47944079265402439 0 0.13006075590751989 -0.47374017715574152 0 0.1418620666251672 -0.49185649381036151 0 0.1351925096131697 -0.46372406252643639 0 0.1360660596806022 -0.47363250608082458 0 0.1288378849121517 -0.47186293498240311 0 0.1360660596806022 -0.47363250608082458 0 0.13006075590751989 -0.47374017715574152 0 0.1418620666251672 -0.49185649381036151 0 0.1360660596806022 -0.47363250608082458 0 0.13006075590751989 -0.47374017715574152 0 0.1360660596806022 -0.47363250608082458 0 0.1288378849121517 -0.47186293498240311 0 0.1360660596806022 -0.47363250608082458 0 0.1288378849121517 -0.47186293498240311 0 0.13006075590751989 -0.47374017715574152 0 0.1288378849121517 -0.47186293498240311 0 0.13006075590751989 -0.47374017715574152 0 0.13694628990999741 -0.5 0 0.12584835997518221 -0.48823866819766037 0 0.1418620666251672 -0.49185649381036151 0 0.13006075590751989 -0.47374017715574152 0 0.12584835997518221 -0.48823866819766037 0 0.1418620666251672 -0.49185649381036151 0 0.13694628990999741 -0.5 0 0.1418620666251672 -0.49185649381036151 0 0.16551983488080649 -0.5 0 0.1418620666251672 -0.49185649381036151 0 0.16551983488080649 -0.5 0 0.15789617166800299 -0.47944079265402439 0 0.16551983488080649 -0.5 0 0.15789617166800299 -0.47944079265402439 0 0.17972628365540341 -0.48524907922722449 0 0.15789617166800299 -0.47944079265402439 0 0.17972628365540341 -0.48524907922722449 0 0.15789617166800299 -0.47944079265402439 0 0.1569841680496587 -0.47325745840656808 0 0.17790227641871509 -0.47288241073231091 0 0.16766903517151971 -0.46154488952563938 0 0.1569841680496587 -0.47325745840656808 0 0.17790227641871509 -0.47288241073231091 0 0.1569841680496587 -0.47325745840656808 0 0.17790227641871509 -0.47288241073231091 0 0.15789617166800299 -0.47944079265402439 0 0.17790227641871509 -0.47288241073231091 0 0.17972628365540341 -0.48524907922722449 0 0.19882038478777159 -0.4725073630580538 0 0.17790227641871509 -0.47288241073231091 0 0.17972628365540341 -0.48524907922722449 0 0.19409337985161559 -0.5 0 0.16551983488080649 -0.5 0 0.17972628365540341 -0.48524907922722449 0 0.079799199968379253 -0.5 0 0.057052474060402238 -0.47504916675581299 0 0.051225654997570147 -0.5 0 0.081388568009441428 -0.47461283688912242 0 0.066851872917483735 -0.46493982440385678 0 0.057052474060402238 -0.47504916675581299 0 0.081388568009441428 -0.47461283688912242 0 0.079799199968379253 -0.5 0 0.057052474060402238 -0.47504916675581299 0 0.081388568009441428 -0.47461283688912242 0 0.057052474060402238 -0.47504916675581299 0 0.081388568009441428 -0.47461283688912242 0 0.1057246619584807 -0.47417650702243169 0 0.081388568009441428 -0.47461283688912242 0 0.09382129371887242 -0.48719733597788861 0 0.1057246619584807 -0.47417650702243169 0 0.081388568009441428 -0.47461283688912242 0 0.079799199968379253 -0.5 0 0.09382129371887242 -0.48719733597788861 0 0.079799199968379253 -0.5 0 0.09382129371887242 -0.48719733597788861 0 0.10837274493918821 -0.5 0 0.09382129371887242 -0.48719733597788861 0 0.10837274493918821 -0.5 0 0.1057246619584807 -0.47417650702243169 0 0.12584835997518221 -0.48823866819766037 0 0.10837274493918821 -0.5 0 0.1057246619584807 -0.47417650702243169 0 0.13694628990999741 -0.5 0 0.12584835997518221 -0.48823866819766037 0 0.10837274493918821 -0.5 0 0.1288378849121517 -0.47186293498240311 0 0.13006075590751989 -0.47374017715574152 0 0.1057246619584807 -0.47417650702243169 0 0.13006075590751989 -0.47374017715574152 0 0.1057246619584807 -0.47417650702243169 0 0.13006075590751989 -0.47374017715574152 0 0.12584835997518221 -0.48823866819766037 0 0.1057246619584807 -0.47417650702243169 0 0.081388568009441428 -0.47461283688912242 0 0.1057246619584807 -0.47417650702243169 0 0.097254826427591701 -0.45744467776986258 0 0.1057246619584807 -0.47417650702243169 0 0.097254826427591701 -0.45744467776986258 0 0.1137789119952472 -0.44874574669856337 0 0.1288378849121517 -0.47186293498240311 0 0.1137789119952472 -0.44874574669856337 0 0.129698197093641 -0.45318679155709141 0 0.1288378849121517 -0.47186293498240311 0 0.1137789119952472 -0.44874574669856337 0 0.1288378849121517 -0.47186293498240311 0 0.1057246619584807 -0.47417650702243169 0 0.1137789119952472 -0.44874574669856337 0 0.12858703422458159 -0.43808180146997538 0 0.129698197093641 -0.45318679155709141 0 0.1137789119952472 -0.44874574669856337 0 0.12858703422458159 -0.43808180146997538 0 0.1137789119952472 -0.44874574669856337 0 0.1185942080969315 -0.43339738233350389 0 0.097254826427591701 -0.45744467776986258 0 0.098060203422228945 -0.44150824612553319 0 0.087321786752560332 -0.44818005211366257 0 0.1137789119952472 -0.44874574669856337 0 0.098060203422228945 -0.44150824612553319 0 0.097497068082975119 -0.42375131624138479 0 0.097254826427591701 -0.45744467776986258 0 0.1137789119952472 -0.44874574669856337 0 0.098060203422228945 -0.44150824612553319 0 0.087321786752560332 -0.44818005211366257 0 0.071807709283551027 -0.45105333382028101 0 0.077197148405089733 -0.43344584639152228 0 0.098060203422228945 -0.44150824612553319 0 0.087321786752560332 -0.44818005211366257 0 0.08950354616082698 -0.43416065676498661 0 0.087321786752560332 -0.44818005211366257 0 0.077197148405089733 -0.43344584639152228 0 0.08950354616082698 -0.43416065676498661 0 0.081388568009441428 -0.47461283688912242 0 0.097254826427591701 -0.45744467776986258 0 0.087321786752560332 -0.44818005211366257 0 0.081388568009441428 -0.47461283688912242 0 0.087321786752560332 -0.44818005211366257 0 0.071807709283551027 -0.45105333382028101 0 0.081388568009441428 -0.47461283688912242 0 0.066851872917483735 -0.46493982440385678 0 0.071807709283551027 -0.45105333382028101 0 0.066851872917483735 -0.46493982440385678 0 0.071807709283551027 -0.45105333382028101 0 0.057758924098356562 -0.45412974791497418 0 0.071807709283551027 -0.45105333382028101 0 0.077197148405089733 -0.43344584639152228 0 0.060686198789705943 -0.43862043640581999 0 0.071807709283551027 -0.45105333382028101 0 0.060686198789705943 -0.43862043640581999 0 0.057758924098356562 -0.45412974791497418 0 0.077197148405089733 -0.43344584639152228 0 0.062364839873992002 -0.42185644346979678 0 0.060686198789705943 -0.43862043640581999 0 0.077197148405089733 -0.43344584639152228 0 0.073785639127048094 -0.41652899221768258 0 0.062364839873992002 -0.42185644346979678 0 0.073785639127048094 -0.41652899221768258 0 0.062253340746978178 -0.40564236130097681 0 0.062364839873992002 -0.42185644346979678 0 0.073785639127048094 -0.41652899221768258 0 0.081215224170703135 -0.39875688578420632 0 0.062253340746978178 -0.40564236130097681 0 0.097497068082975119 -0.42375131624138479 0 0.1011906842939219 -0.41850570100783452 0 0.081215224170703135 -0.39875688578420632 0 0.085897642438477501 -0.42294342414191072 0 0.097497068082975119 -0.42375131624138479 0 0.081215224170703135 -0.39875688578420632 0 0.073785639127048094 -0.41652899221768258 0 0.085897642438477501 -0.42294342414191072 0 0.081215224170703135 -0.39875688578420632 0 0.097497068082975119 -0.42375131624138479 0 0.081215224170703135 -0.39875688578420632 0 0.077197148405089733 -0.43344584639152228 0 0.073785639127048094 -0.41652899221768258 0 0.085897642438477501 -0.42294342414191072 0 0.085897642438477501 -0.42294342414191072 0 0.08950354616082698 -0.43416065676498661 0 0.097497068082975119 -0.42375131624138479 0 0.077197148405089733 -0.43344584639152228 0 0.085897642438477501 -0.42294342414191072 0 0.08950354616082698 -0.43416065676498661 0 0.1137789119952472 -0.44874574669856337 0 0.097497068082975119 -0.42375131624138479 0 0.1137789119952472 -0.44874574669856337 0 0.097497068082975119 -0.42375131624138479 0 0.11115493123871981 -0.42544334957230567 0 0.098060203422228945 -0.44150824612553319 0 0.08950354616082698 -0.43416065676498661 0 0.097497068082975119 -0.42375131624138479 0 0.097497068082975119 -0.42375131624138479 0 0.11115493123871981 -0.42544334957230567 0 0.1011906842939219 -0.41850570100783452 0 0.1262310120512124 -0.42202585740567061 0 0.12858703422458159 -0.43808180146997538 0 0.1185942080969315 -0.43339738233350389 0 0.1137789119952472 -0.44874574669856337 0 0.11115493123871981 -0.42544334957230567 0 0.1185942080969315 -0.43339738233350389 0 0.1262310120512124 -0.42202585740567061 0 0.11115493123871981 -0.42544334957230567 0 0.1185942080969315 -0.43339738233350389 0 0.1262310120512124 -0.42202585740567061 0 0.11115493123871981 -0.42544334957230567 0 0.1215518656798904 -0.40501912151414893 0 0.1011906842939219 -0.41850570100783452 0 0.1215518656798904 -0.40501912151414893 0 0.11115493123871981 -0.42544334957230567 0 0.1011906842939219 -0.41850570100783452 0 0.1215518656798904 -0.40501912151414893 0 0.1011906842939219 -0.41850570100783452 0 0.1037771675986902 -0.4012359811756524 0 0.1215518656798904 -0.40501912151414893 0 0.1011906842939219 -0.41850570100783452 0 0.1037771675986902 -0.4012359811756524 0 0.081215224170703135 -0.39875688578420632 0 0.1037771675986902 -0.4012359811756524 0 0.10985413013740949 -0.38601987198356208 0 0.095274685748324706 -0.38888342763071981 0 0.1037771675986902 -0.4012359811756524 0 0.1215518656798904 -0.40501912151414893 0 0.10985413013740949 -0.38601987198356208 0 0.12606568613086669 -0.38972050186885748 0 0.1215518656798904 -0.40501912151414893 0 0.10985413013740949 -0.38601987198356208 0 0.12606568613086669 -0.38972050186885748 0 0.10985413013740949 -0.38601987198356208 0 0.1227683379170192 -0.37411441866801581 0 0.10985413013740949 -0.38601987198356208 0 0.1227683379170192 -0.37411441866801581 0 0.10985413013740949 -0.38601987198356208 0 0.1227683379170192 -0.37411441866801581 0 0.10817459204419071 -0.3745323483605737 0 0.10985413013740949 -0.38601987198356208 0 0.096850201759796778 -0.37765500736829821 0 0.10817459204419071 -0.3745323483605737 0 0.10985413013740949 -0.38601987198356208 0 0.095274685748324706 -0.38888342763071981 0 0.096850201759796778 -0.37765500736829821 0 0.095274685748324706 -0.38888342763071981 0 0.096850201759796778 -0.37765500736829821 0 0.084676705075023909 -0.38074939184188028 0 0.095274685748324706 -0.38888342763071981 0 0.084676705075023909 -0.38074939184188028 0 0.081215224170703135 -0.39875688578420632 0 0.096850201759796778 -0.37765500736829821 0 0.084676705075023909 -0.38074939184188028 0 0.080228975735496033 -0.36784209595436851 0 0.1037771675986902 -0.4012359811756524 0 0.095274685748324706 -0.38888342763071981 0 0.081215224170703135 -0.39875688578420632 0 0.081215224170703135 -0.39875688578420632 0 0.064372292409790546 -0.39192832404252798 0 0.062253340746978178 -0.40564236130097681 0 0.081215224170703135 -0.39875688578420632 0 0.064852787835328468 -0.3735451681895236 0 0.081215224170703135 -0.39875688578420632 0 0.064372292409790546 -0.39192832404252798 0 0.064852787835328468 -0.3735451681895236 0 0.084676705075023909 -0.38074939184188028 0 0.081215224170703135 -0.39875688578420632 0 0.064852787835328468 -0.3735451681895236 0 0.064372292409790546 -0.39192832404252798 0 0.058912300785301117 -0.38250125422996289 0 0.064852787835328468 -0.3735451681895236 0 0.064372292409790546 -0.39192832404252798 0 0.055361746805340631 -0.38641904778927882 0 0.04830849770274042 -0.39333244773635168 0 0.052861595907828331 -0.37786356411559069 0 0.055361746805340631 -0.38641904778927882 0 0.04830849770274042 -0.39333244773635168 0 0.057004889877836563 -0.37645597607222481 0 0.064852787835328468 -0.3735451681895236 0 0.057004889877836563 -0.37645597607222481 0 0.058912300785301117 -0.38250125422996289 0 0.064852787835328468 -0.3735451681895236 0 0.052861595907828331 -0.37786356411559069 0 0.057004889877836563 -0.37645597607222481 0 0.058912300785301117 -0.38250125422996289 0 0.052861595907828331 -0.37786356411559069 0 0.058912300785301117 -0.38250125422996289 0 0.055361746805340631 -0.38641904778927882 0 0.052861595907828331 -0.37786356411559069 0 0.057004889877836563 -0.37645597607222481 0 0.064372292409790546 -0.39192832404252798 0 0.058912300785301117 -0.38250125422996289 0 0.055361746805340631 -0.38641904778927882 0 0.062253340746978178 -0.40564236130097681 0 0.04830849770274042 -0.39333244773635168 0 0.047067247935635707 -0.41008687756125323 0 0.064372292409790546 -0.39192832404252798 0 0.062253340746978178 -0.40564236130097681 0 0.04830849770274042 -0.39333244773635168 0 0.04830849770274042 -0.39333244773635168 0 0.03702979348398007 -0.40182025836623919 0 0.025494216080160621 -0.38788503227681298 0 0.04830849770274042 -0.39333244773635168 0 0.03702979348398007 -0.40182025836623919 0 0.047067247935635707 -0.41008687756125323 0 0.052861595907828331 -0.37786356411559069 0 0.025494216080160621 -0.38788503227681298 0 0.052861595907828331 -0.37786356411559069 0 0.04830849770274042 -0.39333244773635168 0 0.025494216080160621 -0.38788503227681298 0 0.052861595907828331 -0.37786356411559069 0 0.025494216080160621 -0.38788503227681298 0 0.038791917046415103 -0.3650134572347023 0 0.025494216080160621 -0.38788503227681298 0 0.01232518706557627 -0.38158025174585869 0 0.013166416516699871 -0.39992630423524411 0 0.025494216080160621 -0.38788503227681298 0 0.01232518706557627 -0.38158025174585869 0 0.026102232132214489 -0.36747161115695909 0 -0.0017967946481693259 -0.37376702826922092 0 -0.0033272595925888941 -0.39598474572276809 0 0.01232518706557627 -0.38158025174585869 0 -0.0033272595925888941 -0.39598474572276809 0 0.01232518706557627 -0.38158025174585869 0 0.013166416516699871 -0.39992630423524411 0 -0.0033272595925888941 -0.39598474572276809 0 0.013166416516699871 -0.39992630423524411 0 0.005803058972465215 -0.41467922602276353 0 0.025494216080160621 -0.38788503227681298 0 0.013166416516699871 -0.39992630423524411 0 0.026088094128290249 -0.41073829140905838 0 0.03702979348398007 -0.40182025836623919 0 0.025494216080160621 -0.38788503227681298 0 0.026088094128290249 -0.41073829140905838 0 0.026088094128290249 -0.41073829140905838 0 0.005803058972465215 -0.41467922602276353 0 0.022369790942443329 -0.43127199927398691 0 0.013166416516699871 -0.39992630423524411 0 0.026088094128290249 -0.41073829140905838 0 0.005803058972465215 -0.41467922602276353 0 0.005803058972465215 -0.41467922602276353 0 0.0020425619738814252 -0.43644278707211959 0 0.022369790942443329 -0.43127199927398691 0 0.026088094128290249 -0.41073829140905838 0 0.022369790942443329 -0.43127199927398691 0 0.042807064943362727 -0.42810771336110431 0 0.022369790942443329 -0.43127199927398691 0 0.042807064943362727 -0.42810771336110431 0 0.034064328129846423 -0.43989093028487031 0 0.026088094128290249 -0.41073829140905838 0 0.042807064943362727 -0.42810771336110431 0 0.047067247935635707 -0.41008687756125323 0 0.03702979348398007 -0.40182025836623919 0 0.026088094128290249 -0.41073829140905838 0 0.047067247935635707 -0.41008687756125323 0 0.042807064943362727 -0.42810771336110431 0 0.047067247935635707 -0.41008687756125323 0 0.062364839873992002 -0.42185644346979678 0 0.062253340746978178 -0.40564236130097681 0 0.047067247935635707 -0.41008687756125323 0 0.062364839873992002 -0.42185644346979678 0 0.042807064943362727 -0.42810771336110431 0 0.060686198789705943 -0.43862043640581999 0 0.046284368761050299 -0.44497683180554659 0 0.042807064943362727 -0.42810771336110431 0 0.062364839873992002 -0.42185644346979678 0 0.060686198789705943 -0.43862043640581999 0 0.057758924098356562 -0.45412974791497418 0 0.045253041738975042 -0.45871989072611929 0 0.046284368761050299 -0.44497683180554659 0 0.060686198789705943 -0.43862043640581999 0 0.057758924098356562 -0.45412974791497418 0 0.046284368761050299 -0.44497683180554659 0 0.066851872917483735 -0.46493982440385678 0 0.0544314877777081 -0.46478650539081351 0 0.057052474060402238 -0.47504916675581299 0 0.066851872917483735 -0.46493982440385678 0 0.057758924098356562 -0.45412974791497418 0 0.0544314877777081 -0.46478650539081351 0 0.0544314877777081 -0.46478650539081351 0 0.045253041738975042 -0.45871989072611929 0 0.045241126073322917 -0.47109389715330402 0 0.057758924098356562 -0.45412974791497418 0 0.0544314877777081 -0.46478650539081351 0 0.045253041738975042 -0.45871989072611929 0 0.045253041738975042 -0.45871989072611929 0 0.035139977908902928 -0.46396040063464561 0 0.045241126073322917 -0.47109389715330402 0 0.045253041738975042 -0.45871989072611929 0 0.035139977908902928 -0.46396040063464561 0 0.033441501791461978 -0.45256909070169071 0 0.033441501791461978 -0.45256909070169071 0 0.046284368761050299 -0.44497683180554659 0 0.034064328129846423 -0.43989093028487031 0 0.042807064943362727 -0.42810771336110431 0 0.046284368761050299 -0.44497683180554659 0 0.034064328129846423 -0.43989093028487031 0 0.045253041738975042 -0.45871989072611929 0 0.033441501791461978 -0.45256909070169071 0 0.046284368761050299 -0.44497683180554659 0 0.022369790942443329 -0.43127199927398691 0 0.034064328129846423 -0.43989093028487031 0 0.020707381801263861 -0.44603589394216792 0 0.033441501791461978 -0.45256909070169071 0 0.034064328129846423 -0.43989093028487031 0 0.020707381801263861 -0.44603589394216792 0 -0.0077591932673332894 -0.4560817609030326 0 0.0020425619738814252 -0.43644278707211959 0 0.0098019565102068062 -0.45481327622676082 0 0.0020425619738814252 -0.43644278707211959 0 0.020707381801263861 -0.44603589394216792 0 0.0098019565102068062 -0.45481327622676082 0 0.0020425619738814252 -0.43644278707211959 0 0.022369790942443329 -0.43127199927398691 0 0.020707381801263861 -0.44603589394216792 0 -0.0077591932673332894 -0.4560817609030326 0 0.0098019565102068062 -0.45481327622676082 0 0.0083802861623239536 -0.47592182648919418 0 0.0098019565102068062 -0.45481327622676082 0 0.022524151459743211 -0.46122728009357911 0 0.0083802861623239536 -0.47592182648919418 0 0.020707381801263861 -0.44603589394216792 0 0.0098019565102068062 -0.45481327622676082 0 0.022524151459743211 -0.46122728009357911 0 0.035139977908902928 -0.46396040063464561 0 0.033441501791461978 -0.45256909070169071 0 0.022524151459743211 -0.46122728009357911 0 0.033441501791461978 -0.45256909070169071 0 0.020707381801263861 -0.44603589394216792 0 0.022524151459743211 -0.46122728009357911 0 0.035139977908902928 -0.46396040063464561 0 0.022524151459743211 -0.46122728009357911 0 0.026810706117823421 -0.4735078618212491 0 0.026810706117823421 -0.4735078618212491 0 0.0083802861623239536 -0.47592182648919418 0 0.022524151459743211 -0.46122728009357911 0 0.026810706117823421 -0.4735078618212491 0 0.0083802861623239536 -0.47592182648919418 0 0.0083802861623239536 -0.47592182648919418 0 0.032716380111363103 -0.47548549662250361 0 0.026810706117823421 -0.4735078618212491 0 0.0083802861623239536 -0.47592182648919418 0 0.032716380111363103 -0.47548549662250361 0 0.0083802861623239536 -0.47592182648919418 0 0.022652110026761041 -0.5 0 0.032716380111363103 -0.47548549662250361 0 -0.0059214349440480096 -0.5 0 -0.001559218297712473 -0.48630381278426621 0 0.022652110026761041 -0.5 0 -0.001559218297712473 -0.48630381278426621 0 0.0083802861623239536 -0.47592182648919418 0 0.022652110026761041 -0.5 0 0.022652110026761041 -0.5 0 0.032716380111363103 -0.47548549662250361 0 0.051225654997570147 -0.5 0 0.032716380111363103 -0.47548549662250361 0 0.057052474060402238 -0.47504916675581299 0 0.026810706117823421 -0.4735078618212491 0 0.032716380111363103 -0.47548549662250361 0 0.045241126073322917 -0.47109389715330402 0 0.035139977908902928 -0.46396040063464561 0 0.026810706117823421 -0.4735078618212491 0 0.045241126073322917 -0.47109389715330402 0 0.032716380111363103 -0.47548549662250361 0 0.045241126073322917 -0.47109389715330402 0 0.057052474060402238 -0.47504916675581299 0 0.026810706117823421 -0.4735078618212491 0 0.045241126073322917 -0.47109389715330402 0 0.032716380111363103 -0.47548549662250361 0 0.057052474060402238 -0.47504916675581299 0 0.051225654997570147 -0.5 0 0.0544314877777081 -0.46478650539081351 0 0.045241126073322917 -0.47109389715330402 0 0.057052474060402238 -0.47504916675581299 0 0.081118842629079771 -0.30168805617415378 0 0.083519938231687282 -0.27933084534531771 0 0.1103472935163861 -0.29231121108876601 0 0.081118842629079771 -0.30168805617415378 0 0.063357554445907807 -0.31429821883825831 0 0.059433572494966343 -0.29890443778677039 0 0.081118842629079771 -0.30168805617415378 0 0.066619386336831413 -0.28484967818570478 0 0.059433572494966343 -0.29890443778677039 0 0.081118842629079771 -0.30168805617415378 0 0.066619386336831413 -0.28484967818570478 0 0.083519938231687282 -0.27933084534531771 0 0.083519938231687282 -0.27933084534531771 0 0.056692582946988472 -0.26635047960186942 0 0.066619386336831413 -0.28484967818570478 0 0.083519938231687282 -0.27933084534531771 0 0.056692582946988472 -0.26635047960186942 0 0.075666061419851979 -0.25058102630538681 0 0.083519938231687282 -0.27933084534531771 0 0.056692582946988472 -0.26635047960186942 0 0.075666061419851979 -0.25058102630538681 0 0.083519938231687282 -0.27933084534531771 0 0.098131758774508041 -0.25132227540013069 0 0.083519938231687282 -0.27933084534531771 0 0.1065751036730464 -0.27163593425720178 0 0.1103472935163861 -0.29231121108876601 0 0.083519938231687282 -0.27933084534531771 0 0.1065751036730464 -0.27163593425720178 0 0.098131758774508041 -0.25132227540013069 0 0.1065751036730464 -0.27163593425720178 0 0.098131758774508041 -0.25132227540013069 0 0.1178361446961015 -0.25438522520056522 0 0.1315484349202912 -0.27340611545995608 0 0.1065751036730464 -0.27163593425720178 0 0.1178361446961015 -0.25438522520056522 0 0.1315484349202912 -0.27340611545995608 0 0.1065751036730464 -0.27163593425720178 0 0.1103472935163861 -0.29231121108876601 0 0.083519938231687282 -0.27933084534531771 0 0.1103472935163861 -0.29231121108876601 0 0.081118842629079771 -0.30168805617415378 0 0.1103472935163861 -0.29231121108876601 0 0.1022791844200315 -0.31585517468283358 0 0.13717464880108479 -0.3052915768322142 0 0.1103472935163861 -0.29231121108876601 0 0.12432076628891719 -0.31689767271897762 0 0.1103472935163861 -0.29231121108876601 0 0.12432076628891719 -0.31689767271897762 0 0.1022791844200315 -0.31585517468283358 0 0.13717464880108479 -0.3052915768322142 0 0.1103472935163861 -0.29231121108876601 0 0.12869626483080349 -0.33356230690395411 0 0.12432076628891719 -0.31689767271897762 0 0.1140226696683022 -0.32797927448933661 0 0.12432076628891719 -0.31689767271897762 0 0.1140226696683022 -0.32797927448933661 0 0.1022791844200315 -0.31585517468283358 0 0.12869626483080349 -0.33356230690395411 0 0.1140226696683022 -0.32797927448933661 0 0.1197219978513696 -0.33610024192499149 0 0.12869626483080349 -0.33356230690395411 0 0.1197219978513696 -0.33610024192499149 0 0.1185492547077379 -0.34535244466316278 0 0.1197219978513696 -0.33610024192499149 0 0.1111186384223242 -0.33995338008544018 0 0.1185492547077379 -0.34535244466316278 0 0.1140226696683022 -0.32797927448933661 0 0.1197219978513696 -0.33610024192499149 0 0.1111186384223242 -0.33995338008544018 0 0.1140226696683022 -0.32797927448933661 0 0.1111186384223242 -0.33995338008544018 0 0.1004793628605473 -0.33295840943302152 0 0.1111186384223242 -0.33995338008544018 0 0.1004793628605473 -0.33295840943302152 0 0.1017657741911329 -0.34457045637038147 0 0.1004793628605473 -0.33295840943302152 0 0.1017657741911329 -0.34457045637038147 0 0.088632662375152604 -0.34407407879925572 0 0.1004793628605473 -0.33295840943302152 0 0.1022791844200315 -0.31585517468283358 0 0.084728140986064043 -0.32486828594532818 0 0.1140226696683022 -0.32797927448933661 0 0.1004793628605473 -0.33295840943302152 0 0.1022791844200315 -0.31585517468283358 0 0.1227683379170192 -0.37411441866801581 0 0.122496978453228 -0.35613318591378929 0 0.10829433572242329 -0.36094576963454039 0 0.1102250157623898 -0.36931480321375842 0 0.1227683379170192 -0.37411441866801581 0 0.10829433572242329 -0.36094576963454039 0 0.1227683379170192 -0.37411441866801581 0 0.10829433572242329 -0.36094576963454039 0 0.1102250157623898 -0.36931480321375842 0 0.1227683379170192 -0.37411441866801581 0 0.10817459204419071 -0.3745323483605737 0 0.13496373539083151 -0.34779915963192393 0 0.1075963555631637 -0.35782062779314622 0 0.13496373539083151 -0.34779915963192393 0 0.122496978453228 -0.35613318591378929 0 0.1075963555631637 -0.35782062779314622 0 0.13496373539083151 -0.34779915963192393 0 0.1185492547077379 -0.34535244466316278 0 0.1075963555631637 -0.35782062779314622 0 0.122496978453228 -0.35613318591378929 0 0.1075963555631637 -0.35782062779314622 0 0.10829433572242329 -0.36094576963454039 0 0.1111186384223242 -0.33995338008544018 0 0.1185492547077379 -0.34535244466316278 0 0.108728994557564 -0.34805268128755867 0 0.1185492547077379 -0.34535244466316278 0 0.108728994557564 -0.34805268128755867 0 0.1075963555631637 -0.35782062779314622 0 0.097809760286578756 -0.35219858917179647 0 0.1075963555631637 -0.35782062779314622 0 0.089373970988225845 -0.35609721125915961 0 0.1111186384223242 -0.33995338008544018 0 0.108728994557564 -0.34805268128755867 0 0.1017657741911329 -0.34457045637038147 0 0.108728994557564 -0.34805268128755867 0 0.1039752211496098 -0.3506605886557207 0 0.1017657741911329 -0.34457045637038147 0 0.1017657741911329 -0.34457045637038147 0 0.097809760286578756 -0.35219858917179647 0 0.088632662375152604 -0.34407407879925572 0 0.1039752211496098 -0.3506605886557207 0 0.1017657741911329 -0.34457045637038147 0 0.097809760286578756 -0.35219858917179647 0 0.1039752211496098 -0.3506605886557207 0 0.097809760286578756 -0.35219858917179647 0 0.1075963555631637 -0.35782062779314622 0 0.108728994557564 -0.34805268128755867 0 0.1039752211496098 -0.3506605886557207 0 0.1075963555631637 -0.35782062779314622 0 0.1075963555631637 -0.35782062779314622 0 0.101662797365926 -0.36766667619190352 0 0.080228975735496033 -0.36784209595436851 0 0.1075963555631637 -0.35782062779314622 0 0.080228975735496033 -0.36784209595436851 0 0.1102250157623898 -0.36931480321375842 0 0.10829433572242329 -0.36094576963454039 0 0.101662797365926 -0.36766667619190352 0 0.1075963555631637 -0.35782062779314622 0 0.10829433572242329 -0.36094576963454039 0 0.101662797365926 -0.36766667619190352 0 0.1102250157623898 -0.36931480321375842 0 0.101662797365926 -0.36766667619190352 0 0.10817459204419071 -0.3745323483605737 0 0.096850201759796778 -0.37765500736829821 0 0.101662797365926 -0.36766667619190352 0 0.10817459204419071 -0.3745323483605737 0 0.096850201759796778 -0.37765500736829821 0 0.101662797365926 -0.36766667619190352 0 0.080228975735496033 -0.36784209595436851 0 0.1075963555631637 -0.35782062779314622 0 0.080228975735496033 -0.36784209595436851 0 0.089373970988225845 -0.35609721125915961 0 0.088632662375152604 -0.34407407879925572 0 0.076080371470746588 -0.3533455530197343 0 0.070815395714644985 -0.33625067264021719 0 0.080228975735496033 -0.36784209595436851 0 0.089373970988225845 -0.35609721125915961 0 0.076080371470746588 -0.3533455530197343 0 0.097809760286578756 -0.35219858917179647 0 0.089373970988225845 -0.35609721125915961 0 0.088632662375152604 -0.34407407879925572 0 0.089373970988225845 -0.35609721125915961 0 0.088632662375152604 -0.34407407879925572 0 0.076080371470746588 -0.3533455530197343 0 0.076080371470746588 -0.3533455530197343 0 0.070815395714644985 -0.33625067264021719 0 0.060668906007330159 -0.34945736648917358 0 0.076080371470746588 -0.3533455530197343 0 0.065219394327938621 -0.3622163342484892 0 0.060668906007330159 -0.34945736648917358 0 0.084676705075023909 -0.38074939184188028 0 0.080228975735496033 -0.36784209595436851 0 0.064852787835328468 -0.3735451681895236 0 0.080228975735496033 -0.36784209595436851 0 0.076080371470746588 -0.3533455530197343 0 0.065219394327938621 -0.3622163342484892 0 0.080228975735496033 -0.36784209595436851 0 0.065219394327938621 -0.3622163342484892 0 0.064852787835328468 -0.3735451681895236 0 0.080228975735496033 -0.36784209595436851 0 0.064852787835328468 -0.3735451681895236 0 0.081118842629079771 -0.30168805617415378 0 0.1022791844200315 -0.31585517468283358 0 0.084728140986064043 -0.32486828594532818 0 0.1004793628605473 -0.33295840943302152 0 0.088632662375152604 -0.34407407879925572 0 0.084728140986064043 -0.32486828594532818 0 0.088632662375152604 -0.34407407879925572 0 0.084728140986064043 -0.32486828594532818 0 0.070815395714644985 -0.33625067264021719 0 0.081118842629079771 -0.30168805617415378 0 0.084728140986064043 -0.32486828594532818 0 0.063357554445907807 -0.31429821883825831 0 0.084728140986064043 -0.32486828594532818 0 0.070815395714644985 -0.33625067264021719 0 0.063357554445907807 -0.31429821883825831 0 0.084728140986064043 -0.32486828594532818 0 0.063357554445907807 -0.31429821883825831 0 0.063357554445907807 -0.31429821883825831 0 0.051785937762109803 -0.33021529489966378 0 0.041986967905752008 -0.30372815173118778 0 0.070815395714644985 -0.33625067264021719 0 0.063357554445907807 -0.31429821883825831 0 0.051785937762109803 -0.33021529489966378 0 0.051785937762109803 -0.33021529489966378 0 0.060668906007330159 -0.34945736648917358 0 0.042526841744702087 -0.34869400274384899 0 0.070815395714644985 -0.33625067264021719 0 0.051785937762109803 -0.33021529489966378 0 0.060668906007330159 -0.34945736648917358 0 0.051785937762109803 -0.33021529489966378 0 0.031359960754321722 -0.32886335695529689 0 0.042526841744702087 -0.34869400274384899 0 0.031359960754321722 -0.32886335695529689 0 0.041986967905752008 -0.30372815173118778 0 0.031359960754321722 -0.32886335695529689 0 0.025690267251229418 -0.3114815422935609 0 0.041986967905752008 -0.30372815173118778 0 0.051785937762109803 -0.33021529489966378 0 0.031359960754321722 -0.32886335695529689 0 0.041986967905752008 -0.30372815173118778 0 0.057004889877836563 -0.37645597607222481 0 0.038791917046415103 -0.3650134572347023 0 0.052861595907828331 -0.37786356411559069 0 0.057004889877836563 -0.37645597607222481 0 0.038791917046415103 -0.3650134572347023 0 0.057004889877836563 -0.37645597607222481 0 0.052811587923265041 -0.3602819026012426 0 0.038791917046415103 -0.3650134572347023 0 0.057004889877836563 -0.37645597607222481 0 0.065219394327938621 -0.3622163342484892 0 0.052811587923265041 -0.3602819026012426 0 0.057004889877836563 -0.37645597607222481 0 0.065219394327938621 -0.3622163342484892 0 0.064852787835328468 -0.3735451681895236 0 0.052811587923265041 -0.3602819026012426 0 0.060668906007330159 -0.34945736648917358 0 0.042526841744702087 -0.34869400274384899 0 0.065219394327938621 -0.3622163342484892 0 0.052811587923265041 -0.3602819026012426 0 0.060668906007330159 -0.34945736648917358 0 0.031359960754321722 -0.32886335695529689 0 0.042526841744702087 -0.34869400274384899 0 0.02073295360289111 -0.35399856217940578 0 0.052811587923265041 -0.3602819026012426 0 0.042526841744702087 -0.34869400274384899 0 0.038791917046415103 -0.3650134572347023 0 0.042526841744702087 -0.34869400274384899 0 0.038791917046415103 -0.3650134572347023 0 0.02073295360289111 -0.35399856217940578 0 0.01232518706557627 -0.38158025174585869 0 0.026102232132214489 -0.36747161115695909 0 0.011501263550186269 -0.36478424459629483 0 0.025494216080160621 -0.38788503227681298 0 0.038791917046415103 -0.3650134572347023 0 0.026102232132214489 -0.36747161115695909 0 0.038791917046415103 -0.3650134572347023 0 0.026102232132214489 -0.36747161115695909 0 0.02073295360289111 -0.35399856217940578 0 0.038791917046415103 -0.3650134572347023 0 0.02073295360289111 -0.35399856217940578 0 0.026102232132214489 -0.36747161115695909 0 0.01981031745592773 -0.3561807992448992 0 0.011501263550186269 -0.36478424459629483 0 0.026102232132214489 -0.36747161115695909 0 0.02073295360289111 -0.35399856217940578 0 0.01981031745592773 -0.3561807992448992 0 0.02073295360289111 -0.35399856217940578 0 0.01981031745592773 -0.3561807992448992 0 0.01050169479713855 -0.35431620341975861 0 0.02073295360289111 -0.35399856217940578 0 0.01981031745592773 -0.3561807992448992 0 0.02073295360289111 -0.35399856217940578 0 0.01050169479713855 -0.35431620341975861 0 0.001851480826797145 -0.34248198528569201 0 0.02073295360289111 -0.35399856217940578 0 0.01589813533370673 -0.33648527218573399 0 0.001851480826797145 -0.34248198528569201 0 0.02073295360289111 -0.35399856217940578 0 0.001851480826797145 -0.34248198528569201 0 -0.00016034541594564481 -0.35905415536001412 0 0.01050169479713855 -0.35431620341975861 0 0.001851480826797145 -0.34248198528569201 0 0.01981031745592773 -0.3561807992448992 0 0.01050169479713855 -0.35431620341975861 0 0.011501263550186269 -0.36478424459629483 0 -0.0017967946481693259 -0.37376702826922092 0 0.01232518706557627 -0.38158025174585869 0 0.011501263550186269 -0.36478424459629483 0 -0.00016034541594564481 -0.35905415536001412 0 -0.0017967946481693259 -0.37376702826922092 0 0.011501263550186269 -0.36478424459629483 0 -0.00016034541594564481 -0.35905415536001412 0 0.01050169479713855 -0.35431620341975861 0 0.011501263550186269 -0.36478424459629483 0 0.031359960754321722 -0.32886335695529689 0 0.0096481461508169282 -0.32059718432254158 0 0.025690267251229418 -0.3114815422935609 0 0.031359960754321722 -0.32886335695529689 0 0.02073295360289111 -0.35399856217940578 0 0.031359960754321722 -0.32886335695529689 0 0.01589813533370673 -0.33648527218573399 0 0.0096481461508169282 -0.32059718432254158 0 0.031359960754321722 -0.32886335695529689 0 0.02073295360289111 -0.35399856217940578 0 0.01589813533370673 -0.33648527218573399 0 0.01589813533370673 -0.33648527218573399 0 0.001851480826797145 -0.34248198528569201 0 0.0096481461508169282 -0.32059718432254158 0 -0.0088985459957128116 -0.30660601876018317 0 0.0096481461508169282 -0.32059718432254158 0 0.019765994194027019 -0.29273747616521739 0 -0.0088985459957128116 -0.30660601876018317 0 -0.0024549795176976338 -0.28174680059924628 0 0.019765994194027019 -0.29273747616521739 0 -0.0024549795176976338 -0.28174680059924628 0 0.019765994194027019 -0.29273747616521739 0 0.0096481461508169282 -0.32059718432254158 0 0.019765994194027019 -0.29273747616521739 0 0.025690267251229418 -0.3114815422935609 0 0.019765994194027019 -0.29273747616521739 0 0.041986967905752008 -0.30372815173118778 0 0.019765994194027019 -0.29273747616521739 0 0.025690267251229418 -0.3114815422935609 0 0.041986967905752008 -0.30372815173118778 0 0.019765994194027019 -0.29273747616521739 0 0.04899145521389274 -0.2871610013123525 0 0.035573581877709787 -0.27254431980869442 0 0.019765994194027019 -0.29273747616521739 0 0.041986967905752008 -0.30372815173118778 0 0.04899145521389274 -0.2871610013123525 0 0.041986967905752008 -0.30372815173118778 0 0.04899145521389274 -0.2871610013123525 0 0.066619386336831413 -0.28484967818570478 0 0.04899145521389274 -0.2871610013123525 0 0.059433572494966343 -0.29890443778677039 0 0.041986967905752008 -0.30372815173118778 0 0.04899145521389274 -0.2871610013123525 0 0.059433572494966343 -0.29890443778677039 0 0.063357554445907807 -0.31429821883825831 0 0.041986967905752008 -0.30372815173118778 0 0.063357554445907807 -0.31429821883825831 0 0.041986967905752008 -0.30372815173118778 0 0.059433572494966343 -0.29890443778677039 0 0.056692582946988472 -0.26635047960186942 0 0.02986522766228987 -0.25337011385842118 0 0.050672133334879119 -0.23138535083256251 0 0.066619386336831413 -0.28484967818570478 0 0.055995942522033472 -0.27059385089351717 0 0.056692582946988472 -0.26635047960186942 0 0.04899145521389274 -0.2871610013123525 0 0.055995942522033472 -0.27059385089351717 0 0.049313390640156107 -0.27416241290410842 0 0.066619386336831413 -0.28484967818570478 0 0.04899145521389274 -0.2871610013123525 0 0.055995942522033472 -0.27059385089351717 0 0.056692582946988472 -0.26635047960186942 0 0.049313390640156107 -0.27416241290410842 0 0.035573581877709787 -0.27254431980869442 0 0.04899145521389274 -0.2871610013123525 0 0.055995942522033472 -0.27059385089351717 0 0.055995942522033472 -0.27059385089351717 0 0.056692582946988472 -0.26635047960186942 0 0.049313390640156107 -0.27416241290410842 0 0.04899145521389274 -0.2871610013123525 0 0.049313390640156107 -0.27416241290410842 0 0.035573581877709787 -0.27254431980869442 0 0.056692582946988472 -0.26635047960186942 0 0.02986522766228987 -0.25337011385842118 0 0.056692582946988472 -0.26635047960186942 0 0.035573581877709787 -0.27254431980869442 0 0.02986522766228987 -0.25337011385842118 0 0.035573581877709787 -0.27254431980869442 0 0.02986522766228987 -0.25337011385842118 0 0.01053898167853382 -0.26196387814045702 0 0.019765994194027019 -0.29273747616521739 0 0.035573581877709787 -0.27254431980869442 0 0.01053898167853382 -0.26196387814045702 0 -0.0024549795176976338 -0.28174680059924628 0 0.019765994194027019 -0.29273747616521739 0 0.01053898167853382 -0.26196387814045702 0 0.02986522766228987 -0.25337011385842118 0 0.01053898167853382 -0.26196387814045702 0 0.0030378723775897828 -0.24038974811497629 0 -0.010819040425910659 -0.25557293657412511 0 0.01053898167853382 -0.26196387814045702 0 0.0030378723775897828 -0.24038974811497629 0 0.0030378723775897828 -0.24038974811497629 0 0.018894798920638681 -0.2230151201946339 0 -0.0017146979285968689 -0.2201291090249857 0 0.0030378723775897828 -0.24038974811497629 0 0.018894798920638681 -0.2230151201946339 0 0.02986522766228987 -0.25337011385842118 0 0.0030378723775897828 -0.24038974811497629 0 0.02986522766228987 -0.25337011385842118 0 0.0030378723775897828 -0.24038974811497629 0 0.018894798920638681 -0.2230151201946339 0 0.010998487786589651 -0.2039049364373606 0 0.028450834224835291 -0.1857139341266939 0 0.0037036872983158189 -0.18532614146338761 0 -0.0017146979285968689 -0.2201291090249857 0 0.018894798920638681 -0.2230151201946339 0 0.010998487786589651 -0.2039049364373606 0 0.018894798920638681 -0.2230151201946339 0 0.034751725463678489 -0.20564049227428319 0 0.018894798920638681 -0.2230151201946339 0 0.010998487786589651 -0.2039049364373606 0 0.034751725463678489 -0.20564049227428319 0 0.010998487786589651 -0.2039049364373606 0 0.034751725463678489 -0.20564049227428319 0 0.028450834224835291 -0.1857139341266939 0 0.034751725463678489 -0.20564049227428319 0 0.05060865200671829 -0.18826586435393261 0 0.034751725463678489 -0.20564049227428319 0 0.05060865200671829 -0.18826586435393261 0 0.028450834224835291 -0.1857139341266939 0 0.034751725463678489 -0.20564049227428319 0 0.058110166651793797 -0.2094383506815406 0 0.050672133334879119 -0.23138535083256251 0 0.034751725463678489 -0.20564049227428319 0 0.058110166651793797 -0.2094383506815406 0 0.05060865200671829 -0.18826586435393261 0 0.058110166651793797 -0.2094383506815406 0 0.05060865200671829 -0.18826586435393261 0 0.076879476181799355 -0.19591254911064021 0 0.02986522766228987 -0.25337011385842118 0 0.018894798920638681 -0.2230151201946339 0 0.050672133334879119 -0.23138535083256251 0 0.075666061419851979 -0.25058102630538681 0 0.056692582946988472 -0.26635047960186942 0 0.050672133334879119 -0.23138535083256251 0 0.018894798920638681 -0.2230151201946339 0 0.034751725463678489 -0.20564049227428319 0 0.050672133334879119 -0.23138535083256251 0 0.075666061419851979 -0.25058102630538681 0 0.050672133334879119 -0.23138535083256251 0 0.080309637489329483 -0.22523104530991159 0 0.075666061419851979 -0.25058102630538681 0 0.098131758774508041 -0.25132227540013069 0 0.080309637489329483 -0.22523104530991159 0 0.058110166651793797 -0.2094383506815406 0 0.050672133334879119 -0.23138535083256251 0 0.080309637489329483 -0.22523104530991159 0 0.058110166651793797 -0.2094383506815406 0 0.080309637489329483 -0.22523104530991159 0 0.076879476181799355 -0.19591254911064021 0 0.076879476181799355 -0.19591254911064021 0 0.098496299356997885 -0.20611736976675829 0 0.10044661442515281 -0.1811027452885785 0 0.080309637489329483 -0.22523104530991159 0 0.076879476181799355 -0.19591254911064021 0 0.098496299356997885 -0.20611736976675829 0 0.098496299356997885 -0.20611736976675829 0 0.1200465015242379 -0.19935528873319 0 0.10044661442515281 -0.1811027452885785 0 0.1200465015242379 -0.19935528873319 0 0.10044661442515281 -0.1811027452885785 0 0.1200465015242379 -0.19935528873319 0 0.11563926977356601 -0.2271066975156624 0 0.1357376281676487 -0.20776248780239509 0 0.098496299356997885 -0.20611736976675829 0 0.1200465015242379 -0.19935528873319 0 0.11563926977356601 -0.2271066975156624 0 0.098131758774508041 -0.25132227540013069 0 0.080309637489329483 -0.22523104530991159 0 0.11563926977356601 -0.2271066975156624 0 0.080309637489329483 -0.22523104530991159 0 0.098496299356997885 -0.20611736976675829 0 0.11563926977356601 -0.2271066975156624 0 0.1178361446961015 -0.25438522520056522 0 0.11563926977356601 -0.2271066975156624 0 0.1335561985377903 -0.24472646869262221 0 0.098131758774508041 -0.25132227540013069 0 0.1178361446961015 -0.25438522520056522 0 0.11563926977356601 -0.2271066975156624 0 0.099461111383962242 -0.13013365886931819 0 0.1106650433206371 -0.14631898978087629 0 0.090270839121076946 -0.14560862029165861 0 0.095927327658147141 -0.15056071791366141 0 0.1106650433206371 -0.14631898978087629 0 0.090270839121076946 -0.14560862029165861 0 0.1106650433206371 -0.14631898978087629 0 0.090270839121076946 -0.14560862029165861 0 0.099461111383962242 -0.13013365886931819 0 0.11536127226820569 -0.14686245808194459 0 0.1106650433206371 -0.14631898978087629 0 0.10803652126945271 -0.1525380328183604 0 0.1009344685437812 -0.15425403197726531 0 0.1106650433206371 -0.14631898978087629 0 0.1009344685437812 -0.15425403197726531 0 0.095927327658147141 -0.15056071791366141 0 0.1106650433206371 -0.14631898978087629 0 0.10803652126945271 -0.1525380328183604 0 0.1009344685437812 -0.15425403197726531 0 0.11158953184486101 -0.15889258842229889 0 0.1009344685437812 -0.15425403197726531 0 0.095927327658147141 -0.15056071791366141 0 0.091183295547602863 -0.15621927508804251 0 0.099461111383962242 -0.13013365886931819 0 0.090270839121076946 -0.14560862029165861 0 0.099461111383962242 -0.13013365886931819 0 0.11536127226820569 -0.14686245808194459 0 0.099461111383962242 -0.13013365886931819 0 0.11941225322926111 -0.13803902848049299 0 0.11536127226820569 -0.14686245808194459 0 0.099461111383962242 -0.13013365886931819 0 0.1170016071620527 -0.12792091724090421 0 0.11941225322926111 -0.13803902848049299 0 0.1170016071620527 -0.12792091724090421 0 0.12649762265596601 -0.1206141667289754 0 0.12873445694653279 -0.1356233751993875 0 0.11941225322926111 -0.13803902848049299 0 0.12591033640807511 -0.14704369877296469 0 0.12873445694653279 -0.1356233751993875 0 0.1170016071620527 -0.12792091724090421 0 0.11941225322926111 -0.13803902848049299 0 0.12873445694653279 -0.1356233751993875 0 0.11536127226820569 -0.14686245808194459 0 0.1312614331524497 -0.1635912572945705 0 0.12591033640807511 -0.14704369877296469 0 0.11536127226820569 -0.14686245808194459 0 0.1312614331524497 -0.1635912572945705 0 0.11941225322926111 -0.13803902848049299 0 0.11536127226820569 -0.14686245808194459 0 0.12591033640807511 -0.14704369877296469 0 0.10803652126945271 -0.1525380328183604 0 0.11536127226820569 -0.14686245808194459 0 0.11158953184486101 -0.15889258842229889 0 0.10803652126945271 -0.1525380328183604 0 0.11536127226820569 -0.14686245808194459 0 0.1106650433206371 -0.14631898978087629 0 0.11158953184486101 -0.15889258842229889 0 0.1178015717316883 -0.17548725694934281 0 0.1312614331524497 -0.1635912572945705 0 0.11158953184486101 -0.15889258842229889 0 0.1178015717316883 -0.17548725694934281 0 0.1004849744452441 -0.1648803893471987 0 0.11536127226820569 -0.14686245808194459 0 0.11158953184486101 -0.15889258842229889 0 0.1312614331524497 -0.1635912572945705 0 0.1200465015242379 -0.19935528873319 0 0.1178015717316883 -0.17548725694934281 0 0.10044661442515281 -0.1811027452885785 0 0.1178015717316883 -0.17548725694934281 0 0.10044661442515281 -0.1811027452885785 0 0.1004849744452441 -0.1648803893471987 0 0.10044661442515281 -0.1811027452885785 0 0.1004849744452441 -0.1648803893471987 0 0.080846727326067763 -0.16285020184396709 0 0.1009344685437812 -0.15425403197726531 0 0.11158953184486101 -0.15889258842229889 0 0.1004849744452441 -0.1648803893471987 0 0.1009344685437812 -0.15425403197726531 0 0.1004849744452441 -0.1648803893471987 0 0.091183295547602863 -0.15621927508804251 0 0.1004849744452441 -0.1648803893471987 0 0.080846727326067763 -0.16285020184396709 0 0.091183295547602863 -0.15621927508804251 0 0.080846727326067763 -0.16285020184396709 0 0.082418862937627971 -0.1515575400468534 0 0.091183295547602863 -0.15621927508804251 0 0.10044661442515281 -0.1811027452885785 0 0.080846727326067763 -0.16285020184396709 0 0.10044661442515281 -0.1811027452885785 0 0.080846727326067763 -0.16285020184396709 0 0.081022006064117288 -0.17936720619484389 0 0.076879476181799355 -0.19591254911064021 0 0.10044661442515281 -0.1811027452885785 0 0.081022006064117288 -0.17936720619484389 0 0.076879476181799355 -0.19591254911064021 0 0.081022006064117288 -0.17936720619484389 0 0.066465578549758084 -0.17089123643358189 0 0.05060865200671829 -0.18826586435393261 0 0.076879476181799355 -0.19591254911064021 0 0.066465578549758084 -0.17089123643358189 0 0.080846727326067763 -0.16285020184396709 0 0.066465578549758084 -0.17089123643358189 0 0.06200048331877181 -0.15919415192403799 0 0.080846727326067763 -0.16285020184396709 0 0.081022006064117288 -0.17936720619484389 0 0.066465578549758084 -0.17089123643358189 0 0.082418862937627971 -0.1515575400468534 0 0.090270839121076946 -0.14560862029165861 0 0.061246840226982097 -0.14459765839935651 0 0.090270839121076946 -0.14560862029165861 0 0.061246840226982097 -0.14459765839935651 0 0.080846727326067763 -0.16285020184396709 0 0.061246840226982097 -0.14459765839935651 0 0.080846727326067763 -0.16285020184396709 0 0.082418862937627971 -0.1515575400468534 0 0.061246840226982097 -0.14459765839935651 0 0.080846727326067763 -0.16285020184396709 0 0.061246840226982097 -0.14459765839935651 0 0.06200048331877181 -0.15919415192403799 0 0.090270839121076946 -0.14560862029165861 0 0.088546612466410213 -0.14851194461124251 0 0.095927327658147141 -0.15056071791366141 0 0.090270839121076946 -0.14560862029165861 0 0.088546612466410213 -0.14851194461124251 0 0.082418862937627971 -0.1515575400468534 0 0.091183295547602863 -0.15621927508804251 0 0.088546612466410213 -0.14851194461124251 0 0.095927327658147141 -0.15056071791366141 0 0.091183295547602863 -0.15621927508804251 0 0.088546612466410213 -0.14851194461124251 0 0.082418862937627971 -0.1515575400468534 0 0.090270839121076946 -0.14560862029165861 0 0.088546612466410213 -0.14851194461124251 0 0.099461111383962242 -0.13013365886931819 0 0.090270839121076946 -0.14560862029165861 0 0.087896553422643603 -0.13373213836533909 0 0.090270839121076946 -0.14560862029165861 0 0.087896553422643603 -0.13373213836533909 0 0.076273510722176141 -0.13032729858833181 0 0.090270839121076946 -0.14560862029165861 0 0.076273510722176141 -0.13032729858833181 0 0.061246840226982097 -0.14459765839935651 0 0.076273510722176141 -0.13032729858833181 0 0.061882904551070282 -0.1264255339603941 0 0.061246840226982097 -0.14459765839935651 0 0.048273375529177077 -0.13251602104977719 0 0.061246840226982097 -0.14459765839935651 0 0.03295360434457259 -0.14361215039299011 0 0.061882904551070282 -0.1264255339603941 0 0.048273375529177077 -0.13251602104977719 0 0.04872371585495143 -0.1161819578950597 0 0.061882904551070282 -0.1264255339603941 0 0.048273375529177077 -0.13251602104977719 0 0.061246840226982097 -0.14459765839935651 0 0.048273375529177077 -0.13251602104977719 0 0.061246840226982097 -0.14459765839935651 0 0.061246840226982097 -0.14459765839935651 0 0.06200048331877181 -0.15919415192403799 0 0.046505175578559849 -0.1611882733181845 0 0.061246840226982097 -0.14459765839935651 0 0.03295360434457259 -0.14361215039299011 0 0.046505175578559849 -0.1611882733181845 0 0.061246840226982097 -0.14459765839935651 0 0.03295360434457259 -0.14361215039299011 0 0.03295360434457259 -0.14361215039299011 0 0.046505175578559849 -0.1611882733181845 0 0.030431451662984998 -0.16356764601514581 0 0.048273375529177077 -0.13251602104977719 0 0.03295360434457259 -0.14361215039299011 0 0.030881491201611471 -0.13142245338813499 0 0.048273375529177077 -0.13251602104977719 0 0.030881491201611471 -0.13142245338813499 0 0.035299910831371482 -0.1204343837001987 0 0.048273375529177077 -0.13251602104977719 0 0.035299910831371482 -0.1204343837001987 0 0.05060865200671829 -0.18826586435393261 0 0.066465578549758084 -0.17089123643358189 0 0.040429030083843021 -0.17562347397569661 0 0.05060865200671829 -0.18826586435393261 0 0.066465578549758084 -0.17089123643358189 0 0.066465578549758084 -0.17089123643358189 0 0.046505175578559849 -0.1611882733181845 0 0.040429030083843021 -0.17562347397569661 0 0.066465578549758084 -0.17089123643358189 0 0.06200048331877181 -0.15919415192403799 0 0.046505175578559849 -0.1611882733181845 0 0.046505175578559849 -0.1611882733181845 0 0.040429030083843021 -0.17562347397569661 0 0.030431451662984998 -0.16356764601514581 0 0.040429030083843021 -0.17562347397569661 0 0.028450834224835291 -0.1857139341266939 0 0.030431451662984998 -0.16356764601514581 0 0.05060865200671829 -0.18826586435393261 0 0.040429030083843021 -0.17562347397569661 0 0.028450834224835291 -0.1857139341266939 0 0.028450834224835291 -0.1857139341266939 0 0.030431451662984998 -0.16356764601514581 0 0.012624301280439039 -0.16680119825529191 0 0.030431451662984998 -0.16356764601514581 0 0.012624301280439039 -0.16680119825529191 0 0.01847811310324967 -0.15256111557992169 0 0.0038534333372737331 -0.1589623078312796 0 0.012624301280439039 -0.16680119825529191 0 0.0088324042951283301 -0.1514005134141071 0 0.012624301280439039 -0.16680119825529191 0 0.01847811310324967 -0.15256111557992169 0 0.0088324042951283301 -0.1514005134141071 0 -0.0021974887681538891 -0.1710032044305812 0 0.0038534333372737331 -0.1589623078312796 0 0.012624301280439039 -0.16680119825529191 0 -0.0021974887681538891 -0.1710032044305812 0 0.012624301280439039 -0.16680119825529191 0 0.0037036872983158189 -0.18532614146338761 0 0.028450834224835291 -0.1857139341266939 0 0.012624301280439039 -0.16680119825529191 0 0.0037036872983158189 -0.18532614146338761 0 0.019095958833860859 -0.1363705209309197 0 0.030881491201611471 -0.13142245338813499 0 0.02060793898948679 -0.1235698122374162 0 0.030881491201611471 -0.13142245338813499 0 0.02060793898948679 -0.1235698122374162 0 0.035299910831371482 -0.1204343837001987 0 0.03295360434457259 -0.14361215039299011 0 0.019095958833860859 -0.1363705209309197 0 0.030881491201611471 -0.13142245338813499 0 0.03295360434457259 -0.14361215039299011 0 0.019095958833860859 -0.1363705209309197 0 0.0046603684621628104 -0.1426266423866292 0 0.03295360434457259 -0.14361215039299011 0 0.0046603684621628104 -0.1426266423866292 0 0.03295360434457259 -0.14361215039299011 0 0.030431451662984998 -0.16356764601514581 0 0.01847811310324967 -0.15256111557992169 0 0.03295360434457259 -0.14361215039299011 0 0.01847811310324967 -0.15256111557992169 0 0.0046603684621628104 -0.1426266423866292 0 -0.001672999716826632 -0.15908307441973141 0 0.0038534333372737331 -0.1589623078312796 0 0.0046603684621628104 -0.1426266423866292 0 0.0038534333372737331 -0.1589623078312796 0 0.0088324042951283301 -0.1514005134141071 0 0.0046603684621628104 -0.1426266423866292 0 0.01847811310324967 -0.15256111557992169 0 0.0088324042951283301 -0.1514005134141071 0 0.0046603684621628104 -0.1426266423866292 0 0.0046603684621628104 -0.1426266423866292 0 0.0056030651199572906 -0.1221440163211721 0 0.02060793898948679 -0.1235698122374162 0 0.019095958833860859 -0.1363705209309197 0 0.0046603684621628104 -0.1426266423866292 0 0.02060793898948679 -0.1235698122374162 0 0.0046603684621628104 -0.1426266423866292 0 0.02060793898948679 -0.1235698122374162 0 -0.006850710005279358 -0.14222568930940019 0 0.0046603684621628104 -0.1426266423866292 0 0.0056030651199572906 -0.1221440163211721 0 0.0056030651199572906 -0.1221440163211721 0 0.018056840245196031 -0.1020623433329453 0 0.0033433695816099951 -0.1044055319074582 0 0.0056030651199572906 -0.1221440163211721 0 0.018056840245196031 -0.1020623433329453 0 -0.0085620011404608093 -0.1104453998028736 0 0.0056030651199572906 -0.1221440163211721 0 0.0033433695816099951 -0.1044055319074582 0 0.0056030651199572906 -0.1221440163211721 0 0.02060793898948679 -0.1235698122374162 0 0.018056840245196031 -0.1020623433329453 0 0.02060793898948679 -0.1235698122374162 0 0.035299910831371482 -0.1204343837001987 0 0.036555509516807527 -0.1045129820882006 0 0.02060793898948679 -0.1235698122374162 0 0.036555509516807527 -0.1045129820882006 0 0.02060793898948679 -0.1235698122374162 0 0.018056840245196031 -0.1020623433329453 0 0.036555509516807527 -0.1045129820882006 0 0.018056840245196031 -0.1020623433329453 0 0.038075612491783102 -0.09108577904418913 0 0.036555509516807527 -0.1045129820882006 0 0.018056840245196031 -0.1020623433329453 0 0.0033433695816099951 -0.1044055319074582 0 0.0067789116749813619 -0.088875342084001996 0 -0.0051599679916239016 -0.098500557996298033 0 0.0033433695816099951 -0.1044055319074582 0 0.0067789116749813619 -0.088875342084001996 0 -0.0019047174400742891 -0.072071791944647356 0 0.013345290293737129 -0.073265792880389841 0 0.0063456604897870542 -0.056665138065186929 0 -0.0019047174400742891 -0.072071791944647356 0 0.0067789116749813619 -0.088875342084001996 0 0.013345290293737129 -0.073265792880389841 0 0.013345290293737129 -0.073265792880389841 0 0.023665314480786039 -0.063064517143019153 0 0.0063456604897870542 -0.056665138065186929 0 0.013345290293737129 -0.073265792880389841 0 0.023665314480786039 -0.063064517143019153 0 0.030510615370434809 -0.08198067034471844 0 0.018056840245196031 -0.1020623433329453 0 0.0067789116749813619 -0.088875342084001996 0 0.030510615370434809 -0.08198067034471844 0 0.0067789116749813619 -0.088875342084001996 0 0.013345290293737129 -0.073265792880389841 0 0.030510615370434809 -0.08198067034471844 0 0.018056840245196031 -0.1020623433329453 0 0.030510615370434809 -0.08198067034471844 0 0.018056840245196031 -0.1020623433329453 0 0.030510615370434809 -0.08198067034471844 0 0.038075612491783102 -0.09108577904418913 0 0.038075612491783102 -0.09108577904418913 0 0.052503080044128313 -0.085456151938984926 0 0.036555509516807527 -0.1045129820882006 0 0.030510615370434809 -0.08198067034471844 0 0.038075612491783102 -0.09108577904418913 0 0.043712633685447033 -0.078271112790297262 0 0.038075612491783102 -0.09108577904418913 0 0.043712633685447033 -0.078271112790297262 0 0.052503080044128313 -0.085456151938984926 0 0.023665314480786039 -0.063064517143019153 0 0.030510615370434809 -0.08198067034471844 0 0.04296439049567366 -0.061898997356491479 0 0.030510615370434809 -0.08198067034471844 0 0.04296439049567366 -0.061898997356491479 0 0.030510615370434809 -0.08198067034471844 0 0.043712633685447033 -0.078271112790297262 0 0.04296439049567366 -0.061898997356491479 0 0.043712633685447033 -0.078271112790297262 0 0.054509470025215279 -0.07093396526710237 0 0.04296439049567366 -0.061898997356491479 0 0.052503080044128313 -0.085456151938984926 0 0.068450650571449154 -0.066399321789769192 0 0.054509470025215279 -0.07093396526710237 0 0.052503080044128313 -0.085456151938984926 0 0.068450650571449154 -0.066399321789769192 0 0.052503080044128313 -0.085456151938984926 0 0.061198050207558877 -0.089876514785025202 0 0.052598060881869947 -0.1010981772200166 0 0.052503080044128313 -0.085456151938984926 0 0.061198050207558877 -0.089876514785025202 0 0.068450650571449154 -0.066399321789769192 0 0.043712633685447033 -0.078271112790297262 0 0.054509470025215279 -0.07093396526710237 0 0.052503080044128313 -0.085456151938984926 0 0.061198050207558877 -0.089876514785025202 0 0.052598060881869947 -0.1010981772200166 0 0.062964556426150342 -0.10327110704599619 0 0.052503080044128313 -0.085456151938984926 0 0.052598060881869947 -0.1010981772200166 0 0.036555509516807527 -0.1045129820882006 0 0.052598060881869947 -0.1010981772200166 0 0.057732533819412298 -0.11210464935177129 0 0.062964556426150342 -0.10327110704599619 0 0.061882904551070282 -0.1264255339603941 0 0.057732533819412298 -0.11210464935177129 0 0.04872371585495143 -0.1161819578950597 0 0.052598060881869947 -0.1010981772200166 0 0.057732533819412298 -0.11210464935177129 0 0.04872371585495143 -0.1161819578950597 0 0.048273375529177077 -0.13251602104977719 0 0.04872371585495143 -0.1161819578950597 0 0.035299910831371482 -0.1204343837001987 0 0.04872371585495143 -0.1161819578950597 0 0.035299910831371482 -0.1204343837001987 0 0.036555509516807527 -0.1045129820882006 0 0.052598060881869947 -0.1010981772200166 0 0.04872371585495143 -0.1161819578950597 0 0.036555509516807527 -0.1045129820882006 0 0.052503080044128313 -0.085456151938984926 0 0.036555509516807527 -0.1045129820882006 0 0.01390017229619854 0.0035466824707463158 0 0.0083878754145421119 -0.02018330378721013 0 0.02502350143566328 -0.02138204156051696 0 0.01390017229619854 0.0035466824707463158 0 0.02502350143566328 -0.02138204156051696 0 0.035320714275878941 -0.0049685962559337217 0 0.01390017229619854 0.0035466824707463158 0 0.035320714275878941 -0.0049685962559337217 0 -0.0040637010000482386 -0.0059727926133312454 0 0.01390017229619854 0.0035466824707463158 0 0.0083878754145421119 -0.02018330378721013 0 0.02502350143566328 -0.02138204156051696 0 0.025923149963681211 -0.040737258210538807 0 0.031902922795735311 -0.030230520576513081 0 0.0083878754145421119 -0.02018330378721013 0 0.02502350143566328 -0.02138204156051696 0 0.025923149963681211 -0.040737258210538807 0 -0.003314385603862581 -0.037434641495532432 0 0.0083878754145421119 -0.02018330378721013 0 0.025923149963681211 -0.040737258210538807 0 -0.003314385603862581 -0.037434641495532432 0 0.025923149963681211 -0.040737258210538807 0 0.0063456604897870542 -0.056665138065186929 0 -0.003314385603862581 -0.037434641495532432 0 0.025923149963681211 -0.040737258210538807 0 0.023665314480786039 -0.063064517143019153 0 0.025923149963681211 -0.040737258210538807 0 0.0063456604897870542 -0.056665138065186929 0 0.023665314480786039 -0.063064517143019153 0 0.025923149963681211 -0.040737258210538807 0 0.04296439049567366 -0.061898997356491479 0 0.025923149963681211 -0.040737258210538807 0 0.04296439049567366 -0.061898997356491479 0 0.055160685531224989 -0.044039874925545189 0 0.054509470025215279 -0.07093396526710237 0 0.055160685531224989 -0.044039874925545189 0 0.068450650571449154 -0.066399321789769192 0 0.054509470025215279 -0.07093396526710237 0 0.04296439049567366 -0.061898997356491479 0 0.055160685531224989 -0.044039874925545189 0 0.055160685531224989 -0.044039874925545189 0 0.046308595818617931 -0.03736206271791967 0 0.073755840861695676 -0.032311642659389489 0 0.046308595818617931 -0.03736206271791967 0 0.062411980815140912 -0.027882352784564839 0 0.073755840861695676 -0.032311642659389489 0 0.046308595818617931 -0.03736206271791967 0 0.073755840861695676 -0.032311642659389489 0 0.046308595818617931 -0.03736206271791967 0 0.038161831408769782 -0.03562346229585861 0 0.053869498396704407 -0.027104989330563461 0 0.025923149963681211 -0.040737258210538807 0 0.046308595818617931 -0.03736206271791967 0 0.038161831408769782 -0.03562346229585861 0 0.025923149963681211 -0.040737258210538807 0 0.055160685531224989 -0.044039874925545189 0 0.046308595818617931 -0.03736206271791967 0 0.038161831408769782 -0.03562346229585861 0 0.053869498396704407 -0.027104989330563461 0 0.025923149963681211 -0.040737258210538807 0 0.055160685531224989 -0.044039874925545189 0 0.025923149963681211 -0.040737258210538807 0 0.038161831408769782 -0.03562346229585861 0 0.031902922795735311 -0.030230520576513081 0 0.038161831408769782 -0.03562346229585861 0 0.038503208374827 -0.023179320239137938 0 0.053869498396704407 -0.027104989330563461 0 0.02502350143566328 -0.02138204156051696 0 0.038503208374827 -0.023179320239137938 0 0.035320714275878941 -0.0049685962559337217 0 0.038161831408769782 -0.03562346229585861 0 0.031902922795735311 -0.030230520576513081 0 0.038503208374827 -0.023179320239137938 0 0.02502350143566328 -0.02138204156051696 0 0.031902922795735311 -0.030230520576513081 0 0.038503208374827 -0.023179320239137938 0 0.053869498396704407 -0.027104989330563461 0 0.062411980815140912 -0.027882352784564839 0 0.069577165384639428 -0.01858651636526908 0 0.053869498396704407 -0.027104989330563461 0 0.069577165384639428 -0.01858651636526908 0 0.046308595818617931 -0.03736206271791967 0 0.053869498396704407 -0.027104989330563461 0 0.062411980815140912 -0.027882352784564839 0 0.053869498396704407 -0.027104989330563461 0 0.060131443852034103 -0.01935298095576115 0 0.069577165384639428 -0.01858651636526908 0 0.060131443852034103 -0.01935298095576115 0 0.056741256255559307 -0.01348387498261387 0 0.069577165384639428 -0.01858651636526908 0 0.053869498396704407 -0.027104989330563461 0 0.060131443852034103 -0.01935298095576115 0 0.055839364136009699 -0.01920942181742331 0 0.060131443852034103 -0.01935298095576115 0 0.055839364136009699 -0.01920942181742331 0 0.056741256255559307 -0.01348387498261387 0 0.053869498396704407 -0.027104989330563461 0 0.055839364136009699 -0.01920942181742331 0 0.049633913943345667 -0.017269514415901441 0 0.038503208374827 -0.023179320239137938 0 0.053869498396704407 -0.027104989330563461 0 0.049633913943345667 -0.017269514415901441 0 0.055839364136009699 -0.01920942181742331 0 0.049633913943345667 -0.017269514415901441 0 0.056741256255559307 -0.01348387498261387 0 0.042273270358040613 0.0064879609404319399 0 0.059262053668840409 0.0035845234533785839 0 0.056741256255559307 -0.01348387498261387 0 0.059262053668840409 0.0035845234533785839 0 0.056741256255559307 -0.01348387498261387 0 0.067433032629086107 -0.0052842170610784504 0 0.042273270358040613 0.0064879609404319399 0 0.056741256255559307 -0.01348387498261387 0 0.049633913943345667 -0.017269514415901441 0 0.056741256255559307 -0.01348387498261387 0 0.035320714275878941 -0.0049685962559337217 0 0.042273270358040613 0.0064879609404319399 0 0.056741256255559307 -0.01348387498261387 0 0.035320714275878941 -0.0049685962559337217 0 0.038503208374827 -0.023179320239137938 0 0.049633913943345667 -0.017269514415901441 0 0.035320714275878941 -0.0049685962559337217 0 0.056741256255559307 -0.01348387498261387 0 0.035320714275878941 -0.0049685962559337217 0 0.069577165384639428 -0.01858651636526908 0 0.095599149367132194 -0.0044744545785956966 0 0.090900209464364279 -0.015251182034048891 0 0.079906677844619689 -0.017980550353148508 0 0.095599149367132194 -0.0044744545785956966 0 0.069577165384639428 -0.01858651636526908 0 0.079906677844619689 -0.017980550353148508 0 0.095599149367132194 -0.0044744545785956966 0 0.076278950778147128 -0.008375781321669204 0 0.069577165384639428 -0.01858651636526908 0 0.095599149367132194 -0.0044744545785956966 0 0.078697083033740872 -0.00049660012687540833 0 0.076278950778147128 -0.008375781321669204 0 0.095599149367132194 -0.0044744545785956966 0 0.078697083033740872 -0.00049660012687540833 0 0.067433032629086107 -0.0052842170610784504 0 0.076278950778147128 -0.008375781321669204 0 0.056741256255559307 -0.01348387498261387 0 0.064534597547764735 -0.01257535248102837 0 0.069577165384639428 -0.01858651636526908 0 0.056741256255559307 -0.01348387498261387 0 0.067433032629086107 -0.0052842170610784504 0 0.064534597547764735 -0.01257535248102837 0 0.067433032629086107 -0.0052842170610784504 0 0.064534597547764735 -0.01257535248102837 0 0.069455936584909339 -0.011205466807261279 0 0.064534597547764735 -0.01257535248102837 0 0.069455936584909339 -0.011205466807261279 0 0.069577165384639428 -0.01858651636526908 0 0.069455936584909339 -0.011205466807261279 0 0.076278950778147128 -0.008375781321669204 0 0.069577165384639428 -0.01858651636526908 0 0.067433032629086107 -0.0052842170610784504 0 0.069455936584909339 -0.011205466807261279 0 0.076278950778147128 -0.008375781321669204 0 0.071549756823346855 -0.019370677939258261 0 0.069577165384639428 -0.01858651636526908 0 0.079906677844619689 -0.017980550353148508 0 0.071549756823346855 -0.019370677939258261 0 0.0761237081414122 -0.023477747196428821 0 0.079906677844619689 -0.017980550353148508 0 0.071549756823346855 -0.019370677939258261 0 0.069081606401306742 -0.024215386610333279 0 0.0761237081414122 -0.023477747196428821 0 0.071549756823346855 -0.019370677939258261 0 0.069577165384639428 -0.01858651636526908 0 0.056741256255559307 -0.01348387498261387 0 0.069577165384639428 -0.01858651636526908 0 0.071549756823346855 -0.019370677939258261 0 0.069577165384639428 -0.01858651636526908 0 0.069081606401306742 -0.024215386610333279 0 0.062411980815140912 -0.027882352784564839 0 0.069081606401306742 -0.024215386610333279 0 0.073755840861695676 -0.032311642659389489 0 0.062411980815140912 -0.027882352784564839 0 0.069577165384639428 -0.01858651636526908 0 0.069081606401306742 -0.024215386610333279 0 0.069081606401306742 -0.024215386610333279 0 0.0761237081414122 -0.023477747196428821 0 0.073755840861695676 -0.032311642659389489 0 0.073755840861695676 -0.032311642659389489 0 0.101203085904774 -0.027261222600861439 0 0.0761237081414122 -0.023477747196428821 0 0.086324658776091995 -0.023510478420014549 0 0.073755840861695676 -0.032311642659389489 0 0.086324658776091995 -0.023510478420014549 0 0.073755840861695676 -0.032311642659389489 0 0.101203085904774 -0.027261222600861439 0 0.090900209464364279 -0.015251182034048891 0 0.079906677844619689 -0.017980550353148508 0 0.086324658776091995 -0.023510478420014549 0 0.0761237081414122 -0.023477747196428821 0 0.079906677844619689 -0.017980550353148508 0 0.086324658776091995 -0.023510478420014549 0 0.090900209464364279 -0.015251182034048891 0 0.086324658776091995 -0.023510478420014549 0 0.1002307264126559 -0.01559520253508158 0 0.073755840861695676 -0.032311642659389489 0 0.084398221098768683 -0.047342491640552473 0 0.101203085904774 -0.027261222600861439 0 0.084398221098768683 -0.047342491640552473 0 0.101203085904774 -0.027261222600861439 0 0.055160685531224989 -0.044039874925545189 0 0.084398221098768683 -0.047342491640552473 0 0.055160685531224989 -0.044039874925545189 0 0.073755840861695676 -0.032311642659389489 0 0.084398221098768683 -0.047342491640552473 0 0.084398221098768683 -0.047342491640552473 0 0.068450650571449154 -0.066399321789769192 0 0.055160685531224989 -0.044039874925545189 0 0.084398221098768683 -0.047342491640552473 0 0.068450650571449154 -0.066399321789769192 0 0.084398221098768683 -0.047342491640552473 0 0.068450650571449154 -0.066399321789769192 0 0.095004073375363998 -0.067087017816563649 0 0.11244779522614951 -0.050510918478302323 0 0.095004073375363998 -0.067087017816563649 0 0.1162050627898097 -0.068427817987787853 0 0.084398221098768683 -0.047342491640552473 0 0.11244779522614951 -0.050510918478302323 0 0.084398221098768683 -0.047342491640552473 0 0.11244779522614951 -0.050510918478302323 0 0.095004073375363998 -0.067087017816563649 0 0.11244779522614951 -0.050510918478302323 0 0.1162050627898097 -0.068427817987787853 0 0.14070525833088449 -0.05756413883550883 0 0.11244779522614951 -0.050510918478302323 0 0.1238085752058041 -0.039299878797608309 0 0.101203085904774 -0.027261222600861439 0 0.084398221098768683 -0.047342491640552473 0 0.11244779522614951 -0.050510918478302323 0 0.101203085904774 -0.027261222600861439 0 0.086324658776091995 -0.023510478420014549 0 0.101203085904774 -0.027261222600861439 0 0.1002307264126559 -0.01559520253508158 0 0.101203085904774 -0.027261222600861439 0 0.1137009945662482 -0.01232662662750867 0 0.101203085904774 -0.027261222600861439 0 0.1137009945662482 -0.01232662662750867 0 0.1002307264126559 -0.01559520253508158 0 0.101203085904774 -0.027261222600861439 0 0.1199586828556034 -0.02381010599875542 0 0.1238085752058041 -0.039299878797608309 0 0.101203085904774 -0.027261222600861439 0 0.1199586828556034 -0.02381010599875542 0 0.101203085904774 -0.027261222600861439 0 0.1199586828556034 -0.02381010599875542 0 0.1137009945662482 -0.01232662662750867 0 0.1199586828556034 -0.02381010599875542 0 0.1137009945662482 -0.01232662662750867 0 0.12727891351365461 -0.01151347109978261 0 0.1216211333496255 0.009637607208076996 0 0.1137009945662482 -0.01232662662750867 0 0.095599149367132194 -0.0044744545785956966 0 0.1216211333496255 0.009637607208076996 0 0.1261989032277212 0.0026079693458452009 0 0.1137009945662482 -0.01232662662750867 0 0.1261989032277212 0.0026079693458452009 0 0.1137009945662482 -0.01232662662750867 0 0.12727891351365461 -0.01151347109978261 0 0.1261989032277212 0.0026079693458452009 0 0.1137009945662482 -0.01232662662750867 0 0.1137009945662482 -0.01232662662750867 0 0.1002307264126559 -0.01559520253508158 0 0.095599149367132194 -0.0044744545785956966 0 0.090900209464364279 -0.015251182034048891 0 0.1002307264126559 -0.01559520253508158 0 0.095599149367132194 -0.0044744545785956966 0 0.080329580795760233 -0.110005086827172 0 0.093698049703005437 -0.08622586494159229 0 0.1047849470853935 -0.09628042538124304 0 0.099461111383962242 -0.13013365886931819 0 0.087896553422643603 -0.13373213836533909 0 0.080329580795760233 -0.110005086827172 0 0.099461111383962242 -0.13013365886931819 0 0.080329580795760233 -0.110005086827172 0 0.087896553422643603 -0.13373213836533909 0 0.076273510722176141 -0.13032729858833181 0 0.080329580795760233 -0.110005086827172 0 0.076273510722176141 -0.13032729858833181 0 0.061882904551070282 -0.1264255339603941 0 0.080329580795760233 -0.110005086827172 0 0.061882904551070282 -0.1264255339603941 0 0.057732533819412298 -0.11210464935177129 0 0.080329580795760233 -0.110005086827172 0 0.061198050207558877 -0.089876514785025202 0 0.080329580795760233 -0.110005086827172 0 0.061198050207558877 -0.089876514785025202 0 0.080329580795760233 -0.110005086827172 0 0.077258717238625929 -0.08197915661401102 0 0.061198050207558877 -0.089876514785025202 0 0.080329580795760233 -0.110005086827172 0 0.062964556426150342 -0.10327110704599619 0 0.057732533819412298 -0.11210464935177129 0 0.080329580795760233 -0.110005086827172 0 0.062964556426150342 -0.10327110704599619 0 0.061198050207558877 -0.089876514785025202 0 0.077258717238625929 -0.08197915661401102 0 0.068450650571449154 -0.066399321789769192 0 0.077258717238625929 -0.08197915661401102 0 0.068450650571449154 -0.066399321789769192 0 0.095004073375363998 -0.067087017816563649 0 0.080329580795760233 -0.110005086827172 0 0.077258717238625929 -0.08197915661401102 0 0.093698049703005437 -0.08622586494159229 0 0.077258717238625929 -0.08197915661401102 0 0.093698049703005437 -0.08622586494159229 0 0.095004073375363998 -0.067087017816563649 0 0.093698049703005437 -0.08622586494159229 0 0.1088153756341434 -0.081523015486940548 0 0.095004073375363998 -0.067087017816563649 0 0.093698049703005437 -0.08622586494159229 0 0.1088153756341434 -0.081523015486940548 0 0.1047849470853935 -0.09628042538124304 0 0.1088153756341434 -0.081523015486940548 0 0.095004073375363998 -0.067087017816563649 0 0.1162050627898097 -0.068427817987787853 0 0.1162050627898097 -0.068427817987787853 0 0.1196077590821981 -0.078622597956278753 0 0.13294770016690599 -0.073747552477796324 0 0.1088153756341434 -0.081523015486940548 0 0.1162050627898097 -0.068427817987787853 0 0.1196077590821981 -0.078622597956278753 0 0.1196077590821981 -0.078622597956278753 0 0.1217855039059248 -0.092542921274970324 0 0.13294770016690599 -0.073747552477796324 0 0.1088153756341434 -0.081523015486940548 0 0.1217855039059248 -0.092542921274970324 0 0.1047849470853935 -0.09628042538124304 0 0.1088153756341434 -0.081523015486940548 0 0.1196077590821981 -0.078622597956278753 0 0.1217855039059248 -0.092542921274970324 0 0.1217855039059248 -0.092542921274970324 0 0.1047849470853935 -0.09628042538124304 0 0.1106233076449436 -0.1113382900721443 0 0.1217855039059248 -0.092542921274970324 0 0.1106233076449436 -0.1113382900721443 0 0.1217855039059248 -0.092542921274970324 0 0.1106233076449436 -0.1113382900721443 0 0.1308596215865637 -0.10877458396665619 0 0.080329580795760233 -0.110005086827172 0 0.1047849470853935 -0.09628042538124304 0 0.1106233076449436 -0.1113382900721443 0 0.099461111383962242 -0.13013365886931819 0 0.1106233076449436 -0.1113382900721443 0 0.099461111383962242 -0.13013365886931819 0 0.1170016071620527 -0.12792091724090421 0 0.1106233076449436 -0.1113382900721443 0 0.099461111383962242 -0.13013365886931819 0 0.080329580795760233 -0.110005086827172 0 0.1106233076449436 -0.1113382900721443 0 0.1170016071620527 -0.12792091724090421 0 0.1106233076449436 -0.1113382900721443 0 0.12649762265596601 -0.1206141667289754 0 0.1106233076449436 -0.1113382900721443 0 0.12649762265596601 -0.1206141667289754 0 0.1308596215865637 -0.10877458396665619 0 0.12649762265596601 -0.1206141667289754 0 0.1308596215865637 -0.10877458396665619 0 0.1366185565040583 -0.12594926818623639 0 0.14708755077157629 -0.1102561983338088 0 0.1308596215865637 -0.10877458396665619 0 0.1366185565040583 -0.12594926818623639 0 0.14708755077157629 -0.1102561983338088 0 0.14954583971598739 -0.1209555525708393 0 0.1366185565040583 -0.12594926818623639 0 0.14708755077157629 -0.1102561983338088 0 0.14954583971598739 -0.1209555525708393 0 0.16489551478955089 -0.116481043705464 0 0.14954583971598739 -0.1209555525708393 0 0.16489551478955089 -0.116481043705464 0 0.1539975317547195 -0.13043494150422261 0 0.1425451880369131 -0.09194665920380235 0 0.1573150978685218 -0.09038552391620773 0 0.158670161289581 -0.1032728689661305 0 0.14708755077157629 -0.1102561983338088 0 0.1425451880369131 -0.09194665920380235 0 0.158670161289581 -0.1032728689661305 0 0.14708755077157629 -0.1102561983338088 0 0.1308596215865637 -0.10877458396665619 0 0.1425451880369131 -0.09194665920380235 0 0.1217855039059248 -0.092542921274970324 0 0.1308596215865637 -0.10877458396665619 0 0.1425451880369131 -0.09194665920380235 0 0.1217855039059248 -0.092542921274970324 0 0.13294770016690599 -0.073747552477796324 0 0.1217855039059248 -0.092542921274970324 0 0.1361929766556404 -0.083666343026255016 0 0.1425451880369131 -0.09194665920380235 0 0.1361929766556404 -0.083666343026255016 0 0.1416252231838987 -0.074755399019655625 0 0.1425451880369131 -0.09194665920380235 0 0.1217855039059248 -0.092542921274970324 0 0.1361929766556404 -0.083666343026255016 0 0.13294770016690599 -0.073747552477796324 0 0.1162050627898097 -0.068427817987787853 0 0.13548488961683691 -0.0674944047300165 0 0.14070525833088449 -0.05756413883550883 0 0.1162050627898097 -0.068427817987787853 0 0.14070525833088449 -0.05756413883550883 0 0.1162050627898097 -0.068427817987787853 0 0.13294770016690599 -0.073747552477796324 0 0.13548488961683691 -0.0674944047300165 0 0.13548488961683691 -0.0674944047300165 0 0.1416252231838987 -0.074755399019655625 0 0.14070525833088449 -0.05756413883550883 0 0.13294770016690599 -0.073747552477796324 0 0.13548488961683691 -0.0674944047300165 0 0.1416252231838987 -0.074755399019655625 0 0.1361929766556404 -0.083666343026255016 0 0.13294770016690599 -0.073747552477796324 0 0.1416252231838987 -0.074755399019655625 0 0.1416252231838987 -0.074755399019655625 0 0.14070525833088449 -0.05756413883550883 0 0.14682599693175341 -0.062960452475862752 0 0.1416252231838987 -0.074755399019655625 0 0.14070525833088449 -0.05756413883550883 0 0.14682599693175341 -0.062960452475862752 0 0.1416252231838987 -0.074755399019655625 0 0.15071695942297469 -0.067703904313423199 0 0.1416252231838987 -0.074755399019655625 0 0.15071695942297469 -0.067703904313423199 0 0.15265767141071171 -0.07815978236918926 0 0.15071695942297469 -0.067703904313423199 0 0.15265767141071171 -0.07815978236918926 0 0.1603696946894152 -0.066113441288344024 0 0.15071695942297469 -0.067703904313423199 0 0.1603696946894152 -0.066113441288344024 0 0.1531030313839811 -0.061092952016003357 0 0.14682599693175341 -0.062960452475862752 0 0.15071695942297469 -0.067703904313423199 0 0.1531030313839811 -0.061092952016003357 0 0.1416252231838987 -0.074755399019655625 0 0.1425451880369131 -0.09194665920380235 0 0.15265767141071171 -0.07815978236918926 0 0.1416252231838987 -0.074755399019655625 0 0.1425451880369131 -0.09194665920380235 0 0.1425451880369131 -0.09194665920380235 0 0.15265767141071171 -0.07815978236918926 0 0.1573150978685218 -0.09038552391620773 0 0.1573150978685218 -0.09038552391620773 0 0.1641367207126988 -0.077192615154610511 0 0.17285668164115789 -0.09747824883415146 0 0.1641367207126988 -0.077192615154610511 0 0.17285668164115789 -0.09747824883415146 0 0.15265767141071171 -0.07815978236918926 0 0.1573150978685218 -0.09038552391620773 0 0.1641367207126988 -0.077192615154610511 0 0.15265767141071171 -0.07815978236918926 0 0.1603696946894152 -0.066113441288344024 0 0.1641367207126988 -0.077192615154610511 0 0.1603696946894152 -0.066113441288344024 0 0.1641367207126988 -0.077192615154610511 0 0.1724177722907185 -0.067013237638211987 0 0.1603696946894152 -0.066113441288344024 0 0.1724177722907185 -0.067013237638211987 0 0.16777377840966859 -0.057364242220369399 0 0.1724177722907185 -0.067013237638211987 0 0.17973398916175229 -0.082599494293392028 0 0.18895299373412161 -0.068459151195248036 0 0.1724177722907185 -0.067013237638211987 0 0.17958933286873019 -0.052077879057524493 0 0.18895299373412161 -0.068459151195248036 0 0.1641367207126988 -0.077192615154610511 0 0.1724177722907185 -0.067013237638211987 0 0.17973398916175229 -0.082599494293392028 0 0.1641367207126988 -0.077192615154610511 0 0.17973398916175229 -0.082599494293392028 0 0.17285668164115789 -0.09747824883415146 0 0.17973398916175229 -0.082599494293392028 0 0.18652453742661679 -0.102375556866128 0 0.1956974856241134 -0.085150163081038635 0 0.17973398916175229 -0.082599494293392028 0 0.18652453742661679 -0.102375556866128 0 0.17285668164115789 -0.09747824883415146 0 0.18652453742661679 -0.102375556866128 0 0.17285668164115789 -0.09747824883415146 0 0.18157664256961689 -0.11776388251369239 0 0.17285668164115789 -0.09747824883415146 0 0.18157664256961689 -0.11776388251369239 0 0.18157664256961689 -0.11776388251369239 0 0.16489551478955089 -0.116481043705464 0 0.17759605914381271 -0.12726527994934919 0 0.17285668164115789 -0.09747824883415146 0 0.18157664256961689 -0.11776388251369239 0 0.16489551478955089 -0.116481043705464 0 0.14708755077157629 -0.1102561983338088 0 0.16489551478955089 -0.116481043705464 0 0.158670161289581 -0.1032728689661305 0 0.16489551478955089 -0.116481043705464 0 0.17759605914381271 -0.12726527994934919 0 0.16489551478955089 -0.116481043705464 0 0.16599125378273469 -0.12824618074702129 0 0.17759605914381271 -0.12726527994934919 0 0.17285668164115789 -0.09747824883415146 0 0.16489551478955089 -0.116481043705464 0 0.158670161289581 -0.1032728689661305 0 0.1573150978685218 -0.09038552391620773 0 0.17285668164115789 -0.09747824883415146 0 0.158670161289581 -0.1032728689661305 0 0.1513951225051974 -0.0045333370058090999 0 0.13782170711226721 -0.003679602821842598 0 0.13871427980643281 -0.020358989396649419 0 0.1513951225051974 -0.0045333370058090999 0 0.13871427980643281 -0.020358989396649419 0 0.16269906043183549 -0.015945678808289711 0 0.13782170711226721 -0.003679602821842598 0 0.13871427980643281 -0.020358989396649419 0 0.13782170711226721 -0.003679602821842598 0 0.12727891351365461 -0.01151347109978261 0 0.13871427980643281 -0.020358989396649419 0 0.1261989032277212 0.0026079693458452009 0 0.13782170711226721 -0.003679602821842598 0 0.12727891351365461 -0.01151347109978261 0 0.13871427980643281 -0.020358989396649419 0 0.13960582457998119 -0.037019167356351482 0 0.1199586828556034 -0.02381010599875542 0 0.13871427980643281 -0.020358989396649419 0 0.1199586828556034 -0.02381010599875542 0 0.12727891351365461 -0.01151347109978261 0 0.13871427980643281 -0.020358989396649419 0 0.1199586828556034 -0.02381010599875542 0 0.13871427980643281 -0.020358989396649419 0 0.13960582457998119 -0.037019167356351482 0 0.13871427980643281 -0.020358989396649419 0 0.16269906043183549 -0.015945678808289711 0 0.13871427980643281 -0.020358989396649419 0 0.1551994608137672 -0.030917319946549181 0 0.13960582457998119 -0.037019167356351482 0 0.13871427980643281 -0.020358989396649419 0 0.1551994608137672 -0.030917319946549181 0 0.16269906043183549 -0.015945678808289711 0 0.15023128193343011 -0.043839995226354692 0 0.13960582457998119 -0.037019167356351482 0 0.14049736935352991 -0.053679345316053548 0 0.1551994608137672 -0.030917319946549181 0 0.15023128193343011 -0.043839995226354692 0 0.13960582457998119 -0.037019167356351482 0 0.1238085752058041 -0.039299878797608309 0 0.1199586828556034 -0.02381010599875542 0 0.13960582457998119 -0.037019167356351482 0 0.13960582457998119 -0.037019167356351482 0 0.14049736935352991 -0.053679345316053548 0 0.1238085752058041 -0.039299878797608309 0 0.13960582457998119 -0.037019167356351482 0 0.14049736935352991 -0.053679345316053548 0 0.11244779522614951 -0.050510918478302323 0 0.14049736935352991 -0.053679345316053548 0 0.14070525833088449 -0.05756413883550883 0 0.11244779522614951 -0.050510918478302323 0 0.1238085752058041 -0.039299878797608309 0 0.14049736935352991 -0.053679345316053548 0 0.11244779522614951 -0.050510918478302323 0 0.14049736935352991 -0.053679345316053548 0 0.14049736935352991 -0.053679345316053548 0 0.14070525833088449 -0.05756413883550883 0 0.14682599693175341 -0.062960452475862752 0 0.14070525833088449 -0.05756413883550883 0 0.14764544284960521 -0.054486778177610252 0 0.15023128193343011 -0.043839995226354692 0 0.14764544284960521 -0.054486778177610252 0 0.16720316814816799 -0.045814649327216683 0 0.14070525833088449 -0.05756413883550883 0 0.14764544284960521 -0.054486778177610252 0 0.14049736935352991 -0.053679345316053548 0 0.14070525833088449 -0.05756413883550883 0 0.14764544284960521 -0.054486778177610252 0 0.14049736935352991 -0.053679345316053548 0 0.14764544284960521 -0.054486778177610252 0 0.15023128193343011 -0.043839995226354692 0 0.14049736935352991 -0.053679345316053548 0 0.14764544284960521 -0.054486778177610252 0 0.14682599693175341 -0.062960452475862752 0 0.14764544284960521 -0.054486778177610252 0 0.1531030313839811 -0.061092952016003357 0 0.14764544284960521 -0.054486778177610252 0 0.1592889240513109 -0.05580200379054983 0 0.14764544284960521 -0.054486778177610252 0 0.1531030313839811 -0.061092952016003357 0 0.1592889240513109 -0.05580200379054983 0 0.14764544284960521 -0.054486778177610252 0 0.1592889240513109 -0.05580200379054983 0 0.16720316814816799 -0.045814649327216683 0 0.14764544284960521 -0.054486778177610252 0 0.16720316814816799 -0.045814649327216683 0 0.1603696946894152 -0.066113441288344024 0 0.1531030313839811 -0.061092952016003357 0 0.1592889240513109 -0.05580200379054983 0 0.1603696946894152 -0.066113441288344024 0 0.1592889240513109 -0.05580200379054983 0 0.16777377840966859 -0.057364242220369399 0 0.16777377840966859 -0.057364242220369399 0 0.17958933286873019 -0.052077879057524493 0 0.16720316814816799 -0.045814649327216683 0 0.1592889240513109 -0.05580200379054983 0 0.16777377840966859 -0.057364242220369399 0 0.16720316814816799 -0.045814649327216683 0 0.1724177722907185 -0.067013237638211987 0 0.17958933286873019 -0.052077879057524493 0 0.1724177722907185 -0.067013237638211987 0 0.16777377840966859 -0.057364242220369399 0 0.17958933286873019 -0.052077879057524493 0 0.18676089344673541 -0.037142520476833779 0 0.16720316814816799 -0.045814649327216683 0 0.1719229346562916 -0.030069112753372471 0 0.17958933286873019 -0.052077879057524493 0 0.18676089344673541 -0.037142520476833779 0 0.16720316814816799 -0.045814649327216683 0 0.18676089344673541 -0.037142520476833779 0 0.16720316814816799 -0.045814649327216683 0 0.17958933286873019 -0.052077879057524493 0 0.18676089344673541 -0.037142520476833779 0 0.19370562251298701 -0.043088488028326571 0 0.17958933286873019 -0.052077879057524493 0 0.18676089344673541 -0.037142520476833779 0 0.18676089344673541 -0.037142520476833779 0 0.1719229346562916 -0.030069112753372471 0 0.18200320207781709 -0.028023205855545321 0 0.1551994608137672 -0.030917319946549181 0 0.15023128193343011 -0.043839995226354692 0 0.16720316814816799 -0.045814649327216683 0 0.1551994608137672 -0.030917319946549181 0 0.16720316814816799 -0.045814649327216683 0 0.1719229346562916 -0.030069112753372471 0 0.1551994608137672 -0.030917319946549181 0 0.16269906043183549 -0.015945678808289711 0 0.1719229346562916 -0.030069112753372471 0 0.16269906043183549 -0.015945678808289711 0 0.1719229346562916 -0.030069112753372471 0 0.1828291438039126 -0.017770628297236551 0 0.1719229346562916 -0.030069112753372471 0 0.18200320207781709 -0.028023205855545321 0 0.1828291438039126 -0.017770628297236551 0 0.18676089344673541 -0.037142520476833779 0 0.18200320207781709 -0.028023205855545321 0 0.1880190891543625 -0.01966267832141139 0 0.1828291438039126 -0.017770628297236551 0 0.18668384105723779 -0.01153236821992791 0 0.1880190891543625 -0.01966267832141139 0 0.18200320207781709 -0.028023205855545321 0 0.1828291438039126 -0.017770628297236551 0 0.1880190891543625 -0.01966267832141139 0 0.17938535236777481 0.0027944006364079761 0 0.16269906043183549 -0.015945678808289711 0 0.18668384105723779 -0.01153236821992791 0 0.16269906043183549 -0.015945678808289711 0 0.18668384105723779 -0.01153236821992791 0 0.1956107411484494 0.0029145055015004332 0 0.17938535236777481 0.0027944006364079761 0 0.18668384105723779 -0.01153236821992791 0 0.16269906043183549 -0.015945678808289711 0 0.1828291438039126 -0.017770628297236551 0 0.18668384105723779 -0.01153236821992791 0 0.1828291438039126 -0.017770628297236551 0 0.18668384105723779 -0.01153236821992791 0 0.17938535236777481 0.0027944006364079761 0 0.16425275925440139 0.0057972351868864763 0 0.16269906043183549 -0.015945678808289711 0 0.16425275925440139 0.0057972351868864763 0 0.1513951225051974 -0.0045333370058090999 0 0.16269906043183549 -0.015945678808289711 0 0.20583623999187731 0.0025834412024074061 0 0.20757438549195981 -0.017196499619994251 0 0.20583623999187731 0.0025834412024074061 0 0.1962985667193097 -0.01727953963721483 0 0.20757438549195981 -0.017196499619994251 0 0.20583623999187731 0.0025834412024074061 0 0.21365954302142709 -0.0067425653957122666 0 0.20757438549195981 -0.017196499619994251 0 0.21365954302142709 -0.0067425653957122666 0 0.20757438549195981 -0.017196499619994251 0 0.2247516134704845 -0.01007136731745076 0 0.20583623999187731 0.0025834412024074061 0 0.21802032041234901 0.0037211667715176091 0 0.21365954302142709 -0.0067425653957122666 0 0.20583623999187731 0.0025834412024074061 0 0.1962985667193097 -0.01727953963721483 0 0.1956107411484494 0.0029145055015004332 0 0.18981678725084661 -0.01095589162733487 0 0.1962985667193097 -0.01727953963721483 0 0.20583623999187731 0.0025834412024074061 0 0.1956107411484494 0.0029145055015004332 0 0.1962985667193097 -0.01727953963721483 0 0.1956107411484494 0.0029145055015004332 0 0.18668384105723779 -0.01153236821992791 0 0.1956107411484494 0.0029145055015004332 0 0.18668384105723779 -0.01153236821992791 0 0.18981678725084661 -0.01095589162733487 0 0.18668384105723779 -0.01153236821992791 0 0.18981678725084661 -0.01095589162733487 0 0.1880190891543625 -0.01966267832141139 0 0.18668384105723779 -0.01153236821992791 0 0.18981678725084661 -0.01095589162733487 0 0.1962985667193097 -0.01727953963721483 0 0.20178676345487279 -0.026350533491949081 0 0.193961570616179 -0.033949654268191298 0 0.18676089344673541 -0.037142520476833779 0 0.1962985667193097 -0.01727953963721483 0 0.1880190891543625 -0.01966267832141139 0 0.18676089344673541 -0.037142520476833779 0 0.1962985667193097 -0.01727953963721483 0 0.193961570616179 -0.033949654268191298 0 0.18676089344673541 -0.037142520476833779 0 0.1962985667193097 -0.01727953963721483 0 0.1962985667193097 -0.01727953963721483 0 0.20178676345487279 -0.026350533491949081 0 0.20757438549195981 -0.017196499619994251 0 0.18981678725084661 -0.01095589162733487 0 0.1962985667193097 -0.01727953963721483 0 0.1880190891543625 -0.01966267832141139 0 0.20178676345487279 -0.026350533491949081 0 0.20757438549195981 -0.017196499619994251 0 0.20931253099204261 -0.036976440442395932 0 0.20757438549195981 -0.017196499619994251 0 0.2158354539990803 -0.026652054415280652 0 0.20931253099204261 -0.036976440442395932 0 0.20757438549195981 -0.017196499619994251 0 0.20931253099204261 -0.036976440442395932 0 0.20757438549195981 -0.017196499619994251 0 0.2158354539990803 -0.026652054415280652 0 0.2247516134704845 -0.01007136731745076 0 0.20931253099204261 -0.036976440442395932 0 0.21895741274989419 -0.057038183107145021 0 0.22459651201804251 -0.039976530430591677 0 0.2158354539990803 -0.026652054415280652 0 0.20931253099204261 -0.036976440442395932 0 0.22459651201804251 -0.039976530430591677 0 0.20931253099204261 -0.036976440442395932 0 0.19370562251298701 -0.043088488028326571 0 0.19958733813105611 -0.054187767745244433 0 0.20178676345487279 -0.026350533491949081 0 0.20931253099204261 -0.036976440442395932 0 0.193961570616179 -0.033949654268191298 0 0.20931253099204261 -0.036976440442395932 0 0.193961570616179 -0.033949654268191298 0 0.19370562251298701 -0.043088488028326571 0 0.18676089344673541 -0.037142520476833779 0 0.193961570616179 -0.033949654268191298 0 0.19370562251298701 -0.043088488028326571 0 0.18676089344673541 -0.037142520476833779 0 0.193961570616179 -0.033949654268191298 0 0.17958933286873019 -0.052077879057524493 0 0.19370562251298701 -0.043088488028326571 0 0.19958733813105611 -0.054187767745244433 0 0.17958933286873019 -0.052077879057524493 0 0.19958733813105611 -0.054187767745244433 0 0.18895299373412161 -0.068459151195248036 0 0.19958733813105611 -0.054187767745244433 0 0.21895741274989419 -0.057038183107145021 0 0.20753807140339589 -0.070437502673892122 0 0.20931253099204261 -0.036976440442395932 0 0.19958733813105611 -0.054187767745244433 0 0.21895741274989419 -0.057038183107145021 0 0.21895741274989419 -0.057038183107145021 0 0.2436501633852933 -0.051215294890519659 0 0.23353655382867949 -0.07711908776431857 0 0.21895741274989419 -0.057038183107145021 0 0.2436501633852933 -0.051215294890519659 0 0.22459651201804251 -0.039976530430591677 0 0.2436501633852933 -0.051215294890519659 0 0.23758219984233919 -0.032767858050925358 0 0.22459651201804251 -0.039976530430591677 0 0.25376377294190638 -0.02531150201672052 0 0.2436501633852933 -0.051215294890519659 0 0.23758219984233919 -0.032767858050925358 0 0.25376377294190638 -0.02531150201672052 0 0.2436501633852933 -0.051215294890519659 0 0.23758219984233919 -0.032767858050925358 0 0.22459651201804251 -0.039976530430591677 0 0.22716492334719909 -0.02803917508930041 0 0.2158354539990803 -0.026652054415280652 0 0.22459651201804251 -0.039976530430591677 0 0.22716492334719909 -0.02803917508930041 0 0.2158354539990803 -0.026652054415280652 0 0.22716492334719909 -0.02803917508930041 0 0.2247516134704845 -0.01007136731745076 0 0.22716492334719909 -0.02803917508930041 0 0.24078713260575191 -0.016309214249168251 0 0.2247516134704845 -0.01007136731745076 0 0.23758219984233919 -0.032767858050925358 0 0.22716492334719909 -0.02803917508930041 0 0.24078713260575191 -0.016309214249168251 0 0.25376377294190638 -0.02531150201672052 0 0.23758219984233919 -0.032767858050925358 0 0.24078713260575191 -0.016309214249168251 0 0.25376377294190638 -0.02531150201672052 0 0.25034063533258072 -0.014015239688903461 0 0.24078713260575191 -0.016309214249168251 0 0.25376377294190638 -0.02531150201672052 0 0.24078713260575191 -0.016309214249168251 0 0.25034063533258072 -0.014015239688903461 0 0.24078713260575191 -0.016309214249168251 0 0.2471597475602246 -0.0042098564474911636 0 0.24078713260575191 -0.016309214249168251 0 0.2471597475602246 -0.0042098564474911636 0 0.2361617531247045 -0.001793522683003997 0 0.24078713260575191 -0.016309214249168251 0 0.2361617531247045 -0.001793522683003997 0 0.2247516134704845 -0.01007136731745076 0 0.21802032041234901 0.0037211667715176091 0 0.21365954302142709 -0.0067425653957122666 0 0.2247516134704845 -0.01007136731745076 0 0.2131505593884829 -0.1078925585983237 0 0.19944996854257299 -0.098709299794260713 0 0.21198535347622119 -0.088319973663310888 0 0.2131505593884829 -0.1078925585983237 0 0.1990946155597319 -0.1166238684689884 0 0.19944996854257299 -0.098709299794260713 0 0.2131505593884829 -0.1078925585983237 0 0.21198535347622119 -0.088319973663310888 0 0.22533565187635959 -0.099599184984734968 0 0.2131505593884829 -0.1078925585983237 0 0.1990946155597319 -0.1166238684689884 0 0.21661063022803961 -0.12843209683037421 0 0.18157664256961689 -0.11776388251369239 0 0.1990946155597319 -0.1166238684689884 0 0.1935705653015822 -0.12632429102260739 0 0.18652453742661679 -0.102375556866128 0 0.18157664256961689 -0.11776388251369239 0 0.1990946155597319 -0.1166238684689884 0 0.18652453742661679 -0.102375556866128 0 0.19944996854257299 -0.098709299794260713 0 0.1956974856241134 -0.085150163081038635 0 0.18652453742661679 -0.102375556866128 0 0.1990946155597319 -0.1166238684689884 0 0.19944996854257299 -0.098709299794260713 0 0.19944996854257299 -0.098709299794260713 0 0.1956974856241134 -0.085150163081038635 0 0.21198535347622119 -0.088319973663310888 0 0.17973398916175229 -0.082599494293392028 0 0.1956974856241134 -0.085150163081038635 0 0.18895299373412161 -0.068459151195248036 0 0.19958733813105611 -0.054187767745244433 0 0.18895299373412161 -0.068459151195248036 0 0.20753807140339589 -0.070437502673892122 0 0.1956974856241134 -0.085150163081038635 0 0.18895299373412161 -0.068459151195248036 0 0.20753807140339589 -0.070437502673892122 0 0.1956974856241134 -0.085150163081038635 0 0.20753807140339589 -0.070437502673892122 0 0.21198535347622119 -0.088319973663310888 0 0.20753807140339589 -0.070437502673892122 0 0.21198535347622119 -0.088319973663310888 0 0.23353655382867949 -0.07711908776431857 0 0.23353655382867949 -0.07711908776431857 0 0.24325324569035511 -0.095765154759331339 0 0.22533565187635959 -0.099599184984734968 0 0.21198535347622119 -0.088319973663310888 0 0.23353655382867949 -0.07711908776431857 0 0.22533565187635959 -0.099599184984734968 0 0.21895741274989419 -0.057038183107145021 0 0.20753807140339589 -0.070437502673892122 0 0.23353655382867949 -0.07711908776431857 0 0.25548491960858971 -0.078406524054481799 0 0.2436501633852933 -0.051215294890519659 0 0.23353655382867949 -0.07711908776431857 0 0.2436501633852933 -0.051215294890519659 0 0.23353655382867949 -0.07711908776431857 0 0.25548491960858971 -0.078406524054481799 0 0.23353655382867949 -0.07711908776431857 0 0.24325324569035511 -0.095765154759331339 0 0.24325324569035511 -0.095765154759331339 0 0.22533565187635959 -0.099599184984734968 0 0.24379894379493161 -0.11250487873852059 0 0.26193908655172332 -0.099778616189599004 0 0.24325324569035511 -0.095765154759331339 0 0.24379894379493161 -0.11250487873852059 0 0.2131505593884829 -0.1078925585983237 0 0.22533565187635959 -0.099599184984734968 0 0.2270532921215703 -0.11656038034141079 0 0.22533565187635959 -0.099599184984734968 0 0.2270532921215703 -0.11656038034141079 0 0.24379894379493161 -0.11250487873852059 0 0.2131505593884829 -0.1078925585983237 0 0.2270532921215703 -0.11656038034141079 0 0.21661063022803961 -0.12843209683037421 0 0.25307832950956188 -0.12546723468404561 0 0.24379894379493161 -0.11250487873852059 0 0.23637067532003789 -0.13437318255510081 0 0.2270532921215703 -0.11656038034141079 0 0.24379894379493161 -0.11250487873852059 0 0.23637067532003789 -0.13437318255510081 0 0.25307832950956188 -0.12546723468404561 0 0.25430909082108533 -0.14212631279041679 0 0.23637067532003789 -0.13437318255510081 0 0.25430909082108533 -0.14212631279041679 0 0.23637067532003789 -0.13437318255510081 0 0.23895399883393831 -0.1464713621474725 0 0.25416550914145403 -0.16506446950883469 0 0.25430909082108533 -0.14212631279041679 0 0.2384597502014196 -0.16024027279430991 0 0.25430909082108533 -0.14212631279041679 0 0.23895399883393831 -0.1464713621474725 0 0.2384597502014196 -0.16024027279430991 0 0.25430909082108533 -0.14212631279041679 0 0.2384597502014196 -0.16024027279430991 0 0.23895399883393831 -0.1464713621474725 0 0.22667647899321031 -0.14914568045006241 0 0.2384597502014196 -0.16024027279430991 0 0.23637067532003789 -0.13437318255510081 0 0.23895399883393831 -0.1464713621474725 0 0.22667647899321031 -0.14914568045006241 0 0.23637067532003789 -0.13437318255510081 0 0.22667647899321031 -0.14914568045006241 0 0.21661063022803961 -0.12843209683037421 0 0.2270532921215703 -0.11656038034141079 0 0.23637067532003789 -0.13437318255510081 0 0.21661063022803961 -0.12843209683037421 0 0.1990946155597319 -0.1166238684689884 0 0.21661063022803961 -0.12843209683037421 0 0.2029296535411757 -0.1328379578329871 0 0.21661063022803961 -0.12843209683037421 0 0.20960938141439381 -0.1544483061793793 0 0.2029296535411757 -0.1328379578329871 0 0.21661063022803961 -0.12843209683037421 0 0.20960938141439381 -0.1544483061793793 0 0.22667647899321031 -0.14914568045006241 0 0.21661063022803961 -0.12843209683037421 0 0.20960938141439381 -0.1544483061793793 0 0.20960938141439381 -0.1544483061793793 0 0.1974342802380262 -0.15465421165661039 0 0.19029660349807509 -0.13804951619323369 0 0.20960938141439381 -0.1544483061793793 0 0.19029660349807509 -0.13804951619323369 0 0.20960938141439381 -0.1544483061793793 0 0.19029660349807509 -0.13804951619323369 0 0.2029296535411757 -0.1328379578329871 0 0.1974342802380262 -0.15465421165661039 0 0.19029660349807509 -0.13804951619323369 0 0.1974342802380262 -0.15465421165661039 0 0.19029660349807509 -0.13804951619323369 0 0.1859299250895961 -0.1489815116468664 0 0.1974342802380262 -0.15465421165661039 0 0.1859299250895961 -0.1489815116468664 0 0.1862890750383332 -0.15893798721293809 0 0.18157664256961689 -0.11776388251369239 0 0.19029660349807509 -0.13804951619323369 0 0.1935705653015822 -0.12632429102260739 0 0.1990946155597319 -0.1166238684689884 0 0.1935705653015822 -0.12632429102260739 0 0.2029296535411757 -0.1328379578329871 0 0.19029660349807509 -0.13804951619323369 0 0.1935705653015822 -0.12632429102260739 0 0.2029296535411757 -0.1328379578329871 0 0.19573588418582871 -0.1775086076029988 0 0.19834738607359911 -0.1731088623613721 0 0.20345696681674519 -0.17731029986575689 0 0.19573588418582871 -0.1775086076029988 0 0.19834738607359911 -0.1731088623613721 0 0.19328775578717591 -0.17273590330701871 0 0.19834738607359911 -0.1731088623613721 0 0.2050507861662208 -0.17138776533453989 0 0.20345696681674519 -0.17731029986575689 0 0.19573588418582871 -0.1775086076029988 0 0.1929695102276934 -0.1862504827809992 0 0.20345696681674519 -0.17731029986575689 0 0.19573588418582871 -0.1775086076029988 0 0.1929695102276934 -0.1862504827809992 0 0.18773834934278391 -0.1791416501892743 0 0.18773834934278391 -0.1791416501892743 0 0.19328775578717591 -0.17273590330701871 0 0.18656080095769029 -0.16925856996229471 0 0.19573588418582871 -0.1775086076029988 0 0.18773834934278391 -0.1791416501892743 0 0.19328775578717591 -0.17273590330701871 0 0.19468436660026969 -0.16673059391109871 0 0.1862890750383332 -0.15893798721293809 0 0.18656080095769029 -0.16925856996229471 0 0.1974342802380262 -0.15465421165661039 0 0.19468436660026969 -0.16673059391109871 0 0.2050507861662208 -0.17138776533453989 0 0.1974342802380262 -0.15465421165661039 0 0.2050507861662208 -0.17138776533453989 0 0.19328775578717591 -0.17273590330701871 0 0.19468436660026969 -0.16673059391109871 0 0.18656080095769029 -0.16925856996229471 0 0.1974342802380262 -0.15465421165661039 0 0.19468436660026969 -0.16673059391109871 0 0.1862890750383332 -0.15893798721293809 0 0.19834738607359911 -0.1731088623613721 0 0.19468436660026969 -0.16673059391109871 0 0.2050507861662208 -0.17138776533453989 0 0.19834738607359911 -0.1731088623613721 0 0.19328775578717591 -0.17273590330701871 0 0.19468436660026969 -0.16673059391109871 0 0.20960938141439381 -0.1544483061793793 0 0.2050507861662208 -0.17138776533453989 0 0.20960938141439381 -0.1544483061793793 0 0.1974342802380262 -0.15465421165661039 0 0.2050507861662208 -0.17138776533453989 0 0.20960938141439381 -0.1544483061793793 0 0.2050507861662208 -0.17138776533453989 0 0.212936807673237 -0.1696380100437016 0 0.20960938141439381 -0.1544483061793793 0 0.212936807673237 -0.1696380100437016 0 0.22410786852845399 -0.16675920450434001 0 0.20960938141439381 -0.1544483061793793 0 0.22410786852845399 -0.16675920450434001 0 0.212936807673237 -0.1696380100437016 0 0.21761363919252649 -0.17369672497357139 0 0.22410786852845399 -0.16675920450434001 0 0.21761363919252649 -0.17369672497357139 0 0.21151137319550309 -0.17737283995147859 0 0.21882335037935169 -0.18112008480230871 0 0.212936807673237 -0.1696380100437016 0 0.21761363919252649 -0.17369672497357139 0 0.21151137319550309 -0.17737283995147859 0 0.212936807673237 -0.1696380100437016 0 0.21151137319550309 -0.17737283995147859 0 0.20345696681674519 -0.17731029986575689 0 0.2050507861662208 -0.17138776533453989 0 0.212936807673237 -0.1696380100437016 0 0.20345696681674519 -0.17731029986575689 0 0.2050507861662208 -0.17138776533453989 0 0.20345696681674519 -0.17731029986575689 0 0.21151137319550309 -0.17737283995147859 0 0.20345696681674519 -0.17731029986575689 0 0.20856347574802311 -0.1906446935935586 0 0.21151137319550309 -0.17737283995147859 0 0.21882335037935169 -0.18112008480230871 0 0.20856347574802311 -0.1906446935935586 0 0.23148397855632991 -0.1755489620276918 0 0.2341312690772745 -0.18699426709989539 0 0.22169446324393641 -0.19625358447638169 0 0.21882335037935169 -0.18112008480230871 0 0.23148397855632991 -0.1755489620276918 0 0.22169446324393641 -0.19625358447638169 0 0.23148397855632991 -0.1755489620276918 0 0.22169446324393641 -0.19625358447638169 0 0.21761363919252649 -0.17369672497357139 0 0.21882335037935169 -0.18112008480230871 0 0.22274960772215671 -0.17420482646465019 0 0.22274960772215671 -0.17420482646465019 0 0.23148397855632991 -0.1755489620276918 0 0.22410786852845399 -0.16675920450434001 0 0.21882335037935169 -0.18112008480230871 0 0.22274960772215671 -0.17420482646465019 0 0.23148397855632991 -0.1755489620276918 0 0.22410786852845399 -0.16675920450434001 0 0.23860635564251501 -0.1790701028292998 0 0.23148397855632991 -0.1755489620276918 0 0.22410786852845399 -0.16675920450434001 0 0.23860635564251501 -0.1790701028292998 0 0.22667647899321031 -0.14914568045006241 0 0.22410786852845399 -0.16675920450434001 0 0.2384597502014196 -0.16024027279430991 0 0.22667647899321031 -0.14914568045006241 0 0.20960938141439381 -0.1544483061793793 0 0.22410786852845399 -0.16675920450434001 0 0.21761363919252649 -0.17369672497357139 0 0.22274960772215671 -0.17420482646465019 0 0.22410786852845399 -0.16675920450434001 0 0.22410786852845399 -0.16675920450434001 0 0.24273253273139089 -0.16962249146836 0 0.23860635564251501 -0.1790701028292998 0 0.22410786852845399 -0.16675920450434001 0 0.2384597502014196 -0.16024027279430991 0 0.24273253273139089 -0.16962249146836 0 0.25416550914145403 -0.16506446950883469 0 0.2384597502014196 -0.16024027279430991 0 0.24273253273139089 -0.16962249146836 0 0.25191964289289609 -0.17371596287125671 0 0.25416550914145403 -0.16506446950883469 0 0.24273253273139089 -0.16962249146836 0 0.23148397855632991 -0.1755489620276918 0 0.2341312690772745 -0.18699426709989539 0 0.23860635564251501 -0.1790701028292998 0 0.2341312690772745 -0.18699426709989539 0 0.23860635564251501 -0.1790701028292998 0 0.2422132520838183 -0.18939721442117441 0 0.24273253273139089 -0.16962249146836 0 0.23860635564251501 -0.1790701028292998 0 0.24608664359444801 -0.17937095996933211 0 0.25191964289289609 -0.17371596287125671 0 0.24273253273139089 -0.16962249146836 0 0.24608664359444801 -0.17937095996933211 0 0.23860635564251501 -0.1790701028292998 0 0.24608664359444801 -0.17937095996933211 0 0.2422132520838183 -0.18939721442117441 0 0.25541340096430232 -0.20421965002648601 0 0.2422132520838183 -0.18939721442117441 0 0.2368285911405518 -0.19733109218085881 0 0.25541340096430232 -0.20421965002648601 0 0.24608664359444801 -0.17937095996933211 0 0.2422132520838183 -0.18939721442117441 0 0.2341312690772745 -0.18699426709989539 0 0.2422132520838183 -0.18939721442117441 0 0.2368285911405518 -0.19733109218085881 0 0.25408186593628368 -0.21011597023667741 0 0.23365917444792239 -0.21058892847577851 0 0.24988521161435959 -0.22065093421590709 0 0.25541340096430232 -0.20421965002648601 0 0.2368285911405518 -0.19733109218085881 0 0.23365917444792239 -0.21058892847577851 0 0.25541340096430232 -0.20421965002648601 0 0.23365917444792239 -0.21058892847577851 0 0.25408186593628368 -0.21011597023667741 0 0.25541340096430232 -0.20421965002648601 0 0.23365917444792239 -0.21058892847577851 0 0.23365917444792239 -0.21058892847577851 0 0.22169446324393641 -0.19625358447638169 0 0.21190494793154269 -0.21695820692507131 0 0.23365917444792239 -0.21058892847577851 0 0.21190494793154269 -0.21695820692507131 0 0.2341312690772745 -0.18699426709989539 0 0.2368285911405518 -0.19733109218085881 0 0.22169446324393641 -0.19625358447638169 0 0.2368285911405518 -0.19733109218085881 0 0.23365917444792239 -0.21058892847577851 0 0.22169446324393641 -0.19625358447638169 0 0.25020103332250959 -0.25663574464360273 0 0.2390536538991816 -0.23952817952063241 0 0.22490999937336131 -0.24839662353886441 0 0.2532056918276841 -0.23460617000945991 0 0.25020103332250959 -0.25663574464360273 0 0.2390536538991816 -0.23952817952063241 0 0.23365917444792239 -0.21058892847577851 0 0.24132019564338039 -0.22751688930690561 0 0.24988521161435959 -0.22065093421590709 0 0.2390536538991816 -0.23952817952063241 0 0.24132019564338039 -0.22751688930690561 0 0.2256313493289725 -0.23048547010432929 0 0.2532056918276841 -0.23460617000945991 0 0.24132019564338039 -0.22751688930690561 0 0.24988521161435959 -0.22065093421590709 0 0.2532056918276841 -0.23460617000945991 0 0.2390536538991816 -0.23952817952063241 0 0.24132019564338039 -0.22751688930690561 0 0.23365917444792239 -0.21058892847577851 0 0.24132019564338039 -0.22751688930690561 0 0.2256313493289725 -0.23048547010432929 0 0.23365917444792239 -0.21058892847577851 0 0.2256313493289725 -0.23048547010432929 0 0.21190494793154269 -0.21695820692507131 0 0.2390536538991816 -0.23952817952063241 0 0.2256313493289725 -0.23048547010432929 0 0.22490999937336131 -0.24839662353886441 0 0.2256313493289725 -0.23048547010432929 0 0.22490999937336131 -0.24839662353886441 0 0.20112092782514659 -0.23976618644775011 0 0.19690392735331469 -0.2297233765729895 0 0.20112092782514659 -0.23976618644775011 0 0.21190494793154269 -0.21695820692507131 0 0.20112092782514659 -0.23976618644775011 0 0.21190494793154269 -0.21695820692507131 0 0.2256313493289725 -0.23048547010432929 0 0.20112092782514659 -0.23976618644775011 0 0.21190494793154269 -0.21695820692507131 0 0.19115213762144839 -0.2230342872385121 0 0.19690392735331469 -0.2297233765729895 0 0.21190494793154269 -0.21695820692507131 0 0.19115213762144839 -0.2230342872385121 0 0.21190494793154269 -0.21695820692507131 0 0.19115213762144839 -0.2230342872385121 0 0.1922896481456266 -0.22840239367273121 0 0.19690392735331469 -0.2297233765729895 0 0.19115213762144839 -0.2230342872385121 0 0.1922896481456266 -0.22840239367273121 0 0.18724538201342061 -0.2292294426925392 0 0.1922896481456266 -0.22840239367273121 0 0.19016980361628261 -0.2348310580822463 0 0.18724538201342061 -0.2292294426925392 0 0.1922896481456266 -0.22840239367273121 0 0.19690392735331469 -0.2297233765729895 0 0.19016980361628261 -0.2348310580822463 0 0.18687160578303541 -0.25310112125746681 0 0.20112092782514659 -0.23976618644775011 0 0.18511135489533589 -0.2423267725848805 0 0.20112092782514659 -0.23976618644775011 0 0.19016980361628261 -0.2348310580822463 0 0.18511135489533589 -0.2423267725848805 0 0.19690392735331469 -0.2297233765729895 0 0.20112092782514659 -0.23976618644775011 0 0.19016980361628261 -0.2348310580822463 0 0.20856347574802311 -0.1906446935935586 0 0.21190494793154269 -0.21695820692507131 0 0.19730455221909621 -0.20017229355213431 0 0.22169446324393641 -0.19625358447638169 0 0.20856347574802311 -0.1906446935935586 0 0.21190494793154269 -0.21695820692507131 0 0.21882335037935169 -0.18112008480230871 0 0.22169446324393641 -0.19625358447638169 0 0.20856347574802311 -0.1906446935935586 0 0.22169446324393641 -0.19625358447638169 0 0.21190494793154269 -0.21695820692507131 0 0.19115213762144839 -0.2230342872385121 0 0.21190494793154269 -0.21695820692507131 0 0.19730455221909621 -0.20017229355213431 0 0.19115213762144839 -0.2230342872385121 0 0.19730455221909621 -0.20017229355213431 0 0.18476131273850641 -0.2146816465264598 0 0.19115213762144839 -0.2230342872385121 0 0.19730455221909621 -0.20017229355213431 0 0.1929695102276934 -0.1862504827809992 0 0.20345696681674519 -0.17731029986575689 0 0.19730455221909621 -0.20017229355213431 0 0.20345696681674519 -0.17731029986575689 0 0.20856347574802311 -0.1906446935935586 0 0.19730455221909621 -0.20017229355213431 0 0.20345696681674519 -0.17731029986575689 0 0.19730455221909621 -0.20017229355213431 0 0.1929695102276934 -0.1862504827809992 0 0.19730455221909621 -0.20017229355213431 0 0.17919649923314779 -0.19026398779969381 0 0.17919649923314779 -0.19026398779969381 0 0.18040893765559099 -0.20598341726364611 0 0.16789554821378219 -0.2050778576277931 0 0.19730455221909621 -0.20017229355213431 0 0.17919649923314779 -0.19026398779969381 0 0.18040893765559099 -0.20598341726364611 0 0.19730455221909621 -0.20017229355213431 0 0.18040893765559099 -0.20598341726364611 0 0.18476131273850641 -0.2146816465264598 0 0.18040893765559099 -0.20598341726364611 0 0.18476131273850641 -0.2146816465264598 0 0.17452008402081831 -0.21753939822806981 0 0.18040893765559099 -0.20598341726364611 0 0.17452008402081831 -0.21753939822806981 0 0.16789554821378219 -0.2050778576277931 0 0.16789554821378219 -0.2050778576277931 0 0.16025652683707331 -0.22303439953869619 0 0.15350812107579151 -0.20671271004951541 0 0.17452008402081831 -0.21753939822806981 0 0.16789554821378219 -0.2050778576277931 0 0.16025652683707331 -0.22303439953869619 0 0.17919649923314779 -0.19026398779969381 0 0.16789554821378219 -0.2050778576277931 0 0.16189671916950529 -0.1924399989043058 0 0.16789554821378219 -0.2050778576277931 0 0.16189671916950529 -0.1924399989043058 0 0.15350812107579151 -0.20671271004951541 0 0.17517517398518781 -0.25177012561693107 0 0.18511135489533589 -0.2423267725848805 0 0.17549691960200811 -0.24053456276442431 0 0.17517517398518781 -0.25177012561693107 0 0.18687160578303541 -0.25310112125746681 0 0.18511135489533589 -0.2423267725848805 0 0.19016980361628261 -0.2348310580822463 0 0.18511135489533589 -0.2423267725848805 0 0.181833698560355 -0.23395758134046421 0 0.18511135489533589 -0.2423267725848805 0 0.17549691960200811 -0.24053456276442431 0 0.181833698560355 -0.23395758134046421 0 0.17549691960200811 -0.24053456276442431 0 0.17293972330680291 -0.2303317503160891 0 0.181833698560355 -0.23395758134046421 0 0.17293972330680291 -0.2303317503160891 0 0.181833698560355 -0.23395758134046421 0 0.1820213582882865 -0.22570762871485381 0 0.181833698560355 -0.23395758134046421 0 0.18724538201342061 -0.2292294426925392 0 0.1820213582882865 -0.22570762871485381 0 0.19016980361628261 -0.2348310580822463 0 0.181833698560355 -0.23395758134046421 0 0.18724538201342061 -0.2292294426925392 0 0.18476131273850641 -0.2146816465264598 0 0.17452008402081831 -0.21753939822806981 0 0.1820213582882865 -0.22570762871485381 0 0.19115213762144839 -0.2230342872385121 0 0.18724538201342061 -0.2292294426925392 0 0.1820213582882865 -0.22570762871485381 0 0.19115213762144839 -0.2230342872385121 0 0.18476131273850641 -0.2146816465264598 0 0.1820213582882865 -0.22570762871485381 0 0.19115213762144839 -0.2230342872385121 0 0.1820213582882865 -0.22570762871485381 0 0.17452008402081831 -0.21753939822806981 0 0.17293972330680291 -0.2303317503160891 0 0.1820213582882865 -0.22570762871485381 0 0.17293972330680291 -0.2303317503160891 0 0.16025652683707331 -0.22303439953869619 0 0.16456358482649891 -0.24169347422879001 0 0.16025652683707331 -0.22303439953869619 0 0.16456358482649891 -0.24169347422879001 0 0.1497377532537276 -0.23798813271309549 0 0.17452008402081831 -0.21753939822806981 0 0.17293972330680291 -0.2303317503160891 0 0.16025652683707331 -0.22303439953869619 0 0.17549691960200811 -0.24053456276442431 0 0.17293972330680291 -0.2303317503160891 0 0.16456358482649891 -0.24169347422879001 0 0.17517517398518781 -0.25177012561693107 0 0.17549691960200811 -0.24053456276442431 0 0.16456358482649891 -0.24169347422879001 0 0.16298920910054049 -0.25539579174330118 0 0.17517517398518781 -0.25177012561693107 0 0.16456358482649891 -0.24169347422879001 0 0.1500337050372389 -0.25472409195391782 0 0.16456358482649891 -0.24169347422879001 0 0.1497377532537276 -0.23798813271309549 0 0.1500337050372389 -0.25472409195391782 0 0.1497377532537276 -0.23798813271309549 0 0.1335561985377903 -0.24472646869262221 0 0.1497377532537276 -0.23798813271309549 0 0.1395550120458097 -0.2251498404431955 0 0.1335561985377903 -0.24472646869262221 0 0.16025652683707331 -0.22303439953869619 0 0.1497377532537276 -0.23798813271309549 0 0.1395550120458097 -0.2251498404431955 0 0.11563926977356601 -0.2271066975156624 0 0.1395550120458097 -0.2251498404431955 0 0.1357376281676487 -0.20776248780239509 0 0.11563926977356601 -0.2271066975156624 0 0.1395550120458097 -0.2251498404431955 0 0.1335561985377903 -0.24472646869262221 0 0.15350812107579151 -0.20671271004951541 0 0.1357376281676487 -0.20776248780239509 0 0.14298037499818439 -0.18510127261022 0 0.16189671916950529 -0.1924399989043058 0 0.15350812107579151 -0.20671271004951541 0 0.14298037499818439 -0.18510127261022 0 0.1395550120458097 -0.2251498404431955 0 0.15350812107579151 -0.20671271004951541 0 0.1357376281676487 -0.20776248780239509 0 0.16025652683707331 -0.22303439953869619 0 0.1395550120458097 -0.2251498404431955 0 0.15350812107579151 -0.20671271004951541 0 0.1200465015242379 -0.19935528873319 0 0.1357376281676487 -0.20776248780239509 0 0.14298037499818439 -0.18510127261022 0 0.1178015717316883 -0.17548725694934281 0 0.14298037499818439 -0.18510127261022 0 0.1312614331524497 -0.1635912572945705 0 0.1200465015242379 -0.19935528873319 0 0.1178015717316883 -0.17548725694934281 0 0.14298037499818439 -0.18510127261022 0 0.14298037499818439 -0.18510127261022 0 0.1508735809458788 -0.1640146074437657 0 0.16492539411184901 -0.1762501030308023 0 0.1508735809458788 -0.1640146074437657 0 0.1312614331524497 -0.1635912572945705 0 0.145980022687524 -0.15153777027940771 0 0.14298037499818439 -0.18510127261022 0 0.1508735809458788 -0.1640146074437657 0 0.1312614331524497 -0.1635912572945705 0 0.1312614331524497 -0.1635912572945705 0 0.12591033640807511 -0.14704369877296469 0 0.1347822664439263 -0.15110237480842781 0 0.12591033640807511 -0.14704369877296469 0 0.1347822664439263 -0.15110237480842781 0 0.12873445694653279 -0.1356233751993875 0 0.1347822664439263 -0.15110237480842781 0 0.12873445694653279 -0.1356233751993875 0 0.14315769516501159 -0.14047360901563061 0 0.1312614331524497 -0.1635912572945705 0 0.1347822664439263 -0.15110237480842781 0 0.145980022687524 -0.15153777027940771 0 0.12649762265596601 -0.1206141667289754 0 0.12873445694653279 -0.1356233751993875 0 0.1366185565040583 -0.12594926818623639 0 0.12873445694653279 -0.1356233751993875 0 0.1366185565040583 -0.12594926818623639 0 0.14315769516501159 -0.14047360901563061 0 0.1366185565040583 -0.12594926818623639 0 0.14315769516501159 -0.14047360901563061 0 0.1539975317547195 -0.13043494150422261 0 0.14315769516501159 -0.14047360901563061 0 0.1539975317547195 -0.13043494150422261 0 0.15643611279904049 -0.1475067042061424 0 0.14954583971598739 -0.1209555525708393 0 0.1366185565040583 -0.12594926818623639 0 0.1539975317547195 -0.13043494150422261 0 0.1508735809458788 -0.1640146074437657 0 0.145980022687524 -0.15153777027940771 0 0.15643611279904049 -0.1475067042061424 0 0.1347822664439263 -0.15110237480842781 0 0.14315769516501159 -0.14047360901563061 0 0.145980022687524 -0.15153777027940771 0 0.14315769516501159 -0.14047360901563061 0 0.145980022687524 -0.15153777027940771 0 0.15643611279904049 -0.1475067042061424 0 0.15643611279904049 -0.1475067042061424 0 0.16632898407639229 -0.14970381829804699 0 0.16419038823093529 -0.1596696262655497 0 0.15643611279904049 -0.1475067042061424 0 0.16632898407639229 -0.14970381829804699 0 0.16877457297959331 -0.13937430988341989 0 0.16632898407639229 -0.14970381829804699 0 0.16877457297959331 -0.13937430988341989 0 0.1759148622960002 -0.15226463283707611 0 0.16632898407639229 -0.14970381829804699 0 0.1759148622960002 -0.15226463283707611 0 0.16419038823093529 -0.1596696262655497 0 0.1539975317547195 -0.13043494150422261 0 0.15643611279904049 -0.1475067042061424 0 0.16877457297959331 -0.13937430988341989 0 0.1539975317547195 -0.13043494150422261 0 0.16877457297959331 -0.13937430988341989 0 0.16599125378273469 -0.12824618074702129 0 0.16489551478955089 -0.116481043705464 0 0.1539975317547195 -0.13043494150422261 0 0.16599125378273469 -0.12824618074702129 0 0.16877457297959331 -0.13937430988341989 0 0.16599125378273469 -0.12824618074702129 0 0.17759605914381271 -0.12726527994934919 0 0.18157664256961689 -0.11776388251369239 0 0.19029660349807509 -0.13804951619323369 0 0.17759605914381271 -0.12726527994934919 0 0.18157664256961689 -0.11776388251369239 0 0.19029660349807509 -0.13804951619323369 0 0.16877457297959331 -0.13937430988341989 0 0.17759605914381271 -0.12726527994934919 0 0.179714804377546 -0.14100121033447391 0 0.19029660349807509 -0.13804951619323369 0 0.17759605914381271 -0.12726527994934919 0 0.179714804377546 -0.14100121033447391 0 0.19029660349807509 -0.13804951619323369 0 0.17759605914381271 -0.12726527994934919 0 0.16877457297959331 -0.13937430988341989 0 0.1759148622960002 -0.15226463283707611 0 0.179714804377546 -0.14100121033447391 0 0.1759148622960002 -0.15226463283707611 0 0.179714804377546 -0.14100121033447391 0 0.1859299250895961 -0.1489815116468664 0 0.19029660349807509 -0.13804951619323369 0 0.179714804377546 -0.14100121033447391 0 0.1859299250895961 -0.1489815116468664 0 0.1759148622960002 -0.15226463283707611 0 0.1859299250895961 -0.1489815116468664 0 0.1862890750383332 -0.15893798721293809 0 0.1759148622960002 -0.15226463283707611 0 0.17609336104999579 -0.16586887816521689 0 0.16419038823093529 -0.1596696262655497 0 0.1759148622960002 -0.15226463283707611 0 0.1862890750383332 -0.15893798721293809 0 0.17609336104999579 -0.16586887816521689 0 0.1862890750383332 -0.15893798721293809 0 0.17609336104999579 -0.16586887816521689 0 0.18656080095769029 -0.16925856996229471 0 0.17609336104999579 -0.16586887816521689 0 0.18656080095769029 -0.16925856996229471 0 0.17879354121308871 -0.1774671905738732 0 0.18773834934278391 -0.1791416501892743 0 0.18656080095769029 -0.16925856996229471 0 0.17879354121308871 -0.1774671905738732 0 0.1929695102276934 -0.1862504827809992 0 0.18773834934278391 -0.1791416501892743 0 0.17919649923314779 -0.19026398779969381 0 0.18773834934278391 -0.1791416501892743 0 0.17919649923314779 -0.19026398779969381 0 0.17879354121308871 -0.1774671905738732 0 0.17919649923314779 -0.19026398779969381 0 0.17879354121308871 -0.1774671905738732 0 0.16492539411184901 -0.1762501030308023 0 0.17609336104999579 -0.16586887816521689 0 0.17879354121308871 -0.1774671905738732 0 0.16492539411184901 -0.1762501030308023 0 0.16189671916950529 -0.1924399989043058 0 0.14298037499818439 -0.18510127261022 0 0.16492539411184901 -0.1762501030308023 0 0.17919649923314779 -0.19026398779969381 0 0.16189671916950529 -0.1924399989043058 0 0.16492539411184901 -0.1762501030308023 0 0.1508735809458788 -0.1640146074437657 0 0.16492539411184901 -0.1762501030308023 0 0.16419038823093529 -0.1596696262655497 0 0.1508735809458788 -0.1640146074437657 0 0.15643611279904049 -0.1475067042061424 0 0.16419038823093529 -0.1596696262655497 0 0.17609336104999579 -0.16586887816521689 0 0.16492539411184901 -0.1762501030308023 0 0.16419038823093529 -0.1596696262655497 0 
</DataArray>
</Points>
<Cells>
<DataArray type="UInt32" Name="connectivity" format="ascii">
0 1 2 3 4 5 6 7 8 9 10 11 12 13 14 15 16 17 18 19 20 21 22 23 24 25 26 27 28 29 30 31 32 33 34 35 36 37 38 39 40 41 42 43 44 45 46 47 48 49 50 51 52 53 54 55 56 57 58 59 60 61 62 63 64 65 66 67 68 69 70 71 72 73 74 75 76 77 78 79 80 81 82 83 84 85 86 87 88 89 90 91 92 93 94 95 96 97 98 99 100 101 102 103 104 105 106 107 108 109 110 111 112 113 114 115 116 117 118 119 120 121 122 123 124 125 126 127 128 129 130 131 132 133 134 135 136 137 138 139 140 141 142 143 144 145 146 147 148 149 150 151 152 153 154 155 156 157 158 159 160 161 162 163 164 165 166 167 168 169 170 171 172 173 174 175 176 177 178 179 180 181 182 183 184 185 186 187 188 189 190 191 192 193 194 195 196 197 198 199 200 201 202 203 204 205 206 207 208 209 210 211 212 213 214 215 216 217 218 219 220 221 222 223 224 225 226 227 228 229 230 231 232 233 234 235 236 237 238 239 240 241 242 243 244 245 246 247 248 249 250 251 252 253 254 255 256 257 258 259 260 261 262 263 264 265 266 267 268 269 270 271 272 273 274 275 276 277 278 279 280 281 282 283 284 285 286 287 288 289 290 291 292 293 294 295 296 297 298 299 300 301 302 303 304 305 306 307 308 309 310 311 312 313 314 315 316 317 318 319 320 321 322 323 324 325 326 327 328 329 330 331 332 333 334 335 336 337 338 339 340 341 342 343 344 345 346 347 348 349 350 351 352 353 354 355 356 357 358 359 360 361 362 363 364 365 366 367 368 369 370 371 372 373 374 375 376 377 378 379 380 381 382 383 384 385 386 387 388 389 390 391 392 393 394 395 396 397 398 399 400 401 402 403 404 405 406 407 408 409 410 411 412 413 414 415 416 417 418 419 420 421 422 423 424 425 426 427 428 429 430 431 432 433 434 435 436 437 438 439 440 441 442 443 444 445 446 447 448 449 450 451 452 453 454 455 456 457 458 459 460 461 462 463 464 465 466 467 468 469 470 471 472 473 474 475 476 477 478 479 480 481 482 483 484 485 486 487 488 489 490 491 492 493 494 495 496 497 498 499 500 501 502 503 504 505 506 507 508 509 510 511 512 513 514 515 516 517 518 519 520 521 522 523 524 525 526 527 528 529 530 531 532 533 534 535 536 537 538 539 540 541 542 543 544 545 546 547 548 549 550 551 552 553 554 555 556 557 558 559 560 561 562 563 564 565 566 567 568 569 570 571 572 573 574 575 576 577 578 579 580 581 582 583 584 585 586 587 588 589 590 591 592 593 594 595 596 597 598 599 600 601 602 603 604 605 606 607 608 609 610 611 612 613 614 615 616 617 618 619 620 621 622 623 624 625 626 627 628 629 630 631 632 633 634 635 636 637 638 639 640 641 642 643 644 645 646 647 648 649 650 651 652 653 654 655 656 657 658 659 660 661 662 663 664 665 666 667 668 669 670 671 672 673 674 675 676 677 678 679 680 681 682 683 684 685 686 687 688 689 690 691 692 693 694 695 696 697 698 699 700 701 702 703 704 705 706 707 708 709 710 711 712 713 714 715 716 717 718 719 720 721 722 723 724 725 726 727 728 729 730 731 732 733 734 735 736 737 738 739 740 741 742 743 744 745 746 747 748 749 750 751 752 753 754 755 756 757 758 759 760 761 762 763 764 765 766 767 768 769 770 771 772 773 774 775 776 777 778 779 780 781 782 783 784 785 786 787 788 789 790 791 792 793 794 795 796 797 798 799 800 801 802 803 804 805 806 807 808 809 810 811 812 813 814 815 816 817 818 819 820 821 822 823 824 825 826 827 828 829 830 831 832 833 834 835 836 837 838 839 840 841 842 843 844 845 846 847 848 849 850 851 852 853 854 855 856 857 858 859 860 861 862 863 864 865 866 867 868 869 870 871 872 873 874 875 876 877 878 879 880 881 882 883 884 885 886 887 888 889 890 891 892 893 894 895 896 897 898 899 900 901 902 903 904 905 906 907 908 909 910 911 912 913 914 915 916 917 918 919 920 921 922 923 924 925 926 927 928 929 930 931 932 933 934 935 936 937 938 939 940 941 942 943 944 945 946 947 948 949 950 951 952 953 954 955 956 957 958 959 960 961 962 963 964 965 966 967 968 969 970 971 972 973 974 975 976 977 978 979 980 981 982 983 984 985 986 987 988 989 990 991 992 993 994 995 996 997 998 999 1000 1001 1002 1003 1004 1005 1006 1007 1008 1009 1010 1011 1012 1013 1014 1015 1016 1017 1018 1019 1020 1021 1022 1023 1024 1025 1026 1027 1028 1029 1030 1031 1032 1033 1034 1035 1036 1037 1038 1039 1040 1041 1042 1043 1044 1045 1046 1047 1048 1049 1050 1051 1052 1053 1054 1055 1056 1057 1058 1059 1060 1061 1062 1063 1064 1065 1066 1067 1068 1069 1070 1071 1072 1073 1074 1075 1076 1077 1078 1079 1080 1081 1082 1083 1084 1085 1086 1087 1088 1089 1090 1091 1092 1093 1094 1095 1096 1097 1098 1099 1100 1101 1102 1103 1104 1105 1106 1107 1108 1109 1110 1111 1112 1113 1114 1115 1116 1117 1118 1119 1120 1121 1122 1123 1124 1125 1126 1127 1128 1129 1130 1131 1132 1133 1134 1135 1136 1137 1138 1139 1140 1141 1142 1143 1144 1145 1146 1147 1148 1149 1150 1151 1152 1153 1154 1155 1156 1157 1158 1159 1160 1161 1162 1163 1164 1165 1166 1167 1168 1169 1170 1171 1172 1173 1174 1175 1176 1177 1178 1179 1180 1181 1182 1183 1184 1185 1186 1187 1188 1189 1190 1191 1192 1193 1194 1195 1196 1197 1198 1199 1200 1201 1202 1203 1204 1205 1206 1207 1208 1209 1210 1211 1212 1213 1214 1215 1216 1217 1218 1219 1220 1221 1222 1223 1224 1225 1226 1227 1228 1229 1230 1231 1232 1233 1234 1235 1236 1237 1238 1239 1240 1241 1242 1243 1244 1245 1246 1247 1248 1249 1250 1251 1252 1253 1254 1255 1256 1257 1258 1259 1260 1261 1262 1263 1264 1265 1266 1267 1268 1269 1270 1271 1272 1273 1274 1275 1276 1277 1278 1279 1280 1281 1282 1283 1284 1285 1286 1287 1288 1289 1290 1291 1292 1293 1294 1295 1296 1297 1298 1299 1300 1301 1302 1303 1304 1305 1306 1307 1308 1309 1310 1311 1312 1313 1314 1315 1316 1317 1318 1319 1320 1321 1322 1323 1324 1325 1326 1327 1328 1329 1330 1331 1332 1333 1334 1335 1336 1337 1338 1339 1340 1341 1342 1343 1344 1345 1346 1347 1348 1349 1350 1351 1352 1353 1354 1355 1356 1357 1358 1359 1360 1361 1362 1363 1364 1365 1366 1367 1368 1369 1370 1371 1372 1373 1374 1375 1376 1377 1378 1379 1380 1381 1382 1383 1384 1385 1386 1387 1388 1389 1390 1391 1392 1393 1394 1395 1396 1397 1398 1399 1400 1401 1402 1403 1404 1405 1406 1407 1408 1409 1410 1411 1412 1413 1414 1415 1416 1417 1418 1419 1420 1421 1422 1423 1424 1425 1426 1427 1428 1429 1430 1431 1432 1433 1434 1435 1436 1437 1438 1439 1440 1441 1442 1443 1444 1445 1446 1447 1448 1449 1450 1451 1452 1453 1454 1455 1456 1457 1458 1459 1460 1461 1462 1463 1464 1465 1466 1467 1468 1469 1470 1471 1472 1473 1474 1475 1476 1477 1478 1479 1480 1481 1482 1483 1484 1485 1486 1487 1488 1489 1490 1491 1492 1493 1494 1495 1496 1497 1498 1499 1500 1501 1502 1503 1504 1505 1506 1507 1508 1509 1510 1511 1512 1513 1514 1515 1516 1517 1518 1519 1520 1521 1522 1523 1524 1525 1526 1527 1528 1529 1530 1531 1532 1533 1534 1535 1536 1537 1538 1539 1540 1541 1542 1543 1544 1545 1546 1547 1548 1549 1550 1551 1552 1553 1554 1555 1556 1557 1558 1559 1560 1561 1562 1563 1564 1565 1566 1567 1568 1569 1570 1571 1572 1573 1574 1575 1576 1577 1578 1579 1580 1581 1582 1583 1584 1585 1586 1587 1588 1589 1590 1591 1592 1593 1594 1595 1596 1597 1598 1599 1600 1601 1602 1603 1604 1605 1606 1607 1608 1609 1610 1611 1612 1613 1614 1615 1616 1617 1618 1619 1620 1621 1622 1623 1624 1625 1626 1627 1628 1629 1630 1631 1632 1633 1634 1635 1636 1637 1638 1639 1640 1641 1642 1643 1644 1645 1646 1647 1648 1649 1650 1651 1652 1653 1654 1655 1656 1657 1658 1659 1660 1661 1662 1663 1664 1665 1666 1667 1668 1669 1670 1671 1672 1673 1674 1675 1676 1677 1678 1679 1680 1681 1682 1683 1684 1685 1686 1687 1688 1689 1690 1691 1692 1693 1694 1695 1696 1697 1698 1699 1700 1701 1702 1703 1704 1705 1706 1707 1708 1709 1710 1711 1712 1713 1714 1715 1716 1717 1718 1719 1720 1721 1722 1723 1724 1725 1726 1727 1728 1729 1730 1731 1732 1733 1734 1735 1736 1737 1738 1739 1740 1741 1742 1743 1744 1745 1746 1747 1748 1749 1750 1751 1752 1753 1754 1755 1756 1757 1758 1759 1760 1761 1762 1763 1764 1765 1766 1767 1768 1769 1770 1771 1772 1773 1774 1775 1776 1777 1778 1779 1780 1781 1782 1783 1784 1785 1786 1787 1788 1789 1790 1791 1792 1793 1794 1795 1796 1797 1798 1799 1800 1801 1802 1803 1804 1805 1806 1807 1808 1809 1810 1811 1812 1813 1814 1815 1816 1817 1818 1819 1820 1821 1822 1823 1824 1825 1826 1827 1828 1829 1830 1831 1832 1833 1834 1835 1836 1837 1838 1839 1840 1841 1842 1843 1844 1845 1846 1847 1848 1849 1850 1851 1852 1853 1854 1855 1856 1857 1858 1859 1860 1861 1862 1863 1864 1865 1866 1867 1868 1869 1870 1871 1872 1873 1874 1875 1876 1877 1878 1879 1880 1881 1882 1883 1884 1885 1886 1887 1888 1889 1890 1891 1892 1893 1894 1895 1896 1897 1898 1899 1900 1901 1902 1903 1904 1905 1906 1907 1908 1909 1910 1911 1912 1913 1914 1915 1916 1917 1918 1919 1920 1921 1922 1923 1924 1925 1926 1927 1928 1929 1930 1931 1932 1933 1934 1935 1936 1937 1938 1939 1940 1941 1942 1943 1944 1945 1946 1947 1948 1949 1950 1951 1952 1953 1954 1955 1956 1957 1958 1959 1960 1961 1962 1963 1964 1965 1966 1967 1968 1969 1970 1971 1972 1973 1974 1975 1976 1977 1978 1979 1980 1981 1982 1983 1984 1985 1986 1987 1988 1989 1990 1991 1992 1993 1994 1995 1996 1997 1998 1999 2000 2001 2002 2003 2004 2005 2006 2007 2008 2009 2010 2011 2012 2013 2014 2015 2016 2017 2018 2019 2020 2021 2022 2023 2024 2025 2026 2027 2028 2029 2030 2031 2032 2033 2034 2035 2036 2037 2038 2039 2040 2041 2042 2043 2044 2045 2046 2047 2048 2049 2050 2051 2052 2053 2054 2055 2056 2057 2058 2059 2060 2061 2062 2063 2064 2065 2066 2067 2068 2069 2070 2071 2072 2073 2074 2075 2076 2077 2078 2079 2080 2081 2082 2083 2084 2085 2086 2087 2088 2089 2090 2091 2092 2093 2094 2095 2096 2097 2098 2099 2100 2101 2102 2103 2104 2105 2106 2107 2108 2109 2110 2111 2112 2113 2114 2115 2116 2117 2118 2119 2120 2121 2122 2123 2124 2125 2126 2127 2128 2129 2130 2131 2132 2133 2134 2135 2136 2137 2138 2139 2140 2141 2142 2143 2144 2145 2146 2147 2148 2149 2150 2151 2152 2153 2154 2155 2156 2157 2158 2159 2160 2161 2162 2163 2164 2165 2166 2167 2168 2169 2170 2171 2172 2173 2174 2175 2176 2177 2178 2179 2180 2181 2182 2183 2184 2185 2186 2187 2188 2189 2190 2191 2192 2193 2194 2195 2196 2197 2198 2199 2200 2201 2202 2203 2204 2205 2206 2207 2208 2209 2210 2211 2212 2213 2214 2215 2216 2217 2218 2219 2220 2221 2222 2223 2224 2225 2226 2227 2228 2229 2230 2231 2232 2233 2234 2235 2236 2237 2238 2239 2240 2241 2242 2243 2244 2245 2246 2247 2248 2249 2250 2251 2252 2253 2254 2255 2256 2257 2258 2259 2260 2261 2262 2263 2264 2265 2266 2267 2268 2269 2270 2271 2272 2273 2274 2275 2276 2277 2278 2279 2280 2281 2282 2283 2284 2285 2286 2287 2288 2289 2290 2291 2292 2293 2294 2295 2296 2297 2298 2299 2300 2301 2302 2303 2304 2305 2306 2307 2308 2309 2310 2311 2312 2313 2314 2315 2316 2317 2318 2319 2320 2321 2322 2323 2324 2325 2326 2327 2328 2329 2330 2331 2332 2333 2334 2335 2336 2337 2338 2339 2340 2341 2342 2343 2344 2345 2346 2347 2348 2349 2350 2351 2352 2353 2354 2355 2356 2357 2358 2359 2360 2361 2362 2363 2364 2365 2366 2367 2368 2369 2370 2371 2372 2373 2374 2375 2376 2377 2378 2379 2380 2381 2382 2383 2384 2385 2386 2387 2388 2389 2390 2391 2392 2393 2394 2395 2396 2397 2398 2399 2400 2401 2402 2403 2404 2405 2406 2407 2408 2409 2410 2411 2412 2413 2414 2415 2416 2417 2418 2419 2420 2421 2422 2423 2424 2425 2426 2427 2428 2429 2430 2431 2432 2433 2434 2435 2436 2437 2438 2439 2440 2441 2442 2443 2444 2445 2446 2447 2448 2449 2450 2451 2452 2453 2454 2455 2456 2457 2458 2459 2460 2461 2462 2463 2464 2465 2466 2467 2468 2469 2470 2471 2472 2473 2474 2475 2476 2477 2478 2479 2480 2481 2482 2483 2484 2485 2486 2487 2488 2489 2490 2491 2492 2493 2494 2495 2496 2497 2498 2499 2500 2501 2502 2503 2504 2505 2506 2507 2508 2509 2510 2511 2512 2513 2514 2515 2516 2517 2518 2519 2520 2521 2522 2523 2524 2525 2526 2527 2528 2529 2530 2531 2532 2533 2534 2535 2536 2537 2538 2539 2540 2541 2542 2543 2544 2545 2546 2547 2548 2549 2550 2551 2552 2553 2554 2555 2556 2557 2558 2559 2560 2561 2562 2563 2564 2565 2566 2567 2568 2569 2570 2571 2572 2573 2574 2575 2576 2577 2578 2579 2580 2581 2582 2583 2584 2585 2586 2587 2588 2589 2590 2591 2592 2593 2594 2595 2596 2597 2598 2599 2600 2601 2602 2603 2604 2605 2606 2607 2608 2609 2610 2611 2612 2613 2614 2615 2616 2617 2618 2619 2620 2621 2622 2623 2624 2625 2626 2627 2628 2629 2630 2631 2632 2633 2634 2635 2636 2637 2638 2639 2640 2641 2642 2643 2644 2645 2646 2647 2648 2649 2650 2651 2652 2653 2654 2655 2656 2657 2658 2659 2660 2661 2662 2663 2664 2665 2666 2667 2668 2669 2670 2671 2672 2673 2674 2675 2676 2677 2678 2679 2680 2681 2682 2683 2684 2685 2686 2687 2688 2689 2690 2691 2692 2693 2694 2695 2696 2697 2698 2699 2700 2701 2702 2703 2704 2705 2706 2707 2708 2709 2710 2711 2712 2713 2714 2715 2716 2717 2718 2719 2720 2721 2722 2723 2724 2725 2726 2727 2728 2729 2730 2731 2732 2733 2734 2735 2736 2737 2738 2739 2740 2741 2742 2743 2744 2745 2746 2747 2748 2749 2750 2751 2752 2753 2754 2755 2756 2757 2758 2759 2760 2761 2762 2763 2764 2765 2766 2767 2768 2769 2770 2771 2772 2773 2774 2775 2776 2777 2778 2779 2780 2781 2782 2783 2784 2785 2786 2787 2788 2789 2790 2791 2792 2793 2794 2795 2796 2797 2798 2799 2800 2801 2802 2803 2804 2805 2806 2807 2808 2809 2810 2811 2812 2813 2814 2815 2816 2817 2818 2819 2820 2821 2822 2823 2824 2825 2826 2827 2828 2829 2830 2831 2832 2833 2834 2835 2836 2837 2838 2839 2840 2841 2842 2843 2844 2845 2846 2847 2848 2849 2850 2851 2852 2853 2854 2855 2856 2857 2858 2859 2860 2861 2862 2863 2864 2865 2866 2867 2868 2869 2870 2871 2872 2873 2874 2875 2876 2877 2878 2879 2880 2881 2882 2883 2884 2885 2886 2887 2888 2889 2890 2891 2892 2893 2894 2895 2896 2897 2898 2899 2900 2901 2902 2903 2904 2905 2906 2907 2908 2909 2910 2911 2912 2913 2914 2915 2916 2917 2918 2919 2920 2921 2922 2923 2924 2925 2926 2927 2928 2929 2930 2931 2932 2933 2934 2935 2936 2937 2938 2939 2940 2941 2942 2943 2944 2945 2946 2947 2948 2949 2950 2951 2952 2953 2954 2955 2956 2957 2958 2959 2960 2961 2962 2963 2964 2965 2966 2967 2968 2969 2970 2971 2972 2973 2974 2975 2976 2977 2978 2979 2980 2981 2982 2983 2984 2985 2986 2987 2988 2989 2990 2991 2992 2993 2994 2995 2996 2997 2998 2999 3000 3001 3002 3003 3004 3005 3006 3007 3008 3009 3010 3011 3012 3013 3014 3015 3016 3017 3018 3019 3020 3021 3022 3023 3024 3025 3026 3027 3028 3029 3030 3031 3032 3033 3034 3035 3036 3037 3038 3039 3040 3041 3042 3043 3044 3045 3046 3047 3048 3049 3050 3051 3052 3053 3054 3055 3056 3057 3058 3059 3060 3061 3062 3063 3064 3065 3066 3067 3068 3069 3070 3071 3072 3073 3074 3075 3076 3077 3078 3079 3080 3081 3082 3083 3084 3085 3086 3087 3088 3089 3090 3091 3092 3093 3094 3095 3096 3097 3098 3099 3100 3101 3102 3103 3104 3105 3106 3107 3108 3109 3110 3111 3112 3113 3114 3115 3116 3117 3118 3119 3120 3121 3122 3123 3124 3125 3126 3127 3128 3129 3130 3131 3132 3133 3134 3135 3136 3137 3138 3139 3140 3141 3142 3143 3144 3145 3146 3147 3148 3149 3150 3151 3152 3153 3154 3155 3156 3157 3158 3159 3160 3161 3162 3163 3164 3165 3166 3167 3168 3169 3170 3171 3172 3173 3174 3175 3176 3177 3178 3179 3180 3181 3182 3183 3184 3185 3186 3187 3188 3189 3190 3191 3192 3193 3194 3195 3196 3197 3198 3199 3200 3201 3202 3203 3204 3205 3206 3207 3208 3209 3210 3211 3212 3213 3214 3215 3216 3217 3218 3219 3220 3221 3222 3223 3224 3225 3226 3227 3228 3229 3230 3231 3232 3233 3234 3235 3236 3237 3238 3239 3240 3241 3242 3243 3244 3245 3246 3247 3248 3249 3250 3251 3252 3253 3254 3255 3256 3257 3258 3259 3260 3261 3262 3263 3264 3265 3266 3267 3268 3269 3270 3271 3272 3273 3274 3275 3276 3277 3278 3279 3280 3281 3282 3283 3284 3285 3286 3287 3288 3289 3290 3291 3292 3293 3294 3295 3296 3297 3298 3299 3300 3301 3302 3303 3304 3305 3306 3307 3308 3309 3310 3311 3312 3313 3314 3315 3316 3317 3318 3319 3320 3321 3322 3323 3324 3325 3326 3327 3328 3329 3330 3331 3332 3333 3334 3335 3336 3337 3338 3339 3340 3341 3342 3343 3344 3345 3346 3347 3348 3349 3350 3351 3352 3353 3354 3355 3356 3357 3358 3359 3360 3361 3362 3363 3364 3365 3366 3367 3368 3369 3370 3371 3372 3373 3374 3375 3376 3377 3378 3379 3380 3381 3382 3383 3384 3385 3386 3387 3388 3389 3390 3391 3392 3393 3394 3395 3396 3397 3398 3399 3400 3401 3402 3403 3404 3405 3406 3407 3408 3409 3410 3411 3412 3413 3414 3415 3416 3417 3418 3419 3420 3421 3422 3423 3424 3425 3426 3427 3428 3429 3430 3431 3432 3433 3434 3435 3436 3437 3438 3439 3440 3441 3442 3443 3444 3445 3446 3447 3448 3449 3450 3451 3452 3453 3454 3455 3456 3457 3458 3459 3460 3461 3462 3463 3464 3465 3466 3467 3468 3469 3470 3471 3472 3473 3474 3475 3476 3477 3478 3479 3480 3481 3482 3483 3484 3485 3486 3487 3488 3489 3490 3491 3492 3493 3494 3495 3496 3497 3498 3499 3500 3501 3502 3503 3504 3505 3506 3507 3508 3509 3510 3511 3512 3513 3514 3515 3516 3517 3518 3519 3520 3521 3522 3523 3524 3525 3526 3527 3528 3529 3530 3531 3532 3533 3534 3535 3536 3537 3538 3539 3540 3541 3542 3543 3544 3545 3546 3547 3548 3549 3550 3551 3552 3553 3554 3555 3556 3557 3558 3559 3560 3561 3562 3563 3564 3565 3566 3567 3568 3569 3570 3571 3572 3573 3574 3575 3576 3577 3578 3579 3580 3581 3582 3583 3584 3585 3586 3587 3588 3589 3590 3591 3592 3593 3594 3595 3596 3597 3598 3599 3600 3601 3602 3603 3604 3605 3606 3607 3608 3609 3610 3611 3612 3613 3614 3615 3616 3617 3618 3619 3620 3621 3622 3623 3624 3625 3626 3627 3628 3629 3630 3631 3632 3633 3634 3635 3636 3637 3638 3639 3640 3641 3642 3643 3644 3645 3646 3647 3648 3649 3650 3651 3652 3653 3654 3655 3656 3657 3658 3659 3660 3661 3662 3663 3664 3665 3666 3667 3668 3669 3670 3671 3672 3673 3674 3675 3676 3677 3678 3679 3680 3681 3682 3683 3684 3685 3686 3687 3688 3689 3690 3691 3692 3693 3694 3695 3696 3697 3698 3699 3700 3701 3702 3703 3704 3705 3706 3707 3708 3709 3710 3711 3712 3713 3714 3715 3716 3717 3718 3719 3720 3721 3722 3723 3724 3725 3726 3727 3728 3729 3730 3731 3732 3733 3734 3735 3736 3737 3738 3739 3740 3741 3742 3743 3744 3745 3746 3747 3748 3749 3750 3751 3752 3753 3754 3755 3756 3757 3758 3759 3760 3761 3762 3763 3764 3765 3766 3767 3768 3769 3770 3771 3772 3773 3774 3775 3776 3777 3778 3779 3780 3781 3782 3783 3784 3785 3786 3787 3788 3789 3790 3791 3792 3793 3794 3795 3796 3797 3798 3799 3800 3801 3802 3803 3804 3805 3806 3807 3808 3809 3810 3811 3812 3813 3814 3815 3816 3817 3818 3819 3820 3821 3822 3823 3824 3825 3826 3827 3828 3829 3830 3831 3832 3833 3834 3835 3836 3837 3838 3839 3840 3841 3842 3843 3844 3845 3846 3847 3848 3849 3850 3851 3852 3853 3854 3855 3856 3857 3858 3859 3860 3861 3862 3863 3864 3865 3866 3867 3868 3869 3870 3871 3872 3873 3874 3875 3876 3877 3878 3879 3880 3881 3882 3883 3884 3885 3886 3887 3888 3889 3890 3891 3892 3893 3894 3895 3896 3897 3898 3899 3900 3901 3902 3903 3904 3905 3906 3907 3908 3909 3910 3911 3912 3913 3914 3915 3916 3917 3918 3919 3920 3921 3922 3923 3924 3925 3926 3927 3928 3929 3930 3931 3932 3933 3934 3935 3936 3937 3938 3939 3940 3941 3942 3943 3944 3945 3946 3947 3948 3949 3950 3951 3952 3953 3954 3955 3956 3957 3958 3959 3960 3961 3962 3963 3964 3965 3966 3967 3968 3969 3970 3971 3972 3973 3974 3975 3976 3977 3978 3979 3980 3981 3982 3983 3984 3985 3986 3987 3988 3989 3990 3991 3992 3993 3994 3995 3996 3997 3998 3999 4000 4001 4002 4003 4004 4005 4006 4007 4008 4009 4010 4011 4012 4013 4014 4015 4016 4017 4018 4019 4020 4021 4022 4023 4024 4025 4026 4027 4028 4029 4030 4031 4032 4033 4034 4035 4036 4037 4038 4039 4040 4041 4042 4043 4044 4045 4046 4047 4048 4049 4050 4051 4052 4053 4054 4055 4056 4057 4058 4059 4060 4061 4062 4063 4064 4065 4066 4067 4068 4069 4070 4071 4072 4073 4074 4075 4076 4077 4078 4079 4080 4081 4082 4083 4084 4085 4086 4087 4088 4089 4090 4091 4092 4093 4094 4095 4096 4097 4098 4099 4100 4101 4102 4103 4104 4105 4106 4107 4108 4109 4110 4111 4112 4113 4114 4115 4116 4117 4118 4119 4120 4121 4122 4123 4124 4125 4126 4127 4128 4129 4130 4131 4132 4133 4134 4135 4136 4137 4138 4139 4140 4141 4142 4143 4144 4145 4146 4147 4148 4149 4150 4151 4152 4153 4154 4155 4156 4157 4158 4159 4160 4161 4162 4163 4164 4165 4166 4167 4168 4169 4170 4171 4172 4173 4174 4175 4176 4177 4178 4179 4180 4181 4182 4183 4184 4185 4186 4187 4188 4189 4190 4191 4192 4193 4194 4195 4196 4197 4198 4199 4200 4201 4202 4203 4204 4205 4206 4207 4208 4209 4210 4211 4212 4213 4214 4215 4216 4217 4218 4219 4220 4221 4222 4223 4224 4225 4226 4227 4228 4229 4230 4231 4232 4233 4234 4235 4236 4237 4238 4239 4240 4241 4242 4243 4244 4245 4246 4247 4248 4249 4250 4251 4252 4253 4254 4255 4256 4257 4258 4259 4260 4261 4262 4263 4264 4265 4266 4267 4268 4269 4270 4271 4272 4273 4274 4275 4276 4277 4278 4279 4280 4281 4282 4283 4284 4285 4286 4287 4288 4289 4290 4291 4292 4293 4294 4295 4296 4297 4298 4299 4300 4301 4302 4303 4304 4305 4306 4307 4308 4309 4310 4311 4312 4313 4314 4315 4316 4317 4318 4319 4320 4321 4322 4323 4324 4325 4326 4327 4328 4329 4330 4331 4332 4333 4334 4335 4336 4337 4338 4339 4340 4341 4342 4343 4344 4345 4346 4347 4348 4349 4350 4351 4352 4353 4354 4355 4356 4357 4358 4359 4360 4361 4362 4363 4364 4365 4366 4367 4368 4369 4370 4371 4372 4373 4374 4375 4376 4377 4378 4379 4380 4381 4382 4383 4384 4385 4386 4387 4388 4389 4390 4391 4392 4393 4394 4395 4396 4397 4398 4399 4400 4401 4402 4403 4404 4405 4406 4407 4408 4409 4410 4411 4412 4413 4414 4415 4416 4417 4418 4419 4420 4421 4422 4423 4424 4425 4426 4427 4428 4429 4430 4431 4432 4433 4434 4435 4436 4437 4438 4439 4440 4441 4442 4443 4444 4445 4446 4447 4448 4449 4450 4451 4452 4453 4454 4455 4456 4457 4458 4459 4460 4461 4462 4463 4464 4465 4466 4467 4468 4469 4470 4471 4472 4473 4474 4475 4476 4477 4478 4479 4480 4481 4482 4483 4484 4485 4486 4487 4488 4489 4490 4491 4492 4493 4494 4495 4496 4497 4498 4499 4500 4501 4502 4503 4504 4505 4506 4507 4508 4509 4510 4511 4512 4513 4514 4515 4516 4517 4518 4519 4520 4521 4522 4523 4524 4525 4526 4527 4528 4529 4530 4531 4532 4533 4534 4535 4536 4537 4538 4539 4540 4541 4542 4543 4544 4545 4546 4547 4548 4549 4550 4551 4552 4553 4554 4555 4556 4557 4558 4559 4560 4561 4562 4563 4564 4565 4566 4567 4568 4569 4570 4571 4572 4573 4574 4575 4576 4577 4578 4579 4580 4581 4582 4583 4584 4585 4586 4587 4588 4589 4590 4591 4592 4593 4594 4595 4596 4597 4598 4599 4600 4601 4602 4603 4604 4605 4606 4607 4608 4609 4610 4611 4612 4613 4614 4615 4616 4617 4618 4619 4620 4621 4622 4623 4624 4625 4626 4627 4628 4629 4630 4631 4632 4633 4634 4635 4636 4637 4638 4639 4640 4641 4642 4643 4644 4645 4646 4647 4648 4649 4650 4651 4652 4653 4654 4655 4656 4657 4658 4659 4660 4661 4662 4663 4664 4665 4666 4667 4668 4669 4670 4671 4672 4673 4674 4675 4676 4677 4678 4679 4680 4681 4682 4683 4684 4685 4686 4687 4688 4689 4690 4691 4692 4693 4694 4695 4696 4697 4698 4699 4700 4701 4702 4703 4704 4705 4706 4707 4708 4709 4710 4711 4712 4713 4714 4715 4716 4717 4718 4719 4720 4721 4722 4723 4724 4725 4726 4727 4728 4729 4730 4731 4732 4733 4734 4735 4736 4737 4738 4739 4740 4741 4742 4743 4744 4745 4746 4747 4748 4749 4750 4751 4752 4753 4754 4755 4756 4757 4758 4759 4760 4761 4762 4763 4764 4765 4766 4767 4768 4769 4770 4771 4772 4773 4774 4775 4776 4777 4778 4779 4780 4781 4782 4783 4784 4785 4786 4787 4788 4789 4790 4791 4792 4793 4794 4795 4796 4797 4798 4799 4800 4801 4802 4803 4804 4805 4806 4807 4808 4809 4810 4811 4812 4813 4814 4815 4816 4817 4818 4819 4820 4821 4822 4823 4824 4825 4826 4827 4828 4829 4830 4831 4832 4833 4834 4835 4836 4837 4838 4839 4840 4841 4842 4843 4844 4845 4846 4847 4848 4849 4850 4851 4852 4853 4854 4855 4856 4857 4858 4859 4860 4861 4862 4863 4864 4865 4866 4867 4868 4869 4870 4871 4872 4873 4874 4875 4876 4877 4878 4879 4880 4881 4882 4883 4884 4885 4886 4887 4888 4889 4890 4891 4892 4893 4894 4895 4896 4897 4898 4899 4900 4901 4902 4903 4904 4905 4906 4907 4908 4909 4910 4911 4912 4913 4914 4915 4916 4917 4918 4919 4920 4921 4922 4923 4924 4925 4926 4927 4928 4929 4930 4931 4932 4933 4934 4935 4936 4937 4938 4939 4940 4941 4942 4943 4944 4945 4946 4947 4948 4949 4950 4951 4952 4953 4954 4955 4956 4957 4958 4959 4960 4961 4962 4963 4964 4965 4966 4967 4968 4969 4970 4971 4972 4973 4974 4975 4976 4977 4978 4979 4980 4981 4982 4983 4984 4985 4986 4987 4988 4989 4990 4991 4992 4993 4994 4995 4996 4997 4998 4999 5000 5001 5002 5003 5004 5005 5006 5007 5008 5009 5010 5011 5012 5013 5014 5015 5016 5017 5018 5019 5020 5021 5022 5023 5024 5025 5026 5027 5028 5029 5030 5031 5032 5033 5034 5035 5036 5037 5038 5039 5040 5041 5042 5043 5044 5045 5046 5047 5048 5049 5050 5051 5052 5053 5054 5055 5056 5057 5058 5059 5060 5061 5062 5063 5064 5065 5066 5067 5068 5069 5070 5071 5072 5073 5074 5075 5076 5077 5078 5079 5080 5081 5082 5083 5084 5085 5086 5087 5088 5089 5090 5091 5092 5093 5094 5095 5096 5097 5098 5099 5100 5101 5102 5103 5104 5105 5106 5107 5108 5109 5110 5111 5112 5113 5114 5115 5116 5117 5118 5119 5120 5121 5122 5123 5124 5125 5126 5127 5128 5129 5130 5131 5132 5133 5134 5135 5136 5137 5138 5139 5140 5141 5142 5143 5144 5145 5146 5147 5148 5149 5150 5151 5152 5153 5154 5155 5156 5157 5158 5159 5160 5161 5162 5163 5164 5165 5166 5167 5168 5169 5170 5171 5172 5173 5174 5175 5176 5177 5178 5179 5180 5181 5182 5183 5184 5185 5186 5187 5188 5189 5190 5191 5192 5193 5194 5195 5196 5197 5198 5199 5200 5201 5202 5203 5204 5205 5206 5207 5208 5209 5210 5211 5212 5213 5214 5215 5216 5217 5218 5219 5220 5221 5222 5223 5224 5225 5226 5227 5228 5229 5230 5231 5232 5233 5234 5235 5236 5237 5238 5239 5240 5241 5242 5243 5244 5245 5246 5247 5248 5249 5250 5251 5252 5253 5254 5255 5256 5257 5258 5259 5260 5261 5262 5263 5264 5265 5266 5267 5268 5269 5270 5271 5272 5273 5274 5275 5276 5277 5278 5279 5280 5281 5282 5283 5284 5285 5286 5287 5288 5289 5290 5291 5292 5293 5294 5295 5296 5297 5298 5299 5300 5301 5302 5303 5304 5305 5306 5307 5308 5309 5310 5311 5312 5313 5314 5315 5316 5317 5318 5319 5320 5321 5322 5323 5324 5325 5326 5327 5328 5329 5330 5331 5332 5333 5334 5335 5336 5337 5338 5339 5340 5341 5342 5343 5344 5345 5346 5347 5348 5349 5350 5351 5352 5353 5354 5355 5356 5357 5358 5359 5360 5361 5362 5363 5364 5365 5366 5367 5368 5369 5370 5371 5372 5373 5374 5375 5376 5377 5378 5379 5380 5381 5382 5383 5384 5385 5386 5387 5388 5389 5390 5391 5392 5393 5394 5395 5396 5397 5398 5399 5400 5401 5402 5403 5404 5405 5406 5407 5408 5409 5410 5411 5412 5413 5414 5415 5416 5417 5418 5419 5420 5421 5422 5423 5424 5425 5426 5427 5428 5429 5430 5431 5432 5433 5434 5435 5436 5437 5438 5439 5440 5441 5442 5443 5444 5445 5446 5447 5448 5449 5450 5451 5452 5453 5454 5455 5456 5457 5458 5459 5460 5461 5462 5463 5464 5465 5466 5467 5468 5469 5470 5471 5472 5473 5474 5475 5476 5477 5478 5479 5480 5481 5482 5483 5484 5485 5486 5487 5488 5489 5490 5491 5492 5493 5494 5495 5496 5497 5498 5499 5500 5501 5502 5503 5504 5505 5506 5507 5508 5509 5510 5511 5512 5513 5514 5515 5516 5517 5518 5519 5520 5521 5522 5523 5524 5525 5526 5527 5528 5529 5530 5531 5532 5533 5534 5535 5536 5537 5538 5539 5540 5541 5542 5543 5544 5545 5546 5547 5548 5549 5550 5551 5552 5553 5554 5555 5556 5557 5558 5559 5560 5561 5562 5563 5564 5565 5566 5567 5568 5569 5570 5571 5572 5573 5574 5575 5576 5577 5578 5579 5580 5581 5582 5583 5584 5585 5586 5587 5588 5589 5590 5591 5592 5593 5594 5595 5596 5597 5598 5599 5600 5601 5602 5603 5604 5605 5606 5607 5608 5609 5610 5611 5612 5613 5614 5615 5616 5617 5618 5619 5620 5621 5622 5623 5624 5625 5626 5627 5628 5629 5630 5631 5632 5633 5634 5635 5636 5637 5638 5639 5640 5641 5642 5643 5644 5645 5646 5647 5648 5649 5650 5651 5652 5653 5654 5655 5656 5657 5658 5659 5660 5661 5662 5663 5664 5665 5666 5667 5668 5669 5670 5671 5672 5673 5674 5675 5676 5677 5678 5679 5680 5681 5682 5683 5684 5685 5686 5687 5688 5689 5690 5691 5692 5693 5694 5695 5696 5697 5698 5699 5700 5701 5702 5703 5704 5705 5706 5707 5708 5709 5710 5711 5712 5713 5714 5715 5716 5717 5718 5719 5720 5721 5722 5723 5724 5725 5726 5727 5728 5729 5730 5731 5732 5733 5734 5735 5736 5737 5738 5739 5740 5741 5742 5743 5744 5745 5746 5747 5748 5749 5750 5751 5752 5753 5754 5755 5756 5757 5758 5759 5760 5761 5762 5763 5764 5765 5766 5767 5768 5769 5770 5771 5772 5773 5774 5775 5776 5777 5778 5779 5780 5781 5782 5783 5784 5785 5786 5787 5788 5789 5790 5791 5792 5793 5794 5795 5796 5797 5798 5799 5800 5801 5802 5803 5804 5805 5806 5807 5808 5809 5810 5811 5812 5813 5814 5815 5816 5817 5818 5819 5820 5821 5822 5823 5824 5825 5826 5827 5828 5829 5830 5831 5832 5833 5834 5835 5836 5837 5838 5839 5840 5841 5842 5843 5844 5845 5846 5847 5848 5849 5850 5851 5852 5853 5854 5855 5856 5857 5858 5859 5860 5861 5862 5863 5864 5865 5866 5867 5868 5869 5870 5871 5872 5873 5874 5875 5876 5877 5878 5879 5880 5881 5882 5883 5884 5885 5886 5887 5888 5889 5890 5891 5892 5893 5894 5895 5896 5897 5898 5899 5900 5901 5902 5903 5904 5905 5906 5907 5908 5909 5910 5911 5912 5913 5914 5915 5916 5917 5918 5919 5920 5921 5922 5923 5924 5925 5926 5927 5928 5929 5930 5931 5932 5933 5934 5935 5936 5937 5938 5939 5940 5941 5942 5943 5944 5945 5946 5947 5948 5949 5950 5951 5952 5953 5954 5955 5956 5957 5958 5959 5960 5961 5962 5963 5964 5965 5966 5967 5968 5969 5970 5971 5972 5973 5974 5975 5976 5977 5978 5979 5980 5981 5982 5983 5984 5985 5986 5987 5988 5989 5990 5991 5992 5993 5994 5995 5996 5997 5998 5999 6000 6001 6002 6003 6004 6005 6006 6007 6008 6009 6010 6011 6012 6013 6014 6015 6016 6017 6018 6019 6020 6021 6022 6023 6024 6025 6026 6027 6028 6029 6030 6031 6032 6033 6034 6035 6036 6037 6038 6039 6040 6041 6042 6043 6044 6045 6046 6047 6048 6049 6050 6051 6052 6053 6054 6055 6056 6057 6058 6059 6060 6061 6062 6063 6064 6065 6066 6067 6068 6069 6070 6071 6072 6073 6074 6075 6076 6077 6078 6079 6080 6081 6082 6083 6084 6085 6086 6087 6088 6089 6090 6091 6092 6093 6094 6095 6096 6097 6098 6099 6100 6101 6102 6103 6104 6105 6106 6107 6108 6109 6110 6111 6112 6113 6114 6115 6116 6117 6118 6119 6120 6121 6122 6123 6124 6125 6126 6127 6128 6129 6130 6131 6132 6133 6134 6135 6136 6137 6138 6139 6140 6141 6142 6143 6144 6145 6146 6147 6148 6149 6150 6151 6152 6153 6154 6155 6156 6157 6158 6159 6160 6161 6162 6163 6164 6165 6166 6167 6168 6169 6170 6171 6172 6173 6174 6175 6176 6177 6178 6179 6180 6181 6182 6183 6184 6185 6186 6187 6188 6189 6190 6191 6192 6193 6194 6195 6196 6197 6198 6199 6200 6201 6202 6203 6204 6205 6206 6207 6208 6209 6210 6211 6212 6213 6214 6215 6216 6217 6218 6219 6220 6221 6222 6223 6224 6225 6226 6227 6228 6229 6230 6231 6232 6233 6234 6235 6236 6237 6238 6239 6240 6241 6242 6243 6244 6245 6246 6247 6248 6249 6250 6251 6252 6253 6254 6255 6256 6257 6258 6259 6260 6261 6262 6263 6264 6265 6266 6267 6268 6269 6270 6271 6272 6273 6274 6275 6276 6277 6278 6279 6280 6281 6282 6283 6284 6285 6286 6287 6288 6289 6290 6291 6292 6293 6294 6295 6296 6297 6298 6299 6300 6301 6302 6303 6304 6305 6306 6307 6308 6309 6310 6311 6312 6313 6314 6315 6316 6317 6318 6319 6320 6321 6322 6323 6324 6325 6326 6327 6328 6329 6330 6331 6332 6333 6334 6335 6336 6337 6338 6339 6340 6341 6342 6343 6344 6345 6346 6347 6348 6349 6350 6351 6352 6353 6354 6355 6356 6357 6358 6359 6360 6361 6362 6363 6364 6365 6366 6367 6368 6369 6370 6371 6372 6373 6374 6375 6376 6377 6378 6379 6380 6381 6382 6383 6384 6385 6386 6387 6388 6389 6390 6391 6392 6393 6394 6395 6396 6397 6398 6399 6400 6401 6402 6403 6404 6405 6406 6407 6408 6409 6410 6411 6412 6413 6414 6415 6416 6417 6418 6419 6420 6421 6422 6423 6424 6425 6426 6427 6428 6429 6430 6431 6432 6433 6434 6435 6436 6437 6438 6439 6440 6441 6442 6443 6444 6445 6446 6447 6448 6449 6450 6451 6452 6453 6454 6455 6456 6457 6458 6459 6460 6461 6462 6463 6464 6465 6466 6467 6468 6469 6470 6471 6472 6473 6474 6475 6476 6477 6478 6479 6480 6481 6482 6483 6484 6485 6486 6487 6488 6489 6490 6491 6492 6493 6494 6495 6496 6497 6498 6499 6500 6501 6502 6503 6504 6505 6506 6507 6508 6509 6510 6511 6512 6513 6514 6515 6516 6517 6518 6519 6520 6521 6522 6523 6524 6525 6526 6527 6528 6529 6530 6531 6532 6533 6534 6535 6536 6537 6538 6539 6540 6541 6542 6543 6544 6545 6546 6547 6548 6549 6550 6551 6552 6553 6554 6555 6556 6557 6558 6559 6560 6561 6562 6563 6564 6565 6566 6567 6568 6569 6570 6571 6572 6573 6574 6575 6576 6577 6578 6579 6580 6581 6582 6583 6584 6585 6586 6587 6588 6589 6590 6591 6592 6593 6594 6595 6596 6597 6598 6599 6600 6601 6602 6603 6604 6605 6606 6607 6608 6609 6610 6611 6612 6613 6614 6615 6616 6617 6618 6619 6620 6621 6622 6623 6624 6625 6626 6627 6628 6629 6630 6631 6632 6633 6634 6635 6636 6637 6638 6639 6640 6641 6642 6643 6644 6645 6646 6647 6648 6649 6650 6651 6652 6653 6654 6655 6656 6657 6658 6659 6660 6661 6662 6663 6664 6665 6666 6667 6668 6669 6670 6671 6672 6673 6674 6675 6676 6677 6678 6679 6680 6681 6682 6683 6684 6685 6686 6687 6688 6689 6690 6691 6692 6693 6694 6695 6696 6697 6698 6699 6700 6701 6702 6703 6704 6705 6706 6707 6708 6709 6710 6711 6712 6713 6714 6715 6716 6717 6718 6719 6720 6721 6722 6723 6724 6725 6726 6727 6728 6729 6730 6731 6732 6733 6734 6735 6736 6737 6738 6739 6740 6741 6742 6743 6744 6745 6746 6747 6748 6749 6750 6751 6752 6753 6754 6755 6756 6757 6758 6759 6760 6761 6762 6763 6764 6765 6766 6767 6768 6769 6770 6771 6772 6773 6774 6775 6776 6777 6778 6779 6780 6781 6782 6783 6784 6785 6786 6787 6788 6789 6790 6791 6792 6793 6794 6795 6796 6797 6798 6799 6800 6801 6802 6803 6804 6805 6806 6807 6808 6809 6810 6811 6812 6813 6814 6815 6816 6817 6818 6819 6820 6821 6822 6823 6824 6825 6826 6827 6828 6829 6830 6831 6832 6833 6834 6835 6836 6837 6838 6839 6840 6841 6842 6843 6844 6845 6846 6847 6848 6849 6850 6851 6852 6853 6854 6855 6856 6857 6858 6859 6860 6861 6862 6863 6864 6865 6866 6867 6868 6869 6870 6871 6872 6873 6874 6875 6876 6877 6878 6879 6880 6881 6882 6883 6884 6885 6886 6887 6888 6889 6890 6891 6892 6893 6894 6895 6896 6897 6898 6899 6900 6901 6902 6903 6904 6905 6906 6907 6908 6909 6910 6911 6912 6913 6914 6915 6916 6917 6918 6919 6920 6921 6922 6923 6924 6925 6926 6927 6928 6929 6930 6931 6932 6933 6934 6935 6936 6937 6938 6939 6940 6941 6942 6943 6944 6945 6946 6947 6948 6949 6950 6951 6952 6953 6954 6955 6956 6957 6958 6959 6960 6961 6962 6963 6964 6965 6966 6967 6968 6969 6970 6971 6972 6973 6974 6975 6976 6977 6978 6979 6980 6981 6982 6983 6984 6985 6986 6987 6988 6989 6990 6991 6992 6993 6994 6995 6996 6997 6998 6999 7000 7001 7002 7003 7004 7005 7006 7007 7008 7009 7010 7011 7012 7013 7014 7015 7016 7017 7018 7019 7020 7021 7022 7023 7024 7025 7026 7027 7028 7029 7030 7031 7032 7033 7034 7035 7036 7037 7038 7039 7040 7041 7042 7043 7044 7045 7046 7047 7048 7049 7050 7051 7052 7053 7054 7055 7056 7057 7058 7059 7060 7061 7062 7063 7064 7065 7066 7067 7068 7069 7070 7071 7072 7073 7074 7075 7076 7077 7078 7079 7080 7081 7082 7083 7084 7085 7086 7087 7088 7089 7090 7091 7092 7093 7094 7095 7096 7097 7098 7099 7100 7101 7102 7103 7104 7105 7106 7107 7108 7109 7110 7111 7112 7113 7114 7115 7116 7117 7118 7119 7120 7121 7122 7123 7124 7125 7126 7127 7128 7129 7130 7131 7132 7133 7134 7135 7136 7137 7138 7139 7140 7141 7142 7143 7144 7145 7146 7147 7148 7149 7150 7151 7152 7153 7154 7155 7156 7157 7158 7159 7160 7161 7162 7163 7164 7165 7166 7167 7168 7169 7170 7171 7172 7173 7174 7175 7176 7177 7178 7179 7180 7181 7182 7183 7184 7185 7186 7187 7188 7189 7190 7191 7192 7193 7194 7195 7196 7197 7198 7199 7200 7201 7202 7203 7204 7205 7206 7207 7208 7209 7210 7211 7212 7213 7214 7215 7216 7217 7218 7219 7220 7221 7222 7223 7224 7225 7226 7227 7228 7229 7230 7231 7232 7233 7234 7235 7236 7237 7238 7239 7240 7241 7242 7243 7244 7245 7246 7247 7248 7249 7250 7251 7252 7253 7254 7255 7256 7257 7258 7259 7260 7261 7262 7263 7264 7265 7266 7267 7268 7269 7270 7271 7272 7273 7274 7275 7276 7277 7278 7279 7280 7281 7282 7283 7284 7285 7286 7287 7288 7289 7290 7291 7292 7293 7294 7295 7296 7297 7298 7299 7300 7301 7302 7303 7304 7305 7306 7307 7308 7309 7310 7311 7312 7313 7314 7315 7316 7317 7318 7319 7320 7321 7322 7323 7324 7325 7326 7327 7328 7329 7330 7331 7332 7333 7334 7335 7336 7337 7338 7339 7340 7341 7342 7343 7344 7345 7346 7347 7348 7349 7350 7351 7352 7353 7354 7355 7356 7357 7358 7359 7360 7361 7362 7363 7364 7365 7366 7367 7368 7369 7370 7371 7372 7373 7374 7375 7376 7377 7378 7379 7380 7381 7382 7383 7384 7385 7386 7387 7388 7389 7390 7391 7392 7393 7394 7395 7396 7397 7398 7399 7400 7401 7402 7403 7404 7405 7406 7407 7408 7409 7410 7411 7412 7413 7414 7415 7416 7417 7418 7419 7420 7421 7422 7423 7424 7425 7426 7427 7428 7429 7430 7431 7432 7433 7434 7435 7436 7437 7438 7439 7440 7441 7442 7443 7444 7445 7446 7447 7448 7449 7450 7451 7452 7453 7454 7455 7456 7457 7458 7459 7460 7461 7462 7463 7464 7465 7466 7467 7468 7469 7470 7471 7472 7473 7474 7475 7476 7477 7478 7479 7480 7481 7482 7483 7484 7485 7486 7487 7488 7489 7490 7491 7492 7493 7494 7495 7496 7497 7498 7499 7500 7501 7502 7503 7504 7505 7506 7507 7508 7509 7510 7511 7512 7513 7514 7515 7516 7517 7518 7519 7520 7521 7522 7523 7524 7525 7526 7527 7528 7529 7530 7531 7532 7533 7534 7535 7536 7537 7538 7539 7540 7541 7542 7543 7544 7545 7546 7547 7548 7549 7550 7551 7552 7553 7554 7555 7556 7557 7558 7559 7560 7561 7562 7563 7564 7565 7566 7567 7568 7569 7570 7571 7572 7573 7574 7575 7576 7577 7578 7579 7580 7581 7582 7583 7584 7585 7586 7587 7588 7589 7590 7591 7592 7593 7594 7595 7596 7597 7598 7599 7600 7601 7602 7603 7604 7605 7606 7607 7608 7609 7610 7611 7612 7613 7614 7615 7616 7617 7618 7619 7620 7621 7622 7623 7624 7625 7626 7627 7628 7629 7630 7631 7632 7633 7634 7635 7636 7637 7638 7639 7640 7641 7642 7643 7644 7645 7646 7647 7648 7649 7650 7651 7652 7653 7654 7655 7656 7657 7658 7659 7660 7661 7662 7663 7664 7665 7666 7667 7668 7669 7670 7671 7672 7673 7674 7675 7676 7677 7678 7679 7680 7681 7682 7683 7684 7685 7686 7687 7688 7689 7690 7691 7692 7693 7694 7695 7696 7697 7698 7699 7700 7701 7702 7703 7704 7705 7706 7707 7708 7709 7710 7711 7712 7713 7714 7715 7716 7717 7718 7719 7720 7721 7722 7723 7724 7725 7726 7727 7728 7729 7730 7731 7732 7733 7734 7735 7736 7737 7738 7739 7740 7741 7742 7743 7744 7745 7746 7747 7748 7749 7750 7751 7752 7753 7754 7755 7756 7757 7758 7759 7760 7761 7762 7763 7764 7765 7766 7767 7768 7769 7770 7771 7772 7773 7774 7775 7776 7777 7778 7779 7780 7781 7782 7783 7784 7785 7786 7787 7788 7789 7790 7791 7792 7793 7794 7795 7796 7797 7798 7799 7800 7801 7802 7803 7804 7805 7806 7807 7808 7809 7810 7811 7812 7813 7814 7815 7816 7817 7818 7819 7820 7821 7822 7823 7824 7825 7826 7827 7828 7829 7830 7831 7832 7833 7834 7835 7836 7837 7838 7839 7840 7841 7842 7843 7844 7845 7846 7847 7848 7849 7850 7851 7852 7853 7854 7855 7856 7857 7858 7859 7860 7861 7862 7863 7864 7865 7866 7867 7868 7869 7870 7871 7872 7873 7874 7875 7876 7877 7878 7879 7880 7881 7882 7883 7884 7885 7886 7887 7888 7889 7890 7891 7892 7893 7894 7895 7896 7897 7898 7899 7900 7901 7902 7903 7904 7905 7906 7907 7908 7909 7910 7911 7912 7913 7914 7915 7916 7917 7918 7919 7920 7921 7922 7923 7924 7925 7926 7927 7928 7929 7930 7931 7932 7933 7934 7935 7936 7937 7938 7939 7940 7941 7942 7943 7944 7945 7946 7947 7948 7949 7950 7951 7952 7953 7954 7955 7956 7957 7958 7959 7960 7961 7962 7963 7964 7965 7966 7967 7968 7969 7970 7971 7972 7973 7974 7975 7976 7977 7978 7979 7980 7981 7982 7983 7984 7985 7986 7987 7988 7989 7990 7991 7992 7993 7994 7995 7996 7997 7998 7999 8000 8001 8002 8003 8004 8005 8006 8007 8008 8009 8010 8011 8012 8013 8014 8015 8016 8017 8018 8019 8020 8021 8022 8023 8024 8025 8026 8027 8028 8029 8030 8031 8032 8033 8034 8035 8036 8037 8038 8039 8040 8041 8042 8043 8044 8045 8046 8047 8048 8049 8050 8051 8052 8053 8054 8055 8056 8057 8058 8059 8060 8061 8062 8063 8064 8065 8066 8067 8068 8069 8070 8071 8072 8073 8074 8075 8076 8077 8078 8079 8080 8081 8082 8083 8084 8085 8086 8087 8088 8089 8090 8091 8092 8093 8094 8095 8096 8097 8098 8099 8100 8101 8102 8103 8104 8105 8106 8107 8108 8109 8110 8111 8112 8113 8114 8115 8116 8117 8118 8119 8120 8121 8122 8123 8124 8125 8126 8127 8128 8129 8130 8131 8132 8133 8134 8135 8136 8137 8138 8139 8140 8141 8142 8143 8144 8145 8146 8147 8148 8149 8150 8151 8152 8153 8154 8155 8156 8157 8158 8159 8160 8161 8162 8163 8164 8165 8166 8167 8168 8169 8170 8171 8172 8173 8174 8175 8176 8177 8178 8179 8180 8181 8182 8183 8184 8185 8186 8187 8188 8189 8190 8191 8192 8193 8194 8195 8196 8197 8198 8199 8200 8201 8202 8203 8204 8205 8206 8207 8208 8209 8210 8211 8212 8213 8214 8215 8216 8217 8218 8219 8220 8221 8222 8223 8224 8225 8226 8227 8228 8229 8230 8231 8232 8233 8234 8235 8236 8237 8238 8239 8240 8241 8242 8243 8244 8245 8246 8247 8248 8249 8250 8251 8252 8253 8254 8255 8256 8257 8258 8259 8260 8261 8262 8263 8264 8265 8266 8267 8268 8269 8270 8271 8272 8273 8274 8275 8276 8277 8278 8279 8280 8281 8282 8283 8284 8285 8286 8287 8288 8289 8290 8291 8292 8293 8294 8295 8296 8297 8298 8299 8300 8301 8302 8303 8304 8305 8306 8307 8308 8309 8310 8311 8312 8313 8314 8315 8316 8317 8318 8319 8320 8321 8322 8323 8324 8325 8326 8327 8328 8329 8330 8331 8332 8333 8334 8335 8336 8337 8338 8339 8340 8341 8342 8343 8344 8345 8346 8347 8348 8349 8350 8351 8352 8353 8354 8355 8356 8357 8358 8359 8360 8361 8362 8363 8364 8365 8366 8367 8368 8369 8370 8371 8372 8373 8374 8375 8376 8377 8378 8379 8380 8381 8382 8383 8384 8385 8386 8387 8388 8389 8390 8391 8392 8393 8394 8395 8396 8397 8398 8399 8400 8401 8402 8403 8404 8405 8406 8407 8408 8409 8410 8411 8412 8413 8414 8415 8416 8417 8418 8419 8420 8421 8422 8423 8424 8425 8426 8427 8428 8429 8430 8431 8432 8433 8434 8435 8436 8437 8438 8439 8440 8441 8442 8443 8444 8445 8446 8447 8448 8449 8450 8451 8452 8453 8454 8455 8456 8457 8458 8459 8460 8461 8462 8463 8464 8465 8466 8467 8468 8469 8470 8471 8472 8473 8474 8475 8476 8477 8478 8479 8480 8481 8482 8483 8484 8485 8486 8487 8488 8489 8490 8491 8492 8493 8494 8495 8496 8497 8498 8499 8500 8501 8502 8503 8504 8505 8506 8507 8508 8509 8510 8511 8512 8513 8514 8515 8516 8517 8518 8519 8520 8521 8522 8523 8524 8525 8526 8527 8528 8529 8530 8531 8532 8533 8534 8535 8536 8537 8538 8539 8540 8541 8542 8543 8544 8545 8546 8547 8548 8549 8550 8551 8552 8553 8554 8555 8556 8557 8558 8559 8560 8561 8562 8563 8564 8565 8566 8567 8568 8569 8570 8571 8572 8573 8574 8575 8576 8577 8578 8579 8580 8581 8582 8583 8584 8585 8586 8587 8588 8589 8590 8591 8592 8593 8594 8595 8596 8597 8598 8599 8600 8601 8602 8603 8604 8605 8606 8607 8608 8609 8610 8611 8612 8613 8614 8615 8616 8617 8618 8619 8620 8621 8622 8623 8624 8625 8626 8627 8628 8629 8630 8631 8632 8633 8634 8635 8636 8637 8638 8639 8640 8641 8642 8643 8644 8645 8646 8647 8648 8649 8650 8651 8652 8653 8654 8655 8656 8657 8658 8659 8660 8661 8662 8663 8664 8665 8666 8667 8668 8669 8670 8671 8672 8673 8674 8675 8676 8677 8678 8679 8680 8681 8682 8683 8684 8685 8686 8687 8688 8689 8690 8691 8692 8693 8694 8695 8696 8697 8698 8699 8700 8701 8702 8703 8704 8705 8706 8707 8708 8709 8710 8711 8712 8713 8714 8715 8716 8717 8718 8719 8720 8721 8722 8723 8724 8725 8726 8727 8728 8729 8730 8731 8732 8733 8734 8735 8736 8737 8738 8739 8740 8741 8742 8743 8744 8745 8746 8747 8748 8749 8750 8751 8752 8753 8754 8755 8756 8757 8758 8759 8760 8761 8762 8763 8764 8765 8766 8767 8768 8769 8770 8771 8772 8773 8774 8775 8776 8777 8778 8779 8780 8781 8782 8783 8784 8785 8786 8787 8788 8789 8790 8791 8792 8793 8794 8795 8796 8797 8798 8799 8800 8801 8802 8803 8804 8805 8806 8807 8808 8809 8810 8811 8812 8813 8814 8815 8816 8817 8818 8819 8820 8821 8822 8823 8824 8825 8826 8827 8828 8829 8830 8831 8832 8833 8834 8835 8836 8837 8838 8839 8840 8841 8842 8843 8844 8845 8846 8847 8848 8849 8850 8851 8852 8853 8854 8855 8856 8857 8858 8859 8860 8861 8862 8863 8864 8865 8866 8867 8868 8869 8870 8871 8872 8873 8874 8875 8876 8877 8878 8879 8880 8881 8882 8883 8884 8885 8886 8887 8888 8889 8890 8891 8892 8893 8894 8895 8896 8897 8898 8899 8900 8901 8902 8903 8904 8905 8906 8907 8908 8909 8910 8911 8912 8913 8914 8915 8916 8917 8918 8919 8920 8921 8922 8923 8924 8925 8926 8927 8928 8929 8930 8931 8932 8933 8934 8935 8936 8937 8938 8939 8940 8941 8942 8943 8944 8945 8946 8947 8948 8949 8950 8951 8952 8953 8954 8955 8956 8957 8958 8959 8960 8961 8962 8963 8964 8965 8966 8967 8968 8969 8970 8971 8972 8973 8974 8975 8976 8977 8978 8979 8980 8981 8982 8983 8984 8985 8986 8987 8988 8989 8990 8991 8992 8993 8994 8995 8996 8997 8998 8999 9000 9001 9002 9003 9004 9005 9006 9007 9008 9009 9010 9011 9012 9013 9014 9015 9016 9017 9018 9019 9020 9021 9022 9023 9024 9025 9026 9027 9028 9029 9030 9031 9032 9033 9034 9035 9036 9037 9038 9039 9040 9041 9042 9043 9044 9045 9046 9047 9048 9049 9050 9051 9052 9053 9054 9055 9056 9057 9058 9059 9060 9061 9062 9063 9064 9065 9066 9067 9068 9069 9070 9071 9072 9073 9074 9075 9076 9077 9078 9079 9080 9081 9082 9083 9084 9085 9086 9087 9088 9089 9090 9091 9092 9093 9094 9095 9096 9097 9098 9099 9100 9101 9102 9103 9104 9105 9106 9107 9108 9109 9110 9111 9112 9113 9114 9115 9116 9117 9118 9119 9120 9121 9122 9123 9124 9125 9126 9127 9128 9129 9130 9131 9132 9133 9134 9135 9136 9137 9138 9139 9140 9141 9142 9143 9144 9145 9146 9147 9148 9149 9150 9151 9152 9153 9154 9155 9156 9157 9158 9159 9160 9161 9162 9163 9164 9165 9166 9167 9168 9169 9170 9171 9172 9173 9174 9175 9176 9177 9178 9179 9180 9181 9182 9183 9184 9185 9186 9187 9188 9189 9190 9191 9192 9193 9194 9195 9196 9197 9198 9199 9200 9201 9202 9203 9204 9205 9206 9207 9208 9209 9210 9211 9212 9213 9214 9215 9216 9217 9218 9219 9220 9221 9222 9223 9224 9225 9226 9227 9228 9229 9230 9231 9232 9233 9234 9235 9236 9237 9238 9239 9240 9241 9242 9243 9244 9245 9246 9247 9248 9249 9250 9251 9252 9253 9254 9255 9256 9257 9258 9259 9260 9261 9262 9263 9264 9265 9266 9267 9268 9269 9270 9271 9272 9273 9274 9275 9276 9277 9278 9279 9280 9281 9282 9283 9284 9285 9286 9287 9288 9289 9290 9291 9292 9293 9294 9295 9296 9297 9298 9299 9300 9301 9302 9303 9304 9305 9306 9307 9308 9309 9310 9311 9312 9313 9314 9315 9316 9317 9318 9319 9320 9321 9322 9323 9324 9325 9326 9327 9328 9329 9330 9331 9332 9333 9334 9335 9336 9337 9338 9339 9340 9341 9342 9343 9344 9345 9346 9347 9348 9349 9350 9351 9352 9353 9354 9355 9356 9357 9358 9359 9360 9361 9362 9363 9364 9365 9366 9367 9368 9369 9370 9371 9372 9373 9374 9375 9376 9377 9378 9379 9380 9381 9382 9383 9384 9385 9386 9387 9388 9389 9390 9391 9392 9393 9394 9395 9396 9397 9398 9399 9400 9401 9402 9403 9404 9405 9406 9407 9408 9409 9410 9411 9412 9413 9414 9415 9416 9417 9418 9419 9420 9421 9422 9423 9424 9425 9426 9427 9428 9429 9430 9431 9432 9433 9434 9435 9436 9437 9438 9439 9440 9441 9442 9443 9444 9445 9446 9447 9448 9449 9450 9451 9452 9453 9454 9455 9456 9457 9458 9459 9460 9461 9462 9463 9464 9465 9466 9467 9468 9469 9470 9471 9472 9473 9474 9475 9476 9477 9478 9479 9480 9481 9482 9483 9484 9485 9486 9487 9488 9489 9490 9491 9492 9493 9494 9495 9496 9497 9498 9499 9500 9501 9502 9503 9504 9505 9506 9507 9508 9509 9510 9511 9512 9513 9514 9515 9516 9517 9518 9519 9520 9521 9522 9523 9524 9525 9526 9527 9528 9529 9530 9531 9532 9533 9534 9535 9536 9537 9538 9539 9540 9541 9542 9543 9544 9545 9546 9547 9548 9549 9550 9551 9552 9553 9554 9555 9556 9557 9558 9559 9560 9561 9562 9563 9564 9565 9566 9567 9568 9569 9570 9571 9572 9573 9574 9575 9576 9577 9578 9579 9580 9581 9582 9583 9584 9585 9586 9587 9588 9589 9590 9591 9592 9593 9594 9595 9596 9597 9598 9599 9600 9601 9602 9603 9604 9605 9606 9607 9608 9609 9610 9611 9612 9613 9614 9615 9616 9617 9618 9619 9620 9621 9622 9623 9624 9625 9626 9627 9628 9629 9630 9631 9632 9633 9634 9635 9636 9637 9638 9639 9640 9641 9642 9643 9644 9645 9646 9647 9648 9649 9650 9651 9652 9653 9654 9655 9656 9657 9658 9659 9660 9661 9662 9663 9664 9665 9666 9667 9668 9669 9670 9671 9672 9673 9674 9675 9676 9677 9678 9679 9680 9681 9682 9683 9684 9685 9686 9687 9688 9689 9690 9691 9692 9693 9694 9695 9696 9697 9698 9699 9700 9701 9702 9703 9704 9705 9706 9707 9708 9709 9710 9711 9712 9713 9714 9715 9716 9717 9718 9719 9720 9721 9722 9723 9724 9725 9726 9727 9728 9729 9730 9731 9732 9733 9734 9735 9736 9737 9738 9739 9740 9741 9742 9743 9744 9745 9746 9747 9748 9749 9750 9751 9752 9753 9754 9755 9756 9757 9758 9759 9760 9761 9762 9763 9764 9765 9766 9767 9768 9769 9770 9771 9772 9773 9774 9775 9776 9777 9778 9779 9780 9781 9782 9783 9784 9785 9786 9787 9788 9789 9790 9791 9792 9793 9794 9795 9796 9797 9798 9799 9800 9801 9802 9803 9804 9805 9806 9807 9808 9809 9810 9811 9812 9813 9814 9815 9816 9817 9818 9819 9820 9821 9822 9823 9824 9825 9826 9827 9828 9829 9830 9831 9832 9833 9834 9835 9836 9837 9838 9839 9840 9841 9842 9843 9844 9845 9846 9847 9848 9849 9850 9851 9852 9853 9854 9855 9856 9857 9858 9859 9860 9861 9862 9863 9864 9865 9866 9867 9868 9869 9870 9871 9872 9873 9874 9875 9876 9877 9878 9879 9880 9881 9882 9883 9884 9885 9886 9887 9888 9889 9890 9891 9892 9893 9894 9895 9896 9897 9898 9899 9900 9901 9902 9903 9904 9905 9906 9907 9908 9909 9910 9911 9912 9913 9914 9915 9916 9917 9918 9919 9920 9921 9922 9923 9924 9925 9926 9927 9928 9929 9930 9931 9932 9933 9934 9935 9936 9937 9938 9939 9940 9941 9942 9943 9944 9945 9946 9947 9948 9949 9950 9951 9952 9953 9954 9955 9956 9957 9958 9959 9960 9961 9962 9963 9964 9965 9966 9967 9968 9969 9970 9971 9972 9973 9974 9975 9976 9977 9978 9979 9980 9981 9982 9983 9984 9985 9986 9987 9988 9989 9990 9991 9992 9993 9994 9995 9996 9997 9998 9999 10000 10001 10002 10003 10004 10005 10006 10007 10008 10009 10010 10011 10012 10013 10014 10015 10016 10017 10018 10019 10020 10021 10022 10023 10024 10025 10026 10027 10028 10029 10030 10031 10032 10033 10034 10035 10036 10037 10038 10039 10040 10041 10042 10043 10044 10045 10046 10047 10048 10049 10050 10051 10052 10053 10054 10055 10056 10057 10058 10059 10060 10061 10062 10063 10064 10065 10066 10067 10068 10069 10070 10071 10072 10073 10074 10075 10076 10077 10078 10079 10080 10081 10082 10083 10084 10085 10086 10087 10088 10089 10090 10091 10092 10093 10094 10095 10096 10097 10098 10099 10100 10101 10102 10103 10104 10105 10106 10107 10108 10109 10110 10111 10112 10113 10114 10115 10116 10117 10118 10119 10120 10121 10122 10123 10124 10125 10126 10127 10128 10129 10130 10131 10132 10133 10134 10135 10136 10137 10138 10139 10140 10141 10142 10143 10144 10145 10146 10147 10148 10149 10150 10151 10152 10153 10154 10155 10156 10157 10158 10159 10160 10161 10162 10163 10164 10165 10166 10167 10168 10169 10170 10171 10172 10173 10174 10175 10176 10177 10178 10179 10180 10181 10182 10183 10184 10185 10186 10187 10188 10189 10190 10191 10192 10193 10194 10195 10196 10197 10198 10199 10200 10201 10202 10203 10204 10205 10206 10207 10208 10209 10210 10211 10212 10213 10214 10215 10216 10217 10218 10219 10220 10221 10222 10223 10224 10225 10226 10227 10228 10229 10230 10231 10232 10233 10234 10235 10236 10237 10238 10239 10240 10241 10242 10243 10244 10245 10246 10247 10248 10249 10250 10251 10252 10253 10254 10255 10256 10257 10258 10259 10260 10261 10262 10263 10264 10265 10266 10267 10268 10269 10270 10271 10272 10273 10274 10275 10276 10277 10278 10279 10280 10281 10282 10283 10284 10285 10286 10287 10288 10289 10290 10291 10292 10293 10294 10295 10296 10297 10298 10299 10300 10301 10302 10303 10304 10305 10306 10307 10308 10309 10310 10311 10312 10313 10314 10315 10316 10317 10318 10319 10320 10321 10322 10323 10324 10325 10326 10327 10328 10329 10330 10331 10332 10333 10334 10335 10336 10337 10338 10339 10340 10341 10342 10343 10344 10345 10346 10347 10348 10349 10350 10351 10352 10353 10354 10355 10356 10357 10358 10359 10360 10361 10362 10363 10364 10365 10366 10367 10368 10369 10370 10371 10372 10373 10374 10375 10376 10377 10378 10379 10380 10381 10382 10383 10384 10385 10386 10387 10388 10389 10390 10391 10392 10393 10394 10395 10396 10397 10398 10399 10400 10401 10402 10403 10404 10405 10406 10407 10408 10409 10410 10411 10412 10413 10414 10415 10416 10417 10418 10419 10420 10421 10422 10423 10424 10425 10426 10427 10428 10429 10430 10431 10432 10433 10434 10435 10436 10437 10438 10439 10440 10441 10442 10443 10444 10445 10446 10447 10448 10449 10450 10451 10452 10453 10454 10455 10456 10457 10458 10459 10460 10461 10462 10463 10464 10465 10466 10467 10468 10469 10470 10471 10472 10473 10474 10475 10476 10477 10478 10479 10480 10481 10482 10483 10484 10485 10486 10487 10488 10489 10490 10491 10492 10493 10494 10495 10496 10497 10498 10499 10500 10501 10502 10503 10504 10505 10506 10507 10508 10509 10510 10511 10512 10513 10514 10515 10516 10517 10518 10519 10520 10521 10522 10523 10524 10525 10526 10527 10528 10529 10530 10531 10532 10533 10534 10535 10536 10537 10538 10539 10540 10541 10542 10543 10544 10545 10546 10547 10548 10549 10550 10551 10552 10553 10554 10555 10556 10557 10558 10559 10560 10561 10562 10563 10564 10565 10566 10567 10568 10569 10570 10571 10572 10573 10574 10575 10576 10577 10578 10579 10580 10581 10582 10583 10584 10585 10586 10587 10588 10589 10590 10591 10592 10593 10594 10595 10596 10597 10598 10599 10600 10601 10602 10603 10604 10605 10606 10607 10608 10609 10610 10611 10612 10613 10614 10615 10616 10617 10618 10619 10620 10621 10622 10623 10624 10625 10626 10627 10628 10629 10630 10631 10632 10633 10634 10635 10636 10637 10638 10639 10640 10641 10642 10643 10644 10645 10646 10647 10648 10649 10650 10651 10652 10653 10654 10655 10656 10657 10658 10659 10660 10661 10662 10663 10664 10665 10666 10667 10668 10669 10670 10671 10672 10673 10674 10675 10676 10677 10678 10679 10680 10681 10682 10683 10684 10685 10686 10687 10688 10689 10690 10691 10692 10693 10694 10695 10696 10697 10698 10699 10700 10701 10702 10703 10704 10705 10706 10707 10708 10709 10710 10711 10712 10713 10714 10715 10716 10717 10718 10719 10720 10721 10722 10723 10724 10725 10726 10727 10728 10729 10730 10731 10732 10733 10734 10735 10736 10737 10738 10739 10740 10741 10742 10743 10744 10745 10746 10747 10748 10749 10750 10751 10752 10753 10754 10755 10756 10757 10758 10759 10760 10761 10762 10763 10764 10765 10766 10767 10768 10769 10770 10771 10772 10773 10774 10775 10776 10777 10778 10779 10780 10781 10782 10783 10784 10785 10786 10787 10788 10789 10790 10791 10792 10793 10794 10795 10796 10797 10798 10799 10800 10801 10802 10803 10804 10805 10806 10807 10808 10809 10810 10811 10812 10813 10814 10815 10816 10817 10818 10819 10820 10821 10822 10823 10824 10825 10826 10827 10828 10829 10830 10831 10832 10833 10834 10835 10836 10837 10838 10839 10840 10841 10842 10843 10844 10845 10846 10847 10848 10849 10850 10851 10852 10853 10854 10855 10856 10857 10858 10859 10860 10861 10862 10863 10864 10865 10866 10867 10868 10869 10870 10871 10872 10873 10874 10875 10876 10877 10878 10879 10880 10881 10882 10883 10884 10885 10886 10887 10888 10889 10890 10891 10892 10893 10894 10895 10896 10897 10898 10899 10900 10901 10902 10903 10904 10905 10906 10907 10908 10909 10910 10911 10912 10913 10914 10915 10916 10917 10918 10919 10920 10921 10922 10923 10924 10925 10926 10927 10928 10929 10930 10931 10932 10933 10934 10935 10936 10937 10938 10939 10940 10941 10942 10943 10944 10945 10946 10947 10948 10949 10950 10951 10952 10953 10954 10955 10956 10957 10958 10959 10960 10961 10962 10963 10964 10965 10966 10967 10968 10969 10970 10971 10972 10973 10974 10975 10976 10977 10978 10979 10980 10981 10982 10983 10984 10985 10986 10987 10988 10989 10990 10991 10992 10993 10994 10995 10996 10997 10998 10999 11000 11001 11002 11003 11004 11005 11006 11007 11008 11009 11010 11011 11012 11013 11014 11015 11016 11017 11018 11019 11020 11021 11022 11023 11024 11025 11026 11027 11028 11029 11030 11031 11032 11033 11034 11035 11036 11037 11038 11039 11040 11041 11042 11043 11044 11045 11046 11047 11048 11049 11050 11051 11052 11053 11054 11055 11056 11057 11058 11059 11060 11061 11062 11063 11064 11065 11066 11067 11068 11069 11070 11071 11072 11073 11074 11075 11076 11077 11078 11079 11080 11081 11082 11083 11084 11085 11086 11087 11088 11089 11090 11091 11092 11093 11094 11095 11096 11097 11098 11099 11100 11101 11102 11103 11104 11105 11106 11107 11108 11109 11110 11111 11112 11113 11114 11115 11116 11117 11118 11119 11120 11121 11122 11123 11124 11125 11126 11127 11128 11129 11130 11131 11132 11133 11134 11135 11136 11137 11138 11139 11140 11141 11142 11143 11144 11145 11146 11147 11148 11149 11150 11151 11152 11153 11154 11155 11156 11157 11158 11159 11160 11161 11162 11163 11164 11165 11166 11167 11168 11169 11170 11171 11172 11173 11174 11175 11176 11177 11178 11179 11180 11181 11182 11183 11184 11185 11186 11187 11188 11189 11190 11191 11192 11193 11194 11195 11196 11197 11198 11199 11200 11201 11202 11203 11204 11205 11206 11207 11208 11209 11210 11211 11212 11213 11214 11215 11216 11217 11218 11219 11220 11221 11222 11223 11224 11225 11226 11227 11228 11229 11230 11231 11232 11233 11234 11235 11236 11237 11238 11239 11240 11241 11242 11243 11244 11245 11246 11247 11248 11249 11250 11251 11252 11253 11254 11255 11256 11257 11258 11259 11260 11261 11262 11263 11264 11265 11266 11267 11268 11269 11270 11271 11272 11273 11274 11275 11276 11277 11278 11279 11280 11281 11282 11283 11284 11285 11286 11287 11288 11289 11290 11291 11292 11293 11294 11295 11296 11297 11298 11299 11300 11301 11302 11303 11304 11305 11306 11307 11308 11309 11310 11311 11312 11313 11314 11315 11316 11317 11318 11319 11320 11321 11322 11323 11324 11325 11326 11327 11328 11329 11330 11331 11332 11333 11334 11335 11336 11337 11338 11339 11340 11341 11342 11343 11344 11345 11346 11347 11348 11349 11350 11351 11352 11353 11354 11355 11356 11357 11358 11359 11360 11361 11362 11363 11364 11365 11366 11367 11368 11369 11370 11371 11372 11373 11374 11375 11376 11377 11378 11379 11380 11381 11382 11383 11384 11385 11386 11387 11388 11389 11390 11391 11392 11393 11394 11395 11396 11397 11398 11399 11400 11401 11402 11403 11404 11405 11406 11407 11408 11409 11410 11411 11412 11413 11414 11415 11416 11417 11418 11419 11420 11421 11422 11423 11424 11425 11426 11427 11428 11429 11430 11431 11432 11433 11434 11435 11436 11437 11438 11439 11440 11441 11442 11443 11444 11445 11446 11447 11448 11449 11450 11451 11452 11453 11454 11455 11456 11457 11458 11459 11460 11461 11462 11463 11464 11465 11466 11467 11468 11469 11470 11471 11472 11473 11474 11475 11476 11477 11478 11479 11480 11481 11482 11483 11484 11485 11486 11487 11488 11489 11490 11491 11492 11493 11494 11495 11496 11497 11498 11499 11500 11501 11502 11503 11504 11505 11506 11507 11508 11509 11510 11511 11512 11513 11514 11515 11516 11517 11518 11519 11520 11521 11522 11523 11524 11525 11526 11527 11528 11529 11530 11531 11532 11533 11534 11535 11536 11537 11538 11539 11540 11541 11542 11543 11544 11545 11546 11547 11548 11549 11550 11551 11552 11553 11554 11555 11556 11557 11558 11559 11560 11561 11562 11563 11564 11565 11566 11567 11568 11569 11570 11571 11572 11573 11574 11575 11576 11577 11578 11579 11580 11581 11582 11583 11584 11585 11586 11587 11588 11589 11590 11591 11592 11593 11594 11595 11596 11597 11598 11599 11600 11601 11602 11603 11604 11605 11606 11607 11608 11609 11610 11611 11612 11613 11614 11615 11616 11617 11618 11619 11620 11621 11622 11623 11624 11625 11626 11627 11628 11629 11630 11631 11632 11633 11634 11635 11636 11637 11638 11639 11640 11641 11642 11643 11644 11645 11646 11647 11648 11649 11650 11651 11652 11653 11654 11655 11656 11657 11658 11659 11660 11661 11662 11663 11664 11665 11666 11667 11668 11669 11670 11671 11672 11673 11674 11675 11676 11677 11678 11679 11680 11681 11682 11683 11684 11685 11686 11687 11688 11689 11690 11691 11692 11693 11694 11695 11696 11697 11698 11699 11700 11701 11702 11703 11704 11705 11706 11707 11708 11709 11710 11711 11712 11713 11714 11715 11716 11717 11718 11719 11720 11721 11722 11723 11724 11725 11726 11727 11728 11729 11730 11731 11732 11733 11734 11735 11736 11737 11738 11739 11740 11741 11742 11743 11744 11745 11746 11747 11748 11749 11750 11751 11752 11753 11754 11755 11756 11757 11758 11759 11760 11761 11762 11763 11764 11765 11766 11767 11768 11769 11770 11771 11772 11773 11774 11775 11776 11777 11778 11779 11780 11781 11782 11783 11784 11785 11786 11787 11788 11789 11790 11791 11792 11793 11794 11795 11796 11797 11798 11799 11800 11801 11802 11803 11804 11805 11806 11807 11808 11809 11810 11811 11812 11813 11814 11815 11816 11817 11818 11819 11820 11821 11822 11823 11824 11825 11826 11827 11828 11829 11830 11831 11832 11833 11834 11835 11836 11837 11838 11839 11840 11841 11842 11843 11844 11845 11846 11847 11848 11849 11850 11851 11852 11853 11854 11855 11856 11857 11858 11859 11860 11861 11862 11863 11864 11865 11866 11867 11868 11869 11870 11871 11872 11873 11874 11875 11876 11877 11878 11879 11880 11881 11882 11883 11884 11885 11886 11887 11888 11889 11890 11891 11892 11893 11894 11895 11896 11897 11898 11899 11900 11901 11902 11903 11904 11905 11906 11907 11908 11909 11910 11911 11912 11913 11914 11915 11916 11917 11918 11919 11920 11921 11922 11923 11924 11925 11926 11927 11928 11929 11930 11931 11932 11933 11934 11935 11936 11937 11938 11939 11940 11941 11942 11943 11944 11945 11946 11947 11948 11949 11950 11951 11952 11953 11954 11955 11956 11957 11958 11959 11960 11961 11962 11963 11964 11965 11966 11967 11968 11969 11970 11971 11972 11973 11974 11975 11976 11977 11978 11979 11980 11981 11982 11983 11984 11985 11986 11987 11988 11989 11990 11991 11992 11993 11994 11995 11996 11997 11998 11999 12000 12001 12002 12003 12004 12005 12006 12007 12008 12009 12010 12011 12012 12013 12014 12015 12016 12017 12018 12019 12020 12021 12022 12023 12024 12025 12026 12027 12028 12029 12030 12031 12032 12033 12034 12035 12036 12037 12038 12039 12040 12041 12042 12043 12044 12045 12046 12047 12048 12049 12050 12051 12052 12053 12054 12055 12056 12057 12058 12059 12060 12061 12062 12063 12064 12065 12066 12067 12068 12069 12070 12071 12072 12073 12074 12075 12076 12077 12078 12079 12080 12081 12082 12083 12084 12085 12086 12087 12088 12089 12090 12091 12092 12093 12094 12095 12096 12097 12098 12099 12100 12101 12102 12103 12104 12105 12106 12107 12108 12109 12110 12111 12112 12113 12114 12115 12116 12117 12118 12119 12120 12121 12122 12123 12124 12125 12126 12127 12128 12129 12130 12131 12132 12133 12134 12135 12136 12137 12138 12139 12140 12141 12142 12143 12144 12145 12146 12147 12148 12149 12150 12151 12152 12153 12154 12155 12156 12157 12158 12159 12160 12161 12162 12163 12164 12165 12166 12167 12168 12169 12170 12171 12172 12173 12174 12175 12176 12177 12178 12179 12180 12181 12182 12183 12184 12185 12186 12187 12188 12189 12190 12191 12192 12193 12194 12195 12196 12197 12198 12199 12200 12201 12202 12203 12204 12205 12206 12207 12208 12209 12210 12211 12212 12213 12214 12215 12216 12217 12218 12219 12220 12221 12222 12223 12224 12225 12226 12227 12228 12229 12230 12231 12232 12233 12234 12235 12236 12237 12238 12239 12240 12241 12242 12243 12244 12245 12246 12247 12248 12249 12250 12251 12252 12253 12254 12255 12256 12257 12258 12259 12260 12261 12262 12263 12264 12265 12266 12267 12268 12269 12270 12271 12272 12273 12274 12275 12276 12277 12278 12279 12280 12281 12282 12283 12284 12285 12286 12287 12288 12289 12290 12291 12292 12293 12294 12295 12296 12297 12298 12299 12300 12301 12302 12303 12304 12305 12306 12307 12308 12309 12310 12311 12312 12313 12314 12315 12316 12317 12318 12319 12320 12321 12322 12323 12324 12325 12326 12327 12328 12329 12330 12331 12332 12333 12334 12335 12336 12337 12338 12339 12340 12341 12342 12343 12344 12345 12346 12347 12348 12349 12350 12351 12352 12353 12354 12355 12356 12357 12358 12359 12360 12361 12362 12363 12364 12365 12366 12367 12368 12369 12370 12371 12372 12373 12374 12375 12376 12377 12378 12379 12380 12381 12382 12383 12384 12385 12386 12387 12388 12389 12390 12391 12392 12393 12394 12395 12396 12397 12398 12399 12400 12401 12402 12403 12404 12405 12406 12407 12408 12409 12410 12411 12412 12413 12414 12415 12416 12417 12418 12419 12420 12421 12422 12423 12424 12425 12426 12427 12428 12429 12430 12431 12432 12433 12434 12435 12436 12437 12438 12439 12440 12441 12442 12443 12444 12445 12446 12447 12448 12449 12450 12451 12452 12453 12454 12455 12456 12457 12458 12459 12460 12461 12462 12463 12464 12465 12466 12467 12468 12469 12470 12471 12472 12473 12474 12475 12476 12477 12478 12479 12480 12481 12482 12483 12484 12485 12486 12487 12488 12489 12490 12491 12492 12493 12494 12495 12496 12497 12498 12499 12500 12501 12502 12503 12504 12505 12506 12507 12508 12509 12510 12511 12512 12513 12514 12515 12516 12517 12518 12519 12520 12521 12522 12523 12524 12525 12526 12527 12528 12529 12530 12531 12532 12533 12534 12535 12536 12537 12538 12539 12540 12541 12542 12543 12544 12545 12546 12547 12548 12549 12550 12551 12552 12553 12554 12555 12556 12557 12558 12559 12560 12561 12562 12563 12564 12565 12566 12567 12568 12569 12570 12571 12572 12573 12574 12575 12576 12577 12578 12579 12580 12581 12582 12583 12584 12585 12586 12587 12588 12589 12590 12591 12592 12593 12594 12595 12596 12597 12598 12599 12600 12601 12602 12603 12604 12605 12606 12607 12608 12609 12610 12611 12612 12613 12614 12615 12616 12617 12618 12619 12620 12621 12622 12623 12624 12625 12626 12627 12628 12629 12630 12631 12632 12633 12634 12635 12636 12637 12638 12639 12640 12641 12642 12643 12644 12645 12646 12647 12648 12649 12650 12651 12652 12653 12654 12655 12656 12657 12658 12659 12660 12661 12662 12663 12664 12665 12666 12667 12668 12669 12670 12671 12672 12673 12674 12675 12676 12677 12678 12679 12680 12681 12682 12683 12684 12685 12686 12687 12688 12689 12690 12691 12692 12693 12694 12695 12696 12697 12698 12699 12700 12701 12702 12703 12704 12705 12706 12707 12708 12709 12710 12711 12712 12713 12714 12715 12716 12717 12718 12719 12720 12721 12722 12723 12724 12725 12726 12727 12728 12729 12730 12731 12732 12733 12734 12735 12736 12737 12738 12739 12740 12741 12742 12743 12744 12745 12746 12747 12748 12749 12750 12751 12752 12753 12754 12755 12756 12757 12758 12759 12760 12761 12762 12763 12764 12765 12766 12767 12768 12769 12770 12771 12772 12773 12774 12775 12776 12777 12778 12779 12780 12781 12782 12783 12784 12785 12786 12787 12788 12789 12790 12791 12792 12793 12794 12795 12796 12797 12798 12799 12800 12801 12802 12803 12804 12805 12806 12807 12808 12809 12810 12811 12812 12813 12814 12815 12816 12817 12818 12819 12820 12821 12822 12823 12824 12825 12826 12827 12828 12829 12830 12831 12832 12833 12834 12835 12836 12837 12838 12839 12840 12841 12842 12843 12844 12845 12846 12847 12848 12849 12850 12851 12852 12853 12854 12855 12856 12857 12858 12859 12860 12861 12862 12863 12864 12865 12866 12867 12868 12869 12870 12871 12872 12873 12874 12875 12876 12877 12878 12879 12880 12881 12882 12883 12884 12885 12886 12887 12888 12889 12890 12891 12892 12893 12894 12895 12896 12897 12898 12899 12900 12901 12902 12903 12904 12905 12906 12907 12908 12909 12910 12911 12912 12913 12914 12915 12916 12917 12918 12919 12920 12921 12922 12923 12924 12925 12926 12927 12928 12929 12930 12931 12932 12933 12934 12935 12936 12937 12938 12939 12940 12941 12942 12943 12944 12945 12946 12947 12948 12949 12950 12951 12952 12953 12954 12955 12956 12957 12958 12959 12960 12961 12962 12963 12964 12965 12966 12967 12968 12969 12970 12971 12972 12973 12974 12975 12976 12977 12978 12979 12980 12981 12982 12983 12984 12985 12986 12987 12988 12989 12990 12991 12992 12993 12994 12995 12996 12997 12998 12999 13000 13001 13002 13003 13004 13005 13006 13007 13008 13009 13010 13011 13012 13013 13014 13015 13016 13017 13018 13019 13020 13021 13022 13023 13024 13025 13026 13027 13028 13029 13030 13031 13032 13033 13034 13035 13036 13037 13038 13039 13040 13041 13042 13043 13044 13045 13046 13047 13048 13049 13050 13051 13052 13053 13054 13055 13056 13057 13058 13059 13060 13061 13062 13063 13064 13065 13066 13067 13068 13069 13070 13071 13072 13073 13074 13075 13076 13077 13078 13079 13080 13081 13082 13083 13084 13085 13086 13087 13088 13089 13090 13091 13092 13093 13094 13095 13096 13097 13098 13099 13100 13101 13102 13103 13104 13105 13106 13107 13108 13109 13110 13111 13112 13113 13114 13115 13116 13117 13118 13119 13120 13121 13122 13123 13124 13125 13126 13127 13128 13129 13130 13131 13132 13133 13134 13135 13136 13137 13138 13139 13140 13141 13142 13143 13144 13145 13146 13147 13148 13149 13150 13151 13152 13153 13154 13155 13156 13157 13158 13159 13160 13161 13162 13163 13164 13165 13166 13167 13168 13169 13170 13171 13172 13173 13174 13175 13176 13177 13178 13179 13180 13181 13182 13183 13184 13185 13186 13187 13188 13189 13190 13191 13192 13193 13194 13195 13196 13197 13198 13199 13200 13201 13202 13203 13204 13205 13206 13207 13208 13209 13210 13211 13212 13213 13214 13215 13216 13217 13218 13219 13220 13221 13222 13223 13224 13225 13226 13227 13228 13229 13230 13231 13232 13233 13234 13235 13236 13237 13238 13239 13240 13241 13242 13243 13244 13245 13246 13247 13248 13249 13250 13251 13252 13253 13254 13255 13256 13257 13258 13259 13260 13261 13262 13263 13264 13265 13266 13267 13268 13269 13270 13271 13272 13273 13274 13275 13276 13277 13278 13279 13280 13281 13282 13283 13284 13285 13286 13287 13288 13289 13290 13291 13292 13293 13294 13295 13296 13297 13298 13299 13300 13301 13302 13303 13304 13305 13306 13307 13308 13309 13310 13311 13312 13313 13314 13315 13316 13317 13318 13319 13320 13321 13322 13323 13324 13325 13326 13327 13328 13329 13330 13331 13332 13333 13334 13335 13336 13337 13338 13339 13340 13341 13342 13343 13344 13345 13346 13347 13348 13349 13350 13351 13352 13353 13354 13355 13356 13357 13358 13359 13360 13361 13362 13363 13364 13365 13366 13367 13368 13369 13370 13371 13372 13373 13374 13375 13376 13377 13378 13379 13380 13381 13382 13383 13384 13385 13386 13387 13388 13389 13390 13391 13392 13393 13394 13395 13396 13397 13398 13399 13400 13401 13402 13403 13404 13405 13406 13407 13408 13409 13410 13411 13412 13413 13414 13415 13416 13417 13418 13419 13420 13421 13422 13423 13424 13425 13426 13427 13428 13429 13430 13431 13432 13433 13434 13435 13436 13437 13438 13439 13440 13441 13442 13443 13444 13445 13446 13447 13448 13449 13450 13451 13452 13453 13454 13455 13456 13457 13458 13459 13460 13461 13462 13463 13464 13465 13466 13467 13468 13469 13470 13471 13472 13473 13474 13475 13476 13477 13478 13479 13480 13481 13482 13483 13484 13485 13486 13487 13488 13489 13490 13491 13492 13493 13494 13495 13496 13497 13498 13499 13500 13501 13502 13503 13504 13505 13506 13507 13508 13509 13510 13511 13512 13513 13514 13515 13516 13517 13518 13519 13520 13521 13522 13523 13524 13525 13526 13527 13528 13529 13530 13531 13532 13533 13534 13535 13536 13537 13538 13539 13540 13541 13542 13543 13544 13545 13546 13547 13548 13549 13550 13551 13552 13553 13554 13555 13556 13557 13558 13559 13560 13561 13562 13563 13564 13565 13566 13567 13568 13569 13570 13571 13572 13573 13574 13575 13576 13577 13578 13579 13580 13581 13582 13583 13584 13585 13586 13587 13588 13589 13590 13591 13592 13593 13594 13595 13596 13597 13598 13599 13600 13601 13602 13603 13604 13605 13606 13607 13608 13609 13610 13611 13612 13613 13614 13615 13616 13617 13618 13619 13620 13621 13622 13623 13624 13625 13626 13627 13628 13629 13630 13631 13632 13633 13634 13635 13636 13637 13638 13639 13640 13641 13642 13643 13644 13645 13646 13647 13648 13649 13650 13651 13652 13653 13654 13655 13656 13657 13658 13659 13660 13661 13662 13663 13664 13665 13666 13667 13668 13669 13670 13671 13672 13673 13674 13675 13676 13677 13678 13679 13680 13681 13682 13683 13684 13685 13686 13687 13688 13689 13690 13691 13692 13693 13694 13695 13696 13697 13698 13699 13700 13701 13702 13703 13704 13705 13706 13707 13708 13709 13710 13711 13712 13713 13714 13715 13716 13717 13718 13719 13720 13721 13722 13723 13724 13725 13726 13727 13728 13729 13730 13731 13732 13733 13734 13735 13736 13737 13738 13739 13740 13741 13742 13743 13744 13745 13746 13747 13748 13749 13750 13751 13752 13753 13754 13755 13756 13757 13758 13759 13760 13761 13762 13763 13764 13765 13766 13767 13768 13769 13770 13771 13772 13773 13774 13775 13776 13777 13778 13779 13780 13781 13782 13783 13784 13785 13786 13787 13788 13789 13790 13791 13792 13793 13794 13795 13796 13797 13798 13799 13800 13801 13802 13803 13804 13805 13806 13807 13808 13809 13810 13811 13812 13813 13814 13815 13816 13817 13818 13819 13820 13821 13822 13823 13824 13825 13826 13827 13828 13829 13830 13831 13832 13833 13834 13835 13836 13837 13838 13839 13840 13841 13842 13843 13844 13845 13846 13847 13848 13849 13850 13851 13852 13853 13854 13855 13856 13857 13858 13859 13860 13861 13862 13863 13864 13865 13866 13867 13868 13869 13870 13871 13872 13873 13874 13875 13876 13877 13878 13879 13880 13881 13882 13883 13884 13885 13886 13887 13888 13889 13890 13891 13892 13893 13894 13895 13896 13897 13898 13899 13900 13901 13902 13903 13904 13905 13906 13907 13908 13909 13910 13911 13912 13913 13914 13915 13916 13917 13918 13919 13920 13921 13922 13923 13924 13925 13926 13927 13928 13929 13930 13931 13932 13933 13934 13935 13936 13937 13938 13939 13940 13941 13942 13943 13944 13945 13946 13947 13948 13949 13950 13951 13952 13953 13954 13955 13956 13957 13958 13959 13960 13961 13962 13963 13964 13965 13966 13967 13968 13969 13970 13971 13972 13973 13974 13975 13976 13977 13978 13979 13980 13981 13982 13983 13984 13985 13986 13987 13988 13989 13990 13991 13992 13993 13994 13995 13996 13997 13998 13999 14000 14001 14002 14003 14004 14005 14006 14007 14008 14009 14010 14011 14012 14013 14014 14015 14016 14017 14018 14019 14020 14021 14022 14023 14024 14025 14026 14027 14028 14029 14030 14031 14032 14033 14034 14035 14036 14037 14038 14039 14040 14041 14042 14043 14044 14045 14046 14047 14048 14049 14050 14051 14052 14053 14054 14055 14056 14057 14058 14059 14060 14061 14062 14063 14064 14065 14066 14067 14068 14069 14070 14071 14072 14073 14074 14075 14076 14077 14078 14079 14080 14081 14082 14083 14084 14085 14086 14087 14088 14089 14090 14091 14092 14093 14094 14095 14096 14097 14098 14099 14100 14101 14102 14103 14104 14105 14106 14107 14108 14109 14110 14111 14112 14113 14114 14115 14116 14117 14118 14119 14120 14121 14122 14123 14124 14125 14126 14127 14128 14129 14130 14131 14132 14133 14134 14135 14136 14137 14138 14139 14140 14141 14142 14143 14144 14145 14146 14147 14148 14149 14150 14151 14152 14153 14154 14155 14156 14157 14158 14159 14160 14161 14162 14163 14164 14165 14166 14167 14168 14169 14170 14171 14172 14173 14174 14175 14176 14177 14178 14179 14180 14181 14182 14183 14184 14185 14186 14187 14188 14189 14190 14191 14192 14193 14194 14195 14196 14197 14198 14199 14200 14201 14202 14203 14204 14205 14206 14207 14208 14209 14210 14211 14212 14213 14214 14215 14216 14217 14218 14219 14220 14221 14222 14223 14224 14225 14226 14227 14228 14229 14230 14231 14232 14233 14234 14235 14236 14237 14238 14239 14240 14241 14242 14243 14244 14245 14246 14247 14248 14249 14250 14251 14252 14253 14254 14255 14256 14257 14258 14259 14260 14261 14262 14263 14264 14265 14266 14267 14268 14269 14270 14271 14272 14273 14274 14275 14276 14277 14278 14279 14280 14281 14282 14283 14284 14285 14286 14287 14288 14289 14290 14291 14292 14293 14294 14295 14296 14297 14298 14299 14300 14301 14302 14303 14304 14305 14306 14307 14308 14309 14310 14311 14312 14313 14314 14315 14316 14317 14318 14319 14320 14321 14322 14323 14324 14325 14326 14327 14328 14329 14330 14331 14332 14333 14334 14335 14336 14337 14338 14339 14340 14341 14342 14343 14344 14345 14346 14347 14348 14349 14350 14351 14352 14353 14354 14355 14356 14357 14358 14359 14360 14361 14362 14363 14364 14365 14366 14367 14368 14369 14370 14371 14372 14373 14374 14375 14376 14377 14378 14379 14380 14381 14382 14383 14384 14385 14386 14387 14388 14389 14390 14391 14392 14393 14394 14395 14396 14397 14398 14399 14400 14401 14402 14403 14404 14405 14406 14407 14408 14409 14410 14411 14412 14413 14414 14415 14416 14417 14418 14419 14420 14421 14422 14423 14424 14425 14426 14427 14428 14429 14430 14431 14432 14433 14434 14435 14436 14437 14438 14439 14440 14441 14442 14443 14444 14445 14446 14447 14448 14449 14450 14451 14452 14453 14454 14455 14456 14457 14458 14459 14460 14461 14462 14463 14464 14465 14466 14467 14468 14469 14470 14471 14472 14473 14474 14475 14476 14477 14478 14479 14480 14481 14482 14483 14484 14485 14486 14487 14488 14489 14490 14491 14492 14493 14494 14495 14496 14497 14498 14499 14500 14501 14502 14503 14504 14505 14506 14507 14508 14509 14510 14511 14512 14513 14514 14515 14516 14517 14518 14519 14520 14521 14522 14523 14524 14525 14526 14527 14528 14529 14530 14531 14532 14533 14534 14535 14536 14537 14538 14539 14540 14541 14542 14543 14544 14545 14546 14547 14548 14549 14550 14551 14552 14553 14554 14555 14556 14557 14558 14559 14560 14561 14562 14563 14564 14565 14566 14567 14568 14569 14570 14571 14572 14573 14574 14575 14576 14577 14578 14579 14580 14581 14582 14583 14584 14585 14586 14587 14588 14589 14590 14591 14592 14593 14594 14595 14596 14597 14598 14599 14600 14601 14602 14603 14604 14605 14606 14607 14608 14609 14610 14611 14612 14613 14614 14615 14616 14617 14618 14619 14620 14621 14622 14623 14624 14625 14626 14627 14628 14629 14630 14631 14632 14633 14634 14635 14636 14637 14638 14639 14640 14641 14642 14643 14644 14645 14646 14647 14648 14649 14650 14651 14652 14653 14654 14655 14656 14657 14658 14659 14660 14661 14662 14663 14664 14665 14666 14667 14668 14669 14670 14671 14672 14673 14674 14675 14676 14677 14678 14679 14680 14681 14682 14683 14684 14685 14686 14687 14688 14689 14690 14691 14692 14693 14694 14695 14696 14697 14698 14699 14700 14701 14702 14703 14704 14705 14706 14707 14708 14709 14710 14711 14712 14713 14714 14715 14716 14717 14718 14719 14720 14721 14722 14723 14724 14725 14726 14727 14728 14729 14730 14731 14732 14733 14734 14735 14736 14737 14738 14739 14740 14741 14742 14743 14744 14745 14746 14747 14748 14749 14750 14751 14752 14753 14754 14755 14756 14757 14758 14759 14760 14761 14762 14763 14764 14765 14766 14767 14768 14769 14770 14771 14772 14773 14774 14775 14776 14777 14778 14779 14780 14781 14782 14783 14784 14785 14786 14787 14788 14789 14790 14791 14792 14793 14794 14795 14796 14797 14798 14799 14800 14801 14802 14803 14804 14805 14806 14807 14808 14809 14810 14811 14812 14813 14814 14815 14816 14817 14818 14819 14820 14821 14822 14823 14824 14825 14826 14827 14828 14829 14830 14831 14832 14833 14834 14835 14836 14837 14838 14839 14840 14841 14842 14843 14844 14845 14846 14847 14848 14849 14850 14851 14852 14853 14854 14855 14856 14857 14858 14859 14860 14861 14862 14863 14864 14865 14866 14867 14868 14869 14870 14871 14872 14873 14874 14875 14876 14877 14878 14879 14880 14881 14882 14883 14884 14885 14886 14887 14888 14889 14890 14891 14892 14893 14894 14895 14896 14897 14898 14899 14900 14901 14902 14903 14904 14905 14906 14907 14908 14909 14910 14911 14912 14913 14914 14915 14916 14917 14918 14919 14920 14921 14922 14923 14924 14925 14926 14927 14928 14929 14930 14931 14932 14933 14934 14935 14936 14937 14938 14939 14940 14941 14942 14943 14944 14945 14946 14947 14948 14949 14950 14951 14952 14953 14954 14955 14956 14957 14958 14959 14960 14961 14962 14963 14964 14965 14966 14967 14968 14969 14970 14971 14972 14973 14974 14975 14976 14977 14978 14979 14980 14981 14982 14983 14984 14985 14986 14987 14988 14989 14990 14991 14992 14993 14994 14995 14996 14997 14998 14999 15000 15001 15002 15003 15004 15005 15006 15007 15008 15009 15010 15011 15012 15013 15014 15015 15016 15017 15018 15019 15020 15021 15022 15023 15024 15025 15026 15027 15028 15029 15030 15031 15032 15033 15034 15035 15036 15037 15038 15039 15040 15041 15042 15043 15044 15045 15046 15047 15048 15049 15050 15051 15052 15053 15054 15055 15056 15057 15058 15059 15060 15061 15062 15063 15064 15065 15066 15067 15068 15069 15070 15071 15072 15073 15074 15075 15076 15077 15078 15079 15080 15081 15082 15083 15084 15085 15086 15087 15088 15089 15090 15091 15092 15093 15094 15095 15096 15097 15098 15099 15100 15101 15102 15103 15104 15105 15106 15107 15108 15109 15110 15111 15112 15113 15114 15115 15116 15117 15118 15119 15120 15121 15122 15123 15124 15125 15126 15127 15128 15129 15130 15131 15132 15133 15134 15135 15136 15137 15138 15139 15140 15141 15142 15143 15144 15145 15146 15147 15148 15149 15150 15151 15152 15153 15154 15155 15156 15157 15158 15159 15160 15161 15162 15163 15164 15165 15166 15167 15168 15169 15170 15171 15172 15173 15174 15175 15176 15177 15178 15179 15180 15181 15182 15183 15184 15185 15186 15187 15188 15189 15190 15191 15192 15193 15194 15195 15196 15197 15198 15199 15200 15201 15202 15203 15204 15205 15206 15207 15208 15209 15210 15211 15212 15213 15214 15215 15216 15217 15218 15219 15220 15221 15222 15223 15224 15225 15226 15227 15228 15229 15230 15231 15232 15233 15234 15235 15236 15237 15238 15239 15240 15241 15242 15243 15244 15245 15246 15247 15248 15249 15250 15251 15252 15253 15254 15255 15256 15257 15258 15259 15260 15261 15262 15263 15264 15265 15266 15267 15268 15269 15270 15271 15272 15273 15274 15275 15276 15277 15278 15279 15280 15281 15282 15283 15284 15285 15286 15287 15288 15289 15290 15291 15292 15293 15294 15295 15296 15297 15298 15299 15300 15301 15302 15303 15304 15305 15306 15307 15308 15309 15310 15311 15312 15313 15314 15315 15316 15317 15318 15319 15320 15321 15322 15323 15324 15325 15326 15327 15328 15329 15330 15331 15332 15333 15334 15335 15336 15337 15338 15339 15340 15341 15342 15343 15344 15345 15346 15347 15348 15349 15350 15351 15352 15353 15354 15355 15356 15357 15358 15359 15360 15361 15362 15363 15364 15365 15366 15367 15368 15369 15370 15371 15372 15373 15374 15375 15376 15377 15378 15379 15380 15381 15382 15383 15384 15385 15386 15387 15388 15389 15390 15391 15392 15393 15394 15395 15396 15397 15398 15399 15400 15401 15402 15403 15404 15405 15406 15407 15408 15409 15410 15411 15412 15413 15414 15415 15416 15417 15418 15419 15420 15421 15422 15423 15424 15425 15426 15427 15428 15429 15430 15431 15432 15433 15434 15435 15436 15437 15438 15439 15440 15441 15442 15443 15444 15445 15446 15447 15448 15449 15450 15451 15452 15453 15454 15455 15456 15457 15458 15459 15460 15461 15462 15463 15464 15465 15466 15467 15468 15469 15470 15471 15472 15473 15474 15475 15476 15477 15478 15479 15480 15481 15482 15483 15484 15485 15486 15487 15488 15489 15490 15491 15492 15493 15494 15495 15496 15497 15498 15499 15500 15501 15502 15503 15504 15505 15506 15507 15508 15509 15510 15511 15512 15513 15514 15515 15516 15517 15518 15519 15520 15521 15522 15523 15524 15525 15526 15527 15528 15529 15530 15531 15532 15533 15534 15535 15536 15537 15538 15539 15540 15541 15542 15543 15544 15545 15546 15547 15548 15549 15550 15551 15552 15553 15554 15555 15556 15557 15558 15559 15560 15561 15562 15563 15564 15565 15566 15567 15568 15569 15570 15571 15572 15573 15574 15575 15576 15577 15578 15579 15580 15581 15582 15583 15584 15585 15586 15587 15588 15589 15590 15591 15592 15593 15594 15595 15596 15597 15598 15599 15600 15601 15602 15603 15604 15605 15606 15607 15608 15609 15610 15611 15612 15613 15614 15615 15616 15617 15618 15619 15620 15621 15622 15623 15624 15625 15626 15627 15628 15629 15630 15631 15632 15633 15634 15635 15636 15637 15638 15639 15640 15641 15642 15643 15644 15645 15646 15647 15648 15649 15650 15651 15652 15653 15654 15655 15656 15657 15658 15659 15660 15661 15662 15663 15664 15665 15666 15667 15668 15669 15670 15671 15672 15673 15674 15675 15676 15677 15678 15679 15680 15681 15682 15683 15684 15685 15686 15687 15688 15689 15690 15691 15692 15693 15694 15695 15696 15697 15698 15699 15700 15701 15702 15703 15704 15705 15706 15707 15708 15709 15710 15711 15712 15713 15714 15715 15716 15717 15718 15719 15720 15721 15722 15723 15724 15725 15726 15727 15728 15729 15730 15731 15732 15733 15734 15735 15736 15737 15738 15739 15740 15741 15742 15743 15744 15745 15746 15747 15748 15749 15750 15751 15752 15753 15754 15755 15756 15757 15758 15759 15760 15761 15762 15763 15764 15765 15766 15767 15768 15769 15770 15771 15772 15773 15774 15775 15776 15777 15778 15779 15780 15781 15782 15783 15784 15785 15786 15787 15788 15789 15790 15791 15792 15793 15794 15795 15796 15797 15798 15799 15800 15801 15802 15803 15804 15805 15806 15807 15808 15809 15810 15811 15812 15813 15814 15815 15816 15817 15818 15819 15820 15821 15822 15823 15824 15825 15826 15827 15828 15829 15830 15831 15832 15833 15834 15835 15836 15837 15838 15839 15840 15841 15842 15843 15844 15845 15846 15847 15848 15849 15850 15851 15852 15853 15854 15855 15856 15857 15858 15859 15860 15861 15862 15863 15864 15865 15866 15867 15868 15869 15870 15871 15872 15873 15874 15875 15876 15877 15878 15879 15880 15881 15882 15883 15884 15885 15886 15887 15888 15889 15890 15891 15892 15893 15894 15895 15896 15897 15898 15899 15900 15901 15902 15903 15904 15905 15906 15907 15908 15909 15910 15911 15912 15913 15914 15915 15916 15917 15918 15919 15920 15921 15922 15923 15924 15925 15926 15927 15928 15929 15930 15931 15932 15933 15934 15935 15936 15937 15938 15939 15940 15941 15942 15943 15944 15945 15946 15947 15948 15949 15950 15951 15952 15953 15954 15955 15956 15957 15958 15959 15960 15961 15962 15963 15964 15965 15966 15967 15968 15969 15970 15971 15972 15973 15974 15975 15976 15977 15978 15979 15980 15981 15982 15983 15984 15985 15986 15987 15988 15989 15990 15991 15992 15993 15994 15995 15996 15997 15998 15999 16000 16001 16002 16003 16004 16005 16006 16007 16008 16009 16010 16011 16012 16013 16014 16015 16016 16017 16018 16019 16020 16021 16022 16023 16024 16025 16026 16027 16028 16029 16030 16031 16032 16033 16034 16035 16036 16037 16038 16039 16040 16041 16042 16043 16044 16045 16046 16047 16048 16049 16050 16051 16052 16053 16054 16055 16056 16057 16058 16059 16060 16061 16062 16063 16064 16065 16066 16067 16068 16069 16070 16071 16072 16073 16074 16075 16076 16077 16078 16079 16080 16081 16082 16083 16084 16085 16086 16087 16088 16089 16090 16091 16092 16093 16094 16095 16096 16097 16098 16099 16100 16101 16102 16103 16104 16105 16106 16107 16108 16109 16110 16111 16112 16113 16114 16115 16116 16117 16118 16119 16120 16121 16122 16123 16124 16125 16126 16127 16128 16129 16130 16131 16132 16133 16134 16135 16136 16137 16138 16139 16140 16141 16142 16143 16144 16145 16146 16147 16148 16149 16150 16151 16152 16153 16154 16155 16156 16157 16158 16159 16160 16161 16162 16163 16164 16165 16166 16167 16168 16169 16170 16171 16172 16173 16174 16175 16176 16177 16178 16179 16180 16181 16182 16183 16184 16185 16186 16187 16188 16189 16190 16191 16192 16193 16194 16195 16196 16197 16198 16199 16200 16201 16202 16203 16204 16205 16206 16207 16208 16209 16210 16211 16212 16213 16214 16215 16216 16217 16218 16219 16220 16221 16222 16223 16224 16225 16226 16227 16228 16229 16230 16231 16232 16233 16234 16235 16236 16237 16238 16239 16240 16241 16242 16243 16244 16245 16246 16247 16248 16249 16250 16251 16252 16253 16254 16255 16256 16257 16258 16259 16260 16261 16262 16263 16264 16265 16266 16267 16268 16269 16270 16271 16272 16273 16274 16275 16276 16277 16278 16279 16280 16281 16282 16283 16284 16285 16286 16287 16288 16289 16290 16291 16292 16293 16294 16295 16296 16297 16298 16299 16300 16301 16302 16303 16304 16305 16306 16307 16308 16309 16310 16311 16312 16313 16314 16315 16316 16317 16318 16319 16320 16321 16322 16323 16324 16325 16326 16327 16328 16329 16330 16331 16332 16333 16334 16335 16336 16337 16338 16339 16340 16341 16342 16343 16344 16345 16346 16347 16348 16349 16350 16351 16352 16353 16354 16355 16356 16357 16358 16359 16360 16361 16362 16363 16364 16365 16366 16367 16368 16369 16370 16371 16372 16373 16374 16375 16376 16377 16378 16379 16380 16381 16382 16383 16384 16385 16386 16387 16388 16389 16390 16391 16392 16393 16394 16395 16396 16397 16398 16399 16400 16401 16402 16403 16404 16405 16406 16407 16408 16409 16410 16411 16412 16413 16414 16415 16416 16417 16418 16419 16420 16421 16422 16423 16424 16425 16426 16427 16428 16429 16430 16431 16432 16433 16434 16435 16436 16437 16438 16439 16440 16441 16442 16443 16444 16445 16446 16447 16448 16449 16450 16451 16452 16453 16454 16455 16456 16457 16458 16459 16460 16461 16462 16463 16464 16465 16466 16467 16468 16469 16470 16471 16472 16473 16474 16475 16476 16477 16478 16479 16480 16481 16482 16483 16484 16485 16486 16487 16488 16489 16490 16491 16492 16493 16494 16495 16496 16497 16498 16499 16500 16501 16502 16503 16504 16505 16506 16507 16508 16509 16510 16511 16512 16513 16514 16515 16516 16517 16518 16519 16520 16521 16522 16523 16524 16525 16526 16527 16528 16529 16530 16531 16532 16533 16534 16535 16536 16537 16538 16539 16540 16541 16542 16543 16544 16545 16546 16547 16548 16549 16550 16551 16552 16553 16554 16555 16556 16557 16558 16559 16560 16561 16562 16563 16564 16565 16566 16567 16568 16569 16570 16571 16572 16573 16574 16575 16576 16577 16578 16579 16580 16581 16582 16583 16584 16585 16586 16587 16588 16589 16590 16591 16592 16593 16594 16595 16596 16597 16598 16599 16600 16601 16602 16603 16604 16605 16606 16607 16608 16609 16610 16611 16612 16613 16614 16615 16616 16617 16618 16619 16620 16621 16622 16623 16624 16625 16626 16627 16628 16629 16630 16631 16632 16633 16634 16635 16636 16637 16638 16639 16640 16641 16642 16643 16644 16645 16646 16647 16648 16649 16650 16651 16652 16653 16654 16655 16656 16657 16658 16659 16660 16661 16662 16663 16664 16665 16666 16667 16668 16669 16670 16671 16672 16673 16674 16675 16676 16677 16678 16679 16680 16681 16682 16683 16684 16685 16686 16687 16688 16689 16690 16691 16692 16693 16694 16695 16696 16697 16698 16699 16700 16701 16702 16703 16704 16705 16706 16707 16708 16709 16710 16711 16712 16713 16714 16715 16716 16717 16718 16719 16720 16721 16722 16723 16724 16725 16726 16727 16728 16729 16730 16731 16732 16733 16734 16735 16736 16737 16738 16739 16740 16741 16742 16743 16744 16745 16746 16747 16748 16749 16750 16751 16752 16753 16754 16755 16756 16757 16758 16759 16760 16761 16762 16763 16764 16765 16766 16767 16768 16769 16770 16771 16772 16773 16774 16775 16776 16777 16778 16779 16780 16781 16782 16783 16784 16785 16786 16787 16788 16789 16790 16791 16792 16793 16794 16795 16796 16797 16798 16799 16800 16801 16802 16803 16804 16805 16806 16807 16808 16809 16810 16811 16812 16813 16814 16815 16816 16817 16818 16819 16820 16821 16822 16823 16824 16825 16826 16827 16828 16829 16830 16831 16832 16833 16834 16835 16836 16837 16838 16839 16840 16841 16842 16843 16844 16845 16846 16847 16848 16849 16850 16851 16852 16853 16854 16855 16856 16857 16858 16859 16860 16861 16862 16863 16864 16865 16866 16867 16868 16869 16870 16871 16872 16873 16874 16875 16876 16877 16878 16879 16880 16881 16882 16883 16884 16885 16886 16887 16888 16889 16890 16891 16892 16893 16894 16895 16896 16897 16898 16899 16900 16901 16902 16903 16904 16905 16906 16907 16908 16909 16910 16911 16912 16913 16914 16915 16916 16917 16918 16919 16920 16921 16922 16923 16924 16925 16926 16927 16928 16929 16930 16931 16932 16933 16934 16935 16936 16937 16938 16939 16940 16941 16942 16943 16944 16945 16946 16947 16948 16949 16950 16951 16952 16953 16954 16955 16956 16957 16958 16959 16960 16961 16962 16963 16964 16965 16966 16967 16968 16969 16970 16971 16972 16973 16974 16975 16976 16977 16978 16979 16980 16981 16982 16983 16984 16985 16986 16987 16988 16989 16990 16991 16992 16993 16994 16995 16996 16997 16998 16999 17000 17001 17002 17003 17004 17005 17006 17007 17008 17009 17010 17011 17012 17013 17014 17015 17016 17017 17018 17019 17020 17021 17022 17023 17024 17025 17026 17027 17028 17029 17030 17031 17032 17033 17034 17035 17036 17037 17038 17039 17040 17041 17042 17043 17044 17045 17046 17047 17048 17049 17050 17051 17052 17053 17054 17055 17056 17057 17058 17059 17060 17061 17062 17063 17064 17065 17066 17067 17068 17069 17070 17071 17072 17073 17074 17075 17076 17077 17078 17079 17080 17081 17082 17083 17084 17085 17086 17087 17088 17089 17090 17091 17092 17093 17094 17095 17096 17097 17098 17099 17100 17101 17102 17103 17104 17105 17106 17107 17108 17109 17110 17111 17112 17113 17114 17115 17116 17117 17118 17119 17120 17121 17122 17123 17124 17125 17126 17127 17128 17129 17130 17131 17132 17133 17134 17135 17136 17137 17138 17139 17140 17141 17142 17143 17144 17145 17146 17147 17148 17149 17150 17151 17152 17153 17154 17155 17156 17157 17158 17159 17160 17161 17162 17163 17164 17165 17166 17167 17168 17169 17170 17171 17172 17173 17174 17175 17176 17177 17178 17179 17180 17181 17182 17183 17184 17185 17186 17187 17188 17189 17190 17191 17192 17193 17194 17195 17196 17197 17198 17199 17200 17201 17202 17203 17204 17205 17206 17207 17208 17209 17210 17211 17212 17213 17214 17215 17216 17217 17218 17219 17220 17221 17222 17223 17224 17225 17226 17227 17228 17229 17230 17231 17232 17233 17234 17235 17236 17237 17238 17239 17240 17241 17242 17243 17244 17245 17246 17247 17248 17249 17250 17251 17252 17253 17254 17255 17256 17257 17258 17259 17260 17261 17262 17263 17264 17265 17266 17267 17268 17269 17270 17271 17272 17273 17274 17275 17276 17277 17278 17279 17280 17281 17282 17283 17284 17285 17286 17287 17288 17289 17290 17291 17292 17293 17294 17295 17296 17297 17298 17299 17300 17301 17302 17303 17304 17305 17306 17307 17308 17309 17310 17311 17312 17313 17314 17315 17316 17317 17318 17319 17320 17321 17322 17323 17324 17325 17326 17327 17328 17329 17330 17331 17332 17333 17334 17335 17336 17337 17338 17339 17340 17341 17342 17343 17344 17345 17346 17347 17348 17349 17350 17351 17352 17353 17354 17355 17356 17357 17358 17359 17360 17361 17362 17363 17364 17365 17366 17367 17368 17369 17370 17371 17372 17373 17374 17375 17376 17377 17378 17379 17380 17381 17382 17383 17384 17385 17386 17387 17388 17389 17390 17391 17392 17393 17394 17395 17396 17397 17398 17399 17400 17401 17402 17403 17404 17405 17406 17407 17408 17409 17410 17411 17412 17413 17414 17415 17416 17417 17418 17419 17420 17421 17422 17423 17424 17425 17426 17427 17428 17429 17430 17431 17432 17433 17434 17435 17436 17437 17438 17439 17440 17441 17442 17443 17444 17445 17446 17447 17448 17449 17450 17451 17452 17453 17454 17455 17456 17457 17458 17459 17460 17461 17462 17463 17464 17465 17466 17467 17468 17469 17470 17471 17472 17473 17474 17475 17476 17477 17478 17479 17480 17481 17482 17483 17484 17485 17486 17487 17488 17489 17490 17491 17492 17493 17494 17495 17496 17497 17498 17499 17500 17501 17502 17503 17504 17505 17506 17507 17508 17509 17510 17511 17512 17513 17514 17515 17516 17517 17518 17519 17520 17521 17522 17523 17524 17525 17526 17527 17528 17529 17530 17531 17532 17533 17534 17535 17536 17537 17538 17539 17540 17541 17542 17543 17544 17545 17546 17547 17548 17549 17550 17551 17552 17553 17554 17555 17556 17557 17558 17559 17560 17561 17562 17563 17564 17565 17566 17567 17568 17569 17570 17571 17572 17573 17574 17575 17576 17577 17578 17579 17580 17581 17582 17583 17584 17585 17586 17587 17588 17589 17590 17591 17592 17593 17594 17595 17596 17597 17598 17599 17600 17601 17602 17603 17604 17605 17606 17607 17608 17609 17610 17611 17612 17613 17614 17615 17616 17617 17618 17619 17620 17621 17622 17623 17624 17625 17626 17627 17628 17629 17630 17631 17632 17633 17634 17635 17636 17637 17638 17639 17640 17641 17642 17643 17644 17645 17646 17647 17648 17649 17650 17651 17652 17653 17654 17655 17656 17657 17658 17659 17660 17661 17662 17663 17664 17665 17666 17667 17668 17669 17670 17671 17672 17673 17674 17675 17676 17677 17678 17679 17680 17681 17682 17683 17684 17685 17686 17687 17688 17689 17690 17691 17692 17693 17694 17695 17696 17697 17698 17699 17700 17701 17702 17703 17704 17705 17706 17707 17708 17709 17710 17711 17712 17713 17714 17715 17716 17717 17718 17719 17720 17721 17722 17723 17724 17725 17726 17727 17728 17729 17730 17731 17732 17733 17734 17735 17736 17737 17738 17739 17740 17741 17742 17743 17744 17745 17746 17747 17748 17749 17750 17751 17752 17753 17754 17755 17756 17757 17758 17759 17760 17761 17762 17763 17764 17765 17766 17767 17768 17769 17770 17771 17772 17773 17774 17775 17776 17777 17778 17779 17780 17781 17782 17783 17784 17785 17786 17787 17788 17789 17790 17791 17792 17793 17794 17795 17796 17797 17798 17799 17800 17801 17802 17803 17804 17805 17806 17807 17808 17809 17810 17811 17812 17813 17814 17815 17816 17817 17818 17819 17820 17821 17822 17823 17824 17825 17826 17827 17828 17829 17830 17831 17832 17833 17834 17835 17836 17837 17838 17839 17840 17841 17842 17843 17844 17845 17846 17847 17848 17849 17850 17851 17852 17853 17854 17855 17856 17857 17858 17859 17860 17861 17862 17863 17864 17865 17866 17867 17868 17869 17870 17871 17872 17873 17874 17875 17876 17877 17878 17879 17880 17881 17882 17883 17884 17885 17886 17887 17888 17889 17890 17891 17892 17893 17894 17895 17896 17897 17898 17899 17900 17901 17902 17903 17904 17905 17906 17907 17908 17909 17910 17911 17912 17913 17914 17915 17916 17917 17918 17919 17920 17921 17922 17923 17924 17925 17926 17927 17928 17929 17930 17931 17932 17933 17934 17935 17936 17937 17938 17939 17940 17941 17942 17943 17944 17945 17946 17947 17948 17949 17950 17951 17952 17953 17954 17955 17956 17957 17958 17959 17960 17961 17962 17963 17964 17965 17966 17967 17968 17969 17970 17971 17972 17973 17974 17975 17976 17977 17978 17979 17980 17981 17982 17983 17984 17985 17986 17987 17988 17989 17990 17991 17992 17993 17994 17995 17996 17997 17998 17999 18000 18001 18002 18003 18004 18005 18006 18007 18008 18009 18010 18011 18012 18013 18014 18015 18016 18017 18018 18019 18020 18021 18022 18023 18024 18025 18026 18027 18028 18029 18030 18031 18032 18033 18034 18035 18036 18037 18038 18039 18040 18041 18042 18043 18044 18045 18046 18047 18048 18049 18050 18051 18052 18053 18054 18055 18056 18057 18058 18059 18060 18061 18062 18063 18064 18065 18066 18067 18068 18069 18070 18071 18072 18073 18074 18075 18076 18077 18078 18079 18080 18081 18082 18083 18084 18085 18086 18087 18088 18089 18090 18091 18092 18093 18094 18095 18096 18097 18098 18099 18100 18101 18102 18103 18104 18105 18106 18107 18108 18109 18110 18111 18112 18113 18114 18115 18116 18117 18118 18119 18120 18121 18122 18123 18124 18125 18126 18127 18128 18129 18130 18131 18132 18133 18134 18135 18136 18137 18138 18139 18140 18141 18142 18143 18144 18145 18146 18147 18148 18149 18150 18151 18152 18153 18154 18155 18156 18157 18158 18159 18160 18161 18162 18163 18164 18165 18166 18167 18168 18169 18170 18171 18172 18173 18174 18175 18176 18177 18178 18179 18180 18181 18182 18183 18184 18185 18186 18187 18188 18189 18190 18191 18192 18193 18194 18195 18196 18197 18198 18199 18200 18201 18202 18203 18204 18205 18206 18207 18208 18209 18210 18211 18212 18213 18214 18215 18216 18217 18218 18219 18220 18221 18222 18223 18224 18225 18226 18227 18228 18229 18230 18231 18232 18233 18234 18235 18236 18237 18238 18239 18240 18241 18242 18243 18244 18245 18246 18247 18248 18249 18250 18251 18252 18253 18254 18255 18256 18257 18258 18259 18260 18261 18262 18263 18264 18265 18266 18267 18268 18269 18270 18271 18272 18273 18274 18275 18276 18277 18278 18279 18280 18281 18282 18283 18284 18285 18286 18287 18288 18289 18290 18291 18292 18293 18294 18295 18296 18297 18298 18299 18300 18301 18302 18303 18304 18305 18306 18307 18308 18309 18310 18311 18312 18313 18314 18315 18316 18317 18318 18319 18320 18321 18322 18323 18324 18325 18326 18327 18328 18329 18330 18331 18332 18333 18334 18335 18336 18337 18338 18339 18340 18341 18342 18343 18344 18345 18346 18347 18348 18349 18350 18351 18352 18353 18354 18355 18356 18357 18358 18359 18360 18361 18362 18363 18364 18365 18366 18367 18368 18369 18370 18371 18372 18373 18374 18375 18376 18377 18378 18379 18380 18381 18382 18383 18384 18385 18386 18387 18388 18389 18390 18391 18392 18393 18394 18395 18396 18397 18398 18399 18400 18401 18402 18403 18404 18405 18406 18407 18408 18409 18410 18411 18412 18413 18414 18415 18416 18417 18418 18419 18420 18421 18422 18423 18424 18425 18426 18427 18428 18429 18430 18431 18432 18433 18434 18435 18436 18437 18438 18439 18440 18441 18442 18443 18444 18445 18446 18447 18448 18449 18450 18451 18452 18453 18454 18455 18456 18457 18458 18459 18460 18461 18462 18463 18464 18465 18466 18467 18468 18469 18470 18471 18472 18473 18474 18475 18476 18477 18478 18479 18480 18481 18482 18483 18484 18485 18486 18487 18488 18489 18490 18491 18492 18493 18494 18495 18496 18497 18498 18499 18500 18501 18502 18503 18504 18505 18506 18507 18508 18509 18510 18511 18512 18513 18514 18515 18516 18517 18518 18519 18520 18521 18522 18523 18524 18525 18526 18527 18528 18529 18530 18531 18532 18533 18534 18535 18536 18537 18538 18539 18540 18541 18542 18543 18544 18545 18546 18547 18548 18549 18550 18551 18552 18553 18554 18555 18556 18557 18558 18559 18560 18561 18562 18563 18564 18565 18566 18567 18568 18569 18570 18571 18572 18573 18574 18575 18576 18577 18578 18579 18580 18581 18582 18583 18584 18585 18586 18587 18588 18589 18590 18591 18592 18593 18594 18595 18596 18597 18598 18599 18600 18601 18602 18603 18604 18605 18606 18607 18608 18609 18610 18611 18612 18613 18614 18615 18616 18617 18618 18619 18620 18621 18622 18623 18624 18625 18626 18627 18628 18629 18630 18631 18632 18633 18634 18635 18636 18637 18638 18639 18640 18641 18642 18643 18644 18645 18646 18647 18648 18649 18650 18651 18652 18653 18654 18655 18656 18657 18658 18659 18660 18661 18662 18663 18664 18665 18666 18667 18668 18669 18670 18671 18672 18673 18674 18675 18676 18677 18678 18679 18680 18681 18682 18683 18684 18685 18686 18687 18688 18689 18690 18691 18692 18693 18694 18695 18696 18697 18698 18699 18700 18701 18702 18703 18704 18705 18706 18707 18708 18709 18710 18711 18712 18713 18714 18715 18716 18717 18718 18719 18720 18721 18722 18723 18724 18725 18726 18727 18728 18729 18730 18731 18732 18733 18734 18735 18736 18737 18738 18739 18740 18741 18742 18743 18744 18745 18746 18747 18748 18749 18750 18751 18752 18753 18754 18755 18756 18757 18758 18759 18760 18761 18762 18763 18764 18765 18766 18767 18768 18769 18770 18771 18772 18773 18774 18775 18776 18777 18778 18779 18780 18781 18782 18783 18784 18785 18786 18787 18788 18789 18790 18791 18792 18793 18794 18795 18796 18797 18798 18799 18800 18801 18802 18803 18804 18805 18806 18807 18808 18809 18810 18811 18812 18813 18814 18815 18816 18817 18818 18819 18820 18821 18822 18823 18824 18825 18826 18827 18828 18829 18830 18831 18832 18833 18834 18835 18836 18837 18838 18839 18840 18841 18842 18843 18844 18845 18846 18847 18848 18849 18850 18851 18852 18853 18854 18855 18856 18857 18858 18859 18860 18861 18862 18863 18864 18865 18866 18867 18868 18869 18870 18871 18872 18873 18874 18875 18876 18877 18878 18879 18880 18881 18882 18883 18884 18885 18886 18887 18888 18889 18890 18891 18892 18893 18894 18895 18896 18897 18898 18899 18900 18901 18902 18903 18904 18905 18906 18907 18908 18909 18910 18911 18912 18913 18914 18915 18916 18917 18918 18919 18920 18921 18922 18923 18924 18925 18926 18927 18928 18929 18930 18931 18932 18933 18934 18935 18936 18937 18938 18939 18940 18941 18942 18943 18944 18945 18946 18947 18948 18949 18950 18951 18952 18953 18954 18955 18956 18957 18958 18959 18960 18961 18962 18963 18964 18965 18966 18967 18968 18969 18970 18971 18972 18973 18974 18975 18976 18977 18978 18979 18980 18981 18982 18983 18984 18985 18986 18987 18988 18989 18990 18991 18992 18993 18994 18995 18996 18997 18998 18999 19000 19001 19002 19003 19004 19005 19006 19007 19008 19009 19010 19011 19012 19013 19014 19015 19016 19017 19018 19019 19020 19021 19022 19023 19024 19025 19026 19027 19028 19029 19030 19031 19032 19033 19034 19035 19036 19037 19038 19039 19040 19041 19042 19043 19044 19045 19046 19047 19048 19049 19050 19051 19052 19053 19054 19055 19056 19057 19058 19059 19060 19061 19062 19063 19064 19065 19066 19067 19068 19069 19070 19071 19072 19073 19074 19075 19076 19077 19078 19079 19080 19081 19082 19083 19084 19085 19086 19087 19088 19089 19090 19091 19092 19093 19094 19095 19096 19097 19098 19099 19100 19101 19102 19103 19104 19105 19106 19107 19108 19109 19110 19111 19112 19113 19114 19115 19116 19117 19118 19119 19120 19121 19122 19123 19124 19125 19126 19127 19128 19129 19130 19131 19132 19133 19134 19135 19136 19137 19138 19139 19140 19141 19142 19143 19144 19145 19146 19147 19148 19149 19150 19151 19152 19153 19154 19155 19156 19157 19158 19159 19160 19161 19162 19163 19164 19165 19166 19167 19168 19169 19170 19171 19172 19173 19174 19175 19176 19177 19178 19179 19180 19181 19182 19183 19184 19185 19186 19187 19188 19189 19190 19191 19192 19193 19194 19195 19196 19197 19198 19199 19200 19201 19202 19203 19204 19205 19206 19207 19208 19209 19210 19211 19212 19213 19214 19215 19216 19217 19218 19219 19220 19221 19222 19223 19224 19225 19226 19227 19228 19229 19230 19231 19232 19233 19234 19235 19236 19237 19238 19239 19240 19241 19242 19243 19244 19245 19246 19247 19248 19249 19250 19251 19252 19253 19254 19255 19256 19257 19258 19259 19260 19261 19262 19263 19264 19265 19266 19267 19268 19269 19270 19271 19272 19273 19274 19275 19276 19277 19278 19279 19280 19281 19282 19283 19284 19285 19286 19287 19288 19289 19290 19291 19292 19293 19294 19295 19296 19297 19298 19299 19300 19301 19302 19303 19304 19305 19306 19307 19308 19309 19310 19311 19312 19313 19314 19315 19316 19317 19318 19319 19320 19321 19322 19323 19324 19325 19326 19327 19328 19329 19330 19331 19332 19333 19334 19335 19336 19337 19338 19339 19340 19341 19342 19343 19344 19345 19346 19347 19348 19349 19350 19351 19352 19353 19354 19355 19356 19357 19358 19359 19360 19361 19362 19363 19364 19365 19366 19367 19368 19369 19370 19371 19372 19373 19374 19375 19376 19377 19378 19379 19380 19381 19382 19383 19384 19385 19386 19387 19388 19389 19390 19391 19392 19393 19394 19395 19396 19397 19398 19399 19400 19401 19402 19403 19404 19405 19406 19407 19408 19409 19410 19411 19412 19413 19414 19415 19416 19417 19418 19419 19420 19421 19422 19423 19424 19425 19426 19427 19428 19429 19430 19431 19432 19433 19434 19435 19436 19437 19438 19439 19440 19441 19442 19443 19444 19445 19446 19447 19448 19449 19450 19451 19452 19453 19454 19455 19456 19457 19458 19459 19460 19461 19462 19463 19464 19465 19466 19467 19468 19469 19470 19471 19472 19473 19474 19475 19476 19477 19478 19479 19480 19481 19482 19483 19484 19485 19486 19487 19488 19489 19490 19491 19492 19493 19494 19495 19496 19497 19498 19499 19500 19501 19502 19503 19504 19505 19506 19507 19508 19509 19510 19511 19512 19513 19514 19515 19516 19517 19518 19519 19520 19521 19522 19523 19524 19525 19526 19527 19528 19529 19530 19531 19532 19533 19534 19535 19536 19537 19538 19539 19540 19541 19542 19543 19544 19545 19546 19547 19548 19549 19550 19551 19552 19553 19554 19555 19556 19557 19558 19559 19560 19561 19562 19563 19564 19565 19566 19567 19568 19569 19570 19571 19572 19573 19574 19575 19576 19577 19578 19579 19580 19581 19582 19583 19584 19585 19586 19587 19588 19589 19590 19591 19592 19593 19594 19595 19596 19597 19598 19599 19600 19601 19602 19603 19604 19605 19606 19607 19608 19609 19610 19611 19612 19613 19614 19615 19616 19617 19618 19619 19620 19621 19622 19623 19624 19625 19626 19627 19628 19629 19630 19631 19632 19633 19634 19635 19636 19637 19638 19639 19640 19641 19642 19643 19644 19645 19646 19647 19648 19649 19650 19651 19652 19653 19654 19655 19656 19657 19658 19659 19660 19661 19662 19663 19664 19665 19666 19667 19668 19669 19670 19671 19672 19673 19674 19675 19676 19677 19678 19679 19680 19681 19682 19683 19684 19685 19686 19687 19688 19689 19690 19691 19692 19693 19694 19695 19696 19697 19698 19699 19700 19701 19702 19703 19704 19705 19706 19707 19708 19709 19710 19711 19712 19713 19714 19715 19716 19717 19718 19719 19720 19721 19722 19723 19724 19725 19726 19727 19728 19729 19730 19731 19732 19733 19734 19735 19736 19737 19738 19739 19740 19741 19742 19743 19744 19745 19746 19747 19748 19749 19750 19751 19752 19753 19754 19755 19756 19757 19758 19759 19760 19761 19762 19763 19764 19765 19766 19767 19768 19769 19770 19771 19772 19773 19774 19775 19776 19777 19778 19779 19780 19781 19782 19783 19784 19785 19786 19787 19788 19789 19790 19791 19792 19793 19794 19795 19796 19797 19798 19799 19800 19801 19802 19803 19804 19805 19806 19807 19808 19809 19810 19811 19812 19813 19814 19815 19816 19817 19818 19819 19820 19821 19822 19823 19824 19825 19826 19827 19828 19829 19830 19831 19832 19833 19834 19835 19836 19837 19838 19839 19840 19841 19842 19843 19844 19845 19846 19847 19848 19849 19850 19851 19852 19853 19854 19855 19856 19857 19858 19859 19860 19861 19862 19863 19864 19865 19866 19867 19868 19869 19870 19871 19872 19873 19874 19875 19876 19877 19878 19879 19880 19881 19882 19883 19884 19885 19886 19887 19888 19889 19890 19891 19892 19893 19894 19895 19896 19897 19898 19899 19900 19901 19902 19903 19904 19905 19906 19907 19908 19909 19910 19911 19912 19913 19914 19915 19916 19917 19918 19919 19920 19921 19922 19923 19924 19925 19926 19927 19928 19929 19930 19931 19932 19933 19934 19935 19936 19937 19938 19939 19940 19941 19942 19943 19944 19945 19946 19947 19948 19949 19950 19951 19952 19953 19954 19955 19956 19957 19958 19959 19960 19961 19962 19963 19964 19965 19966 19967 19968 19969 19970 19971 19972 19973 19974 19975 19976 19977 19978 19979 19980 19981 19982 19983 19984 19985 19986 19987 19988 19989 19990 19991 19992 19993 19994 19995 19996 19997 19998 19999 20000 20001 20002 20003 20004 20005 20006 20007 20008 20009 20010 20011 20012 20013 20014 20015 20016 20017 20018 20019 20020 20021 20022 20023 20024 20025 20026 20027 20028 20029 20030 20031 20032 20033 20034 20035 20036 20037 20038 20039 20040 20041 20042 20043 20044 20045 20046 20047 20048 20049 20050 20051 20052 20053 20054 20055 20056 20057 20058 20059 20060 20061 20062 20063 20064 20065 20066 20067 20068 20069 20070 20071 20072 20073 20074 20075 20076 20077 20078 20079 20080 20081 20082 20083 20084 20085 20086 20087 20088 20089 20090 20091 20092 20093 20094 20095 20096 20097 20098 20099 20100 20101 20102 20103 20104 20105 20106 20107 20108 20109 20110 20111 20112 20113 20114 20115 20116 20117 20118 20119 20120 20121 20122 20123 20124 20125 20126 20127 20128 20129 20130 20131 20132 20133 20134 20135 20136 20137 20138 20139 20140 20141 20142 20143 20144 20145 20146 20147 20148 20149 20150 20151 20152 20153 20154 20155 20156 20157 20158 20159 20160 20161 20162 20163 20164 20165 20166 20167 20168 20169 20170 20171 20172 20173 20174 20175 20176 20177 20178 20179 20180 20181 20182 20183 20184 20185 20186 20187 20188 20189 20190 20191 20192 20193 20194 20195 20196 20197 20198 20199 20200 20201 20202 20203 20204 20205 20206 20207 20208 20209 20210 20211 20212 20213 20214 20215 20216 20217 20218 20219 20220 20221 20222 20223 20224 20225 20226 20227 20228 20229 20230 20231 20232 20233 20234 20235 20236 20237 20238 20239 20240 20241 20242 20243 20244 20245 20246 20247 20248 20249 20250 20251 20252 20253 20254 20255 20256 20257 20258 20259 20260 20261 20262 20263 20264 20265 20266 20267 20268 20269 20270 20271 20272 20273 20274 20275 20276 20277 20278 20279 20280 20281 20282 20283 20284 20285 20286 20287 20288 20289 20290 20291 20292 20293 20294 20295 20296 20297 20298 20299 20300 20301 20302 20303 20304 20305 20306 20307 20308 20309 20310 20311 20312 20313 20314 20315 20316 20317 20318 20319 20320 20321 20322 20323 20324 20325 20326 20327 20328 20329 20330 20331 20332 20333 20334 20335 20336 20337 20338 20339 20340 20341 20342 20343 20344 20345 20346 20347 20348 20349 20350 20351 20352 20353 20354 20355 20356 20357 20358 20359 20360 20361 20362 20363 20364 20365 20366 20367 20368 20369 20370 20371 20372 20373 20374 20375 20376 20377 20378 20379 20380 20381 20382 20383 20384 20385 20386 20387 20388 20389 20390 20391 20392 20393 20394 20395 20396 20397 20398 20399 20400 20401 20402 20403 20404 20405 20406 20407 20408 20409 20410 20411 20412 20413 20414 20415 20416 20417 20418 20419 20420 20421 20422 20423 20424 20425 20426 20427 20428 20429 20430 20431 20432 20433 20434 20435 20436 20437 20438 20439 20440 20441 20442 20443 20444 20445 20446 20447 20448 20449 20450 20451 20452 20453 20454 20455 20456 20457 20458 20459 20460 20461 20462 20463 20464 20465 20466 20467 20468 20469 20470 20471 20472 20473 20474 20475 20476 20477 20478 20479 20480 20481 20482 20483 20484 20485 20486 20487 20488 20489 20490 20491 20492 20493 20494 20495 20496 20497 20498 20499 20500 20501 20502 20503 20504 20505 20506 20507 20508 20509 20510 20511 20512 20513 20514 20515 20516 20517 20518 20519 20520 20521 20522 20523 20524 20525 20526 20527 20528 20529 20530 20531 20532 20533 20534 20535 20536 20537 20538 20539 20540 20541 20542 20543 20544 20545 20546 20547 20548 20549 20550 20551 20552 20553 20554 20555 20556 20557 20558 20559 20560 20561 20562 20563 20564 20565 20566 20567 20568 20569 20570 20571 20572 20573 20574 20575 20576 20577 20578 20579 20580 20581 20582 20583 20584 20585 20586 20587 20588 20589 20590 20591 20592 20593 20594 20595 20596 20597 20598 20599 20600 20601 20602 20603 20604 20605 20606 20607 20608 20609 20610 20611 20612 20613 20614 20615 20616 20617 20618 20619 20620 20621 20622 20623 20624 20625 20626 20627 20628 20629 20630 20631 20632 20633 20634 20635 20636 20637 20638 20639 20640 20641 20642 20643 20644 20645 20646 20647 20648 20649 20650 20651 20652 20653 20654 20655 20656 20657 20658 20659 20660 20661 20662 20663 20664 20665 20666 20667 20668 20669 20670 20671 20672 20673 20674 20675 20676 20677 20678 20679 20680 20681 20682 20683 20684 20685 20686 20687 20688 20689 20690 20691 20692 20693 20694 20695 20696 20697 20698 20699 20700 20701 20702 20703 20704 20705 20706 20707 20708 20709 20710 20711 20712 20713 20714 20715 20716 20717 20718 20719 20720 20721 20722 20723 20724 20725 20726 20727 20728 20729 20730 20731 20732 20733 20734 20735 20736 20737 20738 20739 20740 20741 20742 20743 20744 20745 20746 20747 20748 20749 20750 20751 20752 20753 20754 20755 20756 20757 20758 20759 20760 20761 20762 20763 20764 20765 20766 20767 20768 20769 20770 20771 20772 20773 20774 20775 20776 20777 20778 20779 20780 20781 20782 20783 20784 20785 20786 20787 20788 20789 20790 20791 20792 20793 20794 20795 20796 20797 20798 20799 20800 20801 20802 20803 20804 20805 20806 20807 20808 20809 20810 20811 20812 20813 20814 20815 20816 20817 20818 20819 20820 20821 20822 20823 20824 20825 20826 20827 20828 20829 20830 20831 20832 20833 20834 20835 20836 20837 20838 20839 20840 20841 20842 20843 20844 20845 20846 20847 20848 20849 20850 20851 20852 20853 20854 20855 20856 20857 20858 20859 20860 20861 20862 20863 20864 20865 20866 20867 20868 20869 20870 20871 20872 20873 20874 20875 20876 20877 20878 20879 20880 20881 20882 20883 20884 20885 20886 20887 20888 20889 20890 20891 20892 20893 20894 20895 20896 20897 20898 20899 20900 20901 20902 20903 20904 20905 20906 20907 20908 20909 20910 20911 20912 20913 20914 20915 20916 20917 20918 20919 20920 20921 20922 20923 20924 20925 20926 20927 20928 20929 20930 20931 20932 20933 20934 20935 20936 20937 20938 20939 20940 20941 20942 20943 20944 20945 20946 20947 20948 20949 20950 20951 20952 20953 20954 20955 20956 20957 20958 20959 20960 20961 20962 20963 20964 20965 20966 20967 20968 20969 20970 20971 20972 20973 20974 20975 20976 20977 20978 20979 20980 20981 20982 20983 20984 20985 20986 20987 20988 20989 20990 20991 20992 20993 20994 20995 20996 20997 20998 20999 21000 21001 21002 21003 21004 21005 21006 21007 21008 21009 21010 21011 21012 21013 21014 21015 21016 21017 21018 21019 21020 21021 21022 21023 21024 21025 21026 21027 21028 21029 21030 21031 21032 21033 21034 21035 21036 21037 21038 21039 21040 21041 21042 21043 21044 21045 21046 21047 21048 21049 21050 21051 21052 21053 21054 21055 21056 21057 21058 21059 21060 21061 21062 21063 21064 21065 21066 21067 21068 21069 21070 21071 21072 21073 21074 21075 21076 21077 21078 21079 21080 21081 21082 21083 21084 21085 21086 21087 21088 21089 21090 21091 21092 21093 21094 21095 21096 21097 21098 21099 21100 21101 21102 21103 21104 21105 21106 21107 21108 21109 21110 21111 21112 21113 21114 21115 21116 21117 21118 21119 21120 21121 21122 21123 21124 21125 21126 21127 21128 21129 21130 21131 21132 21133 21134 21135 21136 21137 21138 21139 21140 21141 21142 21143 21144 21145 21146 21147 21148 21149 21150 21151 21152 21153 21154 21155 21156 21157 21158 21159 21160 21161 21162 21163 21164 21165 21166 21167 21168 21169 21170 21171 21172 21173 21174 21175 21176 21177 21178 21179 21180 21181 21182 21183 21184 21185 21186 21187 21188 21189 21190 21191 21192 21193 21194 21195 21196 21197 21198 21199 21200 21201 21202 21203 21204 21205 21206 21207 21208 21209 21210 21211 21212 21213 21214 21215 21216 21217 21218 21219 21220 21221 21222 21223 21224 21225 21226 21227 21228 21229 21230 21231 21232 21233 21234 21235 21236 21237 21238 21239 21240 21241 21242 21243 21244 21245 21246 21247 21248 21249 21250 21251 21252 21253 21254 21255 21256 21257 21258 21259 21260 21261 21262 21263 21264 21265 21266 21267 21268 21269 21270 21271 21272 21273 21274 21275 21276 21277 21278 21279 21280 21281 21282 21283 21284 21285 21286 21287 21288 21289 21290 21291 21292 21293 21294 21295 21296 21297 21298 21299 21300 21301 21302 21303 21304 21305 21306 21307 21308 21309 21310 21311 21312 21313 21314 21315 21316 21317 21318 21319 21320 21321 21322 21323 21324 21325 21326 21327 21328 21329 21330 21331 21332 21333 21334 21335 21336 21337 21338 21339 21340 21341 21342 21343 21344 21345 21346 21347 21348 21349 21350 21351 21352 21353 21354 21355 21356 21357 21358 21359 21360 21361 21362 21363 21364 21365 21366 21367 21368 21369 21370 21371 21372 21373 21374 21375 21376 21377 21378 21379 21380 21381 21382 21383 21384 21385 21386 21387 21388 21389 21390 21391 21392 21393 21394 21395 21396 21397 21398 21399 21400 21401 21402 21403 21404 21405 21406 21407 21408 21409 21410 21411 21412 21413 21414 21415 21416 21417 21418 21419 21420 21421 21422 21423 21424 21425 21426 21427 21428 21429 21430 21431 21432 21433 21434 21435 21436 21437 21438 21439 21440 21441 21442 21443 21444 21445 21446 21447 21448 21449 21450 21451 21452 21453 21454 21455 21456 21457 21458 21459 21460 21461 21462 21463 21464 21465 21466 21467 21468 21469 21470 21471 21472 21473 21474 21475 21476 21477 21478 21479 21480 21481 21482 21483 21484 21485 21486 21487 21488 21489 21490 21491 21492 21493 21494 21495 21496 21497 21498 21499 21500 21501 21502 21503 21504 21505 21506 21507 21508 21509 21510 21511 21512 21513 21514 21515 21516 21517 21518 21519 21520 21521 21522 21523 21524 21525 21526 21527 21528 21529 21530 21531 21532 21533 21534 21535 21536 21537 21538 21539 21540 21541 21542 21543 21544 21545 21546 21547 21548 21549 21550 21551 21552 21553 21554 21555 21556 21557 21558 21559 21560 21561 21562 21563 21564 21565 21566 21567 21568 21569 21570 21571 21572 21573 21574 21575 21576 21577 21578 21579 21580 21581 21582 21583 21584 21585 21586 21587 21588 21589 21590 21591 21592 21593 21594 21595 21596 21597 21598 21599 21600 21601 21602 21603 21604 21605 21606 21607 21608 21609 21610 21611 21612 21613 21614 21615 21616 21617 21618 21619 21620 21621 21622 21623 21624 21625 21626 21627 21628 21629 21630 21631 21632 21633 21634 21635 21636 21637 21638 21639 21640 21641 21642 21643 21644 21645 21646 21647 21648 21649 21650 21651 21652 21653 21654 21655 21656 21657 21658 21659 21660 21661 21662 21663 21664 21665 21666 21667 21668 21669 21670 21671 21672 21673 21674 21675 21676 21677 21678 21679 21680 21681 21682 21683 21684 21685 21686 21687 21688 21689 21690 21691 21692 21693 21694 21695 21696 21697 21698 21699 21700 21701 21702 21703 21704 21705 21706 21707 21708 21709 21710 21711 21712 21713 21714 21715 21716 21717 21718 21719 21720 21721 21722 21723 21724 21725 21726 21727 21728 21729 21730 21731 21732 21733 21734 21735 21736 21737 21738 21739 21740 21741 21742 21743 21744 21745 21746 21747 21748 21749 21750 21751 21752 21753 21754 21755 21756 21757 21758 21759 21760 21761 21762 21763 21764 21765 21766 21767 21768 21769 21770 21771 21772 21773 21774 21775 21776 21777 21778 21779 21780 21781 21782 21783 21784 21785 21786 21787 21788 21789 21790 21791 21792 21793 21794 21795 21796 21797 21798 21799 21800 21801 21802 21803 21804 21805 21806 21807 21808 21809 21810 21811 21812 21813 21814 21815 21816 21817 21818 21819 21820 21821 21822 21823 21824 21825 21826 21827 21828 21829 21830 21831 21832 21833 21834 21835 21836 21837 21838 21839 21840 21841 21842 21843 21844 21845 21846 21847 21848 21849 21850 21851 21852 21853 21854 21855 21856 21857 21858 21859 21860 21861 21862 21863 21864 21865 21866 21867 21868 21869 21870 21871 21872 21873 21874 21875 21876 21877 21878 21879 21880 21881 21882 21883 21884 21885 21886 21887 21888 21889 21890 21891 21892 21893 21894 21895 21896 21897 21898 21899 21900 21901 21902 21903 21904 21905 21906 21907 21908 21909 21910 21911 21912 21913 21914 21915 21916 21917 21918 21919 21920 21921 21922 21923 21924 21925 21926 21927 21928 21929 21930 21931 21932 21933 21934 21935 21936 21937 21938 21939 21940 21941 21942 21943 21944 21945 21946 21947 21948 21949 21950 21951 21952 21953 21954 21955 21956 21957 21958 21959 21960 21961 21962 21963 21964 21965 21966 21967 21968 21969 21970 21971 21972 21973 21974 21975 21976 21977 21978 21979 21980 21981 21982 21983 21984 21985 21986 21987 21988 21989 21990 21991 21992 21993 21994 21995 21996 21997 21998 21999 22000 22001 22002 22003 22004 22005 22006 22007 22008 22009 22010 22011 22012 22013 22014 22015 22016 22017 22018 22019 22020 22021 22022 22023 22024 22025 22026 22027 22028 22029 22030 22031 22032 22033 22034 22035 22036 22037 22038 22039 22040 22041 22042 22043 22044 22045 22046 22047 22048 22049 22050 22051 22052 22053 22054 22055 22056 22057 22058 22059 22060 22061 22062 22063 22064 22065 22066 22067 22068 22069 22070 22071 22072 22073 22074 22075 22076 22077 22078 22079 22080 22081 22082 22083 22084 22085 22086 22087 22088 22089 22090 22091 22092 22093 22094 22095 22096 22097 22098 22099 22100 22101 22102 22103 22104 22105 22106 22107 22108 22109 22110 22111 22112 22113 22114 22115 22116 22117 22118 22119 22120 22121 22122 22123 22124 22125 22126 22127 22128 22129 22130 22131 22132 22133 22134 22135 22136 22137 22138 22139 22140 22141 22142 22143 22144 22145 22146 22147 22148 22149 22150 22151 22152 22153 22154 22155 22156 22157 22158 22159 22160 22161 22162 22163 22164 22165 22166 22167 22168 22169 22170 22171 22172 22173 22174 22175 22176 22177 22178 22179 22180 22181 22182 22183 22184 22185 22186 22187 22188 22189 22190 22191 22192 22193 22194 22195 22196 22197 22198 22199 22200 22201 22202 22203 22204 22205 22206 22207 22208 22209 22210 22211 22212 22213 22214 22215 22216 22217 22218 22219 22220 22221 22222 22223 22224 22225 22226 22227 22228 22229 22230 22231 22232 22233 22234 22235 22236 22237 22238 22239 22240 22241 22242 22243 22244 22245 22246 22247 22248 22249 22250 22251 22252 22253 22254 22255 22256 22257 22258 22259 22260 22261 22262 22263 22264 22265 22266 22267 22268 22269 22270 22271 22272 22273 22274 22275 22276 22277 22278 22279 22280 22281 22282 22283 22284 22285 22286 22287 22288 22289 22290 22291 22292 22293 22294 22295 22296 22297 22298 22299 22300 22301 22302 22303 22304 22305 22306 22307 22308 22309 22310 22311 22312 22313 22314 22315 22316 22317 22318 22319 22320 22321 22322 22323 22324 22325 22326 22327 22328 22329 22330 22331 22332 22333 22334 22335 22336 22337 22338 22339 22340 22341 22342 22343 22344 22345 22346 22347 22348 22349 22350 22351 22352 22353 22354 22355 22356 22357 22358 22359 22360 22361 22362 22363 22364 22365 22366 22367 22368 22369 22370 22371 22372 22373 22374 22375 22376 22377 22378 22379 22380 22381 22382 22383 22384 22385 22386 22387 22388 22389 22390 22391 22392 22393 22394 22395 22396 22397 22398 22399 22400 22401 22402 22403 22404 22405 22406 22407 22408 22409 22410 22411 22412 22413 22414 22415 22416 22417 22418 22419 22420 22421 22422 22423 22424 22425 22426 22427 22428 22429 22430 22431 22432 22433 22434 22435 22436 22437 22438 22439 22440 22441 22442 22443 22444 22445 22446 22447 22448 22449 22450 22451 22452 22453 22454 22455 22456 22457 22458 22459 22460 22461 22462 22463 22464 22465 22466 22467 22468 22469 22470 22471 22472 22473 22474 22475 22476 22477 22478 22479 22480 22481 22482 22483 22484 22485 22486 22487 22488 22489 22490 22491 22492 22493 22494 22495 22496 22497 22498 22499 22500 22501 22502 22503 22504 22505 22506 22507 22508 22509 22510 22511 22512 22513 22514 22515 22516 22517 22518 22519 22520 22521 22522 22523 22524 22525 22526 22527 22528 22529 22530 22531 22532 22533 22534 22535 22536 22537 22538 22539 22540 22541 22542 22543 22544 22545 22546 22547 22548 22549 22550 22551 22552 22553 22554 22555 22556 22557 22558 22559 22560 22561 22562 22563 22564 22565 22566 22567 22568 22569 22570 22571 22572 22573 22574 22575 22576 22577 22578 22579 22580 22581 22582 22583 22584 22585 22586 22587 22588 22589 22590 22591 22592 22593 22594 22595 22596 22597 22598 22599 22600 22601 22602 22603 22604 22605 22606 22607 22608 22609 22610 22611 22612 22613 22614 22615 22616 22617 22618 22619 22620 22621 22622 22623 22624 22625 22626 22627 22628 22629 22630 22631 22632 22633 22634 22635 22636 22637 22638 22639 22640 22641 22642 22643 22644 22645 22646 22647 22648 22649 22650 22651 22652 22653 22654 22655 22656 22657 22658 22659 22660 22661 22662 22663 22664 22665 22666 22667 22668 22669 22670 22671 22672 22673 22674 22675 22676 22677 22678 22679 22680 22681 22682 22683 22684 22685 22686 22687 22688 22689 22690 22691 22692 22693 22694 22695 22696 22697 22698 22699 22700 22701 22702 22703 22704 22705 22706 22707 22708 22709 22710 22711 22712 22713 22714 22715 22716 22717 22718 22719 22720 22721 22722 22723 22724 22725 22726 22727 22728 22729 22730 22731 22732 22733 22734 22735 22736 22737 22738 22739 22740 22741 22742 22743 22744 22745 22746 22747 22748 22749 22750 22751 22752 22753 22754 22755 22756 22757 22758 22759 22760 22761 22762 22763 22764 22765 22766 22767 22768 22769 22770 22771 22772 22773 22774 22775 22776 22777 22778 22779 22780 22781 22782 22783 22784 22785 22786 22787 22788 22789 22790 22791 22792 22793 22794 22795 22796 22797 22798 22799 22800 22801 22802 22803 22804 22805 22806 22807 22808 22809 22810 22811 22812 22813 22814 22815 22816 22817 22818 22819 22820 22821 22822 22823 22824 22825 22826 22827 22828 22829 22830 22831 22832 22833 22834 22835 22836 22837 22838 22839 22840 22841 22842 22843 22844 22845 22846 22847 22848 22849 22850 22851 22852 22853 22854 22855 22856 22857 22858 22859 22860 22861 22862 22863 22864 22865 22866 22867 22868 22869 22870 22871 22872 22873 22874 22875 22876 22877 22878 22879 22880 22881 22882 22883 22884 22885 22886 22887 22888 22889 22890 22891 22892 22893 22894 22895 22896 22897 22898 22899 22900 22901 22902 22903 22904 22905 22906 22907 22908 22909 22910 22911 22912 22913 22914 22915 22916 22917 22918 22919 22920 22921 22922 22923 22924 22925 22926 22927 22928 22929 22930 22931 22932 22933 22934 22935 22936 22937 22938 22939 22940 22941 22942 22943 22944 22945 22946 22947 22948 22949 22950 22951 22952 22953 22954 22955 22956 22957 22958 22959 22960 22961 22962 22963 22964 22965 22966 22967 22968 22969 22970 22971 22972 22973 22974 22975 22976 22977 22978 22979 22980 22981 22982 22983 22984 22985 22986 22987 22988 22989 22990 22991 22992 22993 22994 22995 22996 22997 22998 22999 23000 23001 23002 23003 23004 23005 23006 23007 23008 23009 23010 23011 23012 23013 23014 23015 23016 23017 23018 23019 23020 23021 23022 23023 23024 23025 23026 23027 23028 23029 23030 23031 23032 23033 23034 23035 23036 23037 23038 23039 23040 23041 23042 23043 23044 23045 23046 23047 23048 23049 23050 23051 23052 23053 23054 23055 23056 23057 23058 23059 23060 23061 23062 23063 23064 23065 23066 23067 23068 23069 23070 23071 23072 23073 23074 23075 23076 23077 23078 23079 23080 23081 23082 23083 23084 23085 23086 23087 23088 23089 23090 23091 23092 23093 23094 23095 23096 23097 23098 23099 23100 23101 23102 23103 23104 23105 23106 23107 23108 23109 23110 23111 23112 23113 23114 23115 23116 23117 23118 23119 23120 23121 23122 23123 23124 23125 23126 23127 23128 23129 23130 23131 23132 23133 23134 23135 23136 23137 23138 23139 23140 23141 23142 23143 23144 23145 23146 23147 23148 23149 23150 23151 23152 23153 23154 23155 23156 23157 23158 23159 23160 23161 23162 23163 23164 23165 23166 23167 23168 23169 23170 23171 23172 23173 23174 23175 23176 23177 23178 23179 23180 23181 23182 23183 23184 23185 23186 23187 23188 23189 23190 23191 23192 23193 23194 23195 23196 23197 23198 23199 23200 23201 23202 23203 23204 23205 23206 23207 23208 23209 23210 23211 23212 23213 23214 23215 23216 23217 23218 23219 23220 23221 23222 23223 23224 23225 23226 23227 23228 23229 23230 23231 23232 23233 23234 23235 23236 23237 23238 23239 23240 23241 23242 23243 23244 23245 23246 23247 23248 23249 23250 23251 23252 23253 23254 23255 23256 23257 23258 23259 23260 23261 23262 23263 23264 23265 23266 23267 23268 23269 23270 23271 23272 23273 23274 23275 23276 23277 23278 23279 23280 23281 23282 23283 23284 23285 23286 23287 23288 23289 23290 23291 23292 23293 23294 23295 23296 23297 23298 23299 23300 23301 23302 23303 23304 23305 23306 23307 23308 23309 23310 23311 23312 23313 23314 23315 23316 23317 23318 23319 23320 23321 23322 23323 23324 23325 23326 23327 23328 23329 23330 23331 23332 23333 23334 23335 23336 23337 23338 23339 23340 23341 23342 23343 23344 23345 23346 23347 23348 23349 23350 23351 23352 23353 23354 23355 23356 23357 23358 23359 23360 23361 23362 23363 23364 23365 23366 23367 23368 23369 23370 23371 23372 23373 23374 23375 23376 23377 23378 23379 23380 23381 23382 23383 23384 23385 23386 23387 23388 23389 23390 23391 23392 23393 23394 23395 23396 23397 23398 23399 23400 23401 23402 23403 23404 23405 23406 23407 23408 23409 23410 23411 23412 23413 23414 23415 23416 23417 23418 23419 23420 23421 23422 23423 23424 23425 23426 23427 23428 23429 23430 23431 23432 23433 23434 23435 23436 23437 23438 23439 23440 23441 23442 23443 23444 23445 23446 23447 23448 23449 23450 23451 23452 23453 23454 23455 23456 23457 23458 23459 23460 23461 23462 23463 23464 23465 23466 23467 23468 23469 23470 23471 23472 23473 23474 23475 23476 23477 23478 23479 23480 23481 23482 23483 23484 23485 23486 23487 23488 23489 23490 23491 23492 23493 23494 23495 23496 23497 23498 23499 23500 23501 23502 23503 23504 23505 23506 23507 23508 23509 23510 23511 23512 23513 23514 23515 23516 23517 23518 23519 23520 23521 23522 23523 23524 23525 23526 23527 23528 23529 23530 23531 23532 23533 23534 23535 23536 23537 23538 23539 23540 23541 23542 23543 23544 23545 23546 23547 23548 23549 23550 23551 23552 23553 23554 23555 23556 23557 23558 23559 23560 23561 23562 23563 23564 23565 23566 23567 23568 23569 23570 23571 23572 23573 23574 23575 23576 23577 23578 23579 23580 23581 23582 23583 23584 23585 23586 23587 23588 23589 23590 23591 23592 23593 23594 23595 23596 23597 23598 23599 23600 23601 23602 23603 23604 23605 23606 23607 23608 23609 23610 23611 23612 23613 23614 23615 23616 23617 23618 23619 23620 23621 23622 23623 23624 23625 23626 23627 23628 23629 23630 23631 23632 23633 23634 23635 23636 23637 23638 23639 23640 23641 23642 23643 23644 23645 23646 23647 23648 23649 23650 23651 23652 23653 23654 23655 23656 23657 23658 23659 23660 23661 23662 23663 23664 23665 23666 23667 23668 23669 23670 23671 23672 23673 23674 23675 23676 23677 23678 23679 23680 23681 23682 23683 23684 23685 23686 23687 23688 23689 23690 23691 23692 23693 23694 23695 23696 23697 23698 23699 23700 23701 23702 23703 23704 23705 23706 23707 23708 23709 23710 23711 23712 23713 23714 23715 23716 23717 23718 23719 23720 23721 23722 23723 23724 23725 23726 23727 23728 23729 23730 23731 23732 23733 23734 23735 23736 23737 23738 23739 23740 23741 23742 23743 23744 23745 23746 23747 23748 23749 23750 23751 23752 23753 23754 23755 23756 23757 23758 23759 23760 23761 23762 23763 23764 23765 23766 23767 23768 23769 23770 23771 23772 23773 23774 23775 23776 23777 23778 23779 23780 23781 23782 23783 23784 23785 23786 23787 23788 23789 23790 23791 23792 23793 23794 23795 23796 23797 23798 23799 23800 23801 23802 23803 23804 23805 23806 23807 23808 23809 23810 23811 23812 23813 23814 23815 23816 23817 23818 23819 23820 23821 23822 23823 23824 23825 23826 23827 23828 23829 23830 23831 23832 23833 23834 23835 23836 23837 23838 23839 23840 23841 23842 23843 23844 23845 23846 23847 23848 23849 23850 23851 23852 23853 23854 23855 23856 23857 23858 23859 23860 23861 23862 23863 23864 23865 23866 23867 23868 23869 23870 23871 23872 23873 23874 23875 23876 23877 23878 23879 23880 23881 23882 23883 23884 23885 23886 23887 23888 23889 23890 23891 23892 23893 23894 23895 23896 23897 23898 23899 23900 23901 23902 23903 23904 23905 23906 23907 23908 23909 23910 23911 23912 23913 23914 23915 23916 23917 23918 23919 23920 23921 23922 23923 23924 23925 23926 23927 23928 23929 23930 23931 23932 23933 23934 23935 23936 23937 23938 23939 23940 23941 23942 23943 23944 23945 23946 23947 23948 23949 23950 23951 23952 23953 23954 23955 23956 23957 23958 23959 23960 23961 23962 23963 23964 23965 23966 23967 23968 23969 23970 23971 23972 23973 23974 23975 23976 23977 23978 23979 23980 23981 23982 23983 23984 23985 23986 23987 23988 23989 23990 23991 23992 23993 23994 23995 23996 23997 23998 23999 24000 24001 24002 24003 24004 24005 24006 24007 24008 24009 24010 24011 24012 24013 24014 24015 24016 24017 24018 24019 24020 24021 24022 24023 24024 24025 24026 24027 24028 24029 24030 24031 24032 24033 24034 24035 24036 24037 24038 24039 24040 24041 24042 24043 24044 24045 24046 24047 24048 24049 24050 24051 24052 24053 24054 24055 24056 24057 24058 24059 24060 24061 24062 24063 24064 24065 24066 24067 24068 24069 24070 24071 24072 24073 24074 24075 24076 24077 24078 24079 24080 24081 24082 24083 24084 24085 24086 24087 24088 24089 24090 24091 24092 24093 24094 24095 24096 24097 24098 24099 24100 24101 24102 24103 24104 24105 24106 24107 24108 24109 24110 24111 24112 24113 24114 24115 24116 24117 24118 24119 24120 24121 24122 24123 24124 24125 24126 24127 24128 24129 24130 24131 24132 24133 24134 24135 24136 24137 24138 24139 24140 24141 24142 24143 24144 24145 24146 24147 24148 24149 24150 24151 24152 24153 24154 24155 24156 24157 24158 24159 24160 24161 24162 24163 24164 24165 24166 24167 24168 24169 24170 24171 24172 24173 24174 24175 24176 24177 24178 24179 24180 24181 24182 24183 24184 24185 24186 24187 24188 24189 24190 24191 24192 24193 24194 24195 24196 24197 24198 24199 24200 24201 24202 24203 24204 24205 24206 24207 24208 24209 24210 24211 24212 24213 24214 24215 24216 24217 24218 24219 24220 24221 24222 24223 24224 24225 24226 24227 24228 24229 24230 24231 24232 24233 24234 24235 24236 24237 24238 24239 24240 24241 24242 24243 24244 24245 24246 24247 24248 24249 24250 24251 24252 24253 24254 24255 24256 24257 24258 24259 24260 24261 24262 24263 24264 24265 24266 24267 24268 24269 24270 24271 24272 24273 24274 24275 24276 24277 24278 24279 24280 24281 24282 24283 24284 24285 24286 24287 24288 24289 24290 24291 24292 24293 24294 24295 24296 24297 24298 24299 24300 24301 24302 24303 24304 24305 24306 24307 24308 24309 24310 24311 24312 24313 24314 24315 24316 24317 24318 24319 24320 24321 24322 24323 24324 24325 24326 24327 24328 24329 24330 24331 24332 24333 24334 24335 24336 24337 24338 24339 24340 24341 24342 24343 24344 24345 24346 24347 24348 24349 24350 24351 24352 24353 24354 24355 24356 24357 24358 24359 24360 24361 24362 24363 24364 24365 24366 24367 24368 24369 24370 24371 24372 24373 24374 24375 24376 24377 24378 24379 24380 24381 24382 24383 24384 24385 24386 24387 24388 24389 24390 24391 24392 24393 24394 24395 24396 24397 24398 24399 24400 24401 24402 24403 24404 24405 24406 24407 24408 24409 24410 24411 24412 24413 24414 24415 24416 24417 24418 24419 24420 24421 24422 24423 24424 24425 24426 24427 24428 24429 24430 24431 24432 24433 24434 24435 24436 24437 24438 24439 24440 24441 24442 24443 24444 24445 24446 24447 24448 24449 24450 24451 24452 24453 24454 24455 24456 24457 24458 24459 24460 24461 24462 24463 24464 24465 24466 24467 24468 24469 24470 24471 24472 24473 24474 24475 24476 24477 24478 24479 24480 24481 24482 24483 24484 24485 24486 24487 24488 24489 24490 24491 24492 24493 24494 24495 24496 24497 24498 24499 24500 24501 24502 24503 24504 24505 24506 24507 24508 24509 24510 24511 24512 24513 24514 24515 24516 24517 24518 24519 24520 24521 24522 24523 24524 24525 24526 24527 24528 24529 24530 24531 24532 24533 24534 24535 24536 24537 24538 24539 24540 24541 24542 24543 24544 24545 24546 24547 24548 24549 24550 24551 24552 24553 24554 24555 24556 24557 24558 24559 24560 24561 24562 24563 24564 24565 24566 24567 24568 24569 24570 24571 24572 24573 24574 24575 24576 24577 24578 24579 24580 24581 24582 24583 24584 24585 24586 24587 24588 24589 24590 24591 24592 24593 24594 24595 24596 24597 24598 24599 24600 24601 24602 24603 24604 24605 24606 24607 24608 24609 24610 24611 24612 24613 24614 24615 24616 24617 24618 24619 24620 24621 24622 24623 24624 24625 24626 24627 24628 24629 24630 24631 24632 24633 24634 24635 24636 24637 24638 24639 24640 24641 24642 24643 24644 24645 24646 24647 24648 24649 24650 24651 24652 24653 24654 24655 24656 24657 24658 24659 24660 24661 24662 24663 24664 24665 24666 24667 24668 24669 24670 24671 24672 24673 24674 24675 24676 24677 24678 24679 24680 24681 24682 24683 24684 24685 24686 24687 24688 24689 24690 24691 24692 24693 24694 24695 24696 24697 24698 24699 24700 24701 24702 24703 24704 24705 24706 24707 24708 24709 24710 24711 24712 24713 24714 24715 24716 24717 24718 24719 24720 24721 24722 24723 24724 24725 24726 24727 24728 24729 24730 24731 24732 24733 24734 24735 24736 24737 24738 24739 24740 24741 24742 24743 24744 24745 24746 24747 24748 24749 24750 24751 24752 24753 24754 24755 24756 24757 24758 24759 24760 24761 24762 24763 24764 24765 24766 24767 24768 24769 24770 24771 24772 24773 24774 24775 24776 24777 24778 24779 24780 24781 24782 24783 24784 24785 24786 24787 24788 24789 24790 24791 24792 24793 24794 24795 24796 24797 24798 24799 24800 24801 24802 24803 24804 24805 24806 24807 24808 24809 24810 24811 24812 24813 24814 24815 24816 24817 24818 24819 24820 24821 24822 24823 24824 24825 24826 24827 24828 24829 24830 24831 24832 24833 24834 24835 24836 24837 24838 24839 24840 24841 24842 24843 24844 24845 24846 24847 24848 24849 24850 24851 24852 24853 24854 24855 24856 24857 24858 24859 24860 24861 24862 24863 24864 24865 24866 24867 24868 24869 24870 24871 24872 24873 24874 24875 24876 24877 24878 24879 24880 24881 24882 24883 24884 24885 24886 24887 24888 24889 24890 24891 24892 24893 24894 24895 24896 24897 24898 24899 24900 24901 24902 24903 24904 24905 24906 24907 24908 24909 24910 24911 24912 24913 24914 24915 24916 24917 24918 24919 24920 24921 24922 24923 24924 24925 24926 24927 24928 24929 24930 24931 24932 24933 24934 24935 24936 24937 24938 24939 24940 24941 24942 24943 24944 24945 24946 24947 24948 24949 24950 24951 24952 24953 24954 24955 24956 24957 24958 24959 24960 24961 24962 24963 24964 24965 24966 24967 24968 24969 24970 24971 24972 24973 24974 24975 24976 24977 24978 24979 24980 24981 24982 24983 24984 24985 24986 24987 24988 24989 24990 24991 24992 24993 24994 24995 24996 24997 24998 24999 25000 25001 25002 25003 25004 25005 25006 25007 25008 25009 25010 25011 25012 25013 25014 25015 25016 25017 25018 25019 25020 25021 25022 25023 25024 25025 25026 25027 25028 25029 25030 25031 25032 25033 25034 25035 25036 25037 25038 25039 25040 25041 25042 25043 25044 25045 25046 25047 25048 25049 25050 25051 25052 25053 25054 25055 25056 25057 25058 25059 25060 25061 25062 25063 25064 25065 25066 25067 25068 25069 25070 25071 25072 25073 25074 25075 25076 25077 25078 25079 25080 25081 25082 25083 25084 25085 25086 25087 25088 25089 25090 25091 25092 25093 25094 25095 25096 25097 25098 25099 25100 25101 25102 25103 25104 25105 25106 25107 25108 25109 25110 25111 25112 25113 25114 25115 25116 25117 25118 25119 25120 25121 25122 25123 25124 25125 25126 25127 25128 25129 25130 25131 25132 25133 25134 25135 25136 25137 25138 25139 25140 25141 25142 25143 25144 25145 25146 25147 25148 25149 25150 25151 25152 25153 25154 25155 25156 25157 25158 25159 25160 25161 25162 25163 25164 25165 25166 25167 25168 25169 25170 25171 25172 25173 25174 25175 25176 25177 25178 25179 25180 25181 25182 25183 25184 25185 25186 25187 25188 25189 25190 25191 25192 25193 25194 25195 25196 25197 25198 25199 25200 25201 25202 25203 25204 25205 25206 25207 25208 25209 25210 25211 25212 25213 25214 25215 25216 25217 25218 25219 25220 25221 25222 25223 25224 25225 25226 25227 25228 25229 25230 25231 25232 25233 25234 25235 25236 25237 25238 25239 25240 25241 25242 25243 25244 25245 25246 25247 25248 25249 25250 25251 25252 25253 25254 25255 25256 25257 25258 25259 25260 25261 25262 25263 25264 25265 25266 25267 25268 25269 25270 25271 25272 25273 25274 25275 25276 25277 25278 25279 25280 25281 25282 25283 25284 25285 25286 25287 25288 25289 25290 25291 25292 25293 25294 25295 25296 25297 25298 25299 25300 25301 25302 25303 25304 25305 25306 25307 25308 25309 25310 25311 25312 25313 25314 25315 25316 25317 25318 25319 25320 25321 25322 25323 25324 25325 25326 25327 25328 25329 25330 25331 25332 25333 25334 25335 25336 25337 25338 25339 25340 25341 25342 25343 25344 25345 25346 25347 25348 25349 25350 25351 25352 25353 25354 25355 25356 25357 25358 25359 25360 25361 25362 25363 25364 25365 25366 25367 25368 25369 25370 25371 25372 25373 25374 25375 25376 25377 25378 25379 25380 25381 25382 25383 25384 25385 25386 25387 25388 25389 25390 25391 25392 25393 25394 25395 25396 25397 25398 25399 25400 25401 25402 25403 25404 25405 25406 25407 25408 25409 25410 25411 25412 25413 25414 25415 25416 25417 25418 25419 25420 25421 25422 25423 25424 25425 25426 25427 25428 25429 25430 25431 25432 25433 25434 25435 25436 25437 25438 25439 25440 25441 25442 25443 25444 25445 25446 25447 25448 25449 25450 25451 25452 25453 25454 25455 25456 25457 25458 25459 25460 25461 25462 25463 25464 25465 25466 25467 25468 25469 25470 25471 25472 25473 25474 25475 25476 25477 25478 25479 25480 25481 25482 25483 25484 25485 25486 25487 25488 25489 25490 25491 25492 25493 25494 25495 25496 25497 25498 25499 25500 25501 25502 25503 25504 25505 25506 25507 25508 25509 25510 25511 25512 25513 25514 25515 25516 25517 25518 25519 25520 25521 25522 25523 25524 25525 25526 25527 25528 25529 25530 25531 25532 25533 25534 25535 25536 25537 25538 25539 25540 25541 25542 25543 25544 25545 25546 25547 25548 25549 25550 25551 25552 25553 25554 25555 25556 25557 25558 25559 25560 25561 25562 25563 25564 25565 25566 25567 25568 25569 25570 25571 25572 25573 25574 25575 25576 25577 25578 25579 25580 25581 25582 25583 25584 25585 25586 25587 25588 25589 25590 25591 25592 25593 25594 25595 25596 25597 25598 25599 25600 25601 25602 25603 25604 25605 25606 25607 25608 25609 25610 25611 25612 25613 25614 25615 25616 25617 25618 25619 25620 25621 25622 25623 25624 25625 25626 25627 25628 25629 25630 25631 25632 25633 25634 25635 25636 25637 25638 25639 25640 25641 25642 25643 25644 25645 25646 25647 25648 25649 25650 25651 25652 25653 25654 25655 25656 25657 25658 25659 25660 25661 25662 25663 25664 25665 25666 25667 25668 25669 25670 25671 25672 25673 25674 25675 25676 25677 25678 25679 25680 25681 25682 25683 25684 25685 25686 25687 25688 25689 25690 25691 25692 25693 25694 25695 25696 25697 25698 25699 25700 25701 25702 25703 25704 25705 25706 25707 25708 25709 25710 25711 25712 25713 25714 25715 25716 25717 25718 25719 25720 25721 25722 25723 25724 25725 25726 25727 25728 25729 25730 25731 25732 25733 25734 25735 25736 25737 25738 25739 25740 25741 25742 25743 25744 25745 25746 25747 25748 25749 25750 25751 25752 25753 25754 25755 25756 25757 25758 25759 25760 25761 25762 25763 25764 25765 25766 25767 25768 25769 25770 25771 25772 25773 25774 25775 25776 25777 25778 25779 25780 25781 25782 25783 25784 25785 25786 25787 25788 25789 25790 25791 25792 25793 25794 25795 25796 25797 25798 25799 25800 25801 25802 25803 25804 25805 25806 25807 25808 25809 25810 25811 25812 25813 25814 25815 25816 25817 25818 25819 25820 25821 25822 25823 25824 25825 25826 25827 25828 25829 25830 25831 25832 25833 25834 25835 25836 25837 25838 25839 25840 25841 25842 25843 25844 25845 25846 25847 25848 25849 25850 25851 25852 25853 25854 25855 25856 25857 25858 25859 25860 25861 25862 25863 25864 25865 25866 25867 25868 25869 25870 25871 25872 25873 25874 25875 25876 25877 25878 25879 25880 25881 25882 25883 25884 25885 25886 25887 25888 25889 25890 25891 25892 25893 25894 25895 25896 25897 25898 25899 25900 25901 25902 25903 25904 25905 25906 25907 25908 25909 25910 25911 25912 25913 25914 25915 25916 25917 25918 25919 25920 25921 25922 25923 25924 25925 25926 25927 25928 25929 25930 25931 25932 25933 25934 25935 25936 25937 25938 25939 25940 25941 25942 25943 25944 25945 25946 25947 25948 25949 25950 25951 25952 25953 25954 25955 25956 25957 25958 25959 25960 25961 25962 25963 25964 25965 25966 25967 25968 25969 25970 25971 25972 25973 25974 25975 25976 25977 25978 25979 25980 25981 25982 25983 25984 25985 25986 25987 25988 25989 25990 25991 25992 25993 25994 25995 25996 25997 25998 25999 26000 26001 26002 26003 26004 26005 26006 26007 26008 26009 26010 26011 26012 26013 26014 26015 26016 26017 26018 26019 26020 26021 26022 26023 26024 26025 26026 26027 26028 26029 26030 26031 26032 26033 26034 26035 26036 26037 26038 26039 26040 26041 26042 26043 26044 26045 26046 26047 26048 26049 26050 26051 26052 26053 26054 26055 26056 26057 26058 26059 26060 26061 26062 26063 26064 26065 26066 26067 26068 26069 26070 26071 26072 26073 26074 26075 26076 26077 26078 26079 26080 26081 26082 26083 26084 26085 26086 26087 26088 26089 26090 26091 26092 26093 26094 26095 26096 26097 26098 26099 26100 26101 26102 26103 26104 26105 26106 26107 26108 26109 26110 26111 26112 26113 26114 26115 26116 26117 26118 26119 26120 26121 26122 26123 26124 26125 26126 26127 26128 26129 26130 26131 26132 26133 26134 26135 26136 26137 26138 26139 26140 26141 26142 26143 26144 26145 26146 26147 26148 26149 26150 26151 26152 26153 26154 26155 26156 26157 26158 26159 26160 26161 26162 26163 26164 26165 26166 26167 26168 26169 26170 26171 26172 26173 26174 26175 26176 26177 26178 26179 26180 26181 26182 26183 26184 26185 26186 26187 26188 26189 26190 26191 26192 26193 26194 26195 26196 26197 26198 26199 26200 26201 26202 26203 26204 26205 26206 26207 26208 26209 26210 26211 26212 26213 26214 26215 26216 26217 26218 26219 26220 26221 26222 26223 26224 26225 26226 26227 26228 26229 26230 26231 26232 26233 26234 26235 26236 26237 26238 26239 26240 26241 26242 26243 26244 26245 26246 26247 26248 26249 26250 26251 26252 26253 26254 26255 26256 26257 26258 26259 26260 26261 26262 26263 26264 26265 26266 26267 26268 26269 26270 26271 26272 26273 26274 26275 26276 26277 26278 26279 26280 26281 26282 26283 26284 26285 26286 26287 26288 26289 26290 26291 26292 26293 26294 26295 26296 26297 26298 26299 26300 26301 26302 26303 26304 26305 26306 26307 26308 26309 26310 26311 26312 26313 26314 26315 26316 26317 26318 26319 26320 26321 26322 26323 26324 26325 26326 26327 26328 26329 26330 26331 26332 26333 26334 26335 26336 26337 26338 26339 26340 26341 26342 26343 26344 26345 26346 26347 26348 26349 26350 26351 26352 26353 26354 26355 26356 26357 26358 26359 26360 26361 26362 26363 26364 26365 26366 26367 26368 26369 26370 26371 26372 26373 26374 26375 26376 26377 26378 26379 26380 26381 26382 26383 26384 26385 26386 26387 26388 26389 26390 26391 26392 26393 26394 26395 26396 26397 26398 26399 26400 26401 26402 26403 26404 26405 26406 26407 26408 26409 26410 26411 26412 26413 26414 26415 26416 26417 26418 26419 26420 26421 26422 26423 26424 26425 26426 26427 26428 26429 26430 26431 26432 26433 26434 26435 26436 26437 26438 26439 26440 26441 26442 26443 26444 26445 26446 26447 26448 26449 26450 26451 26452 26453 26454 26455 26456 26457 26458 26459 26460 26461 26462 26463 26464 26465 26466 26467 26468 26469 26470 26471 26472 26473 26474 26475 26476 26477 26478 26479 26480 26481 26482 26483 26484 26485 26486 26487 26488 26489 26490 26491 26492 26493 26494 26495 26496 26497 26498 26499 26500 26501 26502 26503 26504 26505 26506 26507 26508 26509 26510 26511 26512 26513 26514 26515 26516 26517 26518 26519 26520 26521 26522 26523 26524 26525 26526 26527 26528 26529 26530 26531 26532 26533 26534 26535 26536 26537 26538 26539 26540 26541 26542 26543 26544 26545 26546 26547 26548 26549 26550 26551 26552 26553 26554 26555 26556 26557 26558 26559 26560 26561 26562 26563 26564 26565 26566 26567 26568 26569 26570 26571 26572 26573 26574 26575 26576 26577 26578 26579 26580 26581 26582 26583 26584 26585 26586 26587 26588 26589 26590 26591 26592 26593 26594 26595 26596 26597 26598 26599 26600 26601 26602 26603 26604 26605 26606 26607 26608 26609 26610 26611 26612 26613 26614 26615 26616 26617 26618 26619 26620 26621 26622 26623 26624 26625 26626 26627 26628 26629 26630 26631 26632 26633 26634 26635 26636 26637 26638 26639 26640 26641 26642 26643 26644 26645 26646 26647 26648 26649 26650 26651 26652 26653 26654 26655 26656 26657 26658 26659 26660 26661 26662 26663 26664 26665 26666 26667 26668 26669 26670 26671 26672 26673 26674 26675 26676 26677 26678 26679 26680 26681 26682 26683 26684 26685 26686 26687 26688 26689 26690 26691 26692 26693 26694 26695 26696 26697 26698 26699 26700 26701 26702 26703 26704 26705 26706 26707 26708 26709 26710 26711 26712 26713 26714 26715 26716 26717 26718 26719 26720 26721 26722 26723 26724 26725 26726 26727 26728 26729 26730 26731 26732 26733 26734 26735 26736 26737 26738 26739 26740 26741 26742 26743 26744 26745 26746 26747 26748 26749 26750 26751 26752 26753 26754 26755 26756 26757 26758 26759 26760 26761 26762 26763 26764 26765 26766 26767 26768 26769 26770 26771 26772 26773 26774 26775 26776 26777 26778 26779 26780 26781 26782 26783 26784 26785 26786 26787 26788 26789 26790 26791 26792 26793 26794 26795 26796 26797 26798 26799 26800 26801 26802 26803 26804 26805 26806 26807 26808 26809 26810 26811 26812 26813 26814 26815 26816 26817 26818 26819 26820 26821 26822 26823 26824 26825 26826 26827 26828 26829 26830 26831 26832 26833 26834 26835 26836 26837 26838 26839 26840 26841 26842 26843 26844 26845 26846 26847 26848 26849 26850 26851 26852 26853 26854 26855 26856 26857 26858 26859 26860 26861 26862 26863 26864 26865 26866 26867 26868 26869 26870 26871 26872 26873 26874 26875 26876 26877 26878 26879 26880 26881 26882 26883 26884 26885 26886 26887 26888 26889 26890 26891 26892 26893 26894 26895 26896 26897 26898 26899 26900 26901 26902 26903 26904 26905 26906 26907 26908 26909 26910 26911 26912 26913 26914 26915 26916 26917 26918 26919 26920 26921 26922 26923 26924 26925 26926 26927 26928 26929 26930 26931 26932 26933 26934 26935 26936 26937 26938 26939 26940 26941 26942 26943 26944 26945 26946 26947 26948 26949 26950 26951 26952 26953 26954 26955 26956 26957 26958 26959 26960 26961 26962 26963 26964 26965 26966 26967 26968 26969 26970 26971 26972 26973 26974 26975 26976 26977 26978 26979 26980 26981 26982 26983 26984 26985 26986 26987 26988 26989 26990 26991 26992 26993 26994 26995 26996 26997 26998 26999 27000 27001 27002 27003 27004 27005 27006 27007 27008 27009 27010 27011 27012 27013 27014 27015 27016 27017 27018 27019 27020 27021 27022 27023 27024 27025 27026 27027 27028 27029 27030 27031 27032 27033 27034 27035 27036 27037 27038 27039 27040 27041 27042 27043 27044 27045 27046 27047 27048 27049 27050 27051 27052 27053 27054 27055 27056 27057 27058 27059 27060 27061 27062 27063 27064 27065 27066 27067 27068 27069 27070 27071 27072 27073 27074 27075 27076 27077 27078 27079 27080 27081 27082 27083 27084 27085 27086 27087 27088 27089 27090 27091 27092 27093 27094 27095 27096 27097 27098 27099 27100 27101 27102 27103 27104 27105 27106 27107 27108 27109 27110 27111 27112 27113 27114 27115 27116 27117 27118 27119 27120 27121 27122 27123 27124 27125 27126 27127 27128 27129 27130 27131 27132 27133 27134 27135 27136 27137 27138 27139 27140 27141 27142 27143 27144 27145 27146 27147 27148 27149 27150 27151 27152 27153 27154 27155 27156 27157 27158 27159 27160 27161 27162 27163 27164 27165 27166 27167 27168 27169 27170 27171 27172 27173 27174 27175 27176 27177 27178 27179 27180 27181 27182 27183 27184 27185 27186 27187 27188 27189 27190 27191 27192 27193 27194 27195 27196 27197 27198 27199 27200 27201 27202 27203 27204 27205 27206 27207 27208 27209 27210 27211 27212 27213 27214 27215 27216 27217 27218 27219 27220 27221 27222 27223 27224 27225 27226 27227 27228 27229 27230 27231 27232 27233 27234 27235 27236 27237 27238 27239 27240 27241 27242 27243 27244 27245 27246 27247 27248 27249 27250 27251 27252 27253 27254 27255 27256 27257 27258 27259 27260 27261 27262 27263 27264 27265 27266 27267 27268 27269 27270 27271 27272 27273 27274 27275 27276 27277 27278 27279 27280 27281 27282 27283 27284 27285 27286 27287 27288 27289 27290 27291 27292 27293 27294 27295 27296 27297 27298 27299 27300 27301 27302 27303 27304 27305 27306 27307 27308 27309 27310 27311 27312 27313 27314 27315 27316 27317 27318 27319 27320 27321 27322 27323 27324 27325 27326 27327 27328 27329 27330 27331 27332 27333 27334 27335 27336 27337 27338 27339 27340 27341 27342 27343 27344 27345 27346 27347 27348 27349 27350 27351 27352 27353 27354 27355 27356 27357 27358 27359 27360 27361 27362 27363 27364 27365 27366 27367 27368 27369 27370 27371 27372 27373 27374 27375 27376 27377 27378 27379 27380 27381 27382 27383 27384 27385 27386 27387 27388 27389 27390 27391 27392 27393 27394 27395 27396 27397 27398 27399 27400 27401 27402 27403 27404 27405 27406 27407 27408 27409 27410 27411 27412 27413 27414 27415 27416 27417 27418 27419 27420 27421 27422 27423 27424 27425 27426 27427 27428 27429 27430 27431 27432 27433 27434 27435 27436 27437 27438 27439 27440 27441 27442 27443 27444 27445 27446 27447 27448 27449 27450 27451 27452 27453 27454 27455 27456 27457 27458 27459 27460 27461 27462 27463 27464 27465 27466 27467 27468 27469 27470 27471 27472 27473 27474 27475 27476 27477 27478 27479 27480 27481 27482 27483 27484 27485 27486 27487 27488 27489 27490 27491 27492 27493 27494 27495 27496 27497 27498 27499 27500 27501 27502 27503 27504 27505 27506 27507 27508 27509 27510 27511 27512 27513 27514 27515 27516 27517 27518 27519 27520 27521 27522 27523 27524 27525 27526 27527 27528 27529 27530 27531 27532 27533 27534 27535 27536 27537 27538 27539 27540 27541 27542 27543 27544 27545 27546 27547 27548 27549 27550 27551 27552 27553 27554 27555 27556 27557 27558 27559 27560 27561 27562 27563 27564 27565 27566 27567 27568 27569 27570 27571 27572 27573 27574 27575 27576 27577 27578 27579 27580 27581 27582 27583 27584 27585 27586 27587 27588 27589 27590 27591 27592 27593 27594 27595 27596 27597 27598 27599 27600 27601 27602 27603 27604 27605 27606 27607 27608 27609 27610 27611 27612 27613 27614 27615 27616 27617 27618 27619 27620 27621 27622 27623 27624 27625 27626 27627 27628 27629 27630 27631 27632 27633 27634 27635 27636 27637 27638 27639 27640 27641 27642 27643 27644 27645 27646 27647 27648 27649 27650 27651 27652 27653 27654 27655 27656 27657 27658 27659 27660 27661 27662 27663 27664 27665 27666 27667 27668 27669 27670 27671 27672 27673 27674 27675 27676 27677 27678 27679 27680 27681 27682 27683 27684 27685 27686 27687 27688 27689 27690 27691 27692 27693 27694 27695 27696 27697 27698 27699 27700 27701 27702 27703 27704 27705 27706 27707 27708 27709 27710 27711 27712 27713 27714 27715 27716 27717 27718 27719 27720 27721 27722 27723 27724 27725 27726 27727 27728 27729 27730 27731 27732 27733 27734 27735 27736 27737 27738 27739 27740 27741 27742 27743 27744 27745 27746 27747 27748 27749 27750 27751 27752 27753 27754 27755 27756 27757 27758 27759 27760 27761 27762 27763 27764 27765 27766 27767 27768 27769 27770 27771 27772 27773 27774 27775 27776 27777 27778 27779 27780 27781 27782 27783 27784 27785 27786 27787 27788 27789 27790 27791 27792 27793 27794 27795 27796 27797 27798 27799 27800 27801 27802 27803 27804 27805 27806 27807 27808 27809 27810 27811 27812 27813 27814 27815 27816 27817 27818 27819 27820 27821 27822 27823 27824 27825 27826 27827 27828 27829 27830 27831 27832 27833 27834 27835 27836 27837 27838 27839 27840 27841 27842 27843 27844 27845 27846 27847 27848 27849 27850 27851 27852 27853 27854 27855 27856 27857 27858 27859 27860 27861 27862 27863 27864 27865 27866 27867 27868 27869 27870 27871 27872 27873 27874 27875 27876 27877 27878 27879 27880 27881 27882 27883 27884 27885 27886 27887 27888 27889 27890 27891 27892 27893 27894 27895 27896 27897 27898 27899 27900 27901 27902 27903 27904 27905 27906 27907 27908 27909 27910 27911 27912 27913 27914 27915 27916 27917 27918 27919 27920 27921 27922 27923 27924 27925 27926 27927 27928 27929 27930 27931 27932 27933 27934 27935 27936 27937 27938 27939 27940 27941 27942 27943 27944 27945 27946 27947 27948 27949 27950 27951 27952 27953 27954 27955 27956 27957 27958 27959 27960 27961 27962 27963 27964 27965 27966 27967 27968 27969 27970 27971 27972 27973 27974 27975 27976 27977 27978 27979 27980 27981 27982 27983 27984 27985 27986 27987 27988 27989 27990 27991 27992 27993 27994 27995 27996 27997 27998 27999 28000 28001 28002 28003 28004 28005 28006 28007 28008 28009 28010 28011 28012 28013 28014 28015 28016 28017 28018 28019 28020 28021 28022 28023 28024 28025 28026 28027 28028 28029 28030 28031 28032 28033 28034 28035 28036 28037 28038 28039 28040 28041 28042 28043 28044 28045 28046 28047 28048 28049 28050 28051 28052 28053 28054 28055 28056 28057 28058 28059 28060 28061 28062 28063 28064 28065 28066 28067 28068 28069 28070 28071 28072 28073 28074 28075 28076 28077 28078 28079 28080 28081 28082 28083 28084 28085 28086 28087 28088 28089 28090 28091 28092 28093 28094 28095 28096 28097 28098 28099 28100 28101 28102 28103 28104 28105 28106 28107 28108 28109 28110 28111 28112 28113 28114 28115 28116 28117 28118 28119 28120 28121 28122 28123 28124 28125 28126 28127 28128 28129 28130 28131 28132 28133 28134 28135 28136 28137 28138 28139 28140 28141 28142 28143 28144 28145 28146 28147 28148 28149 28150 28151 28152 28153 28154 28155 28156 28157 28158 28159 28160 28161 28162 28163 28164 28165 28166 28167 28168 28169 28170 28171 28172 28173 28174 28175 28176 28177 28178 28179 28180 28181 28182 28183 28184 28185 28186 28187 28188 28189 28190 28191 28192 28193 28194 28195 28196 28197 28198 28199 28200 28201 28202 28203 28204 28205 28206 28207 28208 28209 28210 28211 28212 28213 28214 28215 28216 28217 28218 28219 28220 28221 28222 28223 28224 28225 28226 28227 28228 28229 28230 28231 28232 28233 28234 28235 28236 28237 28238 28239 28240 28241 28242 28243 28244 28245 28246 28247 28248 28249 28250 28251 28252 28253 28254 28255 28256 28257 28258 28259 28260 28261 28262 28263 28264 28265 28266 28267 28268 28269 28270 28271 28272 28273 28274 28275 28276 28277 28278 28279 28280 28281 28282 28283 28284 28285 28286 28287 28288 28289 28290 28291 28292 28293 28294 28295 28296 28297 28298 28299 28300 28301 28302 28303 28304 28305 28306 28307 28308 28309 28310 28311 28312 28313 28314 28315 28316 28317 28318 28319 28320 28321 28322 28323 28324 28325 28326 28327 28328 28329 28330 28331 28332 28333 28334 28335 28336 28337 28338 28339 28340 28341 28342 28343 28344 28345 28346 28347 28348 28349 28350 28351 28352 28353 28354 28355 28356 28357 28358 28359 28360 28361 28362 28363 28364 28365 28366 28367 28368 28369 28370 28371 28372 28373 28374 28375 28376 28377 28378 28379 28380 28381 28382 28383 28384 28385 28386 28387 28388 28389 28390 28391 28392 28393 28394 28395 28396 28397 28398 28399 28400 28401 28402 28403 28404 28405 28406 28407 28408 28409 28410 28411 28412 28413 28414 28415 28416 28417 28418 28419 28420 28421 28422 28423 28424 28425 28426 28427 28428 28429 28430 28431 28432 28433 28434 28435 28436 28437 28438 28439 28440 28441 28442 28443 28444 28445 28446 28447 28448 28449 28450 28451 28452 28453 28454 28455 28456 28457 28458 28459 28460 28461 28462 28463 28464 28465 28466 28467 28468 28469 28470 28471 28472 28473 28474 28475 28476 28477 28478 28479 28480 28481 28482 28483 28484 28485 28486 28487 28488 28489 28490 28491 28492 28493 28494 28495 28496 28497 28498 28499 28500 28501 28502 28503 28504 28505 28506 28507 28508 28509 28510 28511 28512 28513 28514 28515 28516 28517 28518 28519 28520 28521 28522 28523 28524 28525 28526 28527 28528 28529 28530 28531 28532 28533 28534 28535 28536 28537 28538 28539 28540 28541 28542 28543 28544 28545 28546 28547 28548 28549 28550 28551 28552 28553 28554 28555 28556 28557 28558 28559 28560 28561 28562 28563 28564 28565 28566 28567 28568 28569 28570 28571 28572 28573 28574 28575 28576 28577 28578 28579 28580 28581 28582 28583 28584 28585 28586 28587 28588 28589 28590 28591 28592 28593 28594 28595 28596 28597 28598 28599 28600 28601 28602 28603 28604 28605 28606 28607 28608 28609 28610 28611 28612 28613 28614 28615 28616 28617 28618 28619 28620 28621 28622 28623 28624 28625 28626 28627 28628 28629 28630 28631 28632 28633 28634 28635 28636 28637 28638 28639 28640 28641 28642 28643 28644 28645 28646 28647 28648 28649 28650 28651 28652 28653 28654 28655 28656 28657 28658 28659 28660 28661 28662 28663 28664 28665 28666 28667 28668 28669 28670 28671 28672 28673 28674 28675 28676 28677 28678 28679 28680 28681 28682 28683 28684 28685 28686 28687 28688 28689 28690 28691 28692 28693 28694 28695 28696 28697 28698 28699 28700 28701 28702 28703 28704 28705 28706 28707 28708 28709 28710 28711 28712 28713 28714 28715 28716 28717 28718 28719 28720 28721 28722 28723 28724 28725 28726 28727 28728 28729 28730 28731 28732 28733 28734 28735 28736 28737 28738 28739 28740 28741 28742 28743 28744 28745 28746 28747 28748 28749 28750 28751 28752 28753 28754 28755 28756 28757 28758 28759 28760 28761 28762 28763 28764 28765 28766 28767 28768 28769 28770 28771 28772 28773 28774 28775 28776 28777 28778 28779 28780 28781 28782 28783 28784 28785 28786 28787 28788 28789 28790 28791 28792 28793 28794 28795 28796 28797 28798 28799 28800 28801 28802 28803 28804 28805 28806 28807 28808 28809 28810 28811 28812 28813 28814 28815 28816 28817 28818 28819 28820 28821 28822 28823 28824 28825 28826 28827 28828 28829 28830 28831 28832 28833 28834 28835 28836 28837 28838 28839 28840 28841 28842 28843 28844 28845 28846 28847 28848 28849 28850 28851 28852 28853 28854 28855 28856 28857 28858 28859 28860 28861 28862 28863 28864 28865 28866 28867 28868 28869 28870 28871 28872 28873 28874 28875 28876 28877 28878 28879 28880 28881 28882 28883 28884 28885 28886 28887 28888 28889 28890 28891 28892 28893 28894 28895 28896 28897 28898 28899 28900 28901 28902 28903 28904 28905 28906 28907 28908 28909 28910 28911 28912 28913 28914 28915 28916 28917 28918 28919 28920 28921 28922 28923 28924 28925 28926 28927 28928 28929 28930 28931 28932 28933 28934 28935 28936 28937 28938 28939 28940 28941 28942 28943 28944 28945 28946 28947 28948 28949 28950 28951 28952 28953 28954 28955 28956 28957 28958 28959 28960 28961 28962 28963 28964 28965 28966 28967 28968 28969 28970 28971 28972 28973 28974 28975 28976 28977 28978 28979 28980 28981 28982 28983 28984 28985 28986 28987 28988 28989 28990 28991 28992 28993 28994 28995 28996 28997 28998 28999 29000 29001 29002 29003 29004 29005 29006 29007 29008 29009 29010 29011 29012 29013 29014 29015 29016 29017 29018 29019 29020 29021 29022 29023 29024 29025 29026 29027 29028 29029 29030 29031 29032 29033 29034 29035 29036 29037 29038 29039 29040 29041 29042 29043 29044 29045 29046 29047 29048 29049 29050 29051 29052 29053 29054 29055 29056 29057 29058 29059 29060 29061 29062 29063 29064 29065 29066 29067 29068 29069 29070 29071 29072 29073 29074 29075 29076 29077 29078 29079 29080 29081 29082 29083 29084 29085 29086 29087 29088 29089 29090 29091 29092 29093 29094 29095 29096 29097 29098 29099 29100 29101 29102 29103 29104 29105 29106 29107 29108 29109 29110 29111 29112 29113 29114 29115 29116 29117 29118 29119 29120 29121 29122 29123 29124 29125 29126 29127 29128 29129 29130 29131 29132 29133 29134 29135 29136 29137 29138 29139 29140 29141 29142 29143 29144 29145 29146 29147 29148 29149 29150 29151 29152 29153 29154 29155 29156 29157 29158 29159 29160 29161 29162 29163 29164 29165 29166 29167 29168 29169 29170 29171 29172 29173 29174 29175 29176 29177 29178 29179 29180 29181 29182 29183 29184 29185 29186 29187 29188 29189 29190 29191 29192 29193 29194 29195 29196 29197 29198 29199 29200 29201 29202 29203 29204 29205 29206 29207 29208 29209 29210 29211 29212 29213 29214 29215 29216 29217 29218 29219 29220 29221 29222 29223 29224 29225 29226 29227 29228 29229 29230 29231 29232 29233 29234 29235 29236 29237 29238 29239 29240 29241 29242 29243 29244 29245 29246 29247 29248 29249 29250 29251 29252 29253 29254 29255 29256 29257 29258 29259 29260 29261 29262 29263 29264 29265 29266 29267 29268 29269 29270 29271 29272 29273 29274 29275 29276 29277 29278 29279 29280 29281 29282 29283 29284 29285 29286 29287 29288 29289 29290 29291 29292 29293 29294 29295 29296 29297 29298 29299 29300 29301 29302 29303 29304 29305 29306 29307 29308 29309 29310 29311 29312 29313 29314 29315 29316 29317 29318 29319 29320 29321 29322 29323 29324 29325 29326 29327 29328 29329 29330 29331 29332 29333 29334 29335 29336 29337 29338 29339 29340 29341 29342 29343 29344 29345 29346 29347 29348 29349 29350 29351 29352 29353 29354 29355 29356 29357 29358 29359 29360 29361 29362 29363 29364 29365 29366 29367 29368 29369 29370 29371 29372 29373 29374 29375 29376 29377 29378 29379 29380 29381 29382 29383 29384 29385 29386 29387 29388 29389 29390 29391 29392 29393 29394 29395 29396 29397 29398 29399 29400 29401 29402 29403 29404 29405 29406 29407 29408 29409 29410 29411 29412 29413 29414 29415 29416 29417 29418 29419 29420 29421 29422 29423 29424 29425 29426 29427 29428 29429 29430 29431 29432 29433 29434 29435 29436 29437 29438 29439 29440 29441 29442 29443 29444 29445 29446 29447 29448 29449 29450 29451 29452 29453 29454 29455 29456 29457 29458 29459 29460 29461 29462 29463 29464 29465 29466 29467 29468 29469 29470 29471 29472 29473 29474 29475 29476 29477 29478 29479 29480 29481 29482 29483 29484 29485 29486 29487 29488 29489 29490 29491 29492 29493 29494 29495 29496 29497 29498 29499 29500 29501 29502 29503 29504 29505 29506 29507 29508 29509 29510 29511 29512 29513 29514 29515 29516 29517 29518 29519 29520 29521 29522 29523 29524 29525 29526 29527 29528 29529 29530 29531 29532 29533 29534 29535 29536 29537 29538 29539 29540 29541 29542 29543 29544 29545 29546 29547 29548 29549 29550 29551 29552 29553 29554 29555 29556 29557 29558 29559 29560 29561 29562 29563 29564 29565 29566 29567 29568 29569 29570 29571 29572 29573 29574 29575 29576 29577 29578 29579 29580 29581 29582 29583 29584 29585 29586 29587 29588 29589 29590 29591 29592 29593 29594 29595 29596 29597 29598 29599 29600 29601 29602 29603 29604 29605 29606 29607 29608 29609 29610 29611 29612 29613 29614 29615 29616 29617 29618 29619 29620 29621 29622 29623 29624 29625 29626 29627 29628 29629 29630 29631 29632 29633 29634 29635 29636 29637 29638 29639 29640 29641 29642 29643 29644 29645 29646 29647 29648 29649 29650 29651 29652 29653 29654 29655 29656 29657 29658 29659 29660 29661 29662 29663 29664 29665 29666 29667 29668 29669 29670 29671 29672 29673 29674 29675 29676 29677 29678 29679 29680 29681 29682 29683 29684 29685 29686 29687 29688 29689 29690 29691 29692 29693 29694 29695 29696 29697 29698 29699 29700 29701 29702 29703 29704 29705 29706 29707 29708 29709 29710 29711 29712 29713 29714 29715 29716 29717 29718 29719 29720 29721 29722 29723 29724 29725 29726 29727 29728 29729 29730 29731 29732 29733 29734 29735 29736 29737 29738 29739 29740 29741 29742 29743 29744 29745 29746 29747 29748 29749 29750 29751 29752 29753 29754 29755 29756 29757 29758 29759 29760 29761 29762 29763 29764 29765 29766 29767 29768 29769 29770 29771 29772 29773 29774 29775 29776 29777 29778 29779 29780 29781 29782 29783 29784 29785 29786 29787 29788 29789 29790 29791 29792 29793 29794 29795 29796 29797 29798 29799 29800 29801 29802 29803 29804 29805 29806 29807 29808 29809 29810 29811 29812 29813 29814 29815 29816 29817 29818 29819 29820 29821 29822 29823 29824 29825 29826 29827 29828 29829 29830 29831 29832 29833 29834 29835 29836 29837 29838 29839 29840 29841 29842 29843 29844 29845 29846 29847 29848 29849 29850 29851 29852 29853 29854 29855 29856 29857 29858 29859 29860 29861 29862 29863 29864 29865 29866 29867 29868 29869 29870 29871 29872 29873 29874 29875 29876 29877 29878 29879 29880 29881 29882 29883 29884 29885 29886 29887 29888 29889 29890 29891 29892 29893 29894 29895 29896 29897 29898 29899 29900 29901 29902 29903 29904 29905 29906 29907 29908 29909 29910 29911 29912 29913 29914 29915 29916 29917 29918 29919 29920 29921 29922 29923 29924 29925 29926 29927 29928 29929 29930 29931 29932 29933 29934 29935 29936 29937 29938 29939 29940 29941 29942 29943 29944 29945 29946 29947 29948 29949 29950 29951 29952 29953 29954 29955 29956 29957 29958 29959 29960 29961 29962 29963 29964 29965 29966 29967 29968 29969 29970 29971 29972 29973 29974 29975 29976 29977 29978 29979 29980 29981 29982 29983 29984 29985 29986 29987 29988 29989 29990 29991 29992 29993 29994 29995 29996 29997 29998 29999 30000 30001 30002 30003 30004 30005 30006 30007 30008 30009 30010 30011 30012 30013 30014 30015 30016 30017 30018 30019 30020 30021 30022 30023 30024 30025 30026 30027 30028 30029 30030 30031 30032 30033 30034 30035 30036 30037 30038 30039 30040 30041 30042 30043 30044 30045 30046 30047 30048 30049 30050 30051 30052 30053 30054 30055 30056 30057 30058 30059 30060 30061 30062 30063 30064 30065 30066 30067 30068 30069 30070 30071 30072 30073 30074 30075 30076 30077 30078 30079 30080 30081 30082 30083 30084 30085 30086 30087 30088 30089 30090 30091 30092 30093 30094 30095 30096 30097 30098 30099 30100 30101 30102 30103 30104 30105 30106 30107 30108 30109 30110 30111 30112 30113 30114 30115 30116 30117 30118 30119 30120 30121 30122 30123 30124 30125 30126 30127 30128 30129 30130 30131 30132 30133 30134 30135 30136 30137 30138 30139 30140 30141 30142 30143 30144 30145 30146 30147 30148 30149 30150 30151 30152 30153 30154 30155 30156 30157 30158 30159 30160 30161 30162 30163 30164 30165 30166 30167 30168 30169 30170 30171 30172 30173 30174 30175 30176 30177 30178 30179 30180 30181 30182 30183 30184 30185 30186 30187 30188 30189 30190 30191 30192 30193 30194 30195 30196 30197 30198 30199 30200 30201 30202 30203 30204 30205 30206 30207 30208 30209 30210 30211 30212 30213 30214 30215 30216 30217 30218 30219 30220 30221 30222 30223 30224 30225 30226 30227 30228 30229 30230 30231 30232 30233 30234 30235 30236 30237 30238 30239 30240 30241 30242 30243 30244 30245 30246 30247 30248 30249 30250 30251 30252 30253 30254 30255 30256 30257 30258 30259 30260 30261 30262 30263 30264 30265 30266 30267 30268 30269 30270 30271 30272 30273 30274 30275 30276 30277 30278 30279 30280 30281 30282 30283 30284 30285 30286 30287 30288 30289 30290 30291 30292 30293 30294 30295 30296 30297 30298 30299 30300 30301 30302 30303 30304 30305 30306 30307 30308 30309 30310 30311 30312 30313 30314 30315 30316 30317 30318 30319 30320 30321 30322 30323 30324 30325 30326 30327 30328 30329 30330 30331 30332 30333 30334 30335 30336 30337 30338 30339 30340 30341 30342 30343 30344 30345 30346 30347 30348 30349 30350 30351 30352 30353 30354 30355 30356 30357 30358 30359 30360 30361 30362 30363 30364 30365 30366 30367 30368 30369 30370 30371 30372 30373 30374 30375 30376 30377 30378 30379 30380 30381 30382 30383 30384 30385 30386 30387 30388 30389 30390 30391 30392 30393 30394 30395 30396 30397 30398 30399 30400 30401 30402 30403 30404 30405 30406 30407 30408 30409 30410 30411 30412 30413 30414 30415 30416 30417 30418 30419 30420 30421 30422 30423 30424 30425 30426 30427 30428 30429 30430 30431 30432 30433 30434 30435 30436 30437 30438 30439 30440 30441 30442 30443 30444 30445 30446 30447 30448 30449 30450 30451 30452 30453 30454 30455 30456 30457 30458 30459 30460 30461 30462 30463 30464 30465 30466 30467 30468 30469 30470 30471 30472 30473 30474 30475 30476 30477 30478 30479 30480 30481 30482 30483 30484 30485 30486 30487 30488 30489 30490 30491 30492 30493 30494 30495 30496 30497 30498 30499 30500 30501 30502 30503 30504 30505 30506 30507 30508 30509 30510 30511 30512 30513 30514 30515 30516 30517 30518 30519 30520 30521 30522 30523 30524 30525 30526 30527 30528 30529 30530 30531 30532 30533 30534 30535 30536 30537 30538 30539 30540 30541 30542 30543 30544 30545 30546 30547 30548 30549 30550 30551 30552 30553 30554 30555 30556 30557 30558 30559 30560 30561 30562 30563 30564 30565 30566 30567 30568 30569 30570 30571 30572 30573 30574 30575 30576 30577 30578 30579 30580 30581 30582 30583 30584 30585 30586 30587 30588 30589 30590 30591 30592 30593 30594 30595 30596 30597 30598 30599 30600 30601 30602 30603 30604 30605 30606 30607 30608 30609 30610 30611 30612 30613 30614 30615 30616 30617 30618 30619 30620 30621 30622 30623 30624 30625 30626 30627 30628 30629 30630 30631 30632 30633 30634 30635 30636 30637 30638 30639 30640 30641 30642 30643 30644 30645 30646 30647 30648 30649 30650 30651 30652 30653 30654 30655 30656 30657 30658 30659 30660 30661 30662 30663 30664 30665 30666 30667 30668 30669 30670 30671 30672 30673 30674 30675 30676 30677 30678 30679 30680 30681 30682 30683 30684 30685 30686 30687 30688 30689 30690 30691 30692 30693 30694 30695 30696 30697 30698 30699 30700 30701 30702 30703 30704 30705 30706 30707 30708 30709 30710 30711 30712 30713 30714 30715 30716 30717 30718 30719 30720 30721 30722 30723 30724 30725 30726 30727 30728 30729 30730 30731 30732 30733 30734 30735 30736 30737 30738 30739 30740 30741 30742 30743 30744 30745 30746 30747 30748 30749 30750 30751 30752 30753 30754 30755 30756 30757 30758 30759 30760 30761 30762 30763 30764 30765 30766 30767 30768 30769 30770 30771 30772 30773 30774 30775 30776 30777 30778 30779 30780 30781 30782 30783 30784 30785 30786 30787 30788 30789 30790 30791 30792 30793 30794 30795 30796 30797 30798 30799 30800 30801 30802 30803 30804 30805 30806 30807 30808 30809 30810 30811 30812 30813 30814 30815 30816 30817 30818 30819 30820 30821 30822 30823 30824 30825 30826 30827 30828 30829 30830 30831 30832 30833 30834 30835 30836 30837 30838 30839 30840 30841 30842 30843 30844 30845 30846 30847 30848 30849 30850 30851 30852 30853 30854 30855 30856 30857 30858 30859 30860 30861 30862 30863 30864 30865 30866 30867 30868 30869 30870 30871 30872 30873 30874 30875 30876 30877 30878 30879 30880 30881 30882 30883 30884 30885 30886 30887 30888 30889 30890 30891 30892 30893 30894 30895 30896 30897 30898 30899 30900 30901 30902 30903 30904 30905 30906 30907 30908 30909 30910 30911 30912 30913 30914 30915 30916 30917 30918 30919 30920 30921 30922 30923 30924 30925 30926 30927 30928 30929 30930 30931 30932 30933 30934 30935 30936 30937 30938 30939 30940 30941 30942 30943 30944 30945 30946 30947 30948 30949 30950 30951 30952 30953 30954 30955 30956 30957 30958 30959 30960 30961 30962 30963 30964 30965 30966 30967 30968 30969 30970 30971 30972 30973 30974 30975 30976 30977 30978 30979 30980 30981 30982 30983 30984 30985 30986 30987 30988 30989 30990 30991 30992 30993 30994 30995 30996 30997 30998 30999 31000 31001 31002 31003 31004 31005 31006 31007 31008 31009 31010 31011 31012 31013 31014 31015 31016 31017 31018 31019 31020 31021 31022 31023 31024 31025 31026 31027 31028 31029 31030 31031 31032 31033 31034 31035 31036 31037 31038 31039 31040 31041 31042 31043 31044 31045 31046 31047 31048 31049 31050 31051 31052 31053 31054 31055 31056 31057 31058 31059 31060 31061 31062 31063 31064 31065 31066 31067 31068 31069 31070 31071 31072 31073 31074 31075 31076 31077 31078 31079 31080 31081 31082 31083 31084 31085 31086 31087 31088 31089 31090 31091 31092 31093 31094 31095 31096 31097 31098 31099 31100 31101 31102 31103 31104 31105 31106 31107 31108 31109 31110 31111 31112 31113 31114 31115 31116 31117 31118 31119 31120 31121 31122 31123 31124 31125 31126 31127 31128 31129 31130 31131 31132 31133 31134 31135 31136 31137 31138 31139 31140 31141 31142 31143 31144 31145 31146 31147 31148 31149 31150 31151 31152 31153 31154 31155 31156 31157 31158 31159 31160 31161 31162 31163 31164 31165 31166 31167 31168 31169 31170 31171 31172 31173 31174 31175 31176 31177 31178 31179 31180 31181 31182 31183 31184 31185 31186 31187 31188 31189 31190 31191 31192 31193 31194 31195 31196 31197 31198 31199 31200 31201 31202 31203 31204 31205 31206 31207 31208 31209 31210 31211 31212 31213 31214 31215 31216 31217 31218 31219 31220 31221 31222 31223 31224 31225 31226 31227 31228 31229 31230 31231 31232 31233 31234 31235 31236 31237 31238 31239 31240 31241 31242 31243 31244 31245 31246 31247 31248 31249 31250 31251 31252 31253 31254 31255 31256 31257 31258 31259 31260 31261 31262 31263 31264 31265 31266 31267 31268 31269 31270 31271 31272 31273 31274 31275 31276 31277 31278 31279 31280 31281 31282 31283 31284 31285 31286 31287 31288 31289 31290 31291 31292 31293 31294 31295 31296 31297 31298 31299 31300 31301 31302 31303 31304 31305 31306 31307 31308 31309 31310 31311 31312 31313 31314 31315 31316 31317 31318 31319 31320 31321 31322 31323 31324 31325 31326 31327 31328 31329 31330 31331 31332 31333 31334 31335 31336 31337 31338 31339 31340 31341 31342 31343 31344 31345 31346 31347 31348 31349 31350 31351 31352 31353 31354 31355 31356 31357 31358 31359 31360 31361 31362 31363 31364 31365 31366 31367 31368 31369 31370 31371 31372 31373 31374 31375 31376 31377 31378 31379 31380 31381 31382 31383 31384 31385 31386 31387 31388 31389 31390 31391 31392 31393 31394 31395 31396 31397 31398 31399 31400 31401 31402 31403 31404 31405 31406 31407 31408 31409 31410 31411 31412 31413 31414 31415 31416 31417 31418 31419 31420 31421 31422 31423 31424 31425 31426 31427 31428 31429 31430 31431 31432 31433 31434 31435 31436 31437 31438 31439 31440 31441 31442 31443 31444 31445 31446 31447 31448 31449 31450 31451 31452 31453 31454 31455 31456 31457 31458 31459 31460 31461 31462 31463 31464 31465 31466 31467 31468 31469 31470 31471 31472 31473 31474 31475 31476 31477 31478 31479 31480 31481 31482 31483 31484 31485 31486 31487 31488 31489 31490 31491 31492 31493 31494 31495 31496 31497 31498 31499 31500 31501 31502 31503 31504 31505 31506 31507 31508 31509 31510 31511 31512 31513 31514 31515 31516 31517 31518 31519 31520 31521 31522 31523 31524 31525 31526 31527 31528 31529 31530 31531 31532 31533 31534 31535 31536 31537 31538 31539 31540 31541 31542 31543 31544 31545 31546 31547 31548 31549 31550 31551 31552 31553 31554 31555 31556 31557 31558 31559 31560 31561 31562 31563 31564 31565 31566 31567 31568 31569 31570 31571 31572 31573 31574 31575 31576 31577 31578 31579 31580 31581 31582 31583 31584 31585 31586 31587 31588 31589 31590 31591 31592 31593 31594 31595 31596 31597 31598 31599 31600 31601 31602 31603 31604 31605 31606 31607 31608 31609 31610 31611 31612 31613 31614 31615 31616 31617 31618 31619 31620 31621 31622 31623 31624 31625 31626 31627 31628 31629 31630 31631 31632 31633 31634 31635 31636 31637 31638 31639 31640 31641 31642 31643 31644 31645 31646 31647 31648 31649 31650 31651 31652 31653 31654 31655 31656 31657 31658 31659 31660 31661 31662 31663 31664 31665 31666 31667 31668 31669 31670 31671 31672 31673 31674 31675 31676 31677 31678 31679 31680 31681 31682 31683 31684 31685 31686 31687 31688 31689 31690 31691 31692 31693 31694 31695 31696 31697 31698 31699 31700 31701 31702 31703 31704 31705 31706 31707 31708 31709 31710 31711 31712 31713 31714 31715 31716 31717 31718 31719 31720 31721 31722 31723 31724 31725 31726 31727 31728 31729 31730 31731 31732 31733 31734 31735 31736 31737 31738 31739 31740 31741 31742 31743 31744 31745 31746 31747 31748 31749 31750 31751 31752 31753 31754 31755 31756 31757 31758 31759 31760 31761 31762 31763 31764 31765 31766 31767 31768 31769 31770 31771 31772 31773 31774 31775 31776 31777 31778 31779 
</DataArray>
<DataArray type="UInt32" Name="offsets" format="ascii">
3 6 9 12 15 17 20 23 26 29 32 35 38 41 44 47 49 52 55 58 61 63 66 68 71 74 76 79 82 85 88 90 93 96 98 100 103 106 109 112 115 118 120 123 126 129 131 134 136 139 141 144 147 150 153 156 158 161 164 167 170 173 176 179 182 185 188 191 194 196 199 202 205 208 211 214 217 220 222 225 228 231 234 237 240 243 246 249 252 255 258 261 264 267 270 273 276 279 282 284 287 290 293 296 299 302 305 308 311 313 315 318 321 324 327 330 333 336 339 342 344 347 350 353 356 358 361 363 366 369 372 374 377 380 382 384 387 390 393 396 398 400 402 405 408 411 414 417 419 422 425 428 431 434 436 439 442 445 447 450 453 456 459 462 465 468 471 474 477 480 483 486 489 492 495 498 501 504 507 510 512 515 518 521 524 527 530 533 536 538 541 544 546 549 551 553 556 559 562 565 568 570 572 575 577 580 583 586 588 591 594 596 599 602 605 608 610 613 615 618 621 623 625 628 631 634 637 640 643 646 649 651 654 657 659 662 665 668 671 674 677 680 682 685 688 691 694 697 699 702 705 707 710 712 715 718 721 724 726 729 732 735 738 741 743 746 749 752 755 758 761 764 767 769 772 775 777 780 783 785 788 791 793 796 799 801 804 807 810 813 816 819 821 824 826 829 832 835 837 840 843 846 849 852 855 858 861 864 867 870 872 875 878 881 884 887 890 893 896 899 902 904 907 909 912 915 918 920 923 926 929 931 934 937 940 943 946 949 951 953 956 959 962 964 967 970 972 974 977 980 982 985 988 991 994 997 999 1002 1005 1008 1011 1013 1016 1019 1021 1024 1027 1030 1032 1034 1037 1040 1043 1045 1048 1051 1054 1057 1060 1062 1065 1067 1070 1073 1076 1079 1082 1085 1088 1091 1094 1097 1100 1102 1104 1107 1110 1113 1116 1119 1122 1125 1128 1131 1134 1137 1140 1143 1145 1148 1151 1154 1157 1160 1163 1166 1169 1171 1174 1177 1179 1182 1185 1188 1191 1194 1196 1199 1202 1204 1207 1210 1213 1216 1219 1221 1224 1226 1229 1232 1235 1238 1241 1244 1247 1250 1253 1256 1259 1262 1265 1268 1271 1273 1276 1279 1282 1285 1287 1290 1293 1296 1299 1301 1304 1307 1309 1311 1314 1317 1320 1323 1326 1328 1331 1333 1336 1339 1342 1344 1346 1349 1352 1355 1358 1360 1363 1366 1369 1372 1375 1378 1381 1384 1387 1390 1392 1395 1398 1401 1404 1407 1410 1413 1415 1417 1420 1423 1426 1429 1432 1435 1438 1441 1444 1447 1450 1452 1455 1458 1461 1464 1467 1470 1473 1476 1479 1482 1485 1488 1491 1494 1497 1500 1503 1506 1509 1512 1515 1518 1521 1523 1526 1529 1532 1534 1537 1540 1542 1545 1548 1551 1554 1557 1560 1563 1566 1569 1571 1574 1577 1580 1583 1586 1588 1591 1594 1596 1599 1602 1604 1607 1610 1612 1615 1618 1621 1624 1627 1630 1633 1636 1639 1642 1645 1648 1651 1654 1657 1660 1663 1666 1669 1672 1675 1678 1681 1684 1687 1689 1692 1695 1698 1701 1704 1706 1709 1712 1715 1718 1721 1723 1726 1728 1731 1734 1737 1740 1743 1746 1749 1752 1755 1758 1761 1764 1767 1770 1773 1776 1779 1782 1785 1788 1791 1794 1797 1800 1803 1806 1809 1812 1815 1818 1821 1824 1827 1830 1833 1836 1839 1842 1845 1848 1851 1854 1857 1860 1863 1866 1869 1872 1875 1878 1881 1884 1887 1890 1893 1896 1899 1902 1905 1908 1911 1914 1917 1920 1923 1926 1929 1932 1935 1938 1941 1944 1947 1950 1953 1956 1959 1962 1965 1968 1971 1974 1976 1979 1982 1985 1988 1991 1994 1997 2000 2003 2006 2009 2012 2015 2018 2021 2023 2026 2029 2031 2034 2037 2040 2043 2046 2049 2051 2054 2057 2059 2062 2065 2068 2071 2074 2077 2080 2083 2086 2089 2091 2094 2097 2099 2102 2105 2107 2110 2112 2115 2118 2121 2124 2127 2130 2133 2136 2139 2142 2145 2147 2150 2153 2156 2159 2162 2165 2168 2171 2173 2176 2178 2181 2184 2187 2190 2193 2196 2199 2202 2205 2208 2211 2214 2217 2220 2223 2226 2229 2232 2235 2238 2241 2244 2247 2250 2253 2255 2258 2261 2264 2267 2269 2272 2275 2278 2281 2283 2285 2288 2291 2294 2297 2299 2302 2305 2307 2310 2312 2315 2318 2321 2324 2326 2328 2331 2333 2335 2338 2341 2343 2346 2349 2351 2354 2357 2360 2363 2366 2369 2372 2375 2378 2380 2383 2385 2388 2391 2394 2397 2399 2401 2404 2407 2410 2413 2415 2418 2421 2423 2425 2428 2431 2433 2436 2439 2442 2445 2448 2451 2454 2457 2460 2463 2466 2469 2472 2475 2478 2481 2484 2487 2490 2493 2495 2498 2501 2504 2507 2510 2513 2516 2519 2522 2525 2528 2531 2534 2537 2539 2542 2545 2548 2551 2554 2557 2560 2562 2565 2568 2571 2573 2576 2579 2582 2585 2587 2590 2593 2596 2599 2602 2605 2607 2610 2613 2615 2617 2620 2622 2625 2628 2631 2633 2636 2639 2642 2644 2646 2649 2652 2655 2658 2661 2664 2667 2670 2672 2675 2678 2681 2684 2687 2690 2693 2696 2699 2702 2705 2708 2711 2714 2717 2720 2723 2725 2728 2731 2734 2736 2739 2742 2745 2748 2751 2754 2757 2760 2762 2765 2768 2771 2774 2777 2780 2783 2786 2789 2792 2795 2798 2801 2804 2807 2810 2813 2816 2818 2821 2824 2827 2830 2833 2836 2839 2842 2845 2848 2851 2854 2857 2860 2863 2866 2869 2872 2875 2878 2881 2884 2887 2889 2892 2894 2897 2900 2903 2906 2908 2910 2913 2916 2919 2922 2925 2928 2931 2934 2937 2940 2943 2946 2949 2952 2955 2958 2961 2963 2966 2969 2971 2974 2977 2980 2983 2986 2989 2992 2995 2998 3001 3004 3007 3010 3012 3014 3017 3019 3022 3025 3028 3031 3034 3037 3040 3043 3045 3048 3051 3054 3056 3059 3062 3065 3067 3070 3073 3076 3079 3082 3085 3088 3091 3094 3096 3099 3102 3105 3108 3111 3114 3117 3120 3123 3126 3128 3131 3134 3137 3140 3143 3146 3149 3152 3155 3158 3161 3163 3166 3168 3171 3173 3176 3179 3182 3184 3187 3189 3192 3195 3198 3200 3203 3206 3209 3212 3215 3218 3221 3224 3227 3230 3233 3236 3239 3242 3245 3247 3250 3253 3256 3259 3262 3265 3268 3271 3273 3276 3278 3281 3283 3286 3288 3290 3292 3295 3298 3301 3304 3307 3310 3313 3316 3319 3322 3325 3327 3330 3333 3336 3339 3342 3345 3348 3351 3354 3357 3360 3363 3366 3369 3372 3375 3378 3381 3384 3387 3390 3393 3396 3399 3402 3404 3407 3410 3413 3416 3419 3421 3424 3427 3430 3433 3436 3439 3442 3445 3448 3451 3454 3457 3460 3463 3465 3468 3471 3474 3477 3479 3482 3485 3488 3491 3494 3497 3500 3503 3506 3509 3512 3515 3517 3520 3523 3526 3529 3532 3535 3537 3540 3543 3546 3549 3552 3555 3558 3561 3564 3567 3570 3572 3574 3577 3580 3583 3585 3587 3590 3593 3596 3599 3602 3605 3608 3611 3614 3617 3620 3623 3626 3629 3632 3635 3638 3641 3644 3647 3650 3653 3656 3659 3662 3665 3668 3671 3674 3677 3680 3683 3686 3689 3692 3695 3698 3701 3704 3707 3710 3713 3716 3719 3722 3725 3728 3731 3734 3737 3739 3742 3745 3747 3750 3753 3755 3757 3760 3762 3765 3768 3771 3774 3777 3780 3782 3785 3788 3791 3794 3797 3800 3803 3806 3809 3812 3814 3817 3820 3823 3826 3829 3832 3835 3838 3841 3844 3847 3850 3852 3855 3858 3861 3864 3867 3870 3873 3876 3879 3881 3884 3887 3890 3893 3896 3899 3902 3905 3908 3911 3914 3917 3919 3922 3925 3927 3930 3932 3935 3938 3941 3944 3947 3949 3951 3954 3956 3959 3962 3965 3968 3971 3974 3977 3980 3983 3986 3989 3992 3994 3997 4000 4003 4006 4009 4012 4014 4017 4020 4023 4026 4029 4032 4035 4038 4041 4044 4047 4050 4052 4055 4058 4060 4063 4065 4067 4070 4073 4076 4079 4082 4085 4088 4090 4093 4095 4098 4101 4104 4107 4110 4113 4116 4119 4122 4125 4128 4131 4134 4137 4140 4143 4146 4149 4152 4155 4158 4161 4164 4167 4170 4173 4176 4179 4182 4185 4188 4191 4194 4197 4200 4203 4206 4209 4212 4215 4218 4221 4224 4227 4230 4233 4236 4238 4241 4244 4247 4250 4253 4256 4259 4262 4265 4267 4270 4273 4275 4278 4280 4283 4285 4288 4291 4294 4297 4300 4303 4305 4308 4311 4314 4317 4320 4323 4326 4329 4332 4335 4338 4341 4344 4347 4350 4353 4356 4358 4361 4364 4367 4370 4373 4376 4378 4381 4384 4387 4390 4393 4396 4399 4402 4405 4408 4411 4414 4416 4419 4422 4425 4428 4431 4434 4437 4440 4443 4446 4449 4452 4455 4458 4461 4464 4467 4470 4473 4476 4479 4482 4485 4488 4491 4494 4497 4500 4503 4506 4509 4512 4515 4518 4521 4523 4526 4529 4532 4535 4537 4540 4543 4546 4549 4552 4554 4557 4560 4563 4565 4568 4571 4574 4577 4579 4582 4585 4588 4591 4594 4597 4600 4603 4606 4609 4612 4614 4617 4620 4622 4625 4628 4630 4632 4635 4638 4640 4643 4646 4649 4652 4655 4658 4661 4664 4666 4669 4671 4674 4677 4680 4683 4686 4689 4691 4694 4697 4700 4703 4705 4708 4711 4714 4717 4720 4723 4726 4729 4732 4735 4738 4741 4744 4747 4750 4753 4755 4758 4761 4764 4766 4769 4772 4775 4778 4781 4784 4787 4790 4793 4796 4798 4801 4804 4807 4809 4812 4815 4818 4820 4823 4825 4828 4831 4834 4837 4840 4843 4846 4849 4852 4855 4858 4861 4864 4867 4870 4873 4876 4879 4882 4885 4888 4891 4894 4897 4900 4903 4906 4909 4911 4914 4917 4920 4923 4926 4929 4932 4935 4938 4941 4944 4946 4949 4952 4955 4957 4960 4963 4966 4969 4972 4975 4978 4981 4984 4986 4988 4991 4993 4996 4998 5001 5003 5006 5009 5012 5015 5017 5020 5023 5025 5028 5031 5034 5037 5040 5043 5045 5048 5051 5054 5057 5059 5062 5065 5068 5071 5074 5077 5080 5083 5086 5089 5092 5095 5098 5101 5104 5106 5109 5112 5115 5118 5121 5124 5127 5130 5133 5136 5139 5142 5144 5147 5150 5153 5156 5159 5162 5164 5167 5170 5173 5176 5179 5181 5184 5186 5189 5192 5195 5198 5201 5204 5207 5210 5212 5215 5217 5219 5222 5225 5228 5230 5233 5236 5238 5241 5244 5246 5249 5252 5254 5257 5259 5261 5264 5267 5270 5273 5276 5279 5282 5285 5288 5291 5294 5297 5300 5303 5306 5309 5312 5315 5318 5321 5324 5327 5330 5333 5336 5339 5342 5345 5347 5350 5353 5356 5359 5362 5365 5368 5371 5373 5376 5379 5382 5385 5388 5391 5394 5396 5399 5402 5405 5407 5410 5413 5415 5418 5421 5424 5427 5430 5433 5436 5439 5442 5445 5448 5451 5453 5456 5459 5462 5465 5467 5470 5473 5476 5479 5482 5485 5488 5491 5493 5496 5499 5502 5504 5507 5510 5513 5516 5519 5522 5525 5528 5531 5534 5537 5539 5542 5545 5548 5551 5553 5556 5559 5562 5564 5566 5569 5572 5575 5578 5581 5583 5586 5588 5591 5594 5596 5599 5601 5604 5607 5610 5613 5616 5619 5622 5625 5628 5631 5634 5637 5640 5643 5646 5649 5651 5654 5657 5659 5662 5665 5668 5670 5673 5675 5677 5680 5683 5686 5688 5691 5694 5696 5699 5701 5704 5707 5710 5713 5716 5719 5722 5725 5728 5731 5734 5736 5739 5741 5744 5747 5750 5753 5756 5759 5762 5765 5768 5770 5773 5776 5779 5782 5785 5788 5791 5794 5797 5799 5802 5805 5808 5811 5814 5817 5820 5823 5825 5828 5831 5833 5836 5839 5842 5845 5847 5850 5853 5856 5859 5861 5864 5867 5870 5873 5876 5879 5882 5885 5888 5891 5894 5897 5900 5903 5906 5908 5911 5914 5917 5920 5922 5925 5928 5930 5933 5936 5939 5942 5945 5948 5951 5954 5957 5960 5963 5966 5969 5972 5975 5978 5981 5983 5986 5989 5992 5995 5998 6001 6004 6006 6009 6012 6015 6017 6020 6023 6025 6028 6031 6034 6037 6040 6043 6046 6049 6052 6054 6057 6060 6062 6065 6068 6071 6074 6077 6080 6083 6085 6088 6091 6094 6096 6099 6101 6104 6107 6110 6113 6116 6119 6122 6125 6128 6131 6133 6136 6139 6142 6145 6147 6149 6152 6155 6158 6161 6164 6167 6170 6173 6176 6179 6182 6185 6187 6190 6193 6195 6198 6201 6204 6206 6209 6212 6214 6217 6220 6223 6225 6228 6231 6234 6237 6239 6242 6245 6248 6251 6254 6257 6260 6263 6266 6269 6272 6275 6278 6281 6284 6286 6289 6292 6295 6298 6300 6303 6306 6309 6312 6315 6318 6321 6324 6327 6330 6333 6336 6338 6341 6344 6347 6350 6353 6356 6358 6361 6364 6367 6370 6373 6376 6378 6381 6384 6387 6390 6393 6396 6399 6402 6405 6408 6411 6414 6417 6419 6422 6424 6427 6430 6433 6436 6438 6441 6444 6447 6449 6451 6454 6457 6459 6462 6465 6468 6471 6474 6477 6480 6483 6486 6489 6492 6495 6498 6501 6504 6507 6509 6511 6514 6517 6519 6522 6525 6528 6531 6534 6537 6540 6543 6546 6549 6552 6555 6558 6561 6564 6566 6569 6572 6575 6578 6581 6584 6587 6589 6592 6595 6598 6601 6604 6607 6610 6613 6616 6618 6621 6624 6626 6629 6632 6635 6638 6641 6644 6647 6649 6652 6655 6658 6661 6664 6667 6669 6672 6674 6677 6680 6683 6686 6689 6691 6694 6697 6699 6702 6704 6707 6709 6711 6714 6717 6720 6723 6726 6729 6732 6735 6738 6741 6744 6747 6749 6752 6755 6758 6761 6764 6767 6769 6772 6775 6778 6781 6784 6787 6790 6792 6795 6798 6801 6804 6807 6809 6811 6814 6817 6819 6822 6825 6828 6831 6833 6835 6838 6841 6844 6847 6849 6851 6854 6857 6860 6862 6865 6868 6871 6874 6877 6880 6883 6886 6888 6890 6893 6896 6898 6901 6904 6906 6908 6911 6913 6915 6918 6921 6924 6927 6930 6933 6936 6939 6942 6945 6948 6951 6954 6957 6960 6963 6966 6969 6971 6974 6977 6980 6982 6985 6987 6990 6993 6996 6998 7000 7003 7006 7009 7011 7014 7017 7019 7021 7024 7026 7029 7032 7034 7037 7039 7042 7045 7048 7051 7054 7057 7060 7063 7066 7068 7071 7073 7076 7079 7082 7085 7088 7091 7094 7097 7100 7102 7105 7108 7111 7114 7117 7119 7122 7125 7128 7130 7133 7136 7139 7142 7144 7147 7149 7151 7154 7156 7159 7162 7164 7166 7168 7171 7174 7177 7179 7182 7184 7186 7189 7192 7195 7198 7200 7203 7206 7209 7211 7213 7216 7219 7222 7225 7228 7231 7234 7236 7239 7242 7245 7248 7251 7254 7257 7260 7263 7266 7269 7271 7274 7277 7280 7283 7286 7289 7292 7295 7298 7301 7304 7307 7310 7313 7316 7319 7321 7323 7326 7329 7331 7334 7337 7340 7343 7346 7349 7352 7355 7358 7360 7363 7366 7369 7371 7374 7377 7380 7383 7386 7389 7392 7395 7397 7399 7402 7405 7408 7411 7414 7417 7420 7422 7425 7428 7431 7434 7437 7440 7443 7446 7448 7451 7454 7457 7460 7463 7466 7469 7472 7475 7478 7481 7484 7487 7490 7493 7496 7499 7502 7505 7508 7511 7514 7517 7520 7523 7526 7529 7532 7535 7538 7540 7542 7545 7548 7551 7554 7557 7560 7562 7564 7567 7570 7573 7576 7579 7582 7585 7588 7590 7593 7596 7599 7602 7605 7607 7610 7613 7616 7619 7622 7625 7627 7630 7633 7636 7638 7641 7644 7646 7649 7652 7655 7658 7661 7664 7667 7670 7673 7676 7678 7680 7683 7686 7689 7692 7695 7698 7700 7703 7706 7709 7712 7714 7717 7720 7723 7726 7729 7732 7735 7738 7741 7744 7747 7749 7752 7755 7757 7759 7762 7765 7767 7770 7772 7774 7777 7780 7783 7786 7789 7792 7795 7798 7800 7803 7806 7809 7811 7814 7817 7820 7823 7826 7828 7831 7834 7837 7840 7842 7845 7847 7849 7852 7854 7857 7859 7861 7864 7866 7869 7871 7874 7877 7880 7883 7886 7888 7891 7894 7897 7900 7902 7905 7908 7911 7914 7917 7920 7923 7925 7928 7931 7934 7937 7940 7942 7945 7948 7951 7954 7957 7959 7962 7964 7967 7969 7972 7975 7977 7980 7982 7984 7987 7990 7993 7996 7999 8002 8005 8008 8011 8014 8017 8020 8023 8026 8029 8032 8035 8038 8041 8044 8047 8050 8053 8056 8059 8061 8064 8067 8070 8073 8076 8079 8081 8084 8087 8090 8093 8096 8098 8101 8103 8106 8109 8111 8114 8117 8120 8122 8125 8127 8130 8133 8136 8139 8141 8144 8147 8150 8153 8156 8159 8162 8165 8168 8171 8174 8177 8179 8182 8185 8188 8190 8193 8196 8199 8202 8205 8208 8211 8214 8217 8220 8222 8225 8228 8230 8233 8236 8239 8242 8245 8248 8251 8254 8257 8260 8263 8266 8268 8271 8274 8277 8280 8282 8285 8288 8290 8293 8296 8299 8302 8305 8308 8311 8313 8316 8319 8321 8324 8327 8330 8333 8336 8339 8342 8345 8348 8351 8354 8357 8360 8363 8366 8369 8372 8375 8378 8381 8384 8386 8388 8391 8394 8397 8400 8403 8406 8408 8411 8414 8417 8420 8423 8426 8429 8432 8435 8438 8441 8444 8447 8449 8451 8454 8457 8460 8463 8466 8469 8472 8475 8477 8480 8483 8486 8489 8491 8494 8497 8500 8503 8506 8509 8512 8515 8518 8521 8524 8527 8530 8533 8536 8539 8542 8545 8548 8551 8554 8557 8560 8563 8566 8569 8572 8575 8578 8580 8583 8586 8589 8592 8595 8598 8601 8603 8606 8609 8611 8614 8617 8620 8623 8626 8629 8632 8635 8638 8641 8644 8647 8650 8653 8656 8659 8662 8665 8668 8671 8674 8677 8679 8682 8685 8688 8691 8694 8696 8699 8702 8705 8708 8711 8714 8717 8720 8722 8725 8728 8731 8734 8737 8740 8743 8746 8749 8752 8755 8758 8761 8764 8767 8770 8773 8776 8778 8781 8784 8787 8790 8793 8796 8799 8802 8805 8808 8811 8814 8816 8819 8821 8824 8826 8829 8831 8834 8837 8840 8843 8845 8848 8850 8853 8856 8859 8861 8864 8867 8870 8872 8875 8878 8881 8883 8886 8889 8892 8895 8898 8900 8903 8906 8908 8911 8913 8916 8918 8921 8923 8925 8928 8931 8934 8937 8940 8943 8946 8949 8952 8955 8957 8960 8963 8966 8969 8971 8974 8977 8980 8983 8986 8989 8992 8995 8998 9001 9004 9007 9010 9012 9015 9018 9021 9024 9026 9029 9032 9035 9038 9041 9044 9047 9050 9053 9056 9058 9061 9064 9067 9069 9072 9075 9077 9080 9082 9085 9088 9091 9094 9096 9099 9102 9105 9108 9111 9114 9117 9120 9123 9126 9129 9132 9135 9138 9141 9144 9147 9149 9152 9155 9158 9160 9163 9165 9168 9171 9173 9176 9179 9182 9185 9188 9190 9193 9196 9199 9202 9205 9208 9211 9214 9217 9220 9223 9226 9229 9232 9235 9237 9240 9243 9246 9248 9251 9254 9257 9260 9263 9266 9268 9271 9273 9276 9279 9282 9285 9288 9291 9294 9297 9300 9303 9306 9308 9311 9314 9317 9319 9322 9324 9327 9330 9333 9336 9339 9341 9344 9347 9349 9352 9355 9358 9360 9363 9366 9369 9372 9375 9378 9381 9383 9386 9389 9392 9395 9398 9401 9404 9407 9410 9413 9416 9419 9421 9423 9426 9429 9432 9435 9437 9440 9443 9445 9448 9450 9453 9456 9459 9462 9465 9468 9471 9474 9477 9479 9482 9485 9488 9491 9494 9496 9499 9502 9505 9508 9511 9514 9517 9520 9523 9526 9529 9532 9534 9537 9540 9543 9546 9549 9552 9555 9558 9561 9564 9567 9569 9572 9574 9577 9579 9582 9584 9587 9590 9593 9595 9598 9601 9604 9607 9610 9613 9615 9617 9619 9622 9625 9628 9631 9634 9637 9640 9643 9645 9648 9651 9654 9657 9660 9663 9666 9669 9672 9675 9678 9681 9684 9687 9690 9692 9695 9698 9701 9703 9706 9709 9712 9715 9718 9720 9723 9726 9729 9731 9734 9736 9738 9740 9743 9746 9748 9751 9753 9756 9759 9761 9764 9767 9769 9772 9775 9778 9781 9784 9786 9789 9792 9795 9798 9801 9804 9807 9810 9813 9816 9819 9822 9825 9828 9831 9833 9836 9839 9842 9845 9847 9850 9853 9855 9858 9861 9864 9867 9870 9873 9876 9879 9882 9885 9888 9891 9894 9897 9900 9903 9906 9909 9912 9914 9917 9920 9923 9926 9929 9932 9935 9938 9941 9943 9946 9949 9952 9955 9958 9961 9964 9966 9969 9971 9973 9976 9979 9982 9985 9988 9991 9994 9997 10000 10003 10006 10009 10012 10015 10018 10021 10023 10025 10028 10030 10033 10035 10038 10041 10043 10046 10048 10051 10054 10057 10059 10062 10064 10066 10069 10072 10075 10078 10081 10083 10086 10089 10091 10094 10097 10100 10103 10106 10109 10112 10115 10118 10121 10124 10127 10130 10132 10135 10138 10140 10143 10146 10149 10152 10155 10158 10161 10164 10167 10169 10172 10175 10178 10181 10184 10186 10189 10192 10194 10197 10200 10203 10206 10209 10212 10214 10217 10220 10222 10225 10227 10230 10233 10236 10239 10242 10245 10248 10251 10254 10256 10259 10262 10265 10268 10271 10274 10277 10280 10283 10285 10287 10290 10293 10296 10299 10301 10304 10307 10310 10313 10315 10318 10321 10323 10325 10328 10330 10332 10335 10337 10340 10342 10345 10348 10351 10354 10357 10360 10362 10365 10368 10371 10374 10377 10379 10382 10385 10388 10391 10394 10397 10400 10403 10406 10409 10412 10415 10418 10420 10422 10425 10428 10430 10433 10435 10437 10440 10443 10446 10449 10452 10455 10458 10460 10463 10465 10467 10470 10473 10476 10479 10482 10485 10488 10491 10494 10497 10500 10503 10506 10509 10512 10515 10517 10520 10523 10526 10528 10531 10534 10537 10540 10543 10546 10549 10551 10554 10557 10559 10562 10565 10567 10570 10573 10576 10579 10582 10585 10588 10591 10593 10596 10599 10602 10604 10607 10610 10613 10615 10618 10621 10623 10625 10628 10630 10633 10636 10639 10642 10645 10648 10651 10654 10657 10660 10663 10666 10669 10672 10675 10678 10681 10684 10687 10690 10693 10696 10699 10701 10704 10706 10708 10711 10714 10717 10720 10723 10726 10729 10732 10735 10737 10740 10743 10746 10749 10752 10755 10757 10760 10762 10765 10767 10770 10772 10774 10777 10780 10783 10786 10789 10791 10793 10795 10798 10801 10804 10806 10808 10811 10814 10816 10819 10822 10825 10828 10831 10834 10837 10840 10843 10846 10849 10851 10854 10857 10860 10862 10865 10868 10871 10873 10875 10878 10881 10884 10887 10889 10892 10894 10897 10900 10903 10906 10909 10912 10915 10918 10921 10924 10927 10930 10933 10936 10939 10942 10945 10947 10950 10953 10956 10959 10962 10965 10968 10971 10974 10976 10979 10982 10985 10988 10991 10993 10996 10999 11002 11005 11008 11011 11014 11017 11020 11023 11026 11029 11032 11035 11038 11041 11044 11047 11050 11053 11056 11059 11062 11065 11068 11071 11074 11077 11080 11083 11086 11089 11092 11095 11098 11101 11104 11107 11110 11113 11116 11119 11122 11125 11128 11131 11134 11137 11140 11143 11146 11149 11152 11155 11158 11161 11164 11167 11170 11173 11175 11178 11181 11183 11186 11189 11192 11195 11198 11201 11204 11207 11210 11213 11216 11218 11221 11224 11226 11229 11231 11234 11237 11240 11243 11246 11249 11252 11255 11257 11260 11263 11265 11268 11271 11274 11276 11279 11282 11285 11288 11290 11293 11295 11298 11300 11302 11304 11307 11310 11312 11314 11317 11320 11323 11326 11328 11331 11333 11336 11339 11342 11345 11347 11350 11353 11356 11359 11362 11365 11368 11371 11374 11377 11380 11383 11386 11389 11392 11395 11398 11401 11404 11407 11410 11413 11416 11419 11422 11425 11428 11431 11434 11437 11440 11443 11446 11449 11452 11455 11458 11460 11463 11465 11468 11471 11474 11477 11480 11483 11486 11488 11491 11493 11496 11499 11501 11504 11507 11510 11513 11516 11518 11521 11524 11527 11530 11533 11536 11539 11542 11545 11548 11551 11554 11557 11560 11562 11565 11567 11570 11573 11576 11579 11582 11584 11587 11590 11593 11596 11599 11602 11605 11608 11611 11614 11617 11620 11623 11626 11629 11632 11635 11638 11641 11644 11646 11648 11651 11654 11657 11659 11662 11665 11668 11671 11674 11677 11680 11683 11686 11689 11691 11694 11697 11700 11703 11706 11709 11712 11715 11718 11721 11724 11727 11730 11733 11735 11738 11741 11743 11746 11749 11752 11755 11758 11761 11764 11767 11770 11773 11775 11778 11781 11784 11787 11790 11793 11796 11799 11802 11805 11808 11811 11814 11817 11820 11822 11825 11827 11830 11833 11836 11839 11841 11844 11847 11850 11853 11856 11859 11861 11864 11867 11870 11873 11876 11879 11882 11885 11887 11890 11893 11895 11898 11901 11904 11907 11910 11913 11916 11919 11922 11925 11928 11931 11934 11937 11940 11943 11946 11949 11952 11955 11958 11961 11963 11966 11969 11972 11975 11978 11981 11984 11987 11990 11993 11996 11999 12002 12005 12008 12011 12014 12017 12020 12023 12026 12029 12032 12035 12038 12041 12044 12047 12050 12053 12056 12059 12062 12065 12068 12071 12074 12077 12079 12082 12085 12088 12091 12094 12096 12099 12102 12105 12108 12111 12114 12117 12120 12123 12126 12129 12132 12135 12138 12141 12144 12147 12150 12153 12156 12159 12162 12165 12168 12171 12174 12177 12180 12183 12186 12189 12192 12195 12198 12201 12204 12207 12210 12213 12216 12218 12221 12223 12226 12229 12232 12235 12238 12240 12243 12246 12249 12251 12254 12257 12260 12262 12265 12268 12270 12273 12275 12278 12281 12284 12287 12290 12293 12296 12299 12302 12305 12308 12311 12314 12317 12320 12323 12326 12329 12332 12335 12337 12340 12343 12346 12349 12352 12355 12358 12361 12364 12367 12370 12373 12376 12379 12382 12385 12388 12391 12394 12397 12400 12403 12406 12409 12412 12415 12418 12421 12424 12427 12430 12433 12436 12439 12442 12445 12448 12451 12454 12457 12460 12463 12466 12469 12472 12475 12478 12481 12484 12487 12490 12493 12496 12499 12502 12505 12508 12511 12514 12517 12520 12523 12526 12529 12532 12535 12538 12541 12544 12547 12550 12553 12556 12559 12562 12565 12568 12571 12574 12577 12580 12583 12586 12589 12592 12594 12596 12599 12601 12603 12606 12609 12612 12615 12618 12621 12624 12627 12630 12632 12634 12636 12639 12642 12645 12647 12650 12653 12656 12659 12662 12665 12668 12671 12674 12676 12679 12682 12685 12688 12691 12694 12697 12700 12703 12706 12709 12712 12715 12718 12721 12724 12727 12730 12733 12736 12739 12742 12745 12748 12751 12754 12757 12760 12763 12766 12769 12772 12775 12778 12781 12783 12786 12788 12791 12794 12797 12800 12803 12806 12809 12812 12815 12818 12821 12824 12827 12830 12833 12836 12839 12842 12845 12848 12851 12854 12857 12860 12863 12866 12869 12872 12875 12878 12881 12884 12887 12890 12893 12896 12899 12902 12905 12908 12911 12914 12917 12920 12923 12926 12929 12932 12935 12938 12941 12944 12947 12950 12953 12956 12959 12962 12965 12968 12971 12974 12977 12980 12983 12986 12989 12992 12995 12997 13000 13003 13006 13009 13012 13014 13017 13020 13023 13026 13029 13032 13035 13038 13041 13043 13046 13049 13051 13054 13056 13059 13062 13065 13067 13070 13073 13076 13079 13082 13084 13087 13090 13093 13096 13099 13102 13105 13108 13111 13114 13117 13120 13122 13125 13128 13131 13133 13136 13139 13142 13145 13148 13151 13154 13157 13160 13163 13166 13169 13172 13175 13178 13181 13184 13187 13190 13193 13196 13199 13202 13205 13208 13211 13214 13217 13219 13222 13225 13227 13230 13233 13236 13238 13241 13244 13247 13250 13253 13256 13259 13262 13264 13267 13270 13273 13276 13279 13282 13285 13288 13291 13294 13297 13300 13303 13306 13308 13311 13314 13316 13319 13322 13324 13327 13330 13333 13336 13339 13342 13345 13348 13351 13354 13357 13360 13363 13366 13369 13372 13375 13378 13380 13383 13386 13389 13392 13395 13397 13400 13402 13405 13408 13411 13414 13417 13419 13422 13425 13428 13431 13434 13437 13440 13443 13446 13449 13452 13455 13458 13461 13463 13466 13469 13472 13475 13478 13481 13483 13486 13489 13491 13494 13497 13500 13503 13506 13509 13512 13515 13518 13521 13524 13527 13530 13533 13536 13539 13542 13545 13548 13551 13553 13556 13559 13562 13565 13568 13570 13573 13575 13578 13581 13583 13586 13588 13590 13593 13596 13599 13602 13604 13607 13610 13613 13615 13618 13621 13623 13626 13629 13632 13635 13638 13641 13643 13646 13648 13651 13654 13656 13659 13662 13665 13668 13670 13673 13676 13678 13680 13683 13686 13689 13692 13695 13698 13701 13704 13707 13709 13712 13714 13717 13719 13721 13724 13727 13730 13733 13736 13739 13742 13744 13746 13749 13752 13754 13757 13760 13763 13765 13768 13771 13774 13776 13779 13782 13785 13788 13791 13794 13797 13800 13803 13806 13809 13812 13815 13818 13821 13824 13827 13830 13833 13836 13839 13842 13845 13848 13851 13854 13857 13860 13862 13865 13868 13871 13874 13877 13880 13883 13886 13889 13891 13893 13896 13899 13902 13904 13907 13910 13913 13915 13918 13921 13924 13927 13930 13933 13936 13938 13941 13944 13946 13949 13952 13954 13956 13959 13962 13964 13967 13970 13973 13975 13977 13979 13982 13985 13987 13990 13993 13996 13999 14002 14005 14008 14011 14014 14017 14020 14022 14025 14028 14030 14033 14036 14039 14041 14044 14047 14049 14052 14054 14057 14060 14063 14066 14068 14071 14074 14077 14080 14083 14086 14089 14092 14095 14098 14100 14103 14106 14108 14110 14113 14115 14118 14121 14124 14127 14130 14133 14136 14139 14141 14143 14146 14148 14151 14154 14157 14160 14163 14165 14167 14170 14173 14176 14179 14182 14185 14187 14190 14193 14196 14198 14201 14204 14207 14210 14213 14216 14218 14221 14223 14225 14228 14231 14234 14236 14239 14242 14245 14248 14251 14254 14256 14259 14262 14265 14268 14270 14273 14275 14277 14280 14283 14286 14289 14292 14294 14297 14299 14302 14305 14307 14310 14312 14315 14318 14321 14324 14327 14330 14333 14336 14339 14341 14344 14346 14349 14351 14353 14355 14358 14361 14364 14367 14370 14372 14375 14378 14380 14382 14385 14388 14390 14393 14396 14399 14402 14405 14408 14411 14414 14417 14420 14423 14426 14429 14432 14435 14438 14441 14444 14447 14450 14453 14456 14459 14462 14465 14468 14470 14473 14476 14479 14482 14484 14487 14490 14493 14496 14499 14502 14504 14507 14510 14513 14516 14519 14521 14523 14526 14529 14531 14534 14537 14540 14542 14545 14548 14550 14552 14555 14557 14560 14563 14566 14569 14572 14575 14578 14580 14582 14585 14587 14590 14593 14596 14599 14602 14604 14607 14610 14613 14616 14619 14622 14625 14628 14631 14634 14637 14640 14643 14646 14649 14652 14655 14658 14661 14664 14667 14669 14672 14675 14678 14681 14684 14687 14690 14693 14696 14699 14702 14704 14707 14710 14713 14715 14718 14721 14723 14726 14728 14731 14734 14737 14740 14742 14744 14747 14750 14753 14756 14759 14761 14763 14766 14769 14772 14775 14777 14780 14783 14786 14789 14792 14795 14798 14801 14804 14807 14810 14813 14816 14819 14822 14825 14828 14831 14834 14837 14840 14843 14846 14849 14852 14855 14858 14861 14864 14867 14870 14873 14875 14878 14881 14884 14886 14889 14892 14894 14897 14900 14902 14905 14908 14911 14914 14916 14919 14922 14925 14928 14931 14934 14937 14940 14942 14944 14947 14950 14953 14956 14959 14962 14964 14967 14970 14972 14975 14978 14981 14984 14986 14989 14992 14995 14997 15000 15003 15006 15009 15012 15015 15018 15021 15024 15027 15030 15033 15036 15039 15042 15045 15048 15051 15053 15056 15059 15061 15064 15067 15070 15073 15076 15079 15082 15085 15088 15091 15094 15097 15100 15102 15104 15107 15109 15112 15115 15118 15121 15124 15127 15129 15132 15134 15137 15140 15143 15146 15148 15151 15154 15157 15160 15163 15166 15169 15172 15175 15178 15181 15183 15186 15189 15192 15195 15198 15201 15204 15207 15209 15212 15215 15218 15221 15224 15227 15230 15233 15236 15239 15241 15244 15247 15250 15252 15254 15257 15260 15263 15266 15269 15272 15275 15278 15281 15284 15287 15290 15293 15296 15299 15302 15305 15308 15311 15314 15317 15320 15323 15326 15329 15332 15335 15338 15341 15344 15347 15350 15353 15356 15359 15362 15365 15368 15371 15374 15377 15379 15382 15385 15388 15391 15393 15395 15398 15400 15403 15405 15408 15411 15414 15417 15420 15423 15426 15429 15432 15434 15437 15440 15442 15445 15448 15451 15454 15457 15460 15463 15466 15469 15472 15475 15478 15481 15484 15487 15490 15493 15496 15499 15502 15505 15508 15511 15513 15516 15519 15522 15525 15528 15531 15533 15536 15539 15542 15545 15548 15551 15554 15557 15560 15563 15566 15568 15571 15574 15576 15579 15582 15584 15586 15589 15592 15595 15597 15600 15602 15605 15608 15610 15612 15615 15618 15621 15624 15627 15630 15632 15635 15638 15640 15642 15645 15647 15650 15653 15656 15659 15662 15665 15668 15671 15674 15677 15680 15683 15686 15688 15691 15694 15697 15700 15703 15706 15709 15712 15715 15718 15721 15724 15727 15730 15733 15736 15739 15742 15745 15748 15751 15754 15757 15760 15763 15766 15769 15772 15775 15778 15781 15784 15787 15790 15793 15796 15799 15802 15805 15808 15811 15814 15817 15820 15823 15826 15829 15832 15835 15838 15841 15844 15847 15850 15853 15855 15858 15861 15864 15867 15870 15873 15876 15879 15882 15885 15888 15891 15894 15897 15900 15903 15906 15909 15912 15915 15918 15921 15924 15927 15930 15933 15936 15939 15942 15945 15948 15951 15954 15957 15960 15963 15966 15969 15972 15975 15978 15981 15984 15987 15990 15993 15996 15999 16002 16005 16008 16010 16012 16015 16018 16021 16024 16027 16030 16033 16036 16039 16042 16045 16048 16051 16054 16056 16059 16062 16065 16068 16071 16074 16077 16080 16082 16085 16088 16091 16094 16097 16100 16103 16105 16108 16111 16114 16117 16119 16122 16125 16127 16130 16132 16135 16138 16140 16143 16146 16148 16151 16154 16157 16160 16163 16166 16169 16172 16175 16178 16180 16183 16186 16188 16191 16194 16197 16200 16203 16205 16208 16211 16214 16217 16220 16223 16226 16229 16231 16234 16236 16239 16242 16245 16247 16250 16253 16256 16259 16262 16265 16268 16270 16273 16276 16279 16281 16284 16287 16290 16293 16296 16299 16302 16304 16307 16310 16312 16315 16318 16321 16324 16326 16329 16332 16335 16338 16340 16343 16346 16349 16352 16354 16357 16360 16363 16365 16368 16371 16373 16376 16379 16382 16385 16388 16390 16393 16396 16399 16402 16404 16407 16410 16412 16415 16418 16420 16423 16425 16427 16430 16433 16436 16439 16442 16444 16447 16450 16453 16456 16459 16462 16464 16467 16470 16473 16475 16477 16480 16483 16485 16488 16491 16493 16496 16499 16502 16505 16507 16509 16512 16515 16517 16520 16523 16526 16529 16532 16535 16538 16541 16544 16547 16550 16553 16556 16559 16562 16565 16568 16571 16574 16577 16580 16583 16586 16589 16592 16595 16598 16601 16604 16607 16610 16613 16615 16618 16620 16623 16626 16629 16631 16634 16637 16640 16643 16646 16649 16652 16655 16658 16661 16664 16667 16670 16673 16676 16679 16682 16685 16688 16691 16694 16697 16700 16703 16705 16708 16711 16714 16717 16720 16723 16726 16729 16732 16735 16738 16741 16744 16747 16750 16752 16755 16758 16760 16763 16765 16768 16770 16773 16776 16778 16781 16784 16787 16789 16792 16795 16797 16800 16803 16805 16808 16811 16814 16817 16820 16822 16825 16828 16831 16834 16837 16840 16843 16846 16849 16852 16854 16856 16859 16862 16865 16868 16871 16874 16877 16880 16883 16885 16888 16891 16894 16897 16900 16903 16906 16909 16912 16915 16918 16921 16924 16927 16930 16933 16936 16939 16942 16945 16948 16951 16954 16957 16960 16963 16966 16969 16972 16975 16978 16981 16984 16987 16990 16993 16996 16999 17002 17004 17007 17010 17013 17015 17018 17021 17024 17026 17029 17031 17034 17036 17039 17042 17045 17047 17050 17052 17055 17058 17061 17064 17067 17070 17072 17075 17078 17080 17082 17084 17087 17090 17092 17095 17098 17101 17104 17107 17110 17113 17116 17119 17122 17125 17128 17131 17134 17137 17140 17142 17145 17148 17151 17153 17156 17159 17161 17163 17166 17169 17171 17173 17176 17179 17182 17185 17188 17190 17193 17196 17199 17202 17205 17208 17210 17213 17216 17219 17222 17225 17228 17231 17234 17237 17240 17243 17246 17249 17252 17255 17258 17261 17264 17267 17270 17273 17276 17279 17281 17284 17287 17290 17293 17296 17299 17302 17305 17307 17310 17313 17316 17319 17321 17324 17327 17330 17333 17336 17339 17342 17345 17348 17350 17353 17356 17359 17362 17365 17368 17371 17374 17377 17380 17383 17386 17389 17392 17395 17398 17401 17404 17407 17410 17413 17415 17418 17421 17423 17426 17429 17431 17433 17436 17439 17442 17445 17447 17450 17453 17456 17459 17462 17464 17467 17469 17472 17475 17478 17481 17484 17487 17490 17493 17496 17499 17502 17505 17508 17511 17514 17517 17520 17522 17525 17528 17531 17534 17537 17540 17543 17546 17549 17552 17555 17558 17561 17564 17566 17569 17572 17575 17578 17581 17584 17587 17590 17593 17596 17599 17602 17605 17607 17610 17613 17616 17619 17622 17625 17627 17630 17633 17636 17639 17641 17644 17647 17650 17653 17656 17659 17662 17665 17668 17671 17674 17677 17679 17682 17685 17687 17690 17692 17695 17697 17700 17703 17705 17708 17711 17713 17716 17719 17721 17724 17726 17729 17732 17735 17738 17741 17744 17746 17749 17752 17754 17756 17759 17762 17765 17767 17769 17771 17774 17777 17779 17782 17785 17788 17791 17794 17797 17800 17803 17805 17808 17811 17813 17816 17819 17822 17825 17828 17830 17833 17836 17838 17841 17843 17846 17849 17852 17855 17858 17861 17864 17867 17869 17872 17875 17878 17881 17883 17885 17888 17891 17894 17897 17900 17903 17906 17909 17911 17914 17917 17920 17923 17926 17929 17932 17934 17937 17940 17943 17946 17948 17951 17954 17957 17960 17963 17966 17969 17972 17975 17977 17980 17982 17985 17988 17990 17993 17996 17998 18001 18004 18007 18010 18013 18016 18018 18021 18024 18026 18029 18032 18035 18037 18040 18043 18046 18049 18052 18055 18058 18061 18064 18067 18070 18073 18076 18079 18082 18085 18087 18090 18093 18096 18099 18102 18105 18108 18111 18114 18117 18120 18123 18126 18129 18132 18135 18137 18140 18142 18145 18148 18151 18154 18157 18160 18163 18166 18169 18172 18175 18178 18181 18184 18187 18190 18193 18196 18199 18202 18205 18208 18211 18214 18217 18220 18223 18226 18228 18231 18234 18237 18240 18242 18245 18247 18250 18252 18255 18258 18260 18263 18266 18269 18272 18274 18276 18278 18280 18283 18286 18289 18292 18295 18297 18300 18302 18304 18306 18309 18312 18315 18318 18321 18324 18327 18330 18333 18336 18339 18342 18345 18348 18350 18353 18356 18359 18362 18365 18368 18371 18373 18376 18379 18382 18385 18388 18390 18393 18396 18398 18400 18403 18406 18409 18412 18415 18418 18421 18424 18426 18429 18432 18435 18438 18441 18443 18446 18449 18452 18455 18458 18461 18464 18467 18469 18472 18474 18477 18480 18482 18484 18487 18490 18493 18496 18498 18501 18504 18507 18510 18513 18516 18519 18521 18524 18527 18530 18533 18536 18539 18541 18544 18547 18550 18553 18556 18559 18561 18564 18566 18569 18571 18573 18576 18579 18581 18583 18586 18589 18592 18595 18598 18601 18604 18607 18610 18613 18615 18618 18621 18623 18626 18629 18632 18634 18637 18640 18643 18646 18648 18650 18653 18655 18658 18661 18664 18667 18670 18673 18676 18679 18682 18685 18688 18691 18694 18697 18700 18703 18706 18709 18712 18715 18718 18721 18724 18727 18730 18733 18736 18739 18742 18745 18748 18751 18754 18757 18760 18763 18766 18769 18772 18775 18778 18781 18784 18787 18790 18793 18796 18799 18802 18805 18808 18811 18814 18817 18820 18823 18826 18829 18832 18835 18838 18841 18844 18847 18850 18853 18856 18859 18862 18865 18868 18871 18874 18877 18880 18883 18886 18888 18891 18894 18897 18900 18903 18906 18909 18912 18915 18917 18920 18923 18926 18928 18931 18934 18936 18938 18941 18944 18947 18949 18952 18955 18957 18959 18962 18965 18968 18971 18974 18977 18979 18982 18985 18987 18990 18992 18995 18998 19001 19003 19006 19009 19012 19015 19018 19021 19024 19027 19030 19033 19036 19039 19042 19044 19047 19049 19052 19055 19057 19060 19062 19065 19068 19071 19074 19077 19080 19083 19086 19088 19091 19094 19097 19100 19103 19106 19109 19112 19115 19118 19121 19124 19126 19129 19131 19134 19137 19140 19143 19146 19149 19152 19155 19157 19160 19163 19166 19168 19171 19173 19176 19178 19181 19184 19187 19190 19193 19196 19199 19201 19203 19206 19209 19212 19215 19218 19221 19224 19227 19230 19233 19236 19239 19242 19245 19248 19251 19254 19257 19260 19263 19266 19269 19272 19275 19278 19281 19284 19287 19290 19293 19296 19298 19301 19304 19307 19310 19313 19315 19318 19320 19323 19325 19328 19331 19333 19336 19338 19341 19344 19347 19350 19353 19356 19359 19362 19365 19368 19371 19374 19376 19379 19382 19385 19388 19391 19394 19397 19400 19403 19406 19409 19412 19415 19418 19420 19423 19426 19429 19432 19435 19438 19441 19444 19447 19449 19452 19455 19458 19461 19463 19465 19468 19471 19473 19476 19479 19482 19485 19488 19491 19493 19496 19499 19502 19505 19508 19511 19514 19517 19520 19523 19526 19529 19532 19535 19538 19541 19544 19547 19550 19553 19556 19559 19562 19565 19568 19570 19573 19575 19578 19580 19583 19586 19588 19591 19594 19597 19600 19603 19606 19609 19612 19615 19618 19621 19624 19627 19630 19633 19636 19638 19641 19644 19647 19650 19652 19655 19658 19661 19663 19666 19669 19671 19674 19677 19680 19683 19686 19688 19691 19694 19696 19699 19702 19705 19707 19709 19712 19715 19718 19721 19723 19725 19728 19731 19734 19736 19739 19742 19745 19747 19750 19753 19756 19758 19761 19763 19766 19768 19771 19774 19777 19780 19783 19786 19788 19791 19794 19796 19798 19801 19803 19806 19809 19812 19815 19818 19820 19823 19826 19829 19832 19835 19838 19840 19842 19845 19848 19851 19854 19856 19859 19862 19865 19868 19871 19874 19877 19880 19883 19886 19889 19892 19895 19898 19901 19904 19907 19909 19912 19915 19918 19921 19923 19926 19929 19932 19934 19936 19939 19942 19945 19948 19950 19953 19955 19958 19961 19964 19966 19969 19971 19974 19977 19979 19982 19985 19988 19991 19994 19997 19999 20002 20004 20007 20010 20013 20015 20018 20021 20024 20027 20030 20032 20035 20038 20041 20044 20047 20050 20053 20055 20058 20061 20064 20067 20069 20072 20075 20078 20080 20083 20086 20089 20092 20095 20098 20101 20104 20106 20109 20112 20115 20117 20120 20123 20126 20129 20132 20134 20137 20140 20143 20146 20149 20152 20155 20158 20161 20164 20166 20169 20172 20175 20177 20180 20183 20186 20189 20192 20195 20197 20200 20203 20205 20208 20211 20213 20216 20218 20220 20223 20226 20228 20230 20233 20235 20238 20241 20243 20246 20249 20251 20254 20256 20259 20261 20264 20266 20269 20271 20274 20276 20279 20282 20284 20287 20289 20292 20295 20298 20301 20303 20306 20309 20312 20315 20318 20321 20324 20327 20330 20332 20335 20338 20341 20344 20347 20350 20353 20356 20359 20362 20365 20368 20371 20374 20377 20380 20383 20386 20389 20392 20395 20398 20401 20404 20407 20410 20413 20416 20418 20420 20423 20426 20429 20432 20435 20438 20441 20444 20447 20450 20453 20455 20458 20461 20463 20466 20469 20472 20474 20477 20480 20483 20486 20489 20492 20495 20498 20501 20504 20507 20510 20513 20516 20519 20522 20525 20528 20531 20533 20536 20539 20542 20545 20548 20551 20554 20557 20560 20562 20565 20568 20571 20573 20576 20578 20581 20584 20587 20590 20593 20596 20599 20602 20604 20606 20609 20612 20615 20618 20621 20623 20626 20629 20632 20635 20638 20641 20644 20647 20649 20652 20655 20658 20661 20663 20666 20669 20671 20673 20676 20678 20681 20684 20687 20690 20693 20696 20699 20701 20704 20707 20709 20712 20715 20717 20719 20722 20725 20728 20731 20734 20737 20740 20743 20746 20749 20752 20755 20758 20761 20764 20767 20770 20773 20776 20779 20782 20785 20788 20791 20794 20797 20800 20803 20806 20809 20812 20815 20818 20820 20823 20826 20829 20832 20835 20838 20841 20844 20847 20850 20853 20856 20859 20861 20863 20866 20869 20872 20875 20878 20881 20883 20886 20889 20892 20895 20898 20900 20903 20906 20909 20911 20914 20917 20919 20922 20924 20926 20929 20932 20935 20938 20940 20943 20946 20949 20952 20955 20958 20961 20964 20967 20970 20973 20976 20979 20982 20985 20988 20991 20994 20997 21000 21003 21006 21009 21012 21015 21018 21021 21023 21026 21029 21032 21035 21037 21040 21042 21045 21048 21050 21053 21056 21059 21062 21064 21067 21069 21072 21075 21078 21081 21084 21087 21090 21093 21095 21097 21100 21103 21106 21108 21111 21114 21117 21120 21123 21126 21129 21132 21135 21138 21141 21144 21147 21150 21153 21156 21158 21161 21164 21167 21170 21173 21176 21179 21182 21185 21187 21190 21193 21196 21199 21202 21205 21208 21211 21214 21217 21220 21223 21226 21229 21232 21235 21238 21241 21244 21246 21248 21251 21254 21257 21259 21261 21263 21266 21269 21272 21274 21277 21280 21283 21286 21288 21291 21294 21297 21300 21303 21306 21309 21312 21314 21317 21320 21323 21326 21329 21331 21334 21337 21340 21343 21346 21349 21352 21355 21358 21361 21364 21367 21370 21373 21376 21379 21382 21385 21388 21391 21393 21396 21399 21402 21404 21406 21409 21412 21415 21418 21421 21424 21427 21430 21433 21436 21439 21442 21445 21448 21451 21454 21457 21460 21463 21466 21469 21472 21474 21477 21480 21483 21486 21489 21492 21495 21498 21500 21502 21505 21508 21511 21514 21517 21520 21523 21526 21529 21532 21535 21538 21541 21544 21547 21550 21553 21556 21559 21562 21565 21568 21571 21574 21577 21580 21583 21586 21589 21592 21595 21598 21601 21604 21607 21610 21613 21616 21619 21621 21624 21627 21630 21633 21635 21638 21641 21644 21647 21650 21653 21656 21659 21662 21665 21668 21671 21674 21677 21680 21683 21686 21689 21692 21694 21697 21700 21703 21706 21708 21711 21714 21717 21720 21722 21725 21728 21731 21734 21737 21740 21743 21746 21749 21751 21754 21757 21759 21762 21765 21768 21771 21773 21776 21779 21782 21784 21787 21790 21793 21796 21799 21802 21805 21808 21811 21814 21817 21820 21823 21825 21828 21831 21834 21836 21839 21842 21845 21848 21851 21854 21857 21860 21863 21866 21868 21871 21874 21877 21880 21883 21886 21889 21892 21895 21898 21901 21904 21907 21910 21913 21916 21919 21922 21925 21928 21931 21934 21937 21940 21943 21945 21948 21951 21954 21957 21960 21963 21965 21968 21971 21973 21976 21979 21982 21985 21987 21990 21993 21996 21999 22002 22005 22008 22011 22014 22017 22019 22022 22024 22026 22028 22031 22034 22037 22040 22042 22045 22048 22051 22054 22057 22060 22063 22066 22069 22072 22075 22078 22081 22083 22086 22088 22091 22093 22096 22099 22102 22105 22107 22110 22112 22114 22117 22120 22123 22126 22129 22132 22135 22137 22140 22143 22145 22148 22150 22153 22156 22158 22161 22164 22166 22169 22172 22174 22177 22179 22182 22185 22187 22190 22192 22194 22197 22200 22202 22205 22207 22210 22213 22215 22218 22221 22224 22227 22230 22233 22236 22239 22242 22244 22247 22250 22253 22255 22258 22261 22264 22267 22270 22273 22276 22279 22282 22285 22288 22290 22293 22296 22299 22302 22305 22308 22310 22313 22315 22318 22321 22324 22326 22329 22332 22334 22336 22339 22341 22344 22347 22350 22353 22355 22358 22361 22363 22366 22369 22371 22374 22376 22379 22382 22384 22387 22390 22392 22394 22397 22400 22403 22406 22408 22411 22414 22416 22419 22422 22425 22428 22431 22433 22435 22437 22440 22442 22445 22448 22450 22453 22456 22459 22462 22465 22468 22471 22474 22476 22479 22482 22485 22488 22491 22494 22497 22499 22502 22505 22507 22510 22513 22516 22518 22521 22524 22527 22530 22532 22535 22538 22540 22543 22545 22548 22551 22554 22557 22560 22563 22566 22569 22572 22575 22578 22580 22583 22586 22589 22592 22595 22598 22601 22604 22607 22610 22612 22615 22618 22621 22623 22626 22629 22632 22635 22638 22641 22644 22647 22650 22653 22656 22658 22661 22664 22666 22669 22672 22675 22677 22680 22683 22685 22688 22691 22694 22696 22699 22702 22705 22708 22711 22714 22717 22720 22723 22726 22729 22732 22735 22738 22741 22744 22747 22750 22753 22756 22759 22762 22765 22768 22771 22774 22777 22780 22783 22786 22789 22792 22795 22797 22800 22803 22806 22809 22812 22815 22818 22821 22824 22827 22830 22833 22836 22839 22842 22845 22848 22851 22853 22856 22859 22862 22865 22868 22870 22873 22876 22879 22882 22885 22888 22891 22894 22897 22900 22903 22906 22909 22912 22915 22918 22921 22924 22927 22930 22933 22936 22939 22942 22945 22947 22950 22952 22955 22957 22960 22963 22965 22968 22971 22974 22977 22980 22983 22985 22988 22991 22994 22997 23000 23002 23005 23008 23011 23014 23016 23019 23022 23025 23028 23031 23034 23037 23040 23043 23046 23049 23052 23055 23058 23061 23064 23067 23070 23073 23076 23079 23082 23085 23088 23090 23093 23096 23099 23102 23105 23108 23111 23114 23117 23120 23123 23126 23129 23132 23135 23138 23141 23144 23147 23150 23153 23156 23159 23162 23165 23167 23170 23173 23175 23178 23181 23184 23187 23190 23193 23196 23199 23201 23204 23207 23209 23212 23215 23218 23221 23224 23226 23229 23232 23235 23238 23241 23244 23247 23250 23253 23256 23259 23261 23264 23267 23270 23273 23276 23279 23281 23284 23287 23290 23293 23296 23298 23301 23303 23306 23309 23312 23315 23318 23321 23324 23327 23330 23333 23336 23339 23342 23345 23348 23350 23353 23355 23358 23361 23363 23366 23369 23371 23373 23376 23379 23382 23385 23388 23391 23393 23396 23399 23402 23404 23407 23410 23413 23415 23417 23420 23423 23426 23428 23431 23433 23436 23438 23441 23444 23447 23449 23452 23455 23458 23461 23464 23467 23470 23473 23476 23479 23482 23485 23488 23491 23494 23497 23500 23503 23506 23509 23511 23514 23517 23520 23523 23525 23528 23531 23534 23537 23540 23543 23546 23549 23552 23555 23558 23561 23564 23567 23570 23573 23576 23579 23582 23585 23588 23591 23594 23597 23600 23603 23606 23609 23611 23614 23617 23620 23623 23626 23629 23631 23634 23637 23640 23643 23646 23649 23651 23654 23657 23659 23662 23664 23667 23670 23673 23676 23678 23681 23684 23687 23690 23693 23696 23699 23702 23705 23708 23711 23714 23717 23720 23723 23726 23729 23731 23734 23737 23740 23742 23745 23748 23750 23753 23755 23757 23760 23763 23766 23769 23771 23774 23776 23779 23782 23784 23787 23790 23793 23796 23799 23801 23804 23807 23810 23812 23815 23817 23820 23822 23824 23827 23830 23833 23836 23839 23842 23844 23846 23849 23852 23855 23857 23860 23863 23866 23869 23871 23874 23877 23880 23883 23886 23889 23891 23894 23897 23900 23903 23906 23909 23912 23915 23918 23921 23924 23927 23929 23932 23935 23938 23941 23944 23947 23950 23953 23956 23959 23962 23965 23968 23971 23974 23977 23980 23983 23986 23989 23992 23994 23996 23999 24002 24005 24008 24010 24013 24016 24018 24021 24023 24026 24029 24032 24035 24038 24041 24044 24047 24049 24052 24055 24058 24061 24064 24067 24070 24073 24076 24078 24081 24084 24087 24090 24093 24095 24098 24101 24104 24107 24110 24113 24116 24119 24122 24125 24128 24131 24133 24136 24139 24142 24145 24148 24151 24154 24157 24159 24162 24165 24168 24171 24174 24177 24180 24183 24186 24189 24192 24195 24198 24201 24204 24207 24210 24213 24216 24219 24222 24225 24228 24231 24234 24237 24240 24243 24246 24249 24252 24255 24258 24261 24264 24267 24269 24272 24275 24278 24280 24283 24285 24288 24291 24293 24296 24298 24301 24304 24306 24309 24312 24314 24317 24320 24322 24325 24327 24330 24333 24336 24338 24341 24343 24346 24349 24352 24355 24358 24361 24364 24367 24370 24372 24375 24378 24381 24383 24386 24389 24392 24395 24398 24401 24404 24407 24410 24413 24416 24419 24422 24424 24426 24428 24431 24433 24436 24439 24442 24445 24448 24451 24454 24457 24460 24463 24466 24469 24472 24474 24476 24479 24482 24484 24487 24490 24493 24496 24499 24502 24505 24508 24511 24514 24517 24520 24523 24525 24528 24531 24534 24537 24540 24543 24546 24549 24552 24555 24558 24560 24563 24566 24569 24572 24575 24578 24581 24584 24587 24590 24592 24595 24598 24601 24604 24607 24610 24613 24615 24618 24621 24624 24626 24629 24632 24635 24638 24640 24643 24646 24649 24652 24655 24658 24661 24664 24667 24670 24673 24676 24679 24682 24685 24688 24690 24693 24696 24699 24701 24704 24707 24709 24712 24714 24717 24720 24723 24726 24729 24732 24735 24738 24741 24744 24747 24750 24753 24756 24759 24762 24765 24768 24771 24774 24777 24780 24783 24785 24787 24790 24792 24795 24797 24800 24803 24806 24809 24811 24814 24817 24820 24823 24826 24829 24832 24835 24838 24841 24844 24846 24849 24851 24854 24857 24859 24862 24864 24867 24870 24873 24876 24879 24882 24885 24887 24890 24893 24896 24899 24902 24905 24907 24910 24913 24916 24919 24922 24924 24927 24930 24933 24936 24939 24942 24945 24948 24951 24954 24957 24960 24963 24965 24968 24971 24974 24976 24979 24982 24985 24988 24990 24993 24996 24999 25002 25005 25008 25011 25014 25017 25020 25023 25026 25029 25032 25035 25038 25041 25043 25045 25048 25051 25054 25057 25060 25063 25066 25069 25072 25075 25078 25081 25084 25087 25090 25093 25096 25099 25102 25105 25108 25111 25114 25117 25120 25123 25125 25128 25130 25132 25135 25138 25141 25144 25147 25149 25151 25154 25157 25159 25162 25165 25168 25171 25174 25177 25180 25183 25186 25189 25191 25193 25196 25199 25202 25205 25208 25211 25214 25216 25219 25222 25225 25228 25231 25233 25236 25239 25242 25245 25248 25250 25253 25256 25259 25262 25265 25268 25271 25274 25276 25279 25282 25285 25288 25291 25294 25297 25300 25303 25306 25309 25312 25315 25318 25321 25324 25327 25330 25332 25335 25338 25341 25344 25347 25350 25353 25355 25358 25361 25364 25367 25369 25372 25375 25378 25381 25384 25387 25390 25393 25396 25399 25402 25405 25408 25411 25413 25416 25419 25422 25425 25428 25431 25434 25437 25440 25442 25445 25447 25450 25453 25456 25459 25462 25465 25468 25471 25474 25477 25479 25482 25485 25488 25491 25494 25497 25500 25503 25506 25509 25512 25514 25517 25520 25523 25526 25529 25531 25534 25536 25539 25541 25544 25547 25549 25551 25554 25556 25559 25561 25564 25566 25569 25572 25575 25578 25581 25584 25587 25590 25593 25596 25598 25601 25604 25607 25610 25613 25615 25618 25621 25624 25627 25630 25632 25635 25638 25641 25644 25647 25650 25653 25656 25658 25661 25664 25667 25670 25673 25675 25678 25681 25684 25687 25690 25693 25696 25699 25702 25705 25708 25711 25714 25717 25720 25723 25726 25728 25730 25733 25736 25739 25742 25745 25747 25750 25753 25756 25759 25762 25765 25768 25771 25773 25776 25779 25782 25785 25788 25791 25794 25797 25800 25803 25806 25809 25812 25814 25816 25819 25822 25825 25828 25831 25834 25837 25840 25843 25846 25849 25852 25854 25857 25860 25863 25866 25869 25872 25875 25878 25881 25884 25887 25890 25892 25895 25898 25901 25903 25906 25909 25912 25914 25916 25919 25922 25925 25928 25931 25934 25936 25939 25942 25945 25948 25951 25954 25956 25959 25962 25965 25968 25971 25974 25977 25980 25983 25986 25989 25992 25995 25997 25999 26002 26004 26007 26009 26012 26015 26018 26021 26024 26027 26030 26033 26036 26039 26042 26045 26048 26051 26054 26057 26060 26063 26066 26069 26072 26075 26077 26080 26083 26086 26089 26092 26095 26098 26101 26104 26107 26110 26113 26116 26119 26121 26123 26126 26129 26132 26135 26138 26141 26144 26147 26150 26153 26156 26159 26162 26165 26168 26171 26174 26176 26179 26182 26184 26187 26190 26193 26196 26198 26201 26204 26207 26209 26212 26215 26218 26221 26224 26227 26230 26233 26236 26239 26242 26245 26248 26250 26253 26256 26259 26262 26265 26268 26271 26274 26277 26279 26282 26285 26288 26290 26293 26296 26299 26302 26304 26306 26309 26312 26315 26317 26320 26323 26326 26329 26332 26335 26338 26341 26344 26346 26349 26352 26355 26357 26360 26362 26365 26368 26371 26374 26377 26380 26383 26386 26389 26392 26395 26398 26401 26404 26407 26410 26412 26415 26418 26421 26424 26427 26429 26432 26435 26438 26441 26444 26447 26450 26453 26456 26459 26461 26464 26467 26469 26472 26475 26477 26480 26483 26486 26489 26492 26495 26498 26501 26504 26507 26509 26512 26515 26518 26520 26523 26525 26528 26531 26534 26536 26539 26541 26544 26546 26549 26552 26555 26558 26561 26563 26565 26568 26571 26574 26577 26580 26583 26586 26589 26592 26595 26598 26601 26603 26606 26609 26612 26615 26618 26621 26623 26626 26629 26632 26635 26638 26641 26644 26647 26650 26653 26656 26659 26662 26665 26667 26670 26673 26675 26678 26681 26684 26687 26690 26693 26696 26699 26702 26705 26708 26711 26714 26717 26720 26723 26726 26729 26732 26735 26738 26741 26744 26747 26750 26752 26755 26758 26761 26764 26766 26769 26772 26775 26777 26779 26782 26785 26788 26791 26794 26797 26800 26803 26806 26809 26812 26815 26818 26821 26824 26827 26830 26833 26836 26839 26842 26845 26848 26851 26854 26857 26860 26863 26866 26869 26872 26875 26878 26880 26883 26886 26889 26891 26894 26897 26899 26902 26905 26908 26911 26914 26916 26919 26922 26925 26928 26931 26933 26936 26939 26942 26945 26948 26951 26954 26956 26959 26962 26965 26968 26971 26974 26977 26979 26982 26985 26987 26990 26993 26996 26998 27001 27003 27006 27009 27012 27015 27018 27021 27024 27027 27029 27032 27035 27037 27040 27043 27046 27049 27052 27054 27057 27060 27063 27066 27069 27072 27075 27078 27081 27084 27087 27090 27092 27095 27097 27100 27103 27106 27109 27112 27115 27117 27120 27123 27126 27129 27132 27135 27138 27141 27143 27146 27149 27151 27154 27157 27160 27163 27165 27168 27171 27174 27177 27180 27183 27186 27189 27192 27195 27197 27200 27202 27205 27208 27211 27214 27217 27220 27223 27226 27229 27231 27234 27237 27240 27243 27245 27248 27251 27254 27257 27260 27263 27266 27269 27272 27275 27278 27281 27284 27287 27290 27293 27296 27298 27301 27304 27307 27310 27313 27316 27319 27322 27325 27328 27331 27334 27336 27339 27342 27345 27348 27351 27354 27357 27360 27363 27366 27369 27372 27375 27378 27381 27383 27386 27389 27392 27395 27398 27401 27404 27407 27410 27413 27416 27419 27422 27425 27428 27431 27434 27437 27440 27443 27446 27449 27452 27455 27457 27460 27463 27466 27469 27472 27475 27478 27481 27484 27487 27490 27493 27496 27498 27501 27504 27507 27510 27513 27516 27518 27521 27524 27527 27530 27533 27536 27539 27542 27544 27547 27550 27552 27555 27558 27561 27564 27567 27570 27572 27575 27578 27581 27584 27587 27590 27593 27596 27599 27602 27605 27608 27610 27613 27616 27619 27622 27625 27627 27630 27633 27636 27639 27642 27645 27647 27650 27653 27656 27659 27661 27664 27667 27670 27673 27676 27679 27682 27685 27687 27690 27693 27696 27698 27700 27703 27706 27709 27712 27715 27718 27721 27724 27727 27730 27733 27736 27739 27742 27745 27748 27751 27754 27757 27760 27763 27766 27769 27772 27775 27778 27781 27784 27787 27790 27793 27796 27799 27802 27805 27808 27811 27814 27817 27820 27823 27826 27829 27832 27834 27837 27840 27843 27846 27848 27851 27854 27857 27860 27863 27866 27868 27871 27874 27877 27880 27883 27886 27889 27892 27895 27898 27901 27904 27906 27909 27912 27915 27917 27920 27923 27925 27927 27930 27933 27936 27939 27942 27945 27948 27951 27954 27956 27959 27962 27964 27966 27969 27972 27974 27977 27979 27982 27984 27987 27990 27993 27996 27998 28001 28003 28006 28009 28012 28015 28018 28021 28024 28027 28030 28033 28036 28039 28042 28045 28048 28051 28054 28057 28060 28063 28066 28069 28072 28075 28078 28081 28084 28087 28089 28092 28095 28098 28101 28103 28106 28109 28112 28115 28118 28121 28123 28125 28128 28131 28134 28137 28140 28143 28146 28149 28152 28155 28158 28161 28164 28167 28170 28173 28176 28179 28182 28185 28188 28191 28194 28197 28200 28203 28206 28209 28212 28215 28217 28220 28223 28225 28228 28231 28234 28236 28238 28241 28244 28247 28250 28252 28255 28258 28261 28263 28266 28269 28272 28275 28277 28280 28282 28284 28286 28288 28291 28294 28297 28300 28303 28306 28309 28312 28314 28317 28320 28322 28325 28328 28331 28333 28335 28338 28341 28344 28347 28350 28352 28354 28356 28359 28362 28365 28368 28370 28373 28375 28378 28381 28384 28387 28390 28393 28396 28399 28402 28405 28408 28411 28413 28416 28419 28422 28425 28428 28431 28434 28436 28439 28442 28445 28448 28451 28454 28457 28460 28463 28466 28469 28472 28475 28478 28481 28483 28486 28489 28492 28495 28498 28501 28504 28507 28510 28513 28516 28519 28522 28525 28527 28530 28533 28536 28538 28541 28544 28547 28550 28552 28555 28558 28561 28563 28566 28569 28572 28574 28577 28580 28583 28586 28589 28591 28593 28596 28598 28601 28603 28606 28609 28612 28615 28618 28621 28624 28627 28630 28633 28636 28639 28642 28644 28646 28649 28652 28655 28658 28661 28664 28667 28670 28672 28675 28678 28681 28684 28687 28690 28692 28694 28696 28699 28702 28704 28707 28710 28713 28716 28718 28721 28724 28727 28729 28732 28734 28737 28740 28743 28746 28749 28752 28755 28758 28761 28764 28767 28770 28773 28776 28779 28782 28785 28788 28791 28794 28797 28800 28803 28806 28809 28812 28815 28817 28820 28823 28826 28829 28832 28835 28838 28840 28843 28846 28849 28852 28855 28858 28861 28864 28866 28869 28871 28873 28876 28879 28882 28885 28887 28890 28893 28895 28898 28901 28904 28907 28910 28913 28916 28919 28922 28925 28927 28930 28933 28936 28939 28942 28945 28948 28951 28954 28957 28959 28962 28965 28968 28970 28973 28976 28979 28982 28985 28988 28991 28993 28995 28998 29001 29004 29006 29009 29012 29014 29016 29019 29021 29024 29027 29030 29033 29036 29038 29041 29044 29046 29049 29052 29055 29058 29061 29064 29066 29068 29071 29074 29077 29080 29083 29086 29089 29091 29094 29097 29100 29102 29105 29108 29111 29114 29117 29120 29123 29126 29129 29132 29135 29138 29141 29144 29147 29150 29153 29156 29159 29162 29165 29168 29171 29173 29176 29179 29182 29184 29187 29190 29193 29196 29199 29202 29205 29207 29210 29213 29216 29219 29222 29225 29228 29230 29233 29236 29239 29242 29245 29248 29251 29254 29256 29259 29262 29265 29268 29271 29273 29276 29279 29282 29284 29287 29290 29293 29296 29299 29301 29304 29307 29310 29313 29316 29319 29322 29325 29328 29331 29334 29337 29340 29343 29346 29349 29352 29355 29358 29361 29364 29367 29370 29373 29376 29379 29382 29385 29388 29391 29394 29397 29400 29403 29406 29409 29412 29415 29418 29421 29424 29427 29429 29432 29434 29437 29440 29443 29446 29449 29451 29454 29457 29460 29462 29465 29468 29471 29474 29477 29480 29482 29485 29488 29491 29494 29497 29500 29503 29506 29508 29511 29514 29517 29519 29522 29525 29528 29531 29534 29537 29540 29543 29546 29549 29552 29555 29558 29560 29563 29565 29568 29571 29574 29577 29580 29583 29586 29589 29592 29595 29598 29601 29604 29606 29609 29612 29615 29618 29621 29624 29627 29630 29633 29636 29639 29642 29645 29648 29651 29653 29656 29659 29662 29665 29668 29670 29673 29676 29679 29682 29685 29687 29690 29693 29695 29698 29701 29704 29707 29710 29713 29716 29719 29722 29725 29728 29731 29733 29736 29739 29742 29744 29747 29750 29752 29755 29758 29761 29764 29767 29770 29772 29775 29778 29781 29784 29787 29789 29792 29794 29797 29800 29803 29805 29808 29811 29813 29816 29819 29822 29825 29828 29831 29833 29836 29839 29841 29844 29847 29850 29853 29856 29859 29861 29864 29866 29869 29872 29875 29877 29880 29883 29885 29888 29891 29894 29897 29900 29903 29906 29909 29912 29915 29918 29921 29924 29927 29929 29932 29935 29938 29941 29944 29947 29950 29953 29955 29958 29961 29964 29967 29970 29972 29974 29977 29980 29983 29986 29989 29992 29994 29997 30000 30003 30006 30009 30012 30015 30018 30021 30024 30027 30030 30033 30035 30038 30041 30044 30047 30050 30053 30056 30058 30060 30063 30066 30068 30071 30074 30077 30080 30083 30086 30089 30092 30095 30098 30101 30103 30106 30109 30111 30114 30117 30120 30122 30125 30127 30130 30133 30136 30139 30142 30145 30148 30151 30154 30157 30160 30163 30166 30169 30172 30175 30177 30180 30183 30186 30189 30192 30195 30198 30200 30203 30206 30208 30211 30214 30217 30219 30222 30225 30228 30231 30234 30237 30240 30243 30246 30249 30251 30254 30257 30260 30263 30266 30268 30271 30274 30276 30279 30282 30285 30288 30291 30294 30297 30300 30303 30306 30309 30312 30314 30317 30320 30322 30325 30328 30331 30334 30337 30339 30342 30345 30348 30351 30354 30357 30360 30362 30365 30368 30371 30373 30375 30378 30381 30384 30387 30390 30393 30395 30398 30401 30404 30407 30410 30413 30416 30419 30422 30425 30427 30430 30433 30436 30438 30440 30443 30446 30449 30452 30455 30458 30461 30464 30467 30470 30473 30476 30479 30482 30484 30486 30489 30492 30495 30498 30500 30503 30506 30509 30512 30515 30518 30520 30522 30525 30527 30530 30533 30536 30538 30541 30544 30547 30550 30553 30555 30558 30560 30563 30566 30569 30572 30575 30578 30580 30583 30586 30589 30592 30594 30597 30600 30603 30605 30608 30611 30614 30617 30620 30623 30626 30629 30632 30635 30638 30641 30644 30647 30650 30653 30655 30658 30661 30663 30666 30669 30672 30675 30678 30681 30684 30687 30690 30693 30696 30699 30702 30704 30707 30710 30713 30716 30718 30721 30724 30727 30730 30732 30735 30738 30741 30744 30747 30750 30753 30755 30758 30761 30763 30766 30769 30772 30775 30778 30781 30784 30787 30790 30793 30796 30798 30801 30804 30807 30809 30812 30815 30818 30821 30824 30826 30829 30832 30834 30836 30839 30842 30844 30847 30850 30853 30856 30859 30861 30864 30867 30870 30872 30874 30877 30880 30882 30885 30887 30890 30893 30895 30898 30901 30903 30906 30909 30912 30915 30917 30920 30923 30926 30928 30931 30933 30936 30939 30942 30945 30948 30951 30954 30957 30960 30963 30965 30968 30971 30973 30976 30979 30981 30984 30987 30990 30993 30995 30998 31001 31003 31006 31009 31011 31014 31017 31020 31022 31025 31028 31031 31034 31036 31039 31042 31045 31048 31051 31054 31057 31059 31062 31065 31068 31071 31074 31077 31080 31083 31085 31088 31091 31094 31097 31100 31103 31106 31108 31111 31114 31117 31120 31123 31126 31129 31132 31135 31138 31141 31144 31147 31150 31153 31156 31159 31162 31165 31168 31171 31174 31176 31179 31182 31185 31188 31191 31194 31197 31200 31203 31206 31209 31212 31214 31217 31220 31223 31226 31229 31232 31234 31237 31240 31242 31245 31247 31250 31253 31256 31259 31262 31265 31268 31271 31274 31277 31280 31283 31286 31289 31291 31294 31297 31300 31303 31305 31308 31311 31314 31316 31319 31322 31325 31328 31331 31333 31336 31339 31342 31345 31347 31350 31353 31356 31358 31361 31364 31367 31370 31373 31376 31379 31382 31385 31388 31391 31394 31397 31400 31403 31406 31409 31412 31414 31417 31420 31422 31425 31428 31431 31434 31437 31440 31443 31446 31449 31452 31455 31458 31461 31463 31466 31469 31471 31474 31477 31480 31483 31486 31489 31492 31495 31498 31501 31503 31506 31509 31511 31514 31517 31519 31522 31525 31528 31531 31534 31537 31540 31543 31546 31549 31552 31555 31558 31561 31564 31567 31570 31573 31576 31579 31582 31584 31587 31590 31593 31596 31599 31602 31605 31608 31611 31614 31617 31620 31623 31626 31629 31632 31635 31638 31641 31644 31647 31650 31653 31656 31659 31662 31665 31668 31671 31674 31677 31680 31683 31686 31689 31692 31695 31698 31701 31704 31707 31710 31713 31716 31718 31721 31724 31726 31729 31732 31735 31738 31741 31744 31747 31750 31753 31756 31759 31762 31765 31768 31771 31774 31777 31780 
</DataArray>
<DataArray type="UInt32" Name="types" format="ascii">
5 5 5 5 5 3 5 5 5 5 5 5 5 5 5 5 3 5 5 5 5 3 5 3 5 5 3 5 5 5 5 3 5 5 3 3 5 5 5 5 5 5 3 5 5 5 3 5 3 5 3 5 5 5 5 5 3 5 5 5 5 5 5 5 5 5 5 5 5 3 5 5 5 5 5 5 5 5 3 5 5 5 5 5 5 5 5 5 5 5 5 5 5 5 5 5 5 5 5 3 5 5 5 5 5 5 5 5 5 3 3 5 5 5 5 5 5 5 5 5 3 5 5 5 5 3 5 3 5 5 5 3 5 5 3 3 5 5 5 5 3 3 3 5 5 5 5 5 3 5 5 5 5 5 3 5 5 5 3 5 5 5 5 5 5 5 5 5 5 5 5 5 5 5 5 5 5 5 5 5 3 5 5 5 5 5 5 5 5 3 5 5 3 5 3 3 5 5 5 5 5 3 3 5 3 5 5 5 3 5 5 3 5 5 5 5 3 5 3 5 5 3 3 5 5 5 5 5 5 5 5 3 5 5 3 5 5 5 5 5 5 5 3 5 5 5 5 5 3 5 5 3 5 3 5 5 5 5 3 5 5 5 5 5 3 5 5 5 5 5 5 5 5 3 5 5 3 5 5 3 5 5 3 5 5 3 5 5 5 5 5 5 3 5 3 5 5 5 3 5 5 5 5 5 5 5 5 5 5 5 3 5 5 5 5 5 5 5 5 5 5 3 5 3 5 5 5 3 5 5 5 3 5 5 5 5 5 5 3 3 5 5 5 3 5 5 3 3 5 5 3 5 5 5 5 5 3 5 5 5 5 3 5 5 3 5 5 5 3 3 5 5 5 3 5 5 5 5 5 3 5 3 5 5 5 5 5 5 5 5 5 5 5 3 3 5 5 5 5 5 5 5 5 5 5 5 5 5 3 5 5 5 5 5 5 5 5 3 5 5 3 5 5 5 5 5 3 5 5 3 5 5 5 5 5 3 5 3 5 5 5 5 5 5 5 5 5 5 5 5 5 5 5 3 5 5 5 5 3 5 5 5 5 3 5 5 3 3 5 5 5 5 5 3 5 3 5 5 5 3 3 5 5 5 5 3 5 5 5 5 5 5 5 5 5 5 3 5 5 5 5 5 5 5 3 3 5 5 5 5 5 5 5 5 5 5 5 3 5 5 5 5 5 5 5 5 5 5 5 5 5 5 5 5 5 5 5 5 5 5 5 3 5 5 5 3 5 5 3 5 5 5 5 5 5 5 5 5 3 5 5 5 5 5 3 5 5 3 5 5 3 5 5 3 5 5 5 5 5 5 5 5 5 5 5 5 5 5 5 5 5 5 5 5 5 5 5 5 5 3 5 5 5 5 5 3 5 5 5 5 5 3 5 3 5 5 5 5 5 5 5 5 5 5 5 5 5 5 5 5 5 5 5 5 5 5 5 5 5 5 5 5 5 5 5 5 5 5 5 5 5 5 5 5 5 5 5 5 5 5 5 5 5 5 5 5 5 5 5 5 5 5 5 5 5 5 5 5 5 5 5 5 5 5 5 5 5 5 5 5 5 5 5 5 5 5 3 5 5 5 5 5 5 5 5 5 5 5 5 5 5 5 3 5 5 3 5 5 5 5 5 5 3 5 5 3 5 5 5 5 5 5 5 5 5 5 3 5 5 3 5 5 3 5 3 5 5 5 5 5 5 5 5 5 5 5 3 5 5 5 5 5 5 5 5 3 5 3 5 5 5 5 5 5 5 5 5 5 5 5 5 5 5 5 5 5 5 5 5 5 5 5 5 3 5 5 5 5 3 5 5 5 5 3 3 5 5 5 5 3 5 5 3 5 3 5 5 5 5 3 3 5 3 3 5 5 3 5 5 3 5 5 5 5 5 5 5 5 5 3 5 3 5 5 5 5 3 3 5 5 5 5 3 5 5 3 3 5 5 3 5 5 5 5 5 5 5 5 5 5 5 5 5 5 5 5 5 5 5 5 3 5 5 5 5 5 5 5 5 5 5 5 5 5 5 3 5 5 5 5 5 5 5 3 5 5 5 3 5 5 5 5 3 5 5 5 5 5 5 3 5 5 3 3 5 3 5 5 5 3 5 5 5 3 3 5 5 5 5 5 5 5 5 3 5 5 5 5 5 5 5 5 5 5 5 5 5 5 5 5 5 3 5 5 5 3 5 5 5 5 5 5 5 5 3 5 5 5 5 5 5 5 5 5 5 5 5 5 5 5 5 5 5 3 5 5 5 5 5 5 5 5 5 5 5 5 5 5 5 5 5 5 5 5 5 5 5 3 5 3 5 5 5 5 3 3 5 5 5 5 5 5 5 5 5 5 5 5 5 5 5 5 5 3 5 5 3 5 5 5 5 5 5 5 5 5 5 5 5 5 3 3 5 3 5 5 5 5 5 5 5 5 3 5 5 5 3 5 5 5 3 5 5 5 5 5 5 5 5 5 3 5 5 5 5 5 5 5 5 5 5 3 5 5 5 5 5 5 5 5 5 5 5 3 5 3 5 3 5 5 5 3 5 3 5 5 5 3 5 5 5 5 5 5 5 5 5 5 5 5 5 5 5 3 5 5 5 5 5 5 5 5 3 5 3 5 3 5 3 3 3 5 5 5 5 5 5 5 5 5 5 5 3 5 5 5 5 5 5 5 5 5 5 5 5 5 5 5 5 5 5 5 5 5 5 5 5 5 3 5 5 5 5 5 3 5 5 5 5 5 5 5 5 5 5 5 5 5 5 3 5 5 5 5 3 5 5 5 5 5 5 5 5 5 5 5 5 3 5 5 5 5 5 5 3 5 5 5 5 5 5 5 5 5 5 5 3 3 5 5 5 3 3 5 5 5 5 5 5 5 5 5 5 5 5 5 5 5 5 5 5 5 5 5 5 5 5 5 5 5 5 5 5 5 5 5 5 5 5 5 5 5 5 5 5 5 5 5 5 5 5 5 5 3 5 5 3 5 5 3 3 5 3 5 5 5 5 5 5 3 5 5 5 5 5 5 5 5 5 5 3 5 5 5 5 5 5 5 5 5 5 5 5 3 5 5 5 5 5 5 5 5 5 3 5 5 5 5 5 5 5 5 5 5 5 5 3 5 5 3 5 3 5 5 5 5 5 3 3 5 3 5 5 5 5 5 5 5 5 5 5 5 5 3 5 5 5 5 5 5 3 5 5 5 5 5 5 5 5 5 5 5 5 3 5 5 3 5 3 3 5 5 5 5 5 5 5 3 5 3 5 5 5 5 5 5 5 5 5 5 5 5 5 5 5 5 5 5 5 5 5 5 5 5 5 5 5 5 5 5 5 5 5 5 5 5 5 5 5 5 5 5 5 5 5 5 5 3 5 5 5 5 5 5 5 5 5 3 5 5 3 5 3 5 3 5 5 5 5 5 5 3 5 5 5 5 5 5 5 5 5 5 5 5 5 5 5 5 5 3 5 5 5 5 5 5 3 5 5 5 5 5 5 5 5 5 5 5 5 3 5 5 5 5 5 5 5 5 5 5 5 5 5 5 5 5 5 5 5 5 5 5 5 5 5 5 5 5 5 5 5 5 5 5 5 3 5 5 5 5 3 5 5 5 5 5 3 5 5 5 3 5 5 5 5 3 5 5 5 5 5 5 5 5 5 5 5 3 5 5 3 5 5 3 3 5 5 3 5 5 5 5 5 5 5 5 3 5 3 5 5 5 5 5 5 3 5 5 5 5 3 5 5 5 5 5 5 5 5 5 5 5 5 5 5 5 5 3 5 5 5 3 5 5 5 5 5 5 5 5 5 5 3 5 5 5 3 5 5 5 3 5 3 5 5 5 5 5 5 5 5 5 5 5 5 5 5 5 5 5 5 5 5 5 5 5 5 5 5 5 5 3 5 5 5 5 5 5 5 5 5 5 5 3 5 5 5 3 5 5 5 5 5 5 5 5 5 3 3 5 3 5 3 5 3 5 5 5 5 3 5 5 3 5 5 5 5 5 5 3 5 5 5 5 3 5 5 5 5 5 5 5 5 5 5 5 5 5 5 5 3 5 5 5 5 5 5 5 5 5 5 5 5 3 5 5 5 5 5 5 3 5 5 5 5 5 3 5 3 5 5 5 5 5 5 5 5 3 5 3 3 5 5 5 3 5 5 3 5 5 3 5 5 3 5 3 3 5 5 5 5 5 5 5 5 5 5 5 5 5 5 5 5 5 5 5 5 5 5 5 5 5 5 5 5 3 5 5 5 5 5 5 5 5 3 5 5 5 5 5 5 5 3 5 5 5 3 5 5 3 5 5 5 5 5 5 5 5 5 5 5 5 3 5 5 5 5 3 5 5 5 5 5 5 5 5 3 5 5 5 3 5 5 5 5 5 5 5 5 5 5 5 3 5 5 5 5 3 5 5 5 3 3 5 5 5 5 5 3 5 3 5 5 3 5 3 5 5 5 5 5 5 5 5 5 5 5 5 5 5 5 5 3 5 5 3 5 5 5 3 5 3 3 5 5 5 3 5 5 3 5 3 5 5 5 5 5 5 5 5 5 5 5 3 5 3 5 5 5 5 5 5 5 5 5 3 5 5 5 5 5 5 5 5 5 3 5 5 5 5 5 5 5 5 3 5 5 3 5 5 5 5 3 5 5 5 5 3 5 5 5 5 5 5 5 5 5 5 5 5 5 5 5 3 5 5 5 5 3 5 5 3 5 5 5 5 5 5 5 5 5 5 5 5 5 5 5 5 5 3 5 5 5 5 5 5 5 3 5 5 5 3 5 5 3 5 5 5 5 5 5 5 5 5 3 5 5 3 5 5 5 5 5 5 5 3 5 5 5 3 5 3 5 5 5 5 5 5 5 5 5 5 3 5 5 5 5 3 3 5 5 5 5 5 5 5 5 5 5 5 5 3 5 5 3 5 5 5 3 5 5 3 5 5 5 3 5 5 5 5 3 5 5 5 5 5 5 5 5 5 5 5 5 5 5 5 3 5 5 5 5 3 5 5 5 5 5 5 5 5 5 5 5 5 3 5 5 5 5 5 5 3 5 5 5 5 5 5 3 5 5 5 5 5 5 5 5 5 5 5 5 5 3 5 3 5 5 5 5 3 5 5 5 3 3 5 5 3 5 5 5 5 5 5 5 5 5 5 5 5 5 5 5 5 3 3 5 5 3 5 5 5 5 5 5 5 5 5 5 5 5 5 5 5 3 5 5 5 5 5 5 5 3 5 5 5 5 5 5 5 5 5 3 5 5 3 5 5 5 5 5 5 5 3 5 5 5 5 5 5 3 5 3 5 5 5 5 5 3 5 5 3 5 3 5 3 3 5 5 5 5 5 5 5 5 5 5 5 5 3 5 5 5 5 5 5 3 5 5 5 5 5 5 5 3 5 5 5 5 5 3 3 5 5 3 5 5 5 5 3 3 5 5 5 5 3 3 5 5 5 3 5 5 5 5 5 5 5 5 3 3 5 5 3 5 5 3 3 5 3 3 5 5 5 5 5 5 5 5 5 5 5 5 5 5 5 5 5 5 3 5 5 5 3 5 3 5 5 5 3 3 5 5 5 3 5 5 3 3 5 3 5 5 3 5 3 5 5 5 5 5 5 5 5 5 3 5 3 5 5 5 5 5 5 5 5 5 3 5 5 5 5 5 3 5 5 5 3 5 5 5 5 3 5 3 3 5 3 5 5 3 3 3 5 5 5 3 5 3 3 5 5 5 5 3 5 5 5 3 3 5 5 5 5 5 5 5 3 5 5 5 5 5 5 5 5 5 5 5 3 5 5 5 5 5 5 5 5 5 5 5 5 5 5 5 5 3 3 5 5 3 5 5 5 5 5 5 5 5 5 3 5 5 5 3 5 5 5 5 5 5 5 5 3 3 5 5 5 5 5 5 5 3 5 5 5 5 5 5 5 5 3 5 5 5 5 5 5 5 5 5 5 5 5 5 5 5 5 5 5 5 5 5 5 5 5 5 5 5 5 5 5 3 3 5 5 5 5 5 5 3 3 5 5 5 5 5 5 5 5 3 5 5 5 5 5 3 5 5 5 5 5 5 3 5 5 5 3 5 5 3 5 5 5 5 5 5 5 5 5 5 3 3 5 5 5 5 5 5 3 5 5 5 5 3 5 5 5 5 5 5 5 5 5 5 5 3 5 5 3 3 5 5 3 5 3 3 5 5 5 5 5 5 5 5 3 5 5 5 3 5 5 5 5 5 3 5 5 5 5 3 5 3 3 5 3 5 3 3 5 3 5 3 5 5 5 5 5 3 5 5 5 5 3 5 5 5 5 5 5 5 3 5 5 5 5 5 3 5 5 5 5 5 3 5 3 5 3 5 5 3 5 3 3 5 5 5 5 5 5 5 5 5 5 5 5 5 5 5 5 5 5 5 5 5 5 5 5 5 3 5 5 5 5 5 5 3 5 5 5 5 5 3 5 3 5 5 3 5 5 5 3 5 3 5 5 5 5 3 5 5 5 5 5 5 5 5 5 5 5 5 3 5 5 5 3 5 5 5 5 5 5 5 5 5 5 3 5 5 3 5 5 5 5 5 5 5 5 5 5 5 5 3 5 5 5 5 3 5 5 3 5 5 5 5 5 5 5 3 5 5 3 5 5 5 5 5 5 5 5 5 5 5 5 5 5 5 5 5 5 5 5 5 3 3 5 5 5 5 5 5 3 5 5 5 5 5 5 5 5 5 5 5 5 5 3 3 5 5 5 5 5 5 5 5 3 5 5 5 5 3 5 5 5 5 5 5 5 5 5 5 5 5 5 5 5 5 5 5 5 5 5 5 5 5 5 5 5 5 5 3 5 5 5 5 5 5 5 3 5 5 3 5 5 5 5 5 5 5 5 5 5 5 5 5 5 5 5 5 5 5 5 5 5 3 5 5 5 5 5 3 5 5 5 5 5 5 5 5 3 5 5 5 5 5 5 5 5 5 5 5 5 5 5 5 5 5 5 3 5 5 5 5 5 5 5 5 5 5 5 5 3 5 3 5 3 5 3 5 5 5 5 3 5 3 5 5 5 3 5 5 5 3 5 5 5 3 5 5 5 5 5 3 5 5 3 5 3 5 3 5 3 3 5 5 5 5 5 5 5 5 5 5 3 5 5 5 5 3 5 5 5 5 5 5 5 5 5 5 5 5 5 3 5 5 5 5 3 5 5 5 5 5 5 5 5 5 5 3 5 5 5 3 5 5 3 5 3 5 5 5 5 3 5 5 5 5 5 5 5 5 5 5 5 5 5 5 5 5 5 3 5 5 5 3 5 3 5 5 3 5 5 5 5 5 3 5 5 5 5 5 5 5 5 5 5 5 5 5 5 5 3 5 5 5 3 5 5 5 5 5 5 3 5 3 5 5 5 5 5 5 5 5 5 5 5 3 5 5 5 3 5 3 5 5 5 5 5 3 5 5 3 5 5 5 3 5 5 5 5 5 5 5 3 5 5 5 5 5 5 5 5 5 5 5 5 3 3 5 5 5 5 3 5 5 3 5 3 5 5 5 5 5 5 5 5 5 3 5 5 5 5 5 3 5 5 5 5 5 5 5 5 5 5 5 5 3 5 5 5 5 5 5 5 5 5 5 5 3 5 3 5 3 5 3 5 5 5 3 5 5 5 5 5 5 3 3 3 5 5 5 5 5 5 5 5 3 5 5 5 5 5 5 5 5 5 5 5 5 5 5 5 3 5 5 5 3 5 5 5 5 5 3 5 5 5 3 5 3 3 3 5 5 3 5 3 5 5 3 5 5 3 5 5 5 5 5 3 5 5 5 5 5 5 5 5 5 5 5 5 5 5 5 3 5 5 5 5 3 5 5 3 5 5 5 5 5 5 5 5 5 5 5 5 5 5 5 5 5 5 5 3 5 5 5 5 5 5 5 5 5 3 5 5 5 5 5 5 5 3 5 3 3 5 5 5 5 5 5 5 5 5 5 5 5 5 5 5 5 3 3 5 3 5 3 5 5 3 5 3 5 5 5 3 5 3 3 5 5 5 5 5 3 5 5 3 5 5 5 5 5 5 5 5 5 5 5 5 5 3 5 5 3 5 5 5 5 5 5 5 5 5 3 5 5 5 5 5 3 5 5 3 5 5 5 5 5 5 3 5 5 3 5 3 5 5 5 5 5 5 5 5 5 3 5 5 5 5 5 5 5 5 5 3 3 5 5 5 5 3 5 5 5 5 3 5 5 3 3 5 3 3 5 3 5 3 5 5 5 5 5 5 3 5 5 5 5 5 3 5 5 5 5 5 5 5 5 5 5 5 5 5 3 3 5 5 3 5 3 3 5 5 5 5 5 5 5 3 5 3 3 5 5 5 5 5 5 5 5 5 5 5 5 5 5 5 5 3 5 5 5 3 5 5 5 5 5 5 5 3 5 5 3 5 5 3 5 5 5 5 5 5 5 5 3 5 5 5 3 5 5 5 3 5 5 3 3 5 3 5 5 5 5 5 5 5 5 5 5 5 5 5 5 5 5 5 5 5 5 5 5 5 3 5 3 3 5 5 5 5 5 5 5 5 5 3 5 5 5 5 5 5 3 5 3 5 3 5 3 3 5 5 5 5 5 3 3 3 5 5 5 3 3 5 5 3 5 5 5 5 5 5 5 5 5 5 5 3 5 5 5 3 5 5 5 3 3 5 5 5 5 3 5 3 5 5 5 5 5 5 5 5 5 5 5 5 5 5 5 5 5 3 5 5 5 5 5 5 5 5 5 3 5 5 5 5 5 3 5 5 5 5 5 5 5 5 5 5 5 5 5 5 5 5 5 5 5 5 5 5 5 5 5 5 5 5 5 5 5 5 5 5 5 5 5 5 5 5 5 5 5 5 5 5 5 5 5 5 5 5 5 5 5 5 5 5 5 5 3 5 5 3 5 5 5 5 5 5 5 5 5 5 5 3 5 5 3 5 3 5 5 5 5 5 5 5 5 3 5 5 3 5 5 5 3 5 5 5 5 3 5 3 5 3 3 3 5 5 3 3 5 5 5 5 3 5 3 5 5 5 5 3 5 5 5 5 5 5 5 5 5 5 5 5 5 5 5 5 5 5 5 5 5 5 5 5 5 5 5 5 5 5 5 5 5 5 5 5 5 3 5 3 5 5 5 5 5 5 5 3 5 3 5 5 3 5 5 5 5 5 3 5 5 5 5 5 5 5 5 5 5 5 5 5 5 3 5 3 5 5 5 5 5 3 5 5 5 5 5 5 5 5 5 5 5 5 5 5 5 5 5 5 5 5 3 3 5 5 5 3 5 5 5 5 5 5 5 5 5 5 3 5 5 5 5 5 5 5 5 5 5 5 5 5 5 3 5 5 3 5 5 5 5 5 5 5 5 5 5 3 5 5 5 5 5 5 5 5 5 5 5 5 5 5 5 3 5 3 5 5 5 5 3 5 5 5 5 5 5 3 5 5 5 5 5 5 5 5 3 5 5 3 5 5 5 5 5 5 5 5 5 5 5 5 5 5 5 5 5 5 5 5 5 5 3 5 5 5 5 5 5 5 5 5 5 5 5 5 5 5 5 5 5 5 5 5 5 5 5 5 5 5 5 5 5 5 5 5 5 5 5 5 5 3 5 5 5 5 5 3 5 5 5 5 5 5 5 5 5 5 5 5 5 5 5 5 5 5 5 5 5 5 5 5 5 5 5 5 5 5 5 5 5 5 5 5 5 5 5 5 3 5 3 5 5 5 5 5 3 5 5 5 3 5 5 5 3 5 5 3 5 3 5 5 5 5 5 5 5 5 5 5 5 5 5 5 5 5 5 5 5 5 3 5 5 5 5 5 5 5 5 5 5 5 5 5 5 5 5 5 5 5 5 5 5 5 5 5 5 5 5 5 5 5 5 5 5 5 5 5 5 5 5 5 5 5 5 5 5 5 5 5 5 5 5 5 5 5 5 5 5 5 5 5 5 5 5 5 5 5 5 5 5 5 5 5 5 5 5 5 5 5 5 5 5 5 5 5 3 3 5 3 3 5 5 5 5 5 5 5 5 5 3 3 3 5 5 5 3 5 5 5 5 5 5 5 5 5 3 5 5 5 5 5 5 5 5 5 5 5 5 5 5 5 5 5 5 5 5 5 5 5 5 5 5 5 5 5 5 5 5 5 5 5 3 5 3 5 5 5 5 5 5 5 5 5 5 5 5 5 5 5 5 5 5 5 5 5 5 5 5 5 5 5 5 5 5 5 5 5 5 5 5 5 5 5 5 5 5 5 5 5 5 5 5 5 5 5 5 5 5 5 5 5 5 5 5 5 5 5 5 5 5 5 5 5 3 5 5 5 5 5 3 5 5 5 5 5 5 5 5 5 3 5 5 3 5 3 5 5 5 3 5 5 5 5 5 3 5 5 5 5 5 5 5 5 5 5 5 5 3 5 5 5 3 5 5 5 5 5 5 5 5 5 5 5 5 5 5 5 5 5 5 5 5 5 5 5 5 5 5 5 5 3 5 5 3 5 5 5 3 5 5 5 5 5 5 5 5 3 5 5 5 5 5 5 5 5 5 5 5 5 5 5 3 5 5 3 5 5 3 5 5 5 5 5 5 5 5 5 5 5 5 5 5 5 5 5 5 3 5 5 5 5 5 3 5 3 5 5 5 5 5 3 5 5 5 5 5 5 5 5 5 5 5 5 5 5 3 5 5 5 5 5 5 3 5 5 3 5 5 5 5 5 5 5 5 5 5 5 5 5 5 5 5 5 5 5 5 3 5 5 5 5 5 3 5 3 5 5 3 5 3 3 5 5 5 5 3 5 5 5 3 5 5 3 5 5 5 5 5 5 3 5 3 5 5 3 5 5 5 5 3 5 5 3 3 5 5 5 5 5 5 5 5 5 3 5 3 5 3 3 5 5 5 5 5 5 5 3 3 5 5 3 5 5 5 3 5 5 5 3 5 5 5 5 5 5 5 5 5 5 5 5 5 5 5 5 5 5 5 5 5 5 5 5 5 5 5 5 3 5 5 5 5 5 5 5 5 5 3 3 5 5 5 3 5 5 5 3 5 5 5 5 5 5 5 3 5 5 3 5 5 3 3 5 5 3 5 5 5 3 3 3 5 5 3 5 5 5 5 5 5 5 5 5 5 5 3 5 5 3 5 5 5 3 5 5 3 5 3 5 5 5 5 3 5 5 5 5 5 5 5 5 5 5 3 5 5 3 3 5 3 5 5 5 5 5 5 5 5 3 3 5 3 5 5 5 5 5 3 3 5 5 5 5 5 5 3 5 5 5 3 5 5 5 5 5 5 3 5 3 3 5 5 5 3 5 5 5 5 5 5 3 5 5 5 5 3 5 3 3 5 5 5 5 5 3 5 3 5 5 3 5 3 5 5 5 5 5 5 5 5 5 3 5 3 5 3 3 3 5 5 5 5 5 3 5 5 3 3 5 5 3 5 5 5 5 5 5 5 5 5 5 5 5 5 5 5 5 5 5 5 5 5 5 5 5 5 5 3 5 5 5 5 3 5 5 5 5 5 5 3 5 5 5 5 5 3 3 5 5 3 5 5 5 3 5 5 3 3 5 3 5 5 5 5 5 5 5 3 3 5 3 5 5 5 5 5 3 5 5 5 5 5 5 5 5 5 5 5 5 5 5 5 5 5 5 5 5 5 3 5 5 5 5 5 5 5 5 5 5 5 3 5 5 5 3 5 5 3 5 3 5 5 5 5 3 3 5 5 5 5 5 3 3 5 5 5 5 3 5 5 5 5 5 5 5 5 5 5 5 5 5 5 5 5 5 5 5 5 5 5 5 5 5 5 5 5 5 5 5 5 3 5 5 5 3 5 5 3 5 5 3 5 5 5 5 3 5 5 5 5 5 5 5 5 3 3 5 5 5 5 5 5 3 5 5 3 5 5 5 5 3 5 5 5 3 5 5 5 5 5 5 5 5 5 5 5 5 5 5 5 5 5 5 3 5 5 3 5 5 5 5 5 5 5 5 5 5 5 5 5 3 3 5 3 5 5 5 5 5 5 3 5 3 5 5 5 5 3 5 5 5 5 5 5 5 5 5 5 5 3 5 5 5 5 5 5 5 5 3 5 5 5 5 5 5 5 5 5 5 3 5 5 5 3 3 5 5 5 5 5 5 5 5 5 5 5 5 5 5 5 5 5 5 5 5 5 5 5 5 5 5 5 5 5 5 5 5 5 5 5 5 5 5 5 5 5 3 5 5 5 5 3 3 5 3 5 3 5 5 5 5 5 5 5 5 5 3 5 5 3 5 5 5 5 5 5 5 5 5 5 5 5 5 5 5 5 5 5 5 5 5 5 5 3 5 5 5 5 5 5 3 5 5 5 5 5 5 5 5 5 5 5 3 5 5 3 5 5 3 3 5 5 5 3 5 3 5 5 3 3 5 5 5 5 5 5 3 5 5 3 3 5 3 5 5 5 5 5 5 5 5 5 5 5 5 5 3 5 5 5 5 5 5 5 5 5 5 5 5 5 5 5 5 5 5 5 5 5 5 5 5 5 5 5 5 5 5 5 5 5 5 5 5 5 5 5 5 5 5 5 5 5 5 5 5 5 5 5 5 5 5 5 3 5 5 5 5 5 5 5 5 5 5 5 5 5 5 5 5 5 5 5 5 5 5 5 5 5 5 5 5 5 5 5 5 5 5 5 5 5 5 5 5 5 5 5 5 5 5 5 5 5 5 5 3 3 5 5 5 5 5 5 5 5 5 5 5 5 5 5 3 5 5 5 5 5 5 5 5 3 5 5 5 5 5 5 5 3 5 5 5 5 3 5 5 3 5 3 5 5 3 5 5 3 5 5 5 5 5 5 5 5 5 5 3 5 5 3 5 5 5 5 5 3 5 5 5 5 5 5 5 5 3 5 3 5 5 5 3 5 5 5 5 5 5 5 3 5 5 5 3 5 5 5 5 5 5 5 3 5 5 3 5 5 5 5 3 5 5 5 5 3 5 5 5 5 3 5 5 5 3 5 5 3 5 5 5 5 5 3 5 5 5 5 3 5 5 3 5 5 3 5 3 3 5 5 5 5 5 3 5 5 5 5 5 5 3 5 5 5 3 3 5 5 3 5 5 3 5 5 5 5 3 3 5 5 3 5 5 5 5 5 5 5 5 5 5 5 5 5 5 5 5 5 5 5 5 5 5 5 5 5 5 5 5 5 5 5 5 3 5 3 5 5 5 3 5 5 5 5 5 5 5 5 5 5 5 5 5 5 5 5 5 5 5 5 5 5 5 5 3 5 5 5 5 5 5 5 5 5 5 5 5 5 5 5 3 5 5 3 5 3 5 3 5 5 3 5 5 5 3 5 5 3 5 5 3 5 5 5 5 5 3 5 5 5 5 5 5 5 5 5 5 3 3 5 5 5 5 5 5 5 5 5 3 5 5 5 5 5 5 5 5 5 5 5 5 5 5 5 5 5 5 5 5 5 5 5 5 5 5 5 5 5 5 5 5 5 5 5 5 5 5 5 3 5 5 5 3 5 5 5 3 5 3 5 3 5 5 5 3 5 3 5 5 5 5 5 5 3 5 5 3 3 3 5 5 3 5 5 5 5 5 5 5 5 5 5 5 5 5 5 5 5 3 5 5 5 3 5 5 3 3 5 5 3 3 5 5 5 5 5 3 5 5 5 5 5 5 3 5 5 5 5 5 5 5 5 5 5 5 5 5 5 5 5 5 5 5 5 5 5 5 3 5 5 5 5 5 5 5 5 3 5 5 5 5 3 5 5 5 5 5 5 5 5 5 3 5 5 5 5 5 5 5 5 5 5 5 5 5 5 5 5 5 5 5 5 5 3 5 5 3 5 5 3 3 5 5 5 5 3 5 5 5 5 5 3 5 3 5 5 5 5 5 5 5 5 5 5 5 5 5 5 5 5 5 3 5 5 5 5 5 5 5 5 5 5 5 5 5 5 3 5 5 5 5 5 5 5 5 5 5 5 5 5 3 5 5 5 5 5 5 3 5 5 5 5 3 5 5 5 5 5 5 5 5 5 5 5 5 3 5 5 3 5 3 5 3 5 5 3 5 5 3 5 5 3 5 3 5 5 5 5 5 5 3 5 5 3 3 5 5 5 3 3 3 5 5 3 5 5 5 5 5 5 5 5 3 5 5 3 5 5 5 5 5 3 5 5 3 5 3 5 5 5 5 5 5 5 5 3 5 5 5 5 3 3 5 5 5 5 5 5 5 5 3 5 5 5 5 5 5 5 3 5 5 5 5 3 5 5 5 5 5 5 5 5 5 3 5 3 5 5 3 5 5 3 5 5 5 5 5 5 3 5 5 3 5 5 5 3 5 5 5 5 5 5 5 5 5 5 5 5 5 5 5 5 3 5 5 5 5 5 5 5 5 5 5 5 5 5 5 5 5 3 5 3 5 5 5 5 5 5 5 5 5 5 5 5 5 5 5 5 5 5 5 5 5 5 5 5 5 5 5 5 3 5 5 5 5 3 5 3 5 3 5 5 3 5 5 5 5 3 3 3 3 5 5 5 5 5 3 5 3 3 3 5 5 5 5 5 5 5 5 5 5 5 5 5 5 3 5 5 5 5 5 5 5 3 5 5 5 5 5 3 5 5 3 3 5 5 5 5 5 5 5 5 3 5 5 5 5 5 3 5 5 5 5 5 5 5 5 3 5 3 5 5 3 3 5 5 5 5 3 5 5 5 5 5 5 5 3 5 5 5 5 5 5 3 5 5 5 5 5 5 3 5 3 5 3 3 5 5 3 3 5 5 5 5 5 5 5 5 5 5 3 5 5 3 5 5 5 3 5 5 5 5 3 3 5 3 5 5 5 5 5 5 5 5 5 5 5 5 5 5 5 5 5 5 5 5 5 5 5 5 5 5 5 5 5 5 5 5 5 5 5 5 5 5 5 5 5 5 5 5 5 5 5 5 5 5 5 5 5 5 5 5 5 5 5 5 5 5 5 5 5 5 5 5 5 5 5 5 5 5 5 5 5 3 5 5 5 5 5 5 5 5 5 3 5 5 5 3 5 5 3 3 5 5 5 3 5 5 3 3 5 5 5 5 5 5 3 5 5 3 5 3 5 5 5 3 5 5 5 5 5 5 5 5 5 5 5 5 5 3 5 3 5 5 3 5 3 5 5 5 5 5 5 5 5 3 5 5 5 5 5 5 5 5 5 5 5 5 3 5 3 5 5 5 5 5 5 5 5 3 5 5 5 3 5 3 5 3 5 5 5 5 5 5 5 3 3 5 5 5 5 5 5 5 5 5 5 5 5 5 5 5 5 5 5 5 5 5 5 5 5 5 5 5 5 5 5 5 3 5 5 5 5 5 3 5 3 5 3 5 5 3 5 3 5 5 5 5 5 5 5 5 5 5 5 5 3 5 5 5 5 5 5 5 5 5 5 5 5 5 5 3 5 5 5 5 5 5 5 5 5 3 5 5 5 5 3 3 5 5 3 5 5 5 5 5 5 3 5 5 5 5 5 5 5 5 5 5 5 5 5 5 5 5 5 5 5 5 5 5 5 5 5 3 5 3 5 3 5 5 3 5 5 5 5 5 5 5 5 5 5 5 5 5 5 5 5 3 5 5 5 5 3 5 5 5 3 5 5 3 5 5 5 5 5 3 5 5 3 5 5 5 3 3 5 5 5 5 3 3 5 5 5 3 5 5 5 3 5 5 5 3 5 3 5 3 5 5 5 5 5 5 3 5 5 3 3 5 3 5 5 5 5 5 3 5 5 5 5 5 5 3 3 5 5 5 5 3 5 5 5 5 5 5 5 5 5 5 5 5 5 5 5 5 5 3 5 5 5 5 3 5 5 5 3 3 5 5 5 5 3 5 3 5 5 5 3 5 3 5 5 3 5 5 5 5 5 5 3 5 3 5 5 5 3 5 5 5 5 5 3 5 5 5 5 5 5 5 3 5 5 5 5 3 5 5 5 3 5 5 5 5 5 5 5 5 3 5 5 5 3 5 5 5 5 5 3 5 5 5 5 5 5 5 5 5 5 3 5 5 5 3 5 5 5 5 5 5 3 5 5 3 5 5 3 5 3 3 5 5 3 3 5 3 5 5 3 5 5 3 5 3 5 3 5 3 5 3 5 3 5 5 3 5 3 5 5 5 5 3 5 5 5 5 5 5 5 5 5 3 5 5 5 5 5 5 5 5 5 5 5 5 5 5 5 5 5 5 5 5 5 5 5 5 5 5 5 5 3 3 5 5 5 5 5 5 5 5 5 5 5 3 5 5 3 5 5 5 3 5 5 5 5 5 5 5 5 5 5 5 5 5 5 5 5 5 5 5 3 5 5 5 5 5 5 5 5 5 3 5 5 5 3 5 3 5 5 5 5 5 5 5 5 3 3 5 5 5 5 5 3 5 5 5 5 5 5 5 5 3 5 5 5 5 3 5 5 3 3 5 3 5 5 5 5 5 5 5 3 5 5 3 5 5 3 3 5 5 5 5 5 5 5 5 5 5 5 5 5 5 5 5 5 5 5 5 5 5 5 5 5 5 5 5 5 5 5 5 5 3 5 5 5 5 5 5 5 5 5 5 5 5 5 3 3 5 5 5 5 5 5 3 5 5 5 5 5 3 5 5 5 3 5 5 3 5 3 3 5 5 5 5 3 5 5 5 5 5 5 5 5 5 5 5 5 5 5 5 5 5 5 5 5 5 5 5 5 5 5 5 3 5 5 5 5 3 5 3 5 5 3 5 5 5 5 3 5 3 5 5 5 5 5 5 5 5 3 3 5 5 5 3 5 5 5 5 5 5 5 5 5 5 5 5 5 5 5 5 3 5 5 5 5 5 5 5 5 5 3 5 5 5 5 5 5 5 5 5 5 5 5 5 5 5 5 5 5 5 3 3 5 5 5 3 3 3 5 5 5 3 5 5 5 5 3 5 5 5 5 5 5 5 5 3 5 5 5 5 5 3 5 5 5 5 5 5 5 5 5 5 5 5 5 5 5 5 5 5 5 5 3 5 5 5 3 3 5 5 5 5 5 5 5 5 5 5 5 5 5 5 5 5 5 5 5 5 5 5 3 5 5 5 5 5 5 5 5 3 3 5 5 5 5 5 5 5 5 5 5 5 5 5 5 5 5 5 5 5 5 5 5 5 5 5 5 5 5 5 5 5 5 5 5 5 5 5 5 5 3 5 5 5 5 3 5 5 5 5 5 5 5 5 5 5 5 5 5 5 5 5 5 5 5 3 5 5 5 5 3 5 5 5 5 3 5 5 5 5 5 5 5 5 5 3 5 5 3 5 5 5 5 3 5 5 5 3 5 5 5 5 5 5 5 5 5 5 5 5 5 3 5 5 5 3 5 5 5 5 5 5 5 5 5 5 3 5 5 5 5 5 5 5 5 5 5 5 5 5 5 5 5 5 5 5 5 5 5 5 5 5 3 5 5 5 5 5 5 3 5 5 3 5 5 5 5 3 5 5 5 5 5 5 5 5 5 5 3 5 3 3 3 5 5 5 5 3 5 5 5 5 5 5 5 5 5 5 5 5 5 3 5 3 5 3 5 5 5 5 3 5 3 3 5 5 5 5 5 5 5 3 5 5 3 5 3 5 5 3 5 5 3 5 5 3 5 3 5 5 3 5 3 3 5 5 3 5 3 5 5 3 5 5 5 5 5 5 5 5 5 3 5 5 5 3 5 5 5 5 5 5 5 5 5 5 5 3 5 5 5 5 5 5 3 5 3 5 5 5 3 5 5 3 3 5 3 5 5 5 5 3 5 5 3 5 5 3 5 3 5 5 3 5 5 3 3 5 5 5 5 3 5 5 3 5 5 5 5 5 3 3 3 5 3 5 5 3 5 5 5 5 5 5 5 5 3 5 5 5 5 5 5 5 3 5 5 3 5 5 5 3 5 5 5 5 3 5 5 3 5 3 5 5 5 5 5 5 5 5 5 5 5 3 5 5 5 5 5 5 5 5 5 5 3 5 5 5 3 5 5 5 5 5 5 5 5 5 5 5 3 5 5 3 5 5 5 3 5 5 3 5 5 5 3 5 5 5 5 5 5 5 5 5 5 5 5 5 5 5 5 5 5 5 5 5 5 5 5 5 5 5 5 5 5 5 5 5 3 5 5 5 5 5 5 5 5 5 5 5 5 5 5 5 5 5 5 3 5 5 5 5 5 3 5 5 5 5 5 5 5 5 5 5 5 5 5 5 5 5 5 5 5 5 5 5 5 5 5 3 5 3 5 3 5 5 3 5 5 5 5 5 5 3 5 5 5 5 5 3 5 5 5 5 3 5 5 5 5 5 5 5 5 5 5 5 5 5 5 5 5 5 5 5 5 5 5 5 5 3 5 5 5 5 5 5 5 5 5 5 5 5 5 5 5 5 5 5 5 5 5 5 5 5 5 3 5 5 3 5 5 5 5 5 5 5 5 3 5 5 3 5 5 5 5 5 3 5 5 5 5 5 5 5 5 5 5 5 3 5 5 5 5 5 5 3 5 5 5 5 5 3 5 3 5 5 5 5 5 5 5 5 5 5 5 5 5 5 5 3 5 3 5 5 3 5 5 3 3 5 5 5 5 5 5 3 5 5 5 3 5 5 5 3 3 5 5 5 3 5 3 5 3 5 5 5 3 5 5 5 5 5 5 5 5 5 5 5 5 5 5 5 5 5 5 5 5 3 5 5 5 5 3 5 5 5 5 5 5 5 5 5 5 5 5 5 5 5 5 5 5 5 5 5 5 5 5 5 5 5 5 3 5 5 5 5 5 5 3 5 5 5 5 5 5 3 5 5 3 5 3 5 5 5 5 3 5 5 5 5 5 5 5 5 5 5 5 5 5 5 5 5 5 3 5 5 5 3 5 5 3 5 3 3 5 5 5 5 3 5 3 5 5 3 5 5 5 5 5 3 5 5 5 3 5 3 5 3 3 5 5 5 5 5 5 3 3 5 5 5 3 5 5 5 5 3 5 5 5 5 5 5 3 5 5 5 5 5 5 5 5 5 5 5 5 3 5 5 5 5 5 5 5 5 5 5 5 5 5 5 5 5 5 5 5 5 5 3 3 5 5 5 5 3 5 5 3 5 3 5 5 5 5 5 5 5 5 3 5 5 5 5 5 5 5 5 5 3 5 5 5 5 5 3 5 5 5 5 5 5 5 5 5 5 5 5 3 5 5 5 5 5 5 5 5 3 5 5 5 5 5 5 5 5 5 5 5 5 5 5 5 5 5 5 5 5 5 5 5 5 5 5 5 5 5 5 5 5 5 5 5 5 3 5 5 5 3 5 3 5 5 3 5 3 5 5 3 5 5 3 5 5 3 5 3 5 5 5 3 5 3 5 5 5 5 5 5 5 5 5 3 5 5 5 3 5 5 5 5 5 5 5 5 5 5 5 5 5 3 3 3 5 3 5 5 5 5 5 5 5 5 5 5 5 5 5 3 3 5 5 3 5 5 5 5 5 5 5 5 5 5 5 5 5 3 5 5 5 5 5 5 5 5 5 5 5 3 5 5 5 5 5 5 5 5 5 5 3 5 5 5 5 5 5 5 3 5 5 5 3 5 5 5 5 3 5 5 5 5 5 5 5 5 5 5 5 5 5 5 5 5 3 5 5 5 3 5 5 3 5 3 5 5 5 5 5 5 5 5 5 5 5 5 5 5 5 5 5 5 5 5 5 5 5 3 3 5 3 5 3 5 5 5 5 3 5 5 5 5 5 5 5 5 5 5 5 3 5 3 5 5 3 5 3 5 5 5 5 5 5 5 3 5 5 5 5 5 5 3 5 5 5 5 5 3 5 5 5 5 5 5 5 5 5 5 5 5 5 3 5 5 5 3 5 5 5 5 3 5 5 5 5 5 5 5 5 5 5 5 5 5 5 5 5 5 3 3 5 5 5 5 5 5 5 5 5 5 5 5 5 5 5 5 5 5 5 5 5 5 5 5 5 5 3 5 3 3 5 5 5 5 5 3 3 5 5 3 5 5 5 5 5 5 5 5 5 5 3 3 5 5 5 5 5 5 5 3 5 5 5 5 5 3 5 5 5 5 5 3 5 5 5 5 5 5 5 5 3 5 5 5 5 5 5 5 5 5 5 5 5 5 5 5 5 5 5 3 5 5 5 5 5 5 5 3 5 5 5 5 3 5 5 5 5 5 5 5 5 5 5 5 5 5 5 3 5 5 5 5 5 5 5 5 5 3 5 3 5 5 5 5 5 5 5 5 5 5 3 5 5 5 5 5 5 5 5 5 5 5 3 5 5 5 5 5 3 5 3 5 3 5 5 3 3 5 3 5 3 5 3 5 5 5 5 5 5 5 5 5 5 3 5 5 5 5 5 3 5 5 5 5 5 3 5 5 5 5 5 5 5 5 3 5 5 5 5 5 3 5 5 5 5 5 5 5 5 5 5 5 5 5 5 5 5 5 3 3 5 5 5 5 5 3 5 5 5 5 5 5 5 5 3 5 5 5 5 5 5 5 5 5 5 5 5 5 3 3 5 5 5 5 5 5 5 5 5 5 5 5 3 5 5 5 5 5 5 5 5 5 5 5 5 3 5 5 5 3 5 5 5 3 3 5 5 5 5 5 5 3 5 5 5 5 5 5 3 5 5 5 5 5 5 5 5 5 5 5 5 5 3 3 5 3 5 3 5 5 5 5 5 5 5 5 5 5 5 5 5 5 5 5 5 5 5 5 5 5 3 5 5 5 5 5 5 5 5 5 5 5 5 5 5 3 3 5 5 5 5 5 5 5 5 5 5 5 5 5 5 5 5 5 3 5 5 3 5 5 5 5 3 5 5 5 3 5 5 5 5 5 5 5 5 5 5 5 5 5 3 5 5 5 5 5 5 5 5 5 3 5 5 5 3 5 5 5 5 3 3 5 5 5 3 5 5 5 5 5 5 5 5 5 3 5 5 5 3 5 3 5 5 5 5 5 5 5 5 5 5 5 5 5 5 5 5 3 5 5 5 5 5 3 5 5 5 5 5 5 5 5 5 5 3 5 5 3 5 5 3 5 5 5 5 5 5 5 5 5 5 3 5 5 5 3 5 3 5 5 5 3 5 3 5 3 5 5 5 5 5 3 3 5 5 5 5 5 5 5 5 5 5 5 5 3 5 5 5 5 5 5 3 5 5 5 5 5 5 5 5 5 5 5 5 5 5 3 5 5 3 5 5 5 5 5 5 5 5 5 5 5 5 5 5 5 5 5 5 5 5 5 5 5 5 5 3 5 5 5 5 3 5 5 5 3 3 5 5 5 5 5 5 5 5 5 5 5 5 5 5 5 5 5 5 5 5 5 5 5 5 5 5 5 5 5 5 5 5 5 3 5 5 5 3 5 5 3 5 5 5 5 5 3 5 5 5 5 5 3 5 5 5 5 5 5 5 3 5 5 5 5 5 5 5 3 5 5 3 5 5 5 3 5 3 5 5 5 5 5 5 5 5 3 5 5 3 5 5 5 5 5 3 5 5 5 5 5 5 5 5 5 5 5 5 3 5 3 5 5 5 5 5 5 3 5 5 5 5 5 5 5 5 3 5 5 3 5 5 5 5 3 5 5 5 5 5 5 5 5 5 5 3 5 3 5 5 5 5 5 5 5 5 5 3 5 5 5 5 3 5 5 5 5 5 5 5 5 5 5 5 5 5 5 5 5 5 3 5 5 5 5 5 5 5 5 5 5 5 5 3 5 5 5 5 5 5 5 5 5 5 5 5 5 5 5 3 5 5 5 5 5 5 5 5 5 5 5 5 5 5 5 5 5 5 5 5 5 5 5 5 3 5 5 5 5 5 5 5 5 5 5 5 5 5 3 5 5 5 5 5 5 3 5 5 5 5 5 5 5 5 3 5 5 3 5 5 5 5 5 5 3 5 5 5 5 5 5 5 5 5 5 5 5 3 5 5 5 5 5 3 5 5 5 5 5 5 3 5 5 5 5 3 5 5 5 5 5 5 5 5 3 5 5 5 3 3 5 5 5 5 5 5 5 5 5 5 5 5 5 5 5 5 5 5 5 5 5 5 5 5 5 5 5 5 5 5 5 5 5 5 5 5 5 5 5 5 5 5 5 5 3 5 5 5 5 3 5 5 5 5 5 5 3 5 5 5 5 5 5 5 5 5 5 5 5 3 5 5 5 3 5 5 3 3 5 5 5 5 5 5 5 5 5 3 5 5 3 3 5 5 3 5 3 5 3 5 5 5 5 3 5 3 5 5 5 5 5 5 5 5 5 5 5 5 5 5 5 5 5 5 5 5 5 5 5 5 5 5 5 5 3 5 5 5 5 3 5 5 5 5 5 5 3 3 5 5 5 5 5 5 5 5 5 5 5 5 5 5 5 5 5 5 5 5 5 5 5 5 5 5 5 5 5 5 3 5 5 3 5 5 5 3 3 5 5 5 5 3 5 5 5 3 5 5 5 5 3 5 3 3 3 3 5 5 5 5 5 5 5 5 3 5 5 3 5 5 5 3 3 5 5 5 5 5 3 3 3 5 5 5 5 3 5 3 5 5 5 5 5 5 5 5 5 5 5 5 3 5 5 5 5 5 5 5 3 5 5 5 5 5 5 5 5 5 5 5 5 5 5 5 3 5 5 5 5 5 5 5 5 5 5 5 5 5 5 3 5 5 5 3 5 5 5 5 3 5 5 5 3 5 5 5 3 5 5 5 5 5 3 3 5 3 5 3 5 5 5 5 5 5 5 5 5 5 5 5 5 3 3 5 5 5 5 5 5 5 5 3 5 5 5 5 5 5 3 3 3 5 5 3 5 5 5 5 3 5 5 5 3 5 3 5 5 5 5 5 5 5 5 5 5 5 5 5 5 5 5 5 5 5 5 5 5 5 5 5 5 5 3 5 5 5 5 5 5 5 3 5 5 5 5 5 5 5 5 3 5 3 3 5 5 5 5 3 5 5 3 5 5 5 5 5 5 5 5 5 5 3 5 5 5 5 5 5 5 5 5 5 3 5 5 5 3 5 5 5 5 5 5 5 3 3 5 5 5 3 5 5 3 3 5 3 5 5 5 5 5 3 5 5 3 5 5 5 5 5 5 3 3 5 5 5 5 5 5 5 3 5 5 5 3 5 5 5 5 5 5 5 5 5 5 5 5 5 5 5 5 5 5 5 5 5 5 5 3 5 5 5 3 5 5 5 5 5 5 5 3 5 5 5 5 5 5 5 3 5 5 5 5 5 5 5 5 3 5 5 5 5 5 3 5 5 5 3 5 5 5 5 5 3 5 5 5 5 5 5 5 5 5 5 5 5 5 5 5 5 5 5 5 5 5 5 5 5 5 5 5 5 5 5 5 5 5 5 5 5 5 5 5 5 5 5 3 5 3 5 5 5 5 5 3 5 5 5 3 5 5 5 5 5 5 3 5 5 5 5 5 5 5 5 3 5 5 5 3 5 5 5 5 5 5 5 5 5 5 5 5 5 3 5 3 5 5 5 5 5 5 5 5 5 5 5 5 5 3 5 5 5 5 5 5 5 5 5 5 5 5 5 5 5 3 5 5 5 5 5 3 5 5 5 5 5 3 5 5 3 5 5 5 5 5 5 5 5 5 5 5 5 3 5 5 5 3 5 5 3 5 5 5 5 5 5 3 5 5 5 5 5 3 5 3 5 5 5 3 5 5 3 5 5 5 5 5 5 3 5 5 3 5 5 5 5 5 5 3 5 3 5 5 5 3 5 5 3 5 5 5 5 5 5 5 5 5 5 5 5 5 5 3 5 5 5 5 5 5 5 5 3 5 5 5 5 5 3 3 5 5 5 5 5 5 3 5 5 5 5 5 5 5 5 5 5 5 5 5 3 5 5 5 5 5 5 5 3 3 5 5 3 5 5 5 5 5 5 5 5 5 5 5 3 5 5 3 5 5 5 3 5 3 5 5 5 5 5 5 5 5 5 5 5 5 5 5 5 5 3 5 5 5 5 5 5 5 3 5 5 3 5 5 5 3 5 5 5 5 5 5 5 5 5 5 3 5 5 5 5 5 3 5 5 3 5 5 5 5 5 5 5 5 5 5 5 5 3 5 5 3 5 5 5 5 5 3 5 5 5 5 5 5 5 3 5 5 5 3 3 5 5 5 5 5 5 3 5 5 5 5 5 5 5 5 5 5 3 5 5 5 3 3 5 5 5 5 5 5 5 5 5 5 5 5 5 5 3 3 5 5 5 5 3 5 5 5 5 5 5 3 3 5 3 5 5 5 3 5 5 5 5 5 3 5 3 5 5 5 5 5 5 3 5 5 5 5 3 5 5 5 3 5 5 5 5 5 5 5 5 5 5 5 5 5 5 5 5 3 5 5 3 5 5 5 5 5 5 5 5 5 5 5 5 5 3 5 5 5 5 3 5 5 5 5 3 5 5 5 5 5 5 5 3 5 5 3 5 5 5 5 5 5 5 5 5 5 5 3 5 5 5 3 5 5 5 5 5 3 5 5 3 3 5 5 3 5 5 5 5 5 3 5 5 5 3 3 5 5 3 5 3 5 5 3 5 5 3 5 5 5 5 3 5 5 5 3 5 3 5 5 5 5 5 5 5 5 5 5 3 5 5 3 5 5 3 5 5 5 5 3 5 5 3 5 5 3 5 5 5 3 5 5 5 5 3 5 5 5 5 5 5 5 3 5 5 5 5 5 5 5 5 3 5 5 5 5 5 5 5 3 5 5 5 5 5 5 5 5 5 5 5 5 5 5 5 5 5 5 5 5 5 5 3 5 5 5 5 5 5 5 5 5 5 5 5 3 5 5 5 5 5 5 3 5 5 3 5 3 5 5 5 5 5 5 5 5 5 5 5 5 5 5 3 5 5 5 5 3 5 5 5 3 5 5 5 5 5 3 5 5 5 5 3 5 5 5 3 5 5 5 5 5 5 5 5 5 5 5 5 5 5 5 5 5 5 3 5 5 3 5 5 5 5 5 5 5 5 5 5 5 5 5 3 5 5 3 5 5 5 5 5 5 5 5 5 5 3 5 5 3 5 5 3 5 5 5 5 5 5 5 5 5 5 5 5 5 5 5 5 5 5 5 5 5 3 5 5 5 5 5 5 5 5 5 5 5 5 5 5 5 5 5 5 5 5 5 5 5 5 5 5 5 5 5 5 5 5 5 5 5 5 5 5 5 5 5 5 5 5 3 5 5 3 5 5 5 5 5 5 5 5 5 5 5 5 5 5 5 5 5 5 
</DataArray>
</Cells>
<PointData Scalars="" Vectors="displacement," Tensors="">
<DataArray type="Float64" Name="displacement" NumberOfComponents="3" format="ascii">
-4.4601048173893985e-07 -0.034998740467047249 0 -0.00014015385782310805 -0.033623868354374503 0 7.4605214742317871e-07 -0.031789744171607841 0 1.4431329781432514e-07 -0.034999011525098087 0 -4.4601048173893985e-07 -0.034998740467047249 0 -0.00014015385782310805 -0.033623868354374503 0 -2.1611529689124133e-05 -0.034979270937530484 0 -7.6772066337189308e-06 -0.034984071977699337 0 -1.9169980454308103e-05 -0.034960681709579701 0 -2.1611529689124133e-05 -0.034979270937530484 0 -1.9169980454308103e-05 -0.034960681709579701 0 -3.9592323631426328e-05 -0.034950150226356336 0 -2.2579510678734961e-09 -0.034999997445021205 0 -2.1611529689124133e-05 -0.034979270937530484 0 -7.6772066337189308e-06 -0.034984071977699337 0 -2.9877544428358724e-07 -0.03499959715075196 0 -0.00012561834651419855 -0.03453410636414516 0 -2.2579510678734961e-09 -0.034999997445021205 0 -7.6772066337189308e-06 -0.034984071977699337 0 -4.7045873092999475e-09 -0.034999955694047756 0 -4.7045873092999475e-09 -0.034999955694047756 0 -4.5849666525343803e-06 -0.034975056379757744 0 2.1782012745329537e-09 -0.034999920303067006 0 -7.6772066337189308e-06 -0.034984071977699337 0 -4.5849666525343803e-06 -0.034975056379757744 0 -1.9169980454308103e-05 -0.034960681709579701 0 -7.6772066337189308e-06 -0.034984071977699337 0 -4.7045873092999475e-09 -0.034999955694047756 0 -4.5849666525343803e-06 -0.034975056379757744 0 -4.5849666525343803e-06 -0.034975056379757744 0 -1.9169980454308103e-05 -0.034960681709579701 0 -9.4703933874854463e-06 -0.034958845731988514 0 -1.9169980454308103e-05 -0.034960681709579701 0 -3.9655237518318597e-05 -0.034928959448804024 0 -3.9592323631426328e-05 -0.034950150226356336 0 -1.9169980454308103e-05 -0.034960681709579701 0 -1.8555619761640118e-05 -0.034942610877830238 0 -3.9655237518318597e-05 -0.034928959448804024 0 -1.9169980454308103e-05 -0.034960681709579701 0 -1.8555619761640118e-05 -0.034942610877830238 0 -9.4703933874854463e-06 -0.034958845731988514 0 -0.00079664372094213085 -0.028876318029056162 0 -0.00081946509833098465 -0.028910097406900256 0 -0.0008048203829464735 -0.02890633446328341 0 -1.8555619761640118e-05 -0.034942610877830238 0 -3.4260151376917282e-05 -0.034906223668204506 0 -6.6967891737915222e-06 -0.034949189434107471 0 -0.00042707438581092807 -0.031878877419518822 0 0.00016980731819788534 -0.032906888550377308 0 -1.8555619761640118e-05 -0.034942610877830238 0 -6.6967891737915222e-06 -0.034949189434107471 0 -6.1463581123078328e-06 -0.034955062778368982 0 -1.8555619761640118e-05 -0.034942610877830238 0 -6.1463581123078328e-06 -0.034955062778368982 0 -9.4703933874854463e-06 -0.034958845731988514 0 -1.8555619761640118e-05 -0.034942610877830238 0 -3.4260151376917282e-05 -0.034906223668204506 0 -3.9655237518318597e-05 -0.034928959448804024 0 -5.9766613061045289e-06 -0.03495463201543534 0 -6.1463581123078328e-06 -0.034955062778368982 0 2.1782012745329537e-09 -0.034999920303067006 0 0.00016980731819788534 -0.032906888550377308 0 0.00018231491279784159 -0.033156058430602188 0 -1.6175720017922729e-06 -0.034985234768223954 0 4.4806578069272236e-10 -0.034999973407502938 0 -1.2034788495669224e-06 -0.034990411431076097 0 0.00016980731819788534 -0.032906888550377308 0 -2.2552390304835419e-07 -0.034999469313869193 0 -4.5849666525343803e-06 -0.034975056379757744 0 -6.1463581123078328e-06 -0.034955062778368982 0 -9.4703933874854463e-06 -0.034958845731988514 0 -4.5849666525343803e-06 -0.034975056379757744 0 -6.1463581123078328e-06 -0.034955062778368982 0 2.1782012745329537e-09 -0.034999920303067006 0 -0.00095806745991492532 -0.030447081281062483 0 -0.00050876329938229832 -0.028418310709003226 0 -0.00077080577244648368 -0.028593468436063318 0 -0.0006639640297265029 -0.028463121217991837 0 -0.00055422680753600411 -0.028552511211160259 0 -0.00076541323661123305 -0.028797414440512283 0 -0.00059939359297562806 -0.028671988199201987 0 -0.00071043719844249168 -0.02881916034856661 0 -0.00076355833860827381 -0.028825017788051927 0 -0.00076541323661123305 -0.028797414440512283 0 -0.00071043719844249168 -0.02881916034856661 0 -0.00079664372094213085 -0.028876318029056162 0 -0.00076355833860827381 -0.028825017788051927 0 -0.00076940834093466566 -0.028856381801734901 0 -0.00042707438581092807 -0.031878877419518822 0 -0.00095806745991492532 -0.030447081281062483 0 -0.00079664372094213085 -0.028876318029056162 0 -0.00076355833860827381 -0.028825017788051927 0 -0.00076408327364563744 -0.028824872236545514 0 -3.4260151376917282e-05 -0.034906223668204506 0 -7.0893960910052889e-05 -0.034876991336367499 0 -3.9655237518318597e-05 -0.034928959448804024 0 -0.00093211597349516357 -0.02982924498496509 0 -0.00095806745991492532 -0.030447081281062483 0 -0.00095806745991492532 -0.030447081281062483 0 -0.00041384704793789276 -0.031904824025414037 0 -7.0893960910052889e-05 -0.034876991336367499 0 -3.9655237518318597e-05 -0.034928959448804024 0 -6.239110736755943e-05 -0.034924522993076253 0 -3.9655237518318597e-05 -0.034928959448804024 0 -6.239110736755943e-05 -0.034924522993076253 0 -3.9592323631426328e-05 -0.034950150226356336 0 -0.00076234677553709831 -0.028432658766150986 0 -0.0006639640297265029 -0.028463121217991837 0 -0.00066049656563753356 -0.028367354824174438 0 -0.00077080577244648368 -0.028593468436063318 0 -0.00076234677553709831 -0.028432658766150986 0 -0.0006639640297265029 -0.028463121217991837 0 -0.0006639640297265029 -0.028463121217991837 0 -0.00066049656563753356 -0.028367354824174438 0 -0.00056788603855189418 -0.028403722984665574 0 -0.00066049656563753356 -0.028367354824174438 0 -0.00075291783137110496 -0.028292452588634557 0 -0.00054641851474664625 -0.028251369124938686 0 0.00012288607333201613 -0.031614231629268519 0 -0.00048152417325677459 -0.028543164451886021 0 -0.00076234677553709831 -0.028432658766150986 0 -0.00066049656563753356 -0.028367354824174438 0 -0.00075291783137110496 -0.028292452588634557 0 0.00043699722631160504 -0.030174176817443939 0 -3.4092575160905615e-05 -0.030367140623652547 0 -0.0001721354503644517 -0.029484904929709229 0 -6.239110736755943e-05 -0.034924522993076253 0 -5.6706217394993651e-05 -0.034945518125946762 0 -3.9592323631426328e-05 -0.034950150226356336 0 -0.00012561834651419855 -0.03453410636414516 0 0.00012288607333201613 -0.031614231629268519 0 -2.1611529689124133e-05 -0.034979270937530484 0 -5.6706217394993651e-05 -0.034945518125946762 0 -3.9592323631426328e-05 -0.034950150226356336 0 -0.00041384704793789276 -0.031904824025414037 0 0.00012288607333201613 -0.031614231629268519 0 -0.00014015385782310805 -0.033623868354374503 0 0.00031192447742085512 -0.033000434606801084 0 7.4605214742317871e-07 -0.031789744171607841 0 0.00012288607333201613 -0.031614231629268519 0 2.2309030280800414e-07 -0.031786138975903266 0 0.00043699722631160504 -0.030174176817443939 0 1.5136243138771363e-06 -0.031783249429891365 0 -3.4092575160905615e-05 -0.030367140623652547 0 1.5136243138771363e-06 -0.031783249429891365 0 -3.4092575160905615e-05 -0.030367140623652547 0 -6.3879042214052214e-07 -0.029803310871298453 0 -3.4092575160905615e-05 -0.030367140623652547 0 -6.3879042214052214e-07 -0.029803310871298453 0 -0.0001721354503644517 -0.029484904929709229 0 -6.3879042214052214e-07 -0.029803310871298453 0 -0.00016529617953682819 -0.028908403390779956 0 -0.0001721354503644517 -0.029484904929709229 0 -6.3879042214052214e-07 -0.029803310871298453 0 -0.00016529617953682819 -0.028908403390779956 0 -1.0989147490650909e-06 -0.027818862030133094 0 -0.00048152417325677459 -0.028543164451886021 0 -0.00030435568502641826 -0.028398416767925663 0 -0.00016529617953682819 -0.028908403390779956 0 -0.0001721354503644517 -0.029484904929709229 0 -0.00026644525098367278 -0.028207978920472315 0 -0.00054641851474664625 -0.028251369124938686 0 -0.00026644525098367278 -0.028207978920472315 0 -0.00043334069037264983 -0.028377644818783628 0 -0.00066049656563753356 -0.028367354824174438 0 -0.00054641851474664625 -0.028251369124938686 0 -0.00056788603855189418 -0.028403722984665574 0 -1.0989147490650909e-06 -0.027818862030133094 0 -0.00014642058716073152 -0.027461645041542252 0 1.8542227222067705e-06 -0.025840075362549536 0 -0.00016529617953682819 -0.028908403390779956 0 -1.0989147490650909e-06 -0.027818862030133094 0 -0.00026644525098367278 -0.028207978920472315 0 -1.0989147490650909e-06 -0.027818862030133094 0 -0.00026644525098367278 -0.028207978920472315 0 -0.00014642058716073152 -0.027461645041542252 0 -0.00026644525098367278 -0.028207978920472315 0 -0.00014642058716073152 -0.027461645041542252 0 -5.7975894946156448e-05 -0.028184643980237834 0 -5.7975894946156448e-05 -0.028184643980237834 0 -0.00026864750021921333 -0.028338227118196582 0 -0.00015734600025599886 -0.028471305315760285 0 -0.00026644525098367278 -0.028207978920472315 0 -5.7975894946156448e-05 -0.028184643980237834 0 -0.00026864750021921333 -0.028338227118196582 0 -0.00034126530978352695 -0.028534944549112162 0 -0.00045981258232205861 -0.028794589234915523 0 -0.0002475350161138151 -0.028711565037108554 0 -0.00034126530978352695 -0.028534944549112162 0 -0.00015734600025599886 -0.028471305315760285 0 -0.0002475350161138151 -0.028711565037108554 0 -0.00026864750021921333 -0.028338227118196582 0 -0.00034126530978352695 -0.028534944549112162 0 -0.00015734600025599886 -0.028471305315760285 0 -0.00015213038044271053 -0.028574275022398749 0 0.00010429175565792341 -0.029118145994317019 0 -0.00015734600025599886 -0.028471305315760285 0 -0.0002475350161138151 -0.028711565037108554 0 0.00038297284160572731 -0.028687222810816319 0 -5.7975894946156448e-05 -0.028184643980237834 0 -0.00015734600025599886 -0.028471305315760285 0 0.00038297284160572731 -0.028687222810816319 0 -0.0006639640297265029 -0.028463121217991837 0 -0.00056788603855189418 -0.028403722984665574 0 -0.00055422680753600411 -0.028552511211160259 0 -0.00056788603855189418 -0.028403722984665574 0 -0.00043334069037264983 -0.028377644818783628 0 -0.00055422680753600411 -0.028552511211160259 0 -0.00054641851474664625 -0.028251369124938686 0 -0.00056788603855189418 -0.028403722984665574 0 -0.00043334069037264983 -0.028377644818783628 0 -0.00026644525098367278 -0.028207978920472315 0 -0.00026864750021921333 -0.028338227118196582 0 -0.00043334069037264983 -0.028377644818783628 0 -0.00026864750021921333 -0.028338227118196582 0 -0.00034126530978352695 -0.028534944549112162 0 -0.00043334069037264983 -0.028377644818783628 0 -0.00034126530978352695 -0.028534944549112162 0 -0.00043334069037264983 -0.028377644818783628 0 -0.00055422680753600411 -0.028552511211160259 0 -0.00037672825198178337 -0.028589251754810422 0 -0.00050876329938229832 -0.028418310709003226 0 -0.00034126530978352695 -0.028534944549112162 0 -0.00059939359297562806 -0.028671988199201987 0 -0.00045981258232205861 -0.028794589234915523 0 -0.00061785449019012117 -0.028853652631821412 0 -0.00045981258232205861 -0.028794589234915523 0 -0.00055146667144983011 -0.028929464387088002 0 -0.00059939359297562806 -0.028671988199201987 0 -0.00061785449019012117 -0.028853652631821412 0 -0.00071043719844249168 -0.02881916034856661 0 -0.00059939359297562806 -0.028671988199201987 0 -0.00061785449019012117 -0.028853652631821412 0 -0.00045981258232205861 -0.028794589234915523 0 -0.00045981258232205861 -0.028794589234915523 0 -0.00044927617250954221 -0.028953455095711188 0 -0.00055146667144983011 -0.028929464387088002 0 -0.00045981258232205861 -0.028794589234915523 0 -0.00044927617250954221 -0.028953455095711188 0 -0.00031197404905204364 -0.028868688703965677 0 -0.00044927617250954221 -0.028953455095711188 0 -0.00055146667144983011 -0.028929464387088002 0 -0.00050017792589858109 -0.029058624703225053 0 -0.00055146667144983011 -0.028929464387088002 0 -0.00063853464257498775 -0.02900829507750179 0 -0.00050017792589858109 -0.029058624703225053 0 -0.00061785449019012117 -0.028853652631821412 0 -0.00055146667144983011 -0.028929464387088002 0 -0.00063853464257498775 -0.02900829507750179 0 -0.0001216064746528482 -0.028737085616838697 0 -0.0002475350161138151 -0.028711565037108554 0 -1.6279659263891242e-05 -0.028531245272950007 0 -0.0001216064746528482 -0.028737085616838697 0 -0.0002475350161138151 -0.028711565037108554 0 -0.00031197404905204364 -0.028868688703965677 0 -0.00045981258232205861 -0.028794589234915523 0 -0.0002475350161138151 -0.028711565037108554 0 -0.00031197404905204364 -0.028868688703965677 0 -0.00044927617250954221 -0.028953455095711188 0 -0.00031197404905204364 -0.028868688703965677 0 -0.00033898956299479373 -0.029038449478653722 0 -0.00031197404905204364 -0.028868688703965677 0 -0.00016412604953837653 -0.028926774541118232 0 -0.00033898956299479373 -0.029038449478653722 0 -0.0001216064746528482 -0.028737085616838697 0 -0.00031197404905204364 -0.028868688703965677 0 -0.00016412604953837653 -0.028926774541118232 0 -0.00016412604953837653 -0.028926774541118232 0 -0.00019526898054265666 -0.029083818280433358 0 -0.00033898956299479373 -0.029038449478653722 0 -0.00033898956299479373 -0.029038449478653722 0 -0.00029932886554199367 -0.029217519762574275 0 -0.00041580704909416366 -0.029127599575572427 0 -0.00019526898054265666 -0.029083818280433358 0 -0.00033898956299479373 -0.029038449478653722 0 -0.00029932886554199367 -0.029217519762574275 0 -0.00019526898054265666 -0.029083818280433358 0 -0.00029932886554199367 -0.029217519762574275 0 -3.2358095025948438e-05 -0.029175601496965554 0 -0.0011283104018692171 -0.029878514841892443 0 -0.00051788030063182626 -0.029558455041257644 0 -0.00096596876526544291 -0.030231470472921743 0 -0.00068711721812497945 -0.0295232131363657 0 -0.00025942089993221247 -0.029369326596219679 0 -0.00063853464257498775 -0.02900829507750179 0 -0.00050017792589858109 -0.029058624703225053 0 -0.00058109928855196017 -0.029136165400831963 0 -0.00063853464257498775 -0.02900829507750179 0 -0.00058109928855196017 -0.029136165400831963 0 -0.0006970824243853666 -0.029164180749148443 0 -0.00033898956299479373 -0.029038449478653722 0 -0.00050017792589858109 -0.029058624703225053 0 -0.00041580704909416366 -0.029127599575572427 0 -0.00044927617250954221 -0.028953455095711188 0 -0.00033898956299479373 -0.029038449478653722 0 -0.00050017792589858109 -0.029058624703225053 0 -0.00050017792589858109 -0.029058624703225053 0 -0.00049123088915510127 -0.029176172946074511 0 -0.00058109928855196017 -0.029136165400831963 0 -0.00050017792589858109 -0.029058624703225053 0 -0.00041580704909416366 -0.029127599575572427 0 -0.00049123088915510127 -0.029176172946074511 0 -0.00029932886554199367 -0.029217519762574275 0 -0.00049123088915510127 -0.029176172946074511 0 -0.00054561878510739987 -0.029267558680962678 0 -0.00029932886554199367 -0.029217519762574275 0 -0.00041580704909416366 -0.029127599575572427 0 -0.00049123088915510127 -0.029176172946074511 0 -0.0011283104018692171 -0.029878514841892443 0 -0.0014257131183789209 -0.030175598771277481 0 -0.0013965199495733906 -0.030180899820280778 0 -0.00068711721812497945 -0.0295232131363657 0 -0.0010362946338300339 -0.02987842702278971 0 -0.00093005179641110134 -0.029832492640211355 0 -0.0010362946338300339 -0.02987842702278971 0 -0.00049123088915510127 -0.029176172946074511 0 -0.00058109928855196017 -0.029136165400831963 0 -0.00054561878510739987 -0.029267558680962678 0 -0.0012671957844632201 -0.030441310815891343 0 -0.001384394255566013 -0.030220981162805794 0 -0.0013990725636878372 -0.030219163708685513 0 -0.0012671957844632201 -0.030441310815891343 0 -0.0012947658448414228 -0.030296027986043101 0 -0.001384394255566013 -0.030220981162805794 0 -0.00058109928855196017 -0.029136165400831963 0 -0.0006970824243853666 -0.029164180749148443 0 -0.00054561878510739987 -0.029267558680962678 0 -0.0011624740678652823 -0.030325987619797733 0 -0.0012671957844632201 -0.030441310815891343 0 -0.0012947658448414228 -0.030296027986043101 0 -0.0011624740678652823 -0.030325987619797733 0 -0.0012671957844632201 -0.030441310815891343 0 -0.0010569229311536653 -0.030457496839281957 0 -0.00063853464257498775 -0.02900829507750179 0 -0.0006970824243853666 -0.029164180749148443 0 -0.00074728063706796361 -0.029012422365488066 0 -0.0006970824243853666 -0.029164180749148443 0 -0.00082711902667838017 -0.029080165582634009 0 -0.00074728063706796361 -0.029012422365488066 0 -0.0010400786129517745 -0.030637319762606422 0 -0.0010569229311536653 -0.030457496839281957 0 -0.00082063234432173883 -0.030499427299598134 0 -0.00093005179641110134 -0.029832492640211355 0 -0.0010787119610488557 -0.029573901280698034 0 -0.0011624740678652823 -0.030325987619797733 0 -0.0010569229311536653 -0.030457496839281957 0 -0.00097218869450276977 -0.030356494740650244 0 -0.0012671957844632201 -0.030441310815891343 0 -0.0010400786129517745 -0.030637319762606422 0 -0.0010569229311536653 -0.030457496839281957 0 -0.00097218869450276977 -0.030356494740650244 0 -0.00082063234432173883 -0.030499427299598134 0 -0.00086187520088562043 -0.030220356745175113 0 -0.0010569229311536653 -0.030457496839281957 0 -0.00097218869450276977 -0.030356494740650244 0 -0.00082063234432173883 -0.030499427299598134 0 -0.00062790998883757265 -0.032262355950377665 0 -0.00078500925597688382 -0.032712015990135304 0 -0.0004790884163497442 -0.034149446109947218 0 -9.9704345032240632e-05 -0.034128538927976619 0 -0.0002435218443150939 -0.033283466271828765 0 -5.0316239750476908e-05 -0.0344912153774459 0 -0.00021388054997453228 -0.034501184617525216 0 -2.0968982397641051e-08 -0.034999967078518164 0 3.1350799797603118e-06 -0.034999692463615367 0 1.1239230302371707e-08 -0.035000009721900406 0 -2.0968982397641051e-08 -0.034999967078518164 0 3.1350799797603118e-06 -0.034999692463615367 0 -1.3903590487686661e-05 -0.034973206087473056 0 -9.9704345032240632e-05 -0.034128538927976619 0 -0.00022429907412474157 -0.034599392138669763 0 -1.3903590487686661e-05 -0.034973206087473056 0 -5.0316239750476908e-05 -0.0344912153774459 0 -8.7054172691932247e-06 -0.034973846059743588 0 -2.0968982397641051e-08 -0.034999967078518164 0 -1.3903590487686661e-05 -0.034973206087473056 0 1.0572592239730344e-08 -0.034999948626198221 0 -0.0004790884163497442 -0.034149446109947218 0 -9.9704345032240632e-05 -0.034128538927976619 0 -0.00022429907412474157 -0.034599392138669763 0 -0.0010787119610488557 -0.029573901280698034 0 -0.00073846725039410522 -0.032221736094883727 0 -0.00062790998883757265 -0.032262355950377665 0 -0.00073846725039410522 -0.032221736094883727 0 -0.0010400786129517745 -0.030637319762606422 0 -0.00082063234432173883 -0.030499427299598134 0 -0.00078100138006226944 -0.030821970454711092 0 -0.0004790884163497442 -0.034149446109947218 0 -0.00022429907412474157 -0.034599392138669763 0 -0.00036490171213189371 -0.034961267558846966 0 -0.00093713218171440494 -0.029027398724335025 0 -0.00094026565539684164 -0.028987395147815256 0 -0.00084933864738368588 -0.028948126619251169 0 -0.00082711902667838017 -0.029080165582634009 0 -0.00093713218171440494 -0.029027398724335025 0 -0.00084933864738368588 -0.028948126619251169 0 -0.00054884819030897951 -0.031820643575825786 0 -0.00080648845050397718 -0.028962814396011928 0 -0.00073846725039410522 -0.032221736094883727 0 -0.00054884819030897951 -0.031820643575825786 0 -0.00054884819030897951 -0.031820643575825786 0 -6.6916231157824823e-08 -0.034999801442782474 0 -0.00021970459576296341 -0.035081251715561139 0 -0.0001368742740413543 -0.035029015500707437 0 1.0572592239730344e-08 -0.034999948626198221 0 -0.00022429907412474157 -0.034599392138669763 0 -0.00036490171213189371 -0.034961267558846966 0 -0.00018128630360618434 -0.034904905889263108 0 -0.00022429907412474157 -0.034599392138669763 0 -1.3903590487686661e-05 -0.034973206087473056 0 -0.00018128630360618434 -0.034904905889263108 0 -1.3903590487686661e-05 -0.034973206087473056 0 -0.00018128630360618434 -0.034904905889263108 0 -0.0001368742740413543 -0.035029015500707437 0 -0.00036490171213189371 -0.034961267558846966 0 -0.00018128630360618434 -0.034904905889263108 0 -0.0001368742740413543 -0.035029015500707437 0 -0.00073846725039410522 -0.032221736094883727 0 0.00029863748928444703 -0.033916198020822991 0 -0.00024219483615790978 -0.034948844525349201 0 -0.00021970459576296341 -0.035081251715561139 0 -0.0001368742740413543 -0.035029015500707437 0 -1.3903590487686661e-05 -0.034973206087473056 0 -0.0001368742740413543 -0.035029015500707437 0 1.0572592239730344e-08 -0.034999948626198221 0 4.4806578069272236e-10 -0.034999973407502938 0 -3.1451142587774879e-09 -0.034999962004718221 0 -1.2034788495669224e-06 -0.034990411431076097 0 -1.6175720017922729e-06 -0.034985234768223954 0 -4.7068441828064736e-06 -0.034977423836537409 0 -1.2034788495669224e-06 -0.034990411431076097 0 -4.7068441828064736e-06 -0.034977423836537409 0 -3.1451142587774879e-09 -0.034999962004718221 0 -1.2034788495669224e-06 -0.034990411431076097 0 0.00016980731819788534 -0.032906888550377308 0 -0.00054884819030897951 -0.031820643575825786 0 -0.00081946509833098465 -0.028910097406900256 0 -0.0008212479137566863 -0.028948028733260526 0 -0.0008048203829464735 -0.02890633446328341 0 -0.0008212479137566863 -0.028948028733260526 0 -0.0008048203829464735 -0.02890633446328341 0 -0.00079244767913163238 -0.028923978356528598 0 -0.00079664372094213085 -0.028876318029056162 0 -0.0008048203829464735 -0.02890633446328341 0 -0.00078589356583936231 -0.028880289817308603 0 -0.00075195571116415296 -0.028912692598129466 0 -0.00080648845050397718 -0.028962814396011928 0 -0.00078589356583936231 -0.028880289817308603 0 -0.00074155600148284216 -0.028902871303365017 0 -0.00079244767913163238 -0.028923978356528598 0 -0.00079664372094213085 -0.028876318029056162 0 -0.00078589356583936231 -0.028880289817308603 0 -0.00076940834093466566 -0.028856381801734901 0 -0.0008048203829464735 -0.02890633446328341 0 -0.00078589356583936231 -0.028880289817308603 0 -0.00079244767913163238 -0.028923978356528598 0 -0.00078589356583936231 -0.028880289817308603 0 -0.00074703201745678711 -0.028857721587372421 0 -0.00074155600148284216 -0.028902871303365017 0 -0.00076355833860827381 -0.028825017788051927 0 -0.00076940834093466566 -0.028856381801734901 0 -0.00074703201745678711 -0.028857721587372421 0 -0.00078589356583936231 -0.028880289817308603 0 -0.00076940834093466566 -0.028856381801734901 0 -0.00074703201745678711 -0.028857721587372421 0 -0.00061785449019012117 -0.028853652631821412 0 -0.00071043719844249168 -0.02881916034856661 0 -0.00074155600148284216 -0.028902871303365017 0 -0.00071043719844249168 -0.02881916034856661 0 -0.00074703201745678711 -0.028857721587372421 0 -0.00074155600148284216 -0.028902871303365017 0 -0.00076355833860827381 -0.028825017788051927 0 -0.00071043719844249168 -0.02881916034856661 0 -0.00074703201745678711 -0.028857721587372421 0 -0.00061785449019012117 -0.028853652631821412 0 -0.00063853464257498775 -0.02900829507750179 0 -0.00074155600148284216 -0.028902871303365017 0 -0.00063853464257498775 -0.02900829507750179 0 -0.00074155600148284216 -0.028902871303365017 0 -0.00074728063706796361 -0.029012422365488066 0 -0.00074155600148284216 -0.028902871303365017 0 -0.00074728063706796361 -0.029012422365488066 0 -0.00084933864738368588 -0.028948126619251169 0 -0.00082711902667838017 -0.029080165582634009 0 -0.00074728063706796361 -0.029012422365488066 0 -0.00084933864738368588 -0.028948126619251169 0 -0.0006837453337078717 -0.017063794121330779 0 -0.00096407484243803403 -0.016634175522807961 0 -0.0010108620185707595 -0.017390452079878875 0 -0.0006837453337078717 -0.017063794121330779 0 -0.00027737408287101646 -0.017239847900082823 0 -0.00054504048266509496 -0.016593111386602074 0 -0.0006063441582071198 -0.017432172582270408 0 -0.00027737408287101646 -0.017239847900082823 0 -0.00043249540836068828 -0.017665064028408617 0 -0.0006063441582071198 -0.017432172582270408 0 -0.0006837453337078717 -0.017063794121330779 0 -0.00027737408287101646 -0.017239847900082823 0 -0.0006063441582071198 -0.017432172582270408 0 -0.0006837453337078717 -0.017063794121330779 0 -0.0010108620185707595 -0.017390452079878875 0 0.0003483028515368754 -0.018366087685206086 0 0.00060083530339183875 -0.018379035255096498 0 0.0006674432191834304 -0.018147676291151073 0 0.0003483028515368754 -0.018366087685206086 0 0.0006674432191834304 -0.018147676291151073 0 0.00042322983565474398 -0.018009831849936254 0 0.0003483028515368754 -0.018366087685206086 0 0.00049532145451009022 -0.018555327848880709 0 0.00060083530339183875 -0.018379035255096498 0 1.2577452397216122e-05 -0.017714602617222429 0 3.7112592391823786e-05 -0.018720839001977203 0 -0.00027737408287101646 -0.017239847900082823 0 -2.7036200909856697e-05 -0.017886507023455497 0 -0.00043249540836068828 -0.017665064028408617 0 -2.7036200909856697e-05 -0.017886507023455497 0 -0.00043249540836068828 -0.017665064028408617 0 -0.00053890806840151486 -0.018015900109572606 0 0.00031762820915888057 -0.019374859588945924 0 0.00029758031058202102 -0.019324206450878546 0 0.00022576175701306475 -0.01939989171354654 0 -0.00043249540836068828 -0.017665064028408617 0 -0.00071101189127141713 -0.017748479885249656 0 -0.00053890806840151486 -0.018015900109572606 0 -0.0006063441582071198 -0.017432172582270408 0 -0.00043249540836068828 -0.017665064028408617 0 -0.00071101189127141713 -0.017748479885249656 0 -0.0006063441582071198 -0.017432172582270408 0 -0.00071101189127141713 -0.017748479885249656 0 -0.0010108620185707595 -0.017390452079878875 0 -0.00026007043356786921 -0.018588650833413323 0 -0.00024013222007235349 -0.018545243707223425 0 -0.00017936504270158713 -0.018559167790723058 0 -0.00024013222007235349 -0.018545243707223425 0 -0.00024431675970278582 -0.018469522341806755 0 -0.00035185475396466297 -0.018594977589584432 0 -0.00044671672517898874 -0.018312165810337861 0 -0.00059305028843899266 -0.017622517683661427 0 -0.00071101189127141713 -0.017748479885249656 0 -0.00053890806840151486 -0.018015900109572606 0 -0.001045061052642049 -0.018147197420137207 0 -0.00024013222007235349 -0.018545243707223425 0 -0.00024431675970278582 -0.018469522341806755 0 -0.00017837633476021572 -0.018543846390116366 0 -9.6896004097656095e-05 -0.018228270500637932 0 -0.00022601984840909278 -0.017554351666704184 0 -4.9708839907200905e-07 -0.018088771625076265 0 -1.1069978913520299e-09 -0.018505838438788599 0 -5.3303489550379162e-10 -0.017645110396421689 0 -9.6896004097656095e-05 -0.018228270500637932 0 6.5692527050009232e-08 -0.018507137847249319 0 -9.6896004097656095e-05 -0.018228270500637932 0 7.0253795886467611e-08 -0.017644016312846476 0 -0.00013803089504746361 -0.017501900607477312 0 -1.1315333993847991e-08 -0.017640445584332119 0 8.1532793673454621e-09 -0.017084508779382019 0 0.00023098031364610045 -0.018845169338623451 0 1.6734003891120132e-08 -0.018511236128266852 0 -0.00016446527772255676 -0.019471814867234 0 1.6734003891120132e-08 -0.018511236128266852 0 -0.00016446527772255676 -0.019471814867234 0 -1.338280873830234e-08 -0.020316257200929413 0 0.00023098031364610045 -0.018845169338623451 0 -5.7579216409869807e-05 -0.019742798415221169 0 -0.00016446527772255676 -0.019471814867234 0 -0.00026007043356786921 -0.018588650833413323 0 -0.00024013222007235349 -0.018545243707223425 0 -0.00035185475396466297 -0.018594977589584432 0 3.7112592391823786e-05 -0.018720839001977203 0 -0.00044671672517898874 -0.018312165810337861 0 -9.6896004097656095e-05 -0.018228270500637932 0 0.0001079890916400404 -0.02001098308232193 0 -0.0003424835273814917 -0.018618553046023036 0 -0.00026007043356786921 -0.018588650833413323 0 -0.00035185475396466297 -0.018594977589584432 0 3.7112592391823786e-05 -0.018720839001977203 0 0.0001079890916400404 -0.02001098308232193 0 0.0004198875387509684 -0.022227605833209051 0 -3.6012823367021048e-05 -0.022349611755595137 0 0.00056213162533015116 -0.022653687210338311 0 0.00084199628884870778 -0.022430674262535418 0 0.0004198875387509684 -0.022227605833209051 0 0.00056213162533015116 -0.022653687210338311 0 0.0004198875387509684 -0.022227605833209051 0 0.00071613115486212015 -0.021799311594461235 0 -2.0612619013009662e-05 -0.021699043762593247 0 0.0001079890916400404 -0.02001098308232193 0 0.00030337329641909387 -0.020797721613421718 0 0.00084199628884870778 -0.022430674262535418 0 0.0004198875387509684 -0.022227605833209051 0 0.00071613115486212015 -0.021799311594461235 0 0.00071613115486212015 -0.021799311594461235 0 1.8288180255306393e-06 -0.020323261760919031 0 -2.0612619013009662e-05 -0.021699043762593247 0 0.00030337329641909387 -0.020797721613421718 0 8.5904486830597956e-08 -0.020320206250661135 0 1.8288180255306393e-06 -0.020323261760919031 0 -2.0612619013009662e-05 -0.021699043762593247 0 -9.8853727466265002e-07 -0.022158591886151956 0 -2.0612619013009662e-05 -0.021699043762593247 0 -3.6012823367021048e-05 -0.022349611755595137 0 -9.8853727466265002e-07 -0.022158591886151956 0 0.0004198875387509684 -0.022227605833209051 0 -2.0612619013009662e-05 -0.021699043762593247 0 -3.6012823367021048e-05 -0.022349611755595137 0 -3.6012823367021048e-05 -0.022349611755595137 0 0.00056213162533015116 -0.022653687210338311 0 -0.00022376799021327489 -0.022818442358407989 0 0.0003766890181258348 -0.019534727795443615 0 0.0002352160417547037 -0.020201406815107164 0 0.00059254823316674419 -0.018405672010591435 0 0.00065310418313388496 -0.018329130973613102 0 0.00064618569878307141 -0.018370068908725029 0 0.0003766890181258348 -0.019534727795443615 0 0.00082198594179799269 -0.017964179078567667 0 0.00059224436862584634 -0.018515239017893103 0 0.00060083530339183875 -0.018379035255096498 0 0.00065310418313388496 -0.018329130973613102 0 0.00049532145451009022 -0.018555327848880709 0 0.00059224436862584634 -0.018515239017893103 0 0.00060083530339183875 -0.018379035255096498 0 3.7112592391823786e-05 -0.018720839001977203 0 0.0003766890181258348 -0.019534727795443615 0 0.0001079890916400404 -0.02001098308232193 0 0.0003766890181258348 -0.019534727795443615 0 0.00060083530339183875 -0.018379035255096498 0 0.00065859805612435336 -0.018281953693858637 0 0.00065310418313388496 -0.018329130973613102 0 0.00060083530339183875 -0.018379035255096498 0 0.00065859805612435336 -0.018281953693858637 0 0.0006674432191834304 -0.018147676291151073 0 0.00065859805612435336 -0.018281953693858637 0 0.00065310418313388496 -0.018329130973613102 0 0.00064999333992900115 -0.018339586061605666 0 0.00062022290000440447 -0.01834863946176158 0 0.00065310418313388496 -0.018329130973613102 0 0.00064618569878307141 -0.018370068908725029 0 0.00062022290000440447 -0.01834863946176158 0 0.00065310418313388496 -0.018329130973613102 0 0.00064999333992900115 -0.018339586061605666 0 0.00062022290000440447 -0.01834863946176158 0 0.00061802126729129235 -0.01841447615056075 0 0.00060437944523887034 -0.018484946407432888 0 0.00061802126729129235 -0.01841447615056075 0 0.00057702147906252613 -0.018451928530441433 0 0.00064618569878307141 -0.018370068908725029 0 0.00062022290000440447 -0.01834863946176158 0 0.00061802126729129235 -0.01841447615056075 0 0.00064618569878307141 -0.018370068908725029 0 0.00064105437555991558 -0.024356188008953467 0 0.00035670718289661137 -0.023424984162860298 0 0.00033169854832829516 -0.028357052797850141 0 0.00024360555616607539 -0.028588331352437078 0 0.00046392988413283413 -0.028609355736079364 0 0.00061802126729129235 -0.01841447615056075 0 0.00057702147906252613 -0.018451928530441433 0 0.00060437944523887034 -0.018484946407432888 0 0.00064105437555991558 -0.024356188008953467 0 0.0002352160417547037 -0.020201406815107164 0 -5.6195846963135984e-05 -0.022837019959604271 0 -0.00022376799021327489 -0.022818442358407989 0 -0.00023103699282509406 -0.022964716727044383 0 -5.6195846963135984e-05 -0.022837019959604271 0 -0.00023103699282509406 -0.022964716727044383 0 0.0001782940603859249 -0.023405317371430156 0 -3.6012823367021048e-05 -0.022349611755595137 0 -9.8853727466265002e-07 -0.022158591886151956 0 -0.00023103699282509406 -0.022964716727044383 0 -3.6012823367021048e-05 -0.022349611755595137 0 -0.00022376799021327489 -0.022818442358407989 0 -0.00023103699282509406 -0.022964716727044383 0 -9.8853727466265002e-07 -0.022158591886151956 0 -7.3036916989862466e-07 -0.023998172194105528 0 -0.00023103699282509406 -0.022964716727044383 0 -7.3036916989862466e-07 -0.023998172194105528 0 -0.00023103699282509406 -0.022964716727044383 0 0.0001782940603859249 -0.023405317371430156 0 -7.3036916989862466e-07 -0.023998172194105528 0 0.0001782940603859249 -0.023405317371430156 0 1.6508530659099699e-06 -0.025832755630244352 0 0.00049866049328645286 -0.02579358357388381 0 -4.704224203668672e-08 -0.025835552785773857 0 -0.00014642058716073152 -0.027461645041542252 0 0.00087423409361428071 -0.027697789029304865 0 1.8542227222067705e-06 -0.025840075362549536 0 -0.00014642058716073152 -0.027461645041542252 0 -5.7975894946156448e-05 -0.028184643980237834 0 0.00087423409361428071 -0.027697789029304865 0 -5.7975894946156448e-05 -0.028184643980237834 0 0.00063458380692366448 -0.028265643606677181 0 0.00038297284160572731 -0.028687222810816319 0 -5.7975894946156448e-05 -0.028184643980237834 0 0.00087423409361428071 -0.027697789029304865 0 0.00063458380692366448 -0.028265643606677181 0 0.0011958081149620239 -0.028482613063621976 0 0.00087423409361428071 -0.027697789029304865 0 0.00063458380692366448 -0.028265643606677181 0 0.00064105437555991558 -0.024356188008953467 0 0.00049866049328645286 -0.02579358357388381 0 0.00033169854832829516 -0.028357052797850141 0 -1.6279659263891242e-05 -0.028531245272950007 0 0.00024360555616607539 -0.028588331352437078 0 0.0011958081149620239 -0.028482613063621976 0 0.00063458380692366448 -0.028265643606677181 0 0.00038297284160572731 -0.028687222810816319 0 0.00064105437555991558 -0.024356188008953467 0 0.00010429175565792341 -0.029118145994317019 0 -0.0001216064746528482 -0.028737085616838697 0 -1.6279659263891242e-05 -0.028531245272950007 0 0.00013078817150886842 -0.028797022500432989 0 -0.0001008648829735155 -0.029416195522642026 0 0.00035670718289661137 -0.023424984162860298 0 -1.6279659263891242e-05 -0.028531245272950007 0 0.00024360555616607539 -0.028588331352437078 0 0.00013078817150886842 -0.028797022500432989 0 0.00024360555616607539 -0.028588331352437078 0 0.00013078817150886842 -0.028797022500432989 0 0.00046392988413283413 -0.028609355736079364 0 5.4917181172350379e-05 -0.0287139229755216 0 4.7264157253772558e-05 -0.028982561981883689 0 0.00028384482741248456 -0.028850530638965456 0 5.4917181172350379e-05 -0.0287139229755216 0 0.00028384482741248456 -0.028850530638965456 0 0.00044167480521309696 -0.028432553804438186 0 -2.3211182685280012e-05 -0.028727973437773762 0 -0.0001008648829735155 -0.029416195522642026 0 -0.00016412604953837653 -0.028926774541118232 0 5.4917181172350379e-05 -0.0287139229755216 0 4.7264157253772558e-05 -0.028982561981883689 0 -0.0001216064746528482 -0.028737085616838697 0 -0.00016412604953837653 -0.028926774541118232 0 0.00013078817150886842 -0.028797022500432989 0 -0.00019526898054265666 -0.029083818280433358 0 -3.2358095025948438e-05 -0.029175601496965554 0 4.7264157253772558e-05 -0.028982561981883689 0 -0.00016412604953837653 -0.028926774541118232 0 -0.00019526898054265666 -0.029083818280433358 0 4.7264157253772558e-05 -0.028982561981883689 0 -0.00051788030063182626 -0.029558455041257644 0 2.3282019490075811e-05 -0.029786145867350646 0 0.0003449879392987069 -0.029196230001441136 0 -0.00025942089993221247 -0.029369326596219679 0 0.00033008509240449842 -0.029203968976677958 0 4.7264157253772558e-05 -0.028982561981883689 0 0.0003449879392987069 -0.029196230001441136 0 0.00028384482741248456 -0.028850530638965456 0 -3.2358095025948438e-05 -0.029175601496965554 0 4.7264157253772558e-05 -0.028982561981883689 0 0.0003449879392987069 -0.029196230001441136 0 0.0003449879392987069 -0.029196230001441136 0 0.0006254870726829509 -0.029231418754525781 0 0.00063799700332165974 -0.028774212940195772 0 0.0003449879392987069 -0.029196230001441136 0 0.00063799700332165974 -0.028774212940195772 0 0.00028384482741248456 -0.028850530638965456 0 0.0003449879392987069 -0.029196230001441136 0 0.000372070288725037 -0.029709178665961292 0 0.00061278265035931369 -0.029561982277988823 0 2.3282019490075811e-05 -0.029786145867350646 0 0.0003449879392987069 -0.029196230001441136 0 0.000372070288725037 -0.029709178665961292 0 0.0003449879392987069 -0.029196230001441136 0 0.00061278265035931369 -0.029561982277988823 0 0.0006254870726829509 -0.029231418754525781 0 0.000372070288725037 -0.029709178665961292 0 0.00061278265035931369 -0.029561982277988823 0 0.00062416259599591239 -0.029799040764345471 0 -2.0271125396824166e-05 -0.022652152645910823 0 -0.0007984174774411161 -0.028568136747367582 0 0.00061278265035931369 -0.029561982277988823 0 0.00090146043848254723 -0.029188356618304385 0 0.00062144686033080302 -0.029742140450577881 0 -0.0015497517925622988 -0.023806513574434054 0 -0.00092843856025148438 -0.025064653415171733 0 -0.0025016741241292505 -0.025284491937025113 0 -0.0003080776405292899 -0.02944142440778073 0 -0.0007984174774411161 -0.028568136747367582 0 0.00061278265035931369 -0.029561982277988823 0 0.00090146043848254723 -0.029188356618304385 0 0.0006254870726829509 -0.029231418754525781 0 0.00051956113703779754 -0.019060450974475902 0 0.00038526470452096605 -0.018730018978014802 0 0.00071643522569900405 -0.018631180061344697 0 -2.0271125396824166e-05 -0.022652152645910823 0 0.00066262067952194983 -0.024049311583455201 0 0.00090146043848254723 -0.029188356618304385 0 0.0006254870726829509 -0.029231418754525781 0 0.00063799700332165974 -0.028774212940195772 0 0.00038526470452096605 -0.018730018978014802 0 0.00052586271355348549 -0.018507717660104162 0 0.00071643522569900405 -0.018631180061344697 0 0.00066262067952194983 -0.024049311583455201 0 0.00035670718289661137 -0.023424984162860298 0 0.00063799700332165974 -0.028774212940195772 0 0.00028384482741248456 -0.028850530638965456 0 0.00044167480521309696 -0.028432553804438186 0 0.00038526470452096605 -0.018730018978014802 0 0.00028853509138228409 -0.018480324361403549 0 0.00052586271355348549 -0.018507717660104162 0 0.0009897469135317328 -0.017078340866495647 0 0.00035670718289661137 -0.023424984162860298 0 0.00062022290000440447 -0.01834863946176158 0 0.00028853509138228409 -0.018480324361403549 0 0.00052586271355348549 -0.018507717660104162 0 0.00052586271355348549 -0.018507717660104162 0 0.00064999333992900115 -0.018339586061605666 0 0.00071643522569900405 -0.018631180061344697 0 0.00062022290000440447 -0.01834863946176158 0 0.00052586271355348549 -0.018507717660104162 0 0.00064999333992900115 -0.018339586061605666 0 0.00065859805612435336 -0.018281953693858637 0 0.00064999333992900115 -0.018339586061605666 0 0.0006674432191834304 -0.018147676291151073 0 0.00064999333992900115 -0.018339586061605666 0 0.0006674432191834304 -0.018147676291151073 0 0.00071643522569900405 -0.018631180061344697 0 0.0006674432191834304 -0.018147676291151073 0 0.00054572120789852358 -0.017693347403629739 0 0.00060747211410838405 -0.017537061838967881 0 0.00049583573626297997 -0.018498898362995023 0 0.00088368054837814267 -0.017359877537764277 0 0.00054572120789852358 -0.017693347403629739 0 0.00059427675908884856 -0.017823520563829309 0 0.00060747211410838405 -0.017537061838967881 0 -2.0271125396824166e-05 -0.022652152645910823 0 0.00088368054837814267 -0.017359877537764277 0 0.00019000051217832407 -0.018036044970898956 0 0.00054572120789852358 -0.017693347403629739 0 0.0004710331199116237 -0.0180289032522499 0 0.00027838401161350102 -0.01829642617704123 0 0.0004710331199116237 -0.0180289032522499 0 0.00052835898699805863 -0.018335786063217292 0 0.00019000051217832407 -0.018036044970898956 0 0.00027838401161350102 -0.01829642617704123 0 0.0004710331199116237 -0.0180289032522499 0 -2.0271125396824166e-05 -0.022652152645910823 0 -0.00056279026991336344 -0.021120240832575566 0 0.0004710331199116237 -0.0180289032522499 0 0.00071727365845888555 -0.018205760271791341 0 0.00052835898699805863 -0.018335786063217292 0 0.0004710331199116237 -0.0180289032522499 0 0.00071983910631173611 -0.01798259389303003 0 0.00071727365845888555 -0.018205760271791341 0 0.0004710331199116237 -0.0180289032522499 0 0.00059427675908884856 -0.017823520563829309 0 0.00071983910631173611 -0.01798259389303003 0 0.00054572120789852358 -0.017693347403629739 0 0.0004710331199116237 -0.0180289032522499 0 0.00059427675908884856 -0.017823520563829309 0 0.00059427675908884856 -0.017823520563829309 0 0.00071983910631173611 -0.01798259389303003 0 0.00088390018649832662 -0.017874978492460745 0 0.00071983910631173611 -0.01798259389303003 0 0.00087862913067036528 -0.018096880639741186 0 0.00088390018649832662 -0.017874978492460745 0 0.00071983910631173611 -0.01798259389303003 0 0.00087862913067036528 -0.018096880639741186 0 0.00071727365845888555 -0.018205760271791341 0 0.00087862913067036528 -0.018096880639741186 0 0.00071727365845888555 -0.018205760271791341 0 0.00090700719398575003 -0.018215412546691821 0 0.00071727365845888555 -0.018205760271791341 0 0.00090700719398575003 -0.018215412546691821 0 0.00088549802678081799 -0.018334213970354191 0 -0.00063709229272408056 -0.014703347484006592 0 -0.00056970816003466828 -0.014984375941682461 0 3.2756293426393314e-05 -0.015642776514769034 0 0.00087862913067036528 -0.018096880639741186 0 0.0010788270434163409 -0.018203592872184069 0 0.00088390018649832662 -0.017874978492460745 0 -0.00071305230015695782 -0.01637691408790554 0 0.00052795268291720406 -0.016857760115837582 0 0.0010788270434163409 -0.018203592872184069 0 0.00090700719398575003 -0.018215412546691821 0 0.00088549802678081799 -0.018334213970354191 0 0.00087862913067036528 -0.018096880639741186 0 0.0010788270434163409 -0.018203592872184069 0 0.00090700719398575003 -0.018215412546691821 0 -0.00063709229272408056 -0.014703347484006592 0 -0.00056970816003466828 -0.014984375941682461 0 -0.00083261150935635053 -0.01505569063166985 0 -0.00056970816003466828 -0.014984375941682461 0 -0.00068962599315526151 -0.015306934440397775 0 -0.00083261150935635053 -0.01505569063166985 0 -0.00068962599315526151 -0.015306934440397775 0 3.2756293426393314e-05 -0.015642776514769034 0 -0.000801306912018845 -0.015674766192066324 0 -0.00056970816003466828 -0.014984375941682461 0 -0.00068962599315526151 -0.015306934440397775 0 3.2756293426393314e-05 -0.015642776514769034 0 3.2756293426393314e-05 -0.015642776514769034 0 -0.000801306912018845 -0.015674766192066324 0 -0.00073671023756329403 -0.016109866522821342 0 -0.00073671023756329403 -0.016109866522821342 0 -0.00054504048266509496 -0.016593111386602074 0 -0.00091836107063827954 -0.016341307695553517 0 -0.00073671023756329403 -0.016109866522821342 0 0.00060747211410838405 -0.017537061838967881 0 -0.00011572693696202259 -0.017877102827216756 0 3.2756293426393314e-05 -0.015642776514769034 0 -0.00073671023756329403 -0.016109866522821342 0 0.00060747211410838405 -0.017537061838967881 0 -0.00070731576323864245 -0.016212418359986828 0 -0.00032263474245753591 -0.01719988655832079 0 0.00059427675908884856 -0.017823520563829309 0 0.00088390018649832662 -0.017874978492460745 0 0.00060747211410838405 -0.017537061838967881 0 0.00052795268291720406 -0.016857760115837582 0 0.00059787720193431565 -0.017414643797041478 0 0.0006674432191834304 -0.018147676291151073 0 0.00060747211410838405 -0.017537061838967881 0 0.00042322983565474398 -0.018009831849936254 0 0.00060747211410838405 -0.017537061838967881 0 0.00042322983565474398 -0.018009831849936254 0 -0.00011572693696202259 -0.017877102827216756 0 0.0003483028515368754 -0.018366087685206086 0 0.00042322983565474398 -0.018009831849936254 0 -0.00011572693696202259 -0.017877102827216756 0 1.2577452397216122e-05 -0.017714602617222429 0 -0.00032263474245753591 -0.01719988655832079 0 -0.0006837453337078717 -0.017063794121330779 0 -0.00054504048266509496 -0.016593111386602074 0 -0.00096407484243803403 -0.016634175522807961 0 -0.00054504048266509496 -0.016593111386602074 0 -0.00096407484243803403 -0.016634175522807961 0 -0.00091836107063827954 -0.016341307695553517 0 -0.0061527186710719928 -0.019810344265116679 0 -0.0056742995466575342 -0.023306020987232601 0 -0.004067217546176111 -0.019989982978244589 0 -0.0026797095363639651 -0.025079222230024761 0 -0.0050388055174183793 -0.026744996248316368 0 0.00044902231375843502 -0.030051323689507272 0 -0.0014856545388339999 -0.029076387845716332 0 -0.0011736332107420918 -0.031349783863685671 0 0.00044902231375843502 -0.030051323689507272 0 0.00041232555419998311 -0.028476262546463571 0 -0.0014856545388339999 -0.029076387845716332 0 0.00044902231375843502 -0.030051323689507272 0 0.00041232555419998311 -0.028476262546463571 0 0.0020821647455455221 -0.028723795593302862 0 0.00041232555419998311 -0.028476262546463571 0 -0.00044017127113086298 -0.027274652573882622 0 0.0014227436187906786 -0.027260817162397886 0 0.0010788270434163409 -0.018203592872184069 0 0.00088549802678081799 -0.018334213970354191 0 0.0012031636602484479 -0.018582183544020421 0 0.0007891998451978571 -0.01857270046913994 0 0.00088549802678081799 -0.018334213970354191 0 0.0012031636602484479 -0.018582183544020421 0 -0.00071305230015695782 -0.01637691408790554 0 -2.5366379482889574e-05 -0.02007390336811293 0 0.00056555172155468966 -0.022993287731802071 0 -2.5366379482889574e-05 -0.02007390336811293 0 0.00071727365845888555 -0.018205760271791341 0 0.0007891998451978571 -0.01857270046913994 0 0.00052835898699805863 -0.018335786063217292 0 0.00071727365845888555 -0.018205760271791341 0 0.0007891998451978571 -0.01857270046913994 0 0.00088549802678081799 -0.018334213970354191 0 0.00041232555419998311 -0.028476262546463571 0 -0.00044017127113086298 -0.027274652573882622 0 -0.0014856545388339999 -0.029076387845716332 0 -0.0015445529608883969 -0.02513847115424097 0 -0.0015589349211151454 -0.029786390379835846 0 -0.00044017127113086298 -0.027274652573882622 0 -0.0024170080487086109 -0.027238713429418773 0 -0.0014856545388339999 -0.029076387845716332 0 0.0007891998451978571 -0.01857270046913994 0 0.00052835898699805863 -0.018335786063217292 0 0.00038850049004487204 -0.018585011061323067 0 0.00056555172155468966 -0.022993287731802071 0 -0.0015445529608883969 -0.02513847115424097 0 -0.00056279026991336344 -0.021120240832575566 0 -0.0015445529608883969 -0.02513847115424097 0 -0.00092843856025148438 -0.025064653415171733 0 -0.00031045874236724418 -0.026307251360208249 0 -0.0015546953596802778 -0.025742095603549859 0 0.00027838401161350102 -0.01829642617704123 0 0.00052835898699805863 -0.018335786063217292 0 0.00038850049004487204 -0.018585011061323067 0 -0.0015445529608883969 -0.02513847115424097 0 -0.0027726849167417317 -0.029954942680226953 0 -0.0022768077647554873 -0.027599451428393637 0 -0.0029797687770049645 -0.028781981623882038 0 -0.0042014915583713924 -0.027593766709296041 0 -0.0022768077647554873 -0.027599451428393637 0 -0.0029797687770049645 -0.028781981623882038 0 -0.0014856545388339999 -0.029076387845716332 0 -0.0029797687770049645 -0.028781981623882038 0 -0.0014856545388339999 -0.029076387845716332 0 -0.0027618237459923868 -0.030285970392952211 0 -0.0014856545388339999 -0.029076387845716332 0 -0.0027618237459923868 -0.030285970392952211 0 -0.0011736332107420918 -0.031349783863685671 0 -0.0027618237459923868 -0.030285970392952211 0 -0.0041934892327256989 -0.029407858368494556 0 -0.0041091480525588054 -0.031335364588852201 0 -0.0040470775500089521 -0.03244158399934053 0 -0.0038961920726651609 -0.032605988304432981 0 -0.0032031689914834112 -0.034396259999783699 0 -0.0036451402617176817 -0.034795389253250757 0 -0.0037515647705864043 -0.034059477388652559 0 -0.0032031689914834112 -0.034396259999783699 0 -0.0032891909505393382 -0.03498215828000982 0 -0.0036451402617176817 -0.034795389253250757 0 -0.0029797687770049645 -0.028781981623882038 0 -0.0027618237459923868 -0.030285970392952211 0 -0.0041934892327256989 -0.029407858368494556 0 -0.0029797687770049645 -0.028781981623882038 0 -0.0041934892327256989 -0.029407858368494556 0 -0.0042014915583713924 -0.027593766709296041 0 -0.0040470775500089521 -0.03244158399934053 0 -0.0027726849167417317 -0.029954942680226953 0 -0.00031045874236724418 -0.026307251360208249 0 -0.0024817982305843258 -0.026308034310432847 0 -0.0015546953596802778 -0.025742095603549859 0 -0.00092843856025148438 -0.025064653415171733 0 -0.0025016741241292505 -0.025284491937025113 0 -0.0015546953596802778 -0.025742095603549859 0 -0.0027726849167417317 -0.029954942680226953 0 -0.0007984174774411161 -0.028568136747367582 0 -0.0024817982305843258 -0.026308034310432847 0 -0.0025016741241292505 -0.025284491937025113 0 -0.0015546953596802778 -0.025742095603549859 0 2.3282019490075811e-05 -0.029786145867350646 0 0.000372070288725037 -0.029709178665961292 0 0.00035053905684003428 -0.030220476715566123 0 0.000372070288725037 -0.029709178665961292 0 0.00062416259599591239 -0.029799040764345471 0 0.00035053905684003428 -0.030220476715566123 0 -0.0007984174774411161 -0.028568136747367582 0 -0.0018231457701527486 -0.032231111387257476 0 -0.0027726849167417317 -0.029954942680226953 0 -0.0018231457701527486 -0.032231111387257476 0 -0.0012200477462096222 -0.03094687667935786 0 -0.0012514209610842869 -0.029199580468369225 0 -0.0023761102794727768 -0.03093234355413985 0 -0.0032891909505393382 -0.03498215828000982 0 -0.0035780421868784281 -0.03542810625321674 0 -0.0032829731548488349 -0.03533669877543278 0 -0.0032891909505393382 -0.03498215828000982 0 -0.0036451402617176817 -0.034795389253250757 0 -0.0035780421868784281 -0.03542810625321674 0 -0.0018231457701527486 -0.032231111387257476 0 -0.0030432066795218677 -0.034340452702963105 0 -0.0035780421868784281 -0.03542810625321674 0 -0.0033604210991095246 -0.035440347833468375 0 -0.0032829731548488349 -0.03533669877543278 0 -0.0032891909505393382 -0.03498215828000982 0 -0.0032829731548488349 -0.03533669877543278 0 -0.0028720161552499741 -0.035103444145774779 0 -0.0032829731548488349 -0.03533669877543278 0 -0.0028720161552499741 -0.035103444145774779 0 -0.0026787891042608864 -0.035512726936488145 0 -0.0033640900714524305 -0.035456167760342404 0 -0.0032829731548488349 -0.03533669877543278 0 -0.0026787891042608864 -0.035512726936488145 0 2.3282019490075811e-05 -0.029786145867350646 0 0.00035053905684003428 -0.030220476715566123 0 -0.00037071061338689938 -0.030215639958682497 0 -0.0018231457701527486 -0.032231111387257476 0 -0.0014517722622065794 -0.032931032229465258 0 -0.00051788030063182626 -0.029558455041257644 0 2.3282019490075811e-05 -0.029786145867350646 0 -0.00037071061338689938 -0.030215639958682497 0 -0.0014517722622065794 -0.032931032229465258 0 -0.0014994877492825961 -0.032874942955601408 0 -0.00051788030063182626 -0.029558455041257644 0 -0.00037071061338689938 -0.030215639958682497 0 -0.00096596876526544291 -0.030231470472921743 0 -0.0026787891042608864 -0.035512726936488145 0 -0.0023069560583910986 -0.034971061082294266 0 -0.00200092409634363 -0.035538183552201195 0 -0.0028720161552499741 -0.035103444145774779 0 -0.0026787891042608864 -0.035512726936488145 0 -0.0023069560583910986 -0.034971061082294266 0 -0.0023069560583910986 -0.034971061082294266 0 -0.0027922108132260896 -0.034702762198302553 0 -0.0024423742607657022 -0.034131539394579073 0 -0.0028720161552499741 -0.035103444145774779 0 -0.0023069560583910986 -0.034971061082294266 0 -0.0027922108132260896 -0.034702762198302553 0 -0.0032891909505393382 -0.03498215828000982 0 -0.0028720161552499741 -0.035103444145774779 0 -0.0027922108132260896 -0.034702762198302553 0 -0.0032031689914834112 -0.034396259999783699 0 -0.0032891909505393382 -0.03498215828000982 0 -0.0027922108132260896 -0.034702762198302553 0 -0.0032031689914834112 -0.034396259999783699 0 -0.0027922108132260896 -0.034702762198302553 0 -0.0024423742607657022 -0.034131539394579073 0 -0.0032031689914834112 -0.034396259999783699 0 -0.0024423742607657022 -0.034131539394579073 0 -0.0033010957016561477 -0.033604805281387748 0 -0.0024423742607657022 -0.034131539394579073 0 -0.002879949632414404 -0.033204222955115693 0 -0.0033010957016561477 -0.033604805281387748 0 -0.0024423742607657022 -0.034131539394579073 0 -0.002879949632414404 -0.033204222955115693 0 -0.0020377222278852984 -0.033463343117993323 0 -0.0011457915415824191 -0.033740213701366484 0 -0.0015623175049680842 -0.03359661181202183 0 -0.00089136048945355983 -0.033511913191903372 0 -0.00073024754152166253 -0.033788382476092518 0 -0.00089631384751528325 -0.033447650107474872 0 -0.00092628572284914274 -0.033474967290895601 0 -0.00074724713322798294 -0.0338514614210466 0 -0.00089631384751528325 -0.033447650107474872 0 -0.00080439849346525087 -0.033536558989786941 0 -0.0007203364069712318 -0.033779123954080753 0 -0.00089631384751528325 -0.033447650107474872 0 -0.00080439849346525087 -0.033536558989786941 0 -0.0008737752574772584 -0.03336164377991515 0 -0.00080439849346525087 -0.033536558989786941 0 -0.0008737752574772584 -0.03336164377991515 0 -0.00082163546042677052 -0.033444800808508424 0 -0.00082163546042677052 -0.033444800808508424 0 -0.00092350050877398947 -0.033199055813992635 0 -0.00091057806817208744 -0.033244765878869098 0 -0.0008737752574772584 -0.03336164377991515 0 -0.00082163546042677052 -0.033444800808508424 0 -0.00092350050877398947 -0.033199055813992635 0 -0.00092350050877398947 -0.033199055813992635 0 -0.00098983439765781356 -0.03318416610520452 0 -0.0010578259377645586 -0.032767670685886707 0 -0.0008737752574772584 -0.03336164377991515 0 -0.00092350050877398947 -0.033199055813992635 0 -0.00098983439765781356 -0.03318416610520452 0 -0.00098983439765781356 -0.03318416610520452 0 -0.0012902986942625989 -0.032955065148059903 0 -0.0010578259377645586 -0.032767670685886707 0 -0.00098983439765781356 -0.03318416610520452 0 -0.00092628572284914274 -0.033474967290895601 0 -0.0012902986942625989 -0.032955065148059903 0 -0.00089631384751528325 -0.033447650107474872 0 -0.0008737752574772584 -0.03336164377991515 0 -0.00098983439765781356 -0.03318416610520452 0 -0.00089631384751528325 -0.033447650107474872 0 -0.00098983439765781356 -0.03318416610520452 0 -0.00092628572284914274 -0.033474967290895601 0 -0.002879949632414404 -0.033204222955115693 0 -0.0038462106405808228 -0.033155202985973763 0 -0.0033010957016561477 -0.033604805281387748 0 -0.0011457915415824191 -0.033740213701366484 0 -0.0060649265476704489 -0.030501124997127878 0 -0.00092628572284914274 -0.033474967290895601 0 -0.0012902986942625989 -0.032955065148059903 0 -0.0019308623367533361 -0.032997984527447635 0 -0.001745433906794367 -0.032442982813319247 0 -0.0010578259377645586 -0.032767670685886707 0 -0.0022938178600550784 -0.031221614844862838 0 -0.0012902986942625989 -0.032955065148059903 0 -0.001745433906794367 -0.032442982813319247 0 -0.0010578259377645586 -0.032767670685886707 0 -0.0012902986942625989 -0.032955065148059903 0 -0.001745433906794367 -0.032442982813319247 0 -0.0019308623367533361 -0.032997984527447635 0 -0.0024623189249775496 -0.032153755020588252 0 -0.0032604170624956135 -0.031261815916165107 0 -0.0022938178600550784 -0.031221614844862838 0 -0.001745433906794367 -0.032442982813319247 0 -0.0024623189249775496 -0.032153755020588252 0 -0.0022938178600550784 -0.031221614844862838 0 -0.001745433906794367 -0.032442982813319247 0 -0.0024623189249775496 -0.032153755020588252 0 -0.0019308623367533361 -0.032997984527447635 0 -0.0024623189249775496 -0.032153755020588252 0 -0.0019308623367533361 -0.032997984527447635 0 -0.0034976318756093079 -0.031807188766793698 0 -0.003801022005667828 -0.033085537204508964 0 -0.0038961920726651609 -0.032605988304432981 0 -0.0037642617324005066 -0.033087405898388787 0 -0.0041091480525588054 -0.031335364588852201 0 -0.0027689495503663824 -0.032638017640512516 0 -0.0038462106405808228 -0.033155202985973763 0 -0.0037642617324005066 -0.033087405898388787 0 -0.0027689495503663824 -0.032638017640512516 0 -0.0060649265476704489 -0.030501124997127878 0 -0.0076495516206766655 -0.028543864882046795 0 -0.0038462106405808228 -0.033155202985973763 0 -0.0037642617324005066 -0.033087405898388787 0 -0.0033010957016561477 -0.033604805281387748 0 -0.0037642617324005066 -0.033087405898388787 0 -0.0033010957016561477 -0.033604805281387748 0 -0.0037515647705864043 -0.034059477388652559 0 -0.0032031689914834112 -0.034396259999783699 0 -0.0033010957016561477 -0.033604805281387748 0 -0.0037515647705864043 -0.034059477388652559 0 -0.0027618237459923868 -0.030285970392952211 0 -0.0041091480525588054 -0.031335364588852201 0 -0.0027689495503663824 -0.032638017640512516 0 -0.0027618237459923868 -0.030285970392952211 0 -0.0011736332107420918 -0.031349783863685671 0 -0.0027689495503663824 -0.032638017640512516 0 -0.0050388055174183793 -0.026744996248316368 0 -0.0076495516206766655 -0.028543864882046795 0 -0.0090579773230706952 -0.022214271687731348 0 -0.0089963280575867527 -0.024849423054032566 0 -0.011582723045865658 -0.02450336388309042 0 -0.0089963280575867527 -0.024849423054032566 0 -0.011582723045865658 -0.02450336388309042 0 -0.010819244249499793 -0.026731682610817382 0 -0.0060649265476704489 -0.030501124997127878 0 -0.0075139312047987211 -0.029145685759440189 0 -0.013812803274832386 -0.026390155001447497 0 -0.011582723045865658 -0.02450336388309042 0 -0.010819244249499793 -0.026731682610817382 0 -0.0024623189249775496 -0.032153755020588252 0 -0.0034976318756093079 -0.031807188766793698 0 -0.0032604170624956135 -0.031261815916165107 0 -0.0034976318756093079 -0.031807188766793698 0 -0.0041059936442016196 -0.03036042301412642 0 -0.0039986440107409454 -0.030570876897228233 0 -0.0034976318756093079 -0.031807188766793698 0 -0.0032604170624956135 -0.031261815916165107 0 -0.0039986440107409454 -0.030570876897228233 0 -0.0089963280575867527 -0.024849423054032566 0 -0.010819244249499793 -0.026731682610817382 0 -0.0074369530699940961 -0.027365320525347053 0 -0.0075139312047987211 -0.029145685759440189 0 -0.0055278805915691502 -0.028871016149423754 0 -0.0041059936442016196 -0.03036042301412642 0 -0.0038724822997884762 -0.030071260305236908 0 -0.0039986440107409454 -0.030570876897228233 0 -0.0055278805915691502 -0.028871016149423754 0 -0.0034040365674492387 -0.028494120443183626 0 -0.0041059936442016196 -0.03036042301412642 0 -0.0038724822997884762 -0.030071260305236908 0 -0.0033480396439273005 -0.028384485509456849 0 -0.0074369530699940961 -0.027365320525347053 0 -0.004630441122869971 -0.025794210326190465 0 -0.0033480396439273005 -0.028384485509456849 0 -0.0074369530699940961 -0.027365320525347053 0 -0.0056742995466575342 -0.023306020987232601 0 -0.004630441122869971 -0.025794210326190465 0 -0.0090579773230706952 -0.022214271687731348 0 -0.0089963280575867527 -0.024849423054032566 0 -0.0056742995466575342 -0.023306020987232601 0 -0.0089963280575867527 -0.024849423054032566 0 -0.0074369530699940961 -0.027365320525347053 0 -0.0056742995466575342 -0.023306020987232601 0 -0.0061527186710719928 -0.019810344265116679 0 -0.0090579773230706952 -0.022214271687731348 0 -0.0056742995466575342 -0.023306020987232601 0 -0.00034309870999260368 -0.035088512704267376 0 -0.00067487266824070352 -0.034831675940712847 0 -0.00067614651015879778 -0.035170829531749721 0 -0.00067487266824070352 -0.034831675940712847 0 -0.00030233357667339958 -0.034754684776278737 0 -0.00056694778362312986 -0.034509626603493458 0 -0.00034309870999260368 -0.035088512704267376 0 -0.00067487266824070352 -0.034831675940712847 0 -0.00030233357667339958 -0.034754684776278737 0 -0.00034309870999260368 -0.035088512704267376 0 -7.3672657116077584e-05 -0.034996493920429403 0 -0.00030233357667339958 -0.034754684776278737 0 -7.3672657116077584e-05 -0.034996493920429403 0 -0.00030233357667339958 -0.034754684776278737 0 -8.2927549407303642e-05 -0.034849502479071981 0 -2.3769195052651897e-08 -0.034999931039944143 0 -7.3672657116077584e-05 -0.034996493920429403 0 -8.2927549407303642e-05 -0.034849502479071981 0 -2.3769195052651897e-08 -0.034999931039944143 0 -3.2832994700166651e-08 -0.035000033832240547 0 -7.3672657116077584e-05 -0.034996493920429403 0 -3.2832994700166651e-08 -0.035000033832240547 0 -7.3672657116077584e-05 -0.034996493920429403 0 -3.0994181773814068e-05 -0.035007050977902653 0 -0.00034309870999260368 -0.035088512704267376 0 -7.3672657116077584e-05 -0.034996493920429403 0 -3.7393435151036562e-05 -0.035220048671553456 0 -7.1631110731970664e-05 -0.034967422610261277 0 -1.7651333795600472e-05 -0.035234131500100442 0 -3.7393435151036562e-05 -0.035220048671553456 0 -3.9297016393741721e-06 -0.03545491055998113 0 -0.00013590349326477228 -0.035456862814901534 0 -0.00034309870999260368 -0.035088512704267376 0 -3.7393435151036562e-05 -0.035220048671553456 0 -0.00037717409082190228 -0.035468122573919271 0 -3.7393435151036562e-05 -0.035220048671553456 0 -0.00013590349326477228 -0.035456862814901534 0 -0.00037717409082190228 -0.035468122573919271 0 -3.2832994700166651e-08 -0.035000033832240547 0 -1.1214255337220476e-05 -0.035004515117623695 0 -1.1818099776996566e-08 -0.035000017054205197 0 -1.7651333795600472e-05 -0.035234131500100442 0 -0.00021388054997453228 -0.034501184617525216 0 -3.0994181773814068e-05 -0.035007050977902653 0 -1.1214255337220476e-05 -0.035004515117623695 0 -1.3692731729771629e-05 -0.035007451875236392 0 -3.2832994700166651e-08 -0.035000033832240547 0 -3.0994181773814068e-05 -0.035007050977902653 0 -1.1214255337220476e-05 -0.035004515117623695 0 3.1350799797603118e-06 -0.034999692463615367 0 1.1239230302371707e-08 -0.035000009721900406 0 -1.4075624018998941e-06 -0.034996935823002437 0 -1.1214255337220476e-05 -0.035004515117623695 0 -1.1818099776996566e-08 -0.035000017054205197 0 -1.3692731729771629e-05 -0.035007451875236392 0 9.5168716707557272e-08 -0.03499982472352213 0 -0.00021388054997453228 -0.034501184617525216 0 -0.00097218869450276977 -0.030356494740650244 0 -0.00086187520088562043 -0.030220356745175113 0 -0.0010535590039442971 -0.030206229469635359 0 -0.0004790884163497442 -0.034149446109947218 0 -0.0002435218443150939 -0.033283466271828765 0 -0.0005675902316085368 -0.033274609130377421 0 -0.00078500925597688382 -0.032712015990135304 0 -0.00068042553475992191 -0.032837189409284734 0 -0.00021388054997453228 -0.034501184617525216 0 -0.00078500925597688382 -0.032712015990135304 0 -0.0011624740678652823 -0.030325987619797733 0 -0.00097218869450276977 -0.030356494740650244 0 -0.0010535590039442971 -0.030206229469635359 0 -0.00034309870999260368 -0.035088512704267376 0 -0.00037717409082190228 -0.035468122573919271 0 -0.00067614651015879778 -0.035170829531749721 0 -0.00037717409082190228 -0.035468122573919271 0 -0.00067614651015879778 -0.035170829531749721 0 -0.00082950540116597047 -0.03550523462896045 0 -0.0011624740678652823 -0.030325987619797733 0 -0.0010535590039442971 -0.030206229469635359 0 -0.0013451016597559548 -0.030197874757321129 0 -0.0011624740678652823 -0.030325987619797733 0 -0.0012947658448414228 -0.030296027986043101 0 -0.0013451016597559548 -0.030197874757321129 0 -0.00068042553475992191 -0.032837189409284734 0 -0.0010952998679412947 -0.0328526814327436 0 -0.0012947658448414228 -0.030296027986043101 0 -0.0013451016597559548 -0.030197874757321129 0 -0.001384394255566013 -0.030220981162805794 0 -0.0010952998679412947 -0.0328526814327436 0 -0.0013520587168201939 -0.032877530083314968 0 -0.0013451016597559548 -0.030197874757321129 0 -0.0013462694049661888 -0.030229476569595161 0 -0.0013965199495733906 -0.030180899820280778 0 -0.0013451016597559548 -0.030197874757321129 0 -0.001384394255566013 -0.030220981162805794 0 -0.0013965199495733906 -0.030180899820280778 0 -0.001384394255566013 -0.030220981162805794 0 -0.0013896545449014626 -0.030210820708138721 0 -0.0013965199495733906 -0.030180899820280778 0 -0.0010865779695932586 -0.029898165316953287 0 -0.0010362946338300339 -0.02987842702278971 0 -0.0010362946338300339 -0.02987842702278971 0 -0.0010992958939890984 -0.029891171514239669 0 -0.0011283104018692171 -0.029878514841892443 0 -0.0013462694049661888 -0.030229476569595161 0 -0.0013965199495733906 -0.030180899820280778 0 -0.0013745021078432661 -0.035527934677865226 0 -0.0016666728626672199 -0.035135442157403461 0 -0.0011303273704394924 -0.035035334409017897 0 -0.00082950540116597047 -0.03550523462896045 0 -0.0013745021078432661 -0.035527934677865226 0 -0.0011303273704394924 -0.035035334409017897 0 -0.00067614651015879778 -0.035170829531749721 0 -0.00082950540116597047 -0.03550523462896045 0 -0.0011303273704394924 -0.035035334409017897 0 -0.0013520587168201939 -0.032877530083314968 0 -0.0014994877492825961 -0.032874942955601408 0 -0.0011283104018692171 -0.029878514841892443 0 -0.0013462694049661888 -0.030229476569595161 0 -0.00096596876526544291 -0.030231470472921743 0 -0.0013745021078432661 -0.035527934677865226 0 -0.00200092409634363 -0.035538183552201195 0 -0.0016666728626672199 -0.035135442157403461 0 -0.0023069560583910986 -0.034971061082294266 0 -0.00200092409634363 -0.035538183552201195 0 -0.0016666728626672199 -0.035135442157403461 0 -0.0023069560583910986 -0.034971061082294266 0 -0.0024423742607657022 -0.034131539394579073 0 -0.0017270402679212455 -0.034591725524219227 0 -0.0023069560583910986 -0.034971061082294266 0 -0.0016666728626672199 -0.035135442157403461 0 -0.0017270402679212455 -0.034591725524219227 0 -0.0016666728626672199 -0.035135442157403461 0 -0.0017270402679212455 -0.034591725524219227 0 -0.0011303273704394924 -0.035035334409017897 0 -0.00067487266824070352 -0.034831675940712847 0 -0.00067614651015879778 -0.035170829531749721 0 -0.0011303273704394924 -0.035035334409017897 0 -0.0017270402679212455 -0.034591725524219227 0 -0.0011303273704394924 -0.035035334409017897 0 -0.001094677822763232 -0.034417237594378827 0 -0.00067487266824070352 -0.034831675940712847 0 -0.0011303273704394924 -0.035035334409017897 0 -0.001094677822763232 -0.034417237594378827 0 -0.001094677822763232 -0.034417237594378827 0 -0.0013111117395396301 -0.033771843687798148 0 -0.0017119567984415212 -0.034046597514981604 0 -0.00089191724028991079 -0.033999650316573621 0 -0.00046913863033314741 -0.034311645468386588 0 -0.001094677822763232 -0.034417237594378827 0 -0.0013111117395396301 -0.033771843687798148 0 -0.00069060226078172283 -0.034099525689641287 0 -0.0024423742607657022 -0.034131539394579073 0 -0.0017270402679212455 -0.034591725524219227 0 -0.0017119567984415212 -0.034046597514981604 0 -0.0017270402679212455 -0.034591725524219227 0 -0.001094677822763232 -0.034417237594378827 0 -0.0017119567984415212 -0.034046597514981604 0 -0.0013111117395396301 -0.033771843687798148 0 -0.0017119567984415212 -0.034046597514981604 0 -0.0020377222278852984 -0.033463343117993323 0 -0.0024423742607657022 -0.034131539394579073 0 -0.0017119567984415212 -0.034046597514981604 0 -0.0020377222278852984 -0.033463343117993323 0 -0.00089631384751528325 -0.033447650107474872 0 -0.00074724713322798294 -0.0338514614210466 0 -0.00073780447772550813 -0.0338157730070167 0 -0.0007203364069712318 -0.033779123954080753 0 -0.00063654380676802862 -0.033906541692141308 0 -0.00055096925957243506 -0.034144524204863261 0 -0.00073024754152166253 -0.033788382476092518 0 -0.00055580759935789877 -0.034125873141377557 0 -0.00089191724028991079 -0.033999650316573621 0 -0.0015623175049680842 -0.03359661181202183 0 -0.00056105126627549061 -0.034210138642247194 0 -0.00074724713322798294 -0.0338514614210466 0 -0.00057130009598956781 -0.034109374618786804 0 -0.00074724713322798294 -0.0338514614210466 0 -0.00073780447772550813 -0.0338157730070167 0 -0.00057130009598956781 -0.034109374618786804 0 -0.00063654380676802862 -0.033906541692141308 0 -0.00059965692780627816 -0.033930099531625811 0 -0.00056738393898969055 -0.034036410978675012 0 -0.00063654380676802862 -0.033906541692141308 0 -0.00059965692780627816 -0.033930099531625811 0 -0.00066649671523345822 -0.033800855085264439 0 -0.00059965692780627816 -0.033930099531625811 0 -0.00066649671523345822 -0.033800855085264439 0 -0.00064341042932478673 -0.033814671086504745 0 -0.00063654380676802862 -0.033906541692141308 0 -0.00066649671523345822 -0.033800855085264439 0 -0.00072779196105878549 -0.033681575619779712 0 -0.0007203364069712318 -0.033779123954080753 0 -0.00063654380676802862 -0.033906541692141308 0 -0.00072779196105878549 -0.033681575619779712 0 -0.00066649671523345822 -0.033800855085264439 0 -0.00072779196105878549 -0.033681575619779712 0 -0.00072347045581203496 -0.03365104766575612 0 -0.00082163546042677052 -0.033444800808508424 0 -0.00072779196105878549 -0.033681575619779712 0 -0.00072347045581203496 -0.03365104766575612 0 -0.00080439849346525087 -0.033536558989786941 0 -0.00082163546042677052 -0.033444800808508424 0 -0.00072779196105878549 -0.033681575619779712 0 -0.00080439849346525087 -0.033536558989786941 0 -0.0007203364069712318 -0.033779123954080753 0 -0.00072779196105878549 -0.033681575619779712 0 -0.00055580759935789877 -0.034125873141377557 0 -0.00031035794172775208 -0.034367001638826597 0 -0.00043752913891485285 -0.034261615750386179 0 -0.00055096925957243506 -0.034144524204863261 0 -0.00034529919274281002 -0.034445507512456432 0 -0.00056105126627549061 -0.034210138642247194 0 -0.00029317496824218846 -0.034347017447795683 0 -0.00022390030424870226 -0.034518510735534289 0 -0.00043752913891485285 -0.034261615750386179 0 -0.00032982172639470366 -0.034397793095108514 0 -0.00034529919274281002 -0.034445507512456432 0 -0.00056105126627549061 -0.034210138642247194 0 -0.00057130009598956781 -0.034109374618786804 0 -0.00029317496824218846 -0.034347017447795683 0 -0.00063654380676802862 -0.033906541692141308 0 -0.00055096925957243506 -0.034144524204863261 0 -0.00056738393898969055 -0.034036410978675012 0 -0.00055096925957243506 -0.034144524204863261 0 -0.0005092317520868332 -0.034135990336409738 0 -0.00056738393898969055 -0.034036410978675012 0 -0.00043752913891485285 -0.034261615750386179 0 -0.00055096925957243506 -0.034144524204863261 0 -0.0005092317520868332 -0.034135990336409738 0 -0.0005092317520868332 -0.034135990336409738 0 -0.0005288227528304555 -0.034063085944230152 0 -0.00046573618064936674 -0.034178274692388433 0 -0.00059965692780627816 -0.033930099531625811 0 -0.00056738393898969055 -0.034036410978675012 0 -0.0005288227528304555 -0.034063085944230152 0 -0.0005092317520868332 -0.034135990336409738 0 -0.00056738393898969055 -0.034036410978675012 0 -0.0005288227528304555 -0.034063085944230152 0 -0.00059965692780627816 -0.033930099531625811 0 -0.0005288227528304555 -0.034063085944230152 0 -0.00055427912990671198 -0.033963948719302091 0 -0.0005288227528304555 -0.034063085944230152 0 -0.000466729214673656 -0.034135989785188052 0 -0.00055427912990671198 -0.033963948719302091 0 -0.0005288227528304555 -0.034063085944230152 0 -0.000466729214673656 -0.034135989785188052 0 -0.00046573618064936674 -0.034178274692388433 0 -0.000466729214673656 -0.034135989785188052 0 -0.00040578114348139432 -0.034257818036716625 0 -0.00035231877011081313 -0.034296716868107403 0 -0.00040578114348139432 -0.034257818036716625 0 -0.00032982172639470366 -0.034397793095108514 0 -0.00035231877011081313 -0.034296716868107403 0 -0.000466729214673656 -0.034135989785188052 0 -0.00046573618064936674 -0.034178274692388433 0 -0.00040578114348139432 -0.034257818036716625 0 -0.00043752913891485285 -0.034261615750386179 0 -0.00046573618064936674 -0.034178274692388433 0 -0.00040578114348139432 -0.034257818036716625 0 -0.00043752913891485285 -0.034261615750386179 0 -0.0005092317520868332 -0.034135990336409738 0 -0.00046573618064936674 -0.034178274692388433 0 -0.00043752913891485285 -0.034261615750386179 0 -0.00040578114348139432 -0.034257818036716625 0 -0.00032982172639470366 -0.034397793095108514 0 -0.00025846712645330374 -0.034468670882993976 0 -0.00032982172639470366 -0.034397793095108514 0 -0.00035231877011081313 -0.034296716868107403 0 -0.00025846712645330374 -0.034468670882993976 0 -0.00032982172639470366 -0.034397793095108514 0 -0.00025101372407605 -0.034513265470571812 0 -0.00025846712645330374 -0.034468670882993976 0 -0.0001638642012325127 -0.034632446147405703 0 -0.00022181779302916598 -0.034508573918611424 0 -0.00025846712645330374 -0.034468670882993976 0 -0.0001638642012325127 -0.034632446147405703 0 -0.00025101372407605 -0.034513265470571812 0 -7.2176028994006016e-05 -0.034699912310137637 0 -0.00014810441743300849 -0.034560788838696968 0 -0.0001638642012325127 -0.034632446147405703 0 -0.00018104140582133406 -0.034640646132245816 0 -0.00025101372407605 -0.034513265470571812 0 -0.00018104140582133406 -0.034640646132245816 0 -0.00025101372407605 -0.034513265470571812 0 -0.00034529919274281002 -0.034445507512456432 0 7.164403438118565e-05 -0.034439716195622735 0 -0.00029317496824218846 -0.034347017447795683 0 -0.00019014860876406391 -0.034552342589936787 0 -7.2176028994006016e-05 -0.034699912310137637 0 -0.00031035794172775208 -0.034367001638826597 0 -0.00032982172639470366 -0.034397793095108514 0 -0.00025101372407605 -0.034513265470571812 0 -0.00034529919274281002 -0.034445507512456432 0 -0.00029317496824218846 -0.034347017447795683 0 -0.00022390030424870226 -0.034518510735534289 0 -0.00019014860876406391 -0.034552342589936787 0 -0.00046913863033314741 -0.034311645468386588 0 -0.00014575083635030706 -0.034665186779303678 0 -0.00010044856180157429 -0.034725968552756191 0 -0.00019014860876406391 -0.034552342589936787 0 -6.2589445486087384e-05 -0.034831539839915687 0 -0.00069060226078172283 -0.034099525689641287 0 -0.00056694778362312986 -0.034509626603493458 0 -0.00020348482181853914 -0.03450356922400398 0 -0.00022390030424870226 -0.034518510735534289 0 -0.00019014860876406391 -0.034552342589936787 0 -6.2589445486087384e-05 -0.034831539839915687 0 -0.00030233357667339958 -0.034754684776278737 0 -0.00056694778362312986 -0.034509626603493458 0 -0.00020348482181853914 -0.03450356922400398 0 -0.001094677822763232 -0.034417237594378827 0 -0.00069060226078172283 -0.034099525689641287 0 -0.00056694778362312986 -0.034509626603493458 0 -0.00067487266824070352 -0.034831675940712847 0 -0.001094677822763232 -0.034417237594378827 0 -0.00056694778362312986 -0.034509626603493458 0 -2.3769195052651897e-08 -0.034999931039944143 0 -8.2927549407303642e-05 -0.034849502479071981 0 2.4294151583155533e-08 -0.034999399600142533 0 -0.00030233357667339958 -0.034754684776278737 0 -8.2927549407303642e-05 -0.034849502479071981 0 -0.00020348482181853914 -0.03450356922400398 0 -6.2589445486087384e-05 -0.034831539839915687 0 -2.0340468982264666e-05 -0.034919586484402222 0 -3.1887932356770092e-05 -0.0348578825923632 0 -0.00014575083635030706 -0.034665186779303678 0 -7.1756783101187078e-08 -0.03499988314500075 0 -8.2927549407303642e-05 -0.034849502479071981 0 -0.00020348482181853914 -0.03450356922400398 0 2.4294151583155533e-08 -0.034999399600142533 0 -6.2589445486087384e-05 -0.034831539839915687 0 -2.0340468982264666e-05 -0.034919586484402222 0 1.8030189909036981e-08 -0.035000005583551909 0 -2.0340468982264666e-05 -0.034919586484402222 0 1.8030189909036981e-08 -0.035000005583551909 0 -1.8407517824272249e-08 -0.03499981908576287 0 -2.0340468982264666e-05 -0.034919586484402222 0 -1.8407517824272249e-08 -0.03499981908576287 0 -3.1887932356770092e-05 -0.0348578825923632 0 -8.7577319000417003e-10 -0.034999999337360026 0 -1.8740851459988132e-06 -0.034997932866826266 0 -1.7104354482511006e-06 -0.034997408333963698 0 -3.0403996484075978e-08 -0.034999958985260225 0 -2.5741604172617365e-05 -0.034930447299075205 0 -8.7577319000417003e-10 -0.034999999337360026 0 -1.7104354482511006e-06 -0.034997408333963698 0 -3.5793363852524058e-10 -0.034999996619024906 0 -0.00010044856180157429 -0.034725968552756191 0 -6.2589445486087384e-05 -0.034831539839915687 0 -3.1887932356770092e-05 -0.0348578825923632 0 -7.2176028994006016e-05 -0.034699912310137637 0 -4.3057601844845741e-05 -0.034889938640086694 0 -4.7632000227386355e-06 -0.034994233490157803 0 -1.8740851459988132e-06 -0.034997932866826266 0 -1.7104354482511006e-06 -0.034997408333963698 0 -0.0001638642012325127 -0.034632446147405703 0 -0.00018104140582133406 -0.034640646132245816 0 -0.00010054387991004252 -0.034764026797835641 0 -7.2176028994006016e-05 -0.034699912310137637 0 -2.5741604172617365e-05 -0.034930447299075205 0 -0.0001638642012325127 -0.034632446147405703 0 -0.00010054387991004252 -0.034764026797835641 0 -7.4331591289070797e-05 -0.034827547260745516 0 -0.00010054387991004252 -0.034764026797835641 0 -1.3738243221909811e-07 -0.034999656446223076 0 -7.4331591289070797e-05 -0.034827547260745516 0 -4.3057601844845741e-05 -0.034889938640086694 0 2.5993080983441441e-08 -0.03499991317563373 0 -1.3738243221909811e-07 -0.034999656446223076 0 -7.4331591289070797e-05 -0.034827547260745516 0 -7.6461419021090062e-09 -0.03499964596980952 0 -7.4331591289070797e-05 -0.034827547260745516 0 -7.6461419021090062e-09 -0.03499964596980952 0 -0.00010823149340587139 -0.034733146140855591 0 -0.0001638642012325127 -0.034632446147405703 0 -7.4331591289070797e-05 -0.034827547260745516 0 -0.00010823149340587139 -0.034733146140855591 0 -0.00010823149340587139 -0.034733146140855591 0 -7.199627711014678e-05 -0.034795647075369453 0 -0.00017077460033571596 -0.034576804271940285 0 -7.6461419021090062e-09 -0.03499964596980952 0 -0.00010823149340587139 -0.034733146140855591 0 -7.199627711014678e-05 -0.034795647075369453 0 -7.6461419021090062e-09 -0.03499964596980952 0 -7.199627711014678e-05 -0.034795647075369453 0 -1.4700183605174831e-07 -0.034999955834735044 0 -0.00025846712645330374 -0.034468670882993976 0 -0.00035231877011081313 -0.034296716868107403 0 -0.00022181779302916598 -0.034508573918611424 0 -0.00035231877011081313 -0.034296716868107403 0 -0.00022181779302916598 -0.034508573918611424 0 -0.00031062809853391401 -0.034332440202822334 0 -0.0001638642012325127 -0.034632446147405703 0 -0.00010823149340587139 -0.034733146140855591 0 -0.00022181779302916598 -0.034508573918611424 0 -0.00022181779302916598 -0.034508573918611424 0 -0.00017077460033571596 -0.034576804271940285 0 -0.00031062809853391401 -0.034332440202822334 0 -0.00010823149340587139 -0.034733146140855591 0 -0.00022181779302916598 -0.034508573918611424 0 -0.00017077460033571596 -0.034576804271940285 0 -0.00017077460033571596 -0.034576804271940285 0 -0.00031062809853391401 -0.034332440202822334 0 -0.00026826450857088781 -0.034375179840798929 0 -0.00035231877011081313 -0.034296716868107403 0 -0.00031062809853391401 -0.034332440202822334 0 -0.00041206704560999306 -0.034164665515225699 0 -0.00031062809853391401 -0.034332440202822334 0 -0.00038243998880870309 -0.034185710622660626 0 -0.00041206704560999306 -0.034164665515225699 0 -0.00038243998880870309 -0.034185710622660626 0 -0.00026826450857088781 -0.034375179840798929 0 -0.0003648171857869592 -0.034163165118967005 0 -0.00031062809853391401 -0.034332440202822334 0 -0.00038243998880870309 -0.034185710622660626 0 -0.00026826450857088781 -0.034375179840798929 0 -0.00017077460033571596 -0.034576804271940285 0 -0.00026826450857088781 -0.034375179840798929 0 -0.00013247644678219715 -0.034587609252733291 0 -0.00026826450857088781 -0.034375179840798929 0 -0.0003648171857869592 -0.034163165118967005 0 -0.00013247644678219715 -0.034587609252733291 0 -0.0003648171857869592 -0.034163165118967005 0 -0.00013247644678219715 -0.034587609252733291 0 -0.00028974407913153562 -0.034151790507732975 0 -0.0003648171857869592 -0.034163165118967005 0 -0.00028974407913153562 -0.034151790507732975 0 -0.00045904938914116466 -0.033946398234186687 0 -7.199627711014678e-05 -0.034795647075369453 0 -1.4700183605174831e-07 -0.034999955834735044 0 -0.00013247644678219715 -0.034587609252733291 0 -7.199627711014678e-05 -0.034795647075369453 0 -0.00017077460033571596 -0.034576804271940285 0 -0.00013247644678219715 -0.034587609252733291 0 -1.4700183605174831e-07 -0.034999955834735044 0 -0.00013247644678219715 -0.034587609252733291 0 3.2279499131066653e-07 -0.034998473968396615 0 -0.00013247644678219715 -0.034587609252733291 0 -7.9428456267699484e-05 -0.034176712901110677 0 -0.00028974407913153562 -0.034151790507732975 0 -0.00013247644678219715 -0.034587609252733291 0 3.2279499131066653e-07 -0.034998473968396615 0 -7.9428456267699484e-05 -0.034176712901110677 0 -4.0843068963523336e-08 -0.03499982492394782 0 -6.8366941963623153e-05 -0.034581295317328127 0 -2.1169898983503989e-09 -0.034999998324726438 0 2.5005583424645271e-09 -0.035000004180333479 0 -1.5653925573013234e-06 -0.035004195383745232 0 2.5005583424645271e-09 -0.035000004180333479 0 -1.5653925573013234e-06 -0.035004195383745232 0 -5.7092026258747326e-06 -0.034991947606343103 0 -0.00028974407913153562 -0.034151790507732975 0 -0.00043658272093874997 -0.033856552367669525 0 -0.00027252489563439939 -0.033712589099191642 0 -7.9428456267699484e-05 -0.034176712901110677 0 -0.00028974407913153562 -0.034151790507732975 0 -0.00027252489563439939 -0.033712589099191642 0 -0.00028974407913153562 -0.034151790507732975 0 -0.00043658272093874997 -0.033856552367669525 0 -0.00045904938914116466 -0.033946398234186687 0 -6.8366941963623153e-05 -0.034581295317328127 0 -0.00016097731053419916 -0.034357232087279553 0 -1.5653925573013234e-06 -0.035004195383745232 0 -2.5081594985205696e-05 -0.034977824215672325 0 -5.9679074297876393e-05 -0.03496765422610134 0 -2.5081594985205696e-05 -0.034977824215672325 0 -5.9679074297876393e-05 -0.03496765422610134 0 2.5556085287730821e-05 -0.03482954978565677 0 -0.00027252489563439939 -0.033712589099191642 0 -0.00044876300885389578 -0.033480613201704812 0 -0.0004296240602835211 -0.033673380497237934 0 -0.00043658272093874997 -0.033856552367669525 0 -0.00027252489563439939 -0.033712589099191642 0 -0.0004296240602835211 -0.033673380497237934 0 -5.9679074297876393e-05 -0.03496765422610134 0 -7.9700913101577326e-05 -0.034833851854548278 0 -0.0002069669729690079 -0.034841767249564649 0 -0.00016097731053419916 -0.034357232087279553 0 -0.0003635590847870758 -0.034078808412421335 0 -5.9679074297876393e-05 -0.03496765422610134 0 -7.9700913101577326e-05 -0.034833851854548278 0 2.5556085287730821e-05 -0.03482954978565677 0 -2.0429242258194076e-05 -0.034975214061492121 0 4.3450275560615347e-06 -0.034911151684086705 0 -1.0195278682237163e-05 -0.03499469525003137 0 -6.0786452725860099e-09 -0.034999982989944563 0 -5.7092026258747326e-06 -0.034991947606343103 0 2.5005583424645271e-09 -0.035000004180333479 0 -6.0786452725860099e-09 -0.034999982989944563 0 -5.7092026258747326e-06 -0.034991947606343103 0 -2.5081594985205696e-05 -0.034977824215672325 0 -1.0195278682237163e-05 -0.03499469525003137 0 -5.7092026258747326e-06 -0.034991947606343103 0 -1.5653925573013234e-06 -0.035004195383745232 0 -2.5081594985205696e-05 -0.034977824215672325 0 -5.7092026258747326e-06 -0.034991947606343103 0 -0.00064518864362142893 -0.033492025878402144 0 -0.00055654333072624582 -0.033607788203682661 0 -0.0006200757239206001 -0.033582821343923333 0 -0.00064518864362142893 -0.033492025878402144 0 -0.00059768225644340881 -0.033477810760167051 0 -0.00055654333072624582 -0.033607788203682661 0 -0.00066022085855569376 -0.033434599550198035 0 -0.0006519420503153751 -0.033456602484159624 0 -0.00065929072196269155 -0.033462175023572904 0 -0.00064518864362142893 -0.033492025878402144 0 -0.00066022085855569376 -0.033434599550198035 0 -0.0006519420503153751 -0.033456602484159624 0 -0.0006519420503153751 -0.033456602484159624 0 -0.00065929072196269155 -0.033462175023572904 0 -0.00066089713547022361 -0.033411143178323173 0 -0.0006519420503153751 -0.033456602484159624 0 -0.00066089713547022361 -0.033411143178323173 0 -0.00063401555523469799 -0.033413813432707225 0 -0.0006519420503153751 -0.033456602484159624 0 -0.00059768225644340881 -0.033477810760167051 0 -0.00063401555523469799 -0.033413813432707225 0 -0.00064518864362142893 -0.033492025878402144 0 -0.0006519420503153751 -0.033456602484159624 0 -0.00059768225644340881 -0.033477810760167051 0 -0.00059768225644340881 -0.033477810760167051 0 -0.00044876300885389578 -0.033480613201704812 0 -0.00055654333072624582 -0.033607788203682661 0 -0.00044876300885389578 -0.033480613201704812 0 -0.0004296240602835211 -0.033673380497237934 0 -0.00055654333072624582 -0.033607788203682661 0 -0.00055654333072624582 -0.033607788203682661 0 -0.00055772484653715071 -0.033727506629039866 0 -0.0006200757239206001 -0.033582821343923333 0 -0.00043658272093874997 -0.033856552367669525 0 -0.0004296240602835211 -0.033673380497237934 0 -0.00055654333072624582 -0.033607788203682661 0 -0.00043658272093874997 -0.033856552367669525 0 -0.00055654333072624582 -0.033607788203682661 0 -0.00055772484653715071 -0.033727506629039866 0 -0.00043658272093874997 -0.033856552367669525 0 -0.00045904938914116466 -0.033946398234186687 0 -0.00055772484653715071 -0.033727506629039866 0 -0.00045904938914116466 -0.033946398234186687 0 -0.00055772484653715071 -0.033727506629039866 0 -0.00056642725186483779 -0.033787109888660835 0 -0.00055772484653715071 -0.033727506629039866 0 -0.00063219722370561082 -0.033614561985511056 0 -0.00056642725186483779 -0.033787109888660835 0 -0.00055772484653715071 -0.033727506629039866 0 -0.00063219722370561082 -0.033614561985511056 0 -0.0006200757239206001 -0.033582821343923333 0 -0.00063219722370561082 -0.033614561985511056 0 -0.0006200757239206001 -0.033582821343923333 0 -0.00065877348285321388 -0.03347942586320516 0 -0.00064518864362142893 -0.033492025878402144 0 -0.0006200757239206001 -0.033582821343923333 0 -0.00065877348285321388 -0.03347942586320516 0 -0.00066022085855569376 -0.033434599550198035 0 -0.00065877348285321388 -0.03347942586320516 0 -0.00061243235516884973 -0.033311014341965629 0 -0.00065877348285321388 -0.03347942586320516 0 -0.00061243235516884973 -0.033311014341965629 0 -0.00066726548235885468 -0.033397540654395 0 -0.00064518864362142893 -0.033492025878402144 0 -0.00066022085855569376 -0.033434599550198035 0 -0.00065877348285321388 -0.03347942586320516 0 -0.00065877348285321388 -0.03347942586320516 0 -0.00069136164634706488 -0.033488151640636905 0 -0.00066726548235885468 -0.033397540654395 0 -0.00063219722370561082 -0.033614561985511056 0 -0.00065877348285321388 -0.03347942586320516 0 -0.00069136164634706488 -0.033488151640636905 0 -0.00069136164634706488 -0.033488151640636905 0 -0.00064983903480102852 -0.033659103633035897 0 -0.00071689108597404602 -0.033533159820065814 0 -0.00069136164634706488 -0.033488151640636905 0 -0.00071689108597404602 -0.033533159820065814 0 -0.00074767864600219726 -0.033417886624705295 0 -0.00063219722370561082 -0.033614561985511056 0 -0.00069136164634706488 -0.033488151640636905 0 -0.00064983903480102852 -0.033659103633035897 0 -0.00063219722370561082 -0.033614561985511056 0 -0.00064983903480102852 -0.033659103633035897 0 -0.00056642725186483779 -0.033787109888660835 0 -0.00064983903480102852 -0.033659103633035897 0 -0.00062640391176577419 -0.033745847408519505 0 -0.00069339430629294224 -0.033627012822003692 0 -0.00064983903480102852 -0.033659103633035897 0 -0.00062640391176577419 -0.033745847408519505 0 -0.00056483237699389761 -0.033845163470222005 0 -0.00062640391176577419 -0.033745847408519505 0 -0.00069339430629294224 -0.033627012822003692 0 -0.0006457425523005416 -0.033744777309698736 0 -0.00069339430629294224 -0.033627012822003692 0 -0.00071689108597404602 -0.033533159820065814 0 -0.00078491148168082371 -0.033466990534813737 0 -0.00071689108597404602 -0.033533159820065814 0 -0.00078491148168082371 -0.033466990534813737 0 -0.00074767864600219726 -0.033417886624705295 0 -0.00064983903480102852 -0.033659103633035897 0 -0.00069339430629294224 -0.033627012822003692 0 -0.00071689108597404602 -0.033533159820065814 0 -0.0003648171857869592 -0.034163165118967005 0 -0.00045904938914116466 -0.033946398234186687 0 -0.00047303631918755971 -0.033992978008565357 0 -0.00045904938914116466 -0.033946398234186687 0 -0.00047303631918755971 -0.033992978008565357 0 -0.00056642725186483779 -0.033787109888660835 0 -0.00064983903480102852 -0.033659103633035897 0 -0.00056642725186483779 -0.033787109888660835 0 -0.00056483237699389761 -0.033845163470222005 0 -0.00047303631918755971 -0.033992978008565357 0 -0.00056642725186483779 -0.033787109888660835 0 -0.00056483237699389761 -0.033845163470222005 0 -0.00062640391176577419 -0.033745847408519505 0 -0.00056483237699389761 -0.033845163470222005 0 -0.00056989605094410112 -0.03387046298590226 0 -0.00056483237699389761 -0.033845163470222005 0 -0.00047751655900944256 -0.034024597009262469 0 -0.00056989605094410112 -0.03387046298590226 0 -0.00038243998880870309 -0.034185710622660626 0 -0.0003648171857869592 -0.034163165118967005 0 -0.00047303631918755971 -0.033992978008565357 0 -0.00047303631918755971 -0.033992978008565357 0 -0.00056483237699389761 -0.033845163470222005 0 -0.00047751655900944256 -0.034024597009262469 0 -0.00038243998880870309 -0.034185710622660626 0 -0.00047303631918755971 -0.033992978008565357 0 -0.00047751655900944256 -0.034024597009262469 0 -0.00038243998880870309 -0.034185710622660626 0 -0.00047751655900944256 -0.034024597009262469 0 -0.00041206704560999306 -0.034164665515225699 0 -0.00047751655900944256 -0.034024597009262469 0 -0.00041206704560999306 -0.034164665515225699 0 -0.00050348840208087116 -0.034009884022423782 0 -0.00041206704560999306 -0.034164665515225699 0 -0.00050348840208087116 -0.034009884022423782 0 -0.00045382309559383911 -0.034120090438708318 0 -0.00047751655900944256 -0.034024597009262469 0 -0.00050348840208087116 -0.034009884022423782 0 -0.00056989605094410112 -0.03387046298590226 0 -0.00056989605094410112 -0.03387046298590226 0 -0.00058451266688731276 -0.033871204981394926 0 -0.0006457425523005416 -0.033744777309698736 0 -0.00050348840208087116 -0.034009884022423782 0 -0.00056989605094410112 -0.03387046298590226 0 -0.00058451266688731276 -0.033871204981394926 0 -0.00050348840208087116 -0.034009884022423782 0 -0.00058451266688731276 -0.033871204981394926 0 -0.00055427912990671198 -0.033963948719302091 0 -0.000466729214673656 -0.034135989785188052 0 -0.00055427912990671198 -0.033963948719302091 0 -0.00045382309559383911 -0.034120090438708318 0 -0.00050348840208087116 -0.034009884022423782 0 -0.00055427912990671198 -0.033963948719302091 0 -0.00045382309559383911 -0.034120090438708318 0 -0.000466729214673656 -0.034135989785188052 0 -0.00035231877011081313 -0.034296716868107403 0 -0.00045382309559383911 -0.034120090438708318 0 -0.00035231877011081313 -0.034296716868107403 0 -0.00041206704560999306 -0.034164665515225699 0 -0.00045382309559383911 -0.034120090438708318 0 -0.00072704619283186177 -0.033607731616221471 0 -0.00078491148168082371 -0.033466990534813737 0 -0.00081333263377386092 -0.033449643037993797 0 -0.00069339430629294224 -0.033627012822003692 0 -0.00072704619283186177 -0.033607731616221471 0 -0.00078491148168082371 -0.033466990534813737 0 -0.00069339430629294224 -0.033627012822003692 0 -0.00072704619283186177 -0.033607731616221471 0 -0.0006457425523005416 -0.033744777309698736 0 -0.00062640391176577419 -0.033745847408519505 0 -0.00056989605094410112 -0.03387046298590226 0 -0.0006457425523005416 -0.033744777309698736 0 -0.00058451266688731276 -0.033871204981394926 0 -0.0006457425523005416 -0.033744777309698736 0 -0.00065982528615492609 -0.033750275801047537 0 -0.00072704619283186177 -0.033607731616221471 0 -0.0006457425523005416 -0.033744777309698736 0 -0.00065982528615492609 -0.033750275801047537 0 -0.00072704619283186177 -0.033607731616221471 0 -0.00065982528615492609 -0.033750275801047537 0 -0.00072347045581203496 -0.03365104766575612 0 -0.00058451266688731276 -0.033871204981394926 0 -0.00055427912990671198 -0.033963948719302091 0 -0.00065982528615492609 -0.033750275801047537 0 -0.00059965692780627816 -0.033930099531625811 0 -0.00055427912990671198 -0.033963948719302091 0 -0.00064341042932478673 -0.033814671086504745 0 -0.00055427912990671198 -0.033963948719302091 0 -0.00065982528615492609 -0.033750275801047537 0 -0.00064341042932478673 -0.033814671086504745 0 -0.00065982528615492609 -0.033750275801047537 0 -0.00064341042932478673 -0.033814671086504745 0 -0.00072347045581203496 -0.03365104766575612 0 -0.00066649671523345822 -0.033800855085264439 0 -0.00064341042932478673 -0.033814671086504745 0 -0.00072347045581203496 -0.03365104766575612 0 -0.00082163546042677052 -0.033444800808508424 0 -0.00072347045581203496 -0.03365104766575612 0 -0.00081333263377386092 -0.033449643037993797 0 -0.00072704619283186177 -0.033607731616221471 0 -0.00072347045581203496 -0.03365104766575612 0 -0.00081333263377386092 -0.033449643037993797 0 -0.00082163546042677052 -0.033444800808508424 0 -0.00091057806817208744 -0.033244765878869098 0 -0.00081333263377386092 -0.033449643037993797 0 -0.00091057806817208744 -0.033244765878869098 0 -0.00081333263377386092 -0.033449643037993797 0 -0.00087332206803275201 -0.033324625616857839 0 -0.00078491148168082371 -0.033466990534813737 0 -0.00081333263377386092 -0.033449643037993797 0 -0.00087332206803275201 -0.033324625616857839 0 -0.00078491148168082371 -0.033466990534813737 0 -0.00087332206803275201 -0.033324625616857839 0 -0.00080709833274062229 -0.033336432053669846 0 -0.00087332206803275201 -0.033324625616857839 0 -0.00085823698088374192 -0.033200941898051471 0 -0.00080709833274062229 -0.033336432053669846 0 -0.00087332206803275201 -0.033324625616857839 0 -0.00094418783595541023 -0.033135490809828624 0 -0.00085823698088374192 -0.033200941898051471 0 -0.00092350050877398947 -0.033199055813992635 0 -0.0010578259377645586 -0.032767670685886707 0 -0.00091057806817208744 -0.033244765878869098 0 -0.0010578259377645586 -0.032767670685886707 0 -0.00094418783595541023 -0.033135490809828624 0 -0.00085823698088374192 -0.033200941898051471 0 -0.0010578259377645586 -0.032767670685886707 0 -0.00091057806817208744 -0.033244765878869098 0 -0.00094418783595541023 -0.033135490809828624 0 -0.00091057806817208744 -0.033244765878869098 0 -0.00087332206803275201 -0.033324625616857839 0 -0.00094418783595541023 -0.033135490809828624 0 -0.0011315539106506877 -0.032630017449466753 0 -0.0015824318417272697 -0.032146013871871618 0 -0.0010578259377645586 -0.032767670685886707 0 -0.00077863529513766655 -0.032988175834191516 0 -0.00085823698088374192 -0.033200941898051471 0 -0.00077863529513766655 -0.032988175834191516 0 -0.0007954095174782579 -0.033072967843270462 0 -0.00085823698088374192 -0.033200941898051471 0 -0.0007954095174782579 -0.033072967843270462 0 -0.00085823698088374192 -0.033200941898051471 0 -0.00081501851423750591 -0.033117473606572377 0 -0.00085823698088374192 -0.033200941898051471 0 -0.00081501851423750591 -0.033117473606572377 0 -0.00080902074774159708 -0.03320908750873329 0 -0.0007954095174782579 -0.033072967843270462 0 -0.00081501851423750591 -0.033117473606572377 0 -0.00082845778875629628 -0.033012602770333355 0 -0.00081501851423750591 -0.033117473606572377 0 -0.00082129120659082001 -0.033078677628158734 0 -0.00080902074774159708 -0.03320908750873329 0 -0.00081501851423750591 -0.033117473606572377 0 -0.00082129120659082001 -0.033078677628158734 0 -0.00082845778875629628 -0.033012602770333355 0 -0.00082129120659082001 -0.033078677628158734 0 -0.00080902074774159708 -0.03320908750873329 0 -0.00080792119956608454 -0.033104620805282467 0 -0.00080902074774159708 -0.03320908750873329 0 -0.00080709833274062229 -0.033336432053669846 0 -0.00073481825380322999 -0.033314229826789825 0 -0.00069136164634706488 -0.033488151640636905 0 -0.00074767864600219726 -0.033417886624705295 0 -0.00073481825380322999 -0.033314229826789825 0 -0.00074767864600219726 -0.033417886624705295 0 -0.00080709833274062229 -0.033336432053669846 0 -0.00073481825380322999 -0.033314229826789825 0 -0.00078491148168082371 -0.033466990534813737 0 -0.00074767864600219726 -0.033417886624705295 0 -0.00080709833274062229 -0.033336432053669846 0 -0.00085823698088374192 -0.033200941898051471 0 -0.00080902074774159708 -0.03320908750873329 0 -0.00080709833274062229 -0.033336432053669846 0 -0.0036273135987138667 -0.030930551395841777 0 -0.0038821779574076637 -0.030458285502526879 0 -0.0035132542000727652 -0.030438329730888634 0 -0.0010215291831138491 -0.032897260253929861 0 -0.00091834087561965113 -0.032991842225055502 0 -0.00097352790340598703 -0.032910423790578507 0 -0.00090528404348544779 -0.026777537786141056 0 -0.0025381202158995982 -0.032275429947904527 0 -0.0036273135987138667 -0.030930551395841777 0 -0.0038821779574076637 -0.030458285502526879 0 -0.0039951334836172631 -0.030486944796642056 0 0.00058806816311144489 -0.018205047653244572 0 0.00060700537615290882 -0.018218655165973634 0 0.00062787128768800233 -0.018165618724697741 0 -0.00095384033379654538 -0.02653811082087568 0 -0.00090528404348544779 -0.026777537786141056 0 -0.0038724822997884762 -0.030071260305236908 0 -0.0038821779574076637 -0.030458285502526879 0 -0.0035132542000727652 -0.030438329730888634 0 -0.0038724822997884762 -0.030071260305236908 0 -0.0038821779574076637 -0.030458285502526879 0 -0.0039986440107409454 -0.030570876897228233 0 -0.0038821779574076637 -0.030458285502526879 0 -0.0039986440107409454 -0.030570876897228233 0 -0.0039951334836172631 -0.030486944796642056 0 -0.00091834087561965113 -0.032991842225055502 0 -0.00086678827488082867 -0.0329640367910949 0 -0.00094774188143955523 -0.032917320892188386 0 -0.00091834087561965113 -0.032991842225055502 0 -0.00094774188143955523 -0.032917320892188386 0 -0.00097352790340598703 -0.032910423790578507 0 -0.00091834087561965113 -0.032991842225055502 0 -0.00082316409947608734 -0.033050708002883913 0 -0.00086678827488082867 -0.0329640367910949 0 -0.0025381202158995982 -0.032275429947904527 0 -0.0021481546453349168 -0.03175509651860612 0 -0.0032604170624956135 -0.031261815916165107 0 -0.0039986440107409454 -0.030570876897228233 0 -0.0034842195991807252 -0.03054903255827392 0 -0.0039986440107409454 -0.030570876897228233 0 -0.0039951334836172631 -0.030486944796642056 0 -0.0034842195991807252 -0.03054903255827392 0 -0.0015824318417272697 -0.032146013871871618 0 -0.0021481546453349168 -0.03175509651860612 0 -0.0032604170624956135 -0.031261815916165107 0 -0.0022938178600550784 -0.031221614844862838 0 -0.0034842195991807252 -0.03054903255827392 0 -0.00077863529513766655 -0.032988175834191516 0 -0.0007954095174782579 -0.033072967843270462 0 -0.00082316409947608734 -0.033050708002883913 0 -0.0007954095174782579 -0.033072967843270462 0 -0.00082316409947608734 -0.033050708002883913 0 -0.00086678827488082867 -0.0329640367910949 0 -0.0007954095174782579 -0.033072967843270462 0 -0.00082845778875629628 -0.033012602770333355 0 -0.00086678827488082867 -0.0329640367910949 0 -0.00082129120659082001 -0.033078677628158734 0 -0.00082845778875629628 -0.033012602770333355 0 -0.00084149562999818019 -0.032959859901789075 0 -0.00082845778875629628 -0.033012602770333355 0 -0.0008712789070561103 -0.032861689211717976 0 -0.00084149562999818019 -0.032959859901789075 0 -0.00082845778875629628 -0.033012602770333355 0 -0.0008712789070561103 -0.032861689211717976 0 -0.00086678827488082867 -0.0329640367910949 0 -0.0008712789070561103 -0.032861689211717976 0 -0.00086678827488082867 -0.0329640367910949 0 -0.0009610900982032853 -0.032898466580818006 0 -0.00086678827488082867 -0.0329640367910949 0 -0.00094774188143955523 -0.032917320892188386 0 -0.0009610900982032853 -0.032898466580818006 0 -0.0008712789070561103 -0.032861689211717976 0 -0.00084203912967143878 -0.032754870532591573 0 -0.00083505357565187826 -0.032655236006349654 0 -0.0014176650283153772 -0.034525880556070226 0 -0.0005321508447662537 -0.027860975927889213 0 -0.00084203912967143878 -0.032754870532591573 0 -0.00082792335485190832 -0.032701740198154597 0 -0.00083505357565187826 -0.032655236006349654 0 0.00063512408712708109 -0.017837480193544086 0 0.00076014620384889865 -0.018140408517855477 0 0.00060663124367617673 -0.018022207408806081 0 -1.2403444891689313e-06 -0.025410426880666897 0 -0.0005321508447662537 -0.027860975927889213 0 0.00076014620384889865 -0.018140408517855477 0 0.00061707104322557098 -0.018115257921704542 0 0.00060663124367617673 -0.018022207408806081 0 -0.0010215291831138491 -0.032897260253929861 0 -0.00096430686210000212 -0.03286670543834478 0 -0.00097352790340598703 -0.032910423790578507 0 0.00033886512075712266 -0.030957838471200087 0 -0.0005321508447662537 -0.027860975927889213 0 -0.00094774188143955523 -0.032917320892188386 0 -0.00096430686210000212 -0.03286670543834478 0 -0.00097352790340598703 -0.032910423790578507 0 -0.00090528404348544779 -0.026777537786141056 0 -0.0005321508447662537 -0.027860975927889213 0 0.00060700537615290882 -0.018218655165973634 0 0.00076014620384889865 -0.018140408517855477 0 0.00062787128768800233 -0.018165618724697741 0 0.00076014620384889865 -0.018140408517855477 0 0.00062787128768800233 -0.018165618724697741 0 0.00061707104322557098 -0.018115257921704542 0 0.00058806816311144489 -0.018205047653244572 0 0.00062787128768800233 -0.018165618724697741 0 0.00057224426492173382 -0.018146042796865085 0 0.00062787128768800233 -0.018165618724697741 0 0.00061707104322557098 -0.018115257921704542 0 0.00057224426492173382 -0.018146042796865085 0 -0.00082177888516122069 -0.032713120643975517 0 -0.00082955160834475292 -0.032733465207739287 0 -0.00083501061216388086 -0.032613160615734965 0 0.0021570319438281855 -0.016604685429783168 0 0.0020458882082783265 -0.016179683223851028 0 0.0011494557442986513 -0.016083359352726163 0 -0.00084203912967143878 -0.032754870532591573 0 -0.00082792335485190832 -0.032701740198154597 0 -0.00082955160834475292 -0.032733465207739287 0 -0.00084203912967143878 -0.032754870532591573 0 -0.00082955160834475292 -0.032733465207739287 0 -0.00084646527669171036 -0.032796118012853502 0 -0.0008712789070561103 -0.032861689211717976 0 -0.00084203912967143878 -0.032754870532591573 0 -0.00084646527669171036 -0.032796118012853502 0 -0.00082177888516122069 -0.032713120643975517 0 -0.00082955160834475292 -0.032733465207739287 0 -0.00084646527669171036 -0.032796118012853502 0 -0.00082177888516122069 -0.032713120643975517 0 -0.00084646527669171036 -0.032796118012853502 0 -0.00083724535640011919 -0.032800693446942815 0 0.00058849921120858809 -0.024978792634573501 0 0.0010166932843587281 -0.024423691969758115 0 0.0021570319438281855 -0.016604685429783168 0 0.002886335159230874 -0.016116487905818756 0 0.002396704488969302 -0.016071936570078486 0 -0.00084646527669171036 -0.032796118012853502 0 -0.00085135754024619865 -0.032858917592639508 0 -0.00083724535640011919 -0.032800693446942815 0 -0.00085135754024619865 -0.032858917592639508 0 -0.00084254437990799837 -0.032853177152785983 0 -0.00083724535640011919 -0.032800693446942815 0 -0.0008712789070561103 -0.032861689211717976 0 -0.00084646527669171036 -0.032796118012853502 0 -0.00085135754024619865 -0.032858917592639508 0 -0.0008712789070561103 -0.032861689211717976 0 -0.00085135754024619865 -0.032858917592639508 0 -0.00084149562999818019 -0.032959859901789075 0 -0.00085135754024619865 -0.032858917592639508 0 -0.00084149562999818019 -0.032959859901789075 0 -0.00084254437990799837 -0.032853177152785983 0 0.0024992710987584675 -0.016320620150277489 0 0.0030234762920406575 -0.015881094098744528 0 0.0027774368178892909 -0.016858398825108444 0 0.0026694631609942799 -0.015880668969780975 0 0.0024992710987584675 -0.016320620150277489 0 0.0030234762920406575 -0.015881094098744528 0 0.0030666194932500411 -0.015874358436759956 0 0.0030845766631879953 -0.016018792658667815 0 0.0030234762920406575 -0.015881094098744528 0 0.0026497853309719417 -0.015334179294868562 0 0.0035768998007201201 -0.014951551243136863 0 0.00090003195456045903 -0.024408131550576997 0 0.0010166932843587281 -0.024423691969758115 0 0.0026694631609942799 -0.015880668969780975 0 0.0030234762920406575 -0.015881094098744528 0 0.002886335159230874 -0.016116487905818756 0 0.0030234762920406575 -0.015881094098744528 0 0.002886335159230874 -0.016116487905818756 0 0.0025903904973874105 -0.015778310573447564 0 0.002886335159230874 -0.016116487905818756 0 0.002396704488969302 -0.016071936570078486 0 0.0025903904973874105 -0.015778310573447564 0 0.002396704488969302 -0.016071936570078486 0 0.0025903904973874105 -0.015778310573447564 0 0.0021992099098721986 -0.015793205976766055 0 0.0030234762920406575 -0.015881094098744528 0 0.0026497853309719417 -0.015334179294868562 0 0.0025903904973874105 -0.015778310573447564 0 0.0025903904973874105 -0.015778310573447564 0 0.0022397676838588425 -0.015192223761878038 0 0.0021992099098721986 -0.015793205976766055 0 0.0026497853309719417 -0.015334179294868562 0 0.0025903904973874105 -0.015778310573447564 0 0.0022397676838588425 -0.015192223761878038 0 0.0018443424270672187 -0.015580196288620507 0 0.0022397676838588425 -0.015192223761878038 0 0.0021992099098721986 -0.015793205976766055 0 0.0018443424270672187 -0.015580196288620507 0 0.0022397676838588425 -0.015192223761878038 0 0.001797250282893743 -0.0148471159566867 0 0.0018443424270672187 -0.015580196288620507 0 0.0021992099098721986 -0.015793205976766055 0 0.0020458882082783265 -0.016179683223851028 0 0.002396704488969302 -0.016071936570078486 0 0.0021992099098721986 -0.015793205976766055 0 0.0020458882082783265 -0.016179683223851028 0 0.0021570319438281855 -0.016604685429783168 0 0.002396704488969302 -0.016071936570078486 0 0.0020458882082783265 -0.016179683223851028 0 -0.00076088684081323816 -0.033123521260919997 0 -0.00061243235516884973 -0.033311014341965629 0 -0.00073481825380322999 -0.033314229826789825 0 -0.00076088684081323816 -0.033123521260919997 0 -0.00061243235516884973 -0.033311014341965629 0 -0.00069058780304474235 -0.032891534009911468 0 -0.00069136164634706488 -0.033488151640636905 0 -0.00066726548235885468 -0.033397540654395 0 -0.00073481825380322999 -0.033314229826789825 0 -0.00061243235516884973 -0.033311014341965629 0 -0.00066726548235885468 -0.033397540654395 0 -0.00073481825380322999 -0.033314229826789825 0 -0.00080902074774159708 -0.03320908750873329 0 -0.00073481825380322999 -0.033314229826789825 0 -0.00080792119956608454 -0.033104620805282467 0 -0.00076088684081323816 -0.033123521260919997 0 -0.00073481825380322999 -0.033314229826789825 0 -0.00080792119956608454 -0.033104620805282467 0 -0.00082129120659082001 -0.033078677628158734 0 -0.00084149562999818019 -0.032959859901789075 0 -0.00080792119956608454 -0.033104620805282467 0 -0.00084149562999818019 -0.032959859901789075 0 -0.00080792119956608454 -0.033104620805282467 0 -0.0008292945593702958 -0.032967916468616687 0 -0.00084149562999818019 -0.032959859901789075 0 -0.00084254437990799837 -0.032853177152785983 0 -0.0008292945593702958 -0.032967916468616687 0 -0.00076088684081323816 -0.033123521260919997 0 -0.00080792119956608454 -0.033104620805282467 0 -0.0008292945593702958 -0.032967916468616687 0 -0.00076088684081323816 -0.033123521260919997 0 -0.0008292945593702958 -0.032967916468616687 0 -0.00077646844341547306 -0.032921169024928865 0 -0.0008292945593702958 -0.032967916468616687 0 -0.00077646844341547306 -0.032921169024928865 0 -0.00081800028772102923 -0.032850400702054305 0 -0.00077646844341547306 -0.032921169024928865 0 -0.00081800028772102923 -0.032850400702054305 0 -0.00070737791568096923 -0.032775713943186152 0 0.00090003195456045903 -0.024408131550576997 0 0.0004022058696829121 -0.02428344950746537 0 -0.00084254437990799837 -0.032853177152785983 0 -0.0008292945593702958 -0.032967916468616687 0 -0.00081800028772102923 -0.032850400702054305 0 0.0024992710987584675 -0.016320620150277489 0 0.0019102945158439699 -0.016616367156129873 0 0.0017597231563802988 -0.016124233549873926 0 0.0026694631609942799 -0.015880668969780975 0 0.0024992710987584675 -0.016320620150277489 0 0.0017597231563802988 -0.016124233549873926 0 0.0017597231563802988 -0.016124233549873926 0 0.0014502306390854678 -0.016536679609964158 0 0.00087223938111747647 -0.016485559101064782 0 0.0004022058696829121 -0.02428344950746537 0 0.00079564923695107708 -0.02666054973959564 0 0.0019102945158439699 -0.016616367156129873 0 0.0017597231563802988 -0.016124233549873926 0 0.0014502306390854678 -0.016536679609964158 0 0.0014502306390854678 -0.016536679609964158 0 0.0011357215510761681 -0.016676820923038238 0 0.00087223938111747647 -0.016485559101064782 0 -0.0010608722646074091 -0.032110291998622156 0 -0.00097623976555808237 -0.032309043189620489 0 -0.00034528962208942797 -0.032480272916103795 0 0.0011357215510761681 -0.016676820923038238 0 0.00094102207101933258 -0.016630425349526613 0 0.00087223938111747647 -0.016485559101064782 0 -0.00037987894847252865 -0.025831445180921307 0 0.00079564923695107708 -0.02666054973959564 0 0.00079564923695107708 -0.02666054973959564 0 8.1609376032567928e-05 -0.034075276613170065 0 -0.00077646844341547306 -0.032921169024928865 0 -0.00070737791568096923 -0.032775713943186152 0 -0.00069058780304474235 -0.032891534009911468 0 -0.00076088684081323816 -0.033123521260919997 0 -0.00077646844341547306 -0.032921169024928865 0 -0.00069058780304474235 -0.032891534009911468 0 -0.00066022085855569376 -0.033434599550198035 0 -0.00061243235516884973 -0.033311014341965629 0 -0.00065929072196269155 -0.033462175023572904 0 -0.00061243235516884973 -0.033311014341965629 0 -0.00069058780304474235 -0.032891534009911468 0 -0.00034528962208942797 -0.032480272916103795 0 -0.00060024334656735856 -0.033117285126753167 0 -0.00047879531496734952 -0.033336622887160355 0 -0.00097623976555808237 -0.032309043189620489 0 -0.00069058780304474235 -0.032891534009911468 0 -0.00034528962208942797 -0.032480272916103795 0 -0.001632378404252381 -0.027565366906893315 0 -0.0016351970818878228 -0.027139871537247832 0 0.00055533017486029555 -0.026056635495762797 0 -0.00047879531496734952 -0.033336622887160355 0 -0.0007974680691582429 -0.030638551553726641 0 -0.0010608722646074091 -0.032110291998622156 0 -0.00034528962208942797 -0.032480272916103795 0 -0.00033121866649439839 -0.03116132405281179 0 -0.00037987894847252865 -0.025831445180921307 0 -0.0007974680691582429 -0.030638551553726641 0 -0.00065929072196269155 -0.033462175023572904 0 -0.00070936858563993373 -0.033339722050419136 0 -0.00066089713547022361 -0.033411143178323173 0 -0.0002962358050734968 -0.025274700273028118 0 -0.00034079958648413261 -0.025298703545969973 0 -0.00025754809908287962 -0.025387042863672868 0 -0.00036412849283589766 -0.028994691724860241 0 -0.00036288048575295896 -0.028887207251380817 0 -0.00056813930983876386 -0.029124535990651575 0 -0.00029123709149641918 -0.0249334952555317 0 -2.2596425098317324e-06 -0.025141115645617548 0 -0.00025754809908287962 -0.025387042863672868 0 -0.0007974680691582429 -0.030638551553726641 0 -0.00063215838646312557 -0.029226083669161351 0 -0.00066051660397396621 -0.027148168285498899 0 -0.00024609652454421764 -0.024621681161980345 0 -0.00070936858563993373 -0.033339722050419136 0 -0.00068125441608157973 -0.033296517010807852 0 -0.00066111207319446248 -0.033359084472918653 0 -0.00066051660397396621 -0.027148168285498899 0 -0.00063215838646312557 -0.029226083669161351 0 -0.00066051660397396621 -0.027148168285498899 0 -0.0007974680691582429 -0.030638551553726641 0 -0.00029123709149641918 -0.0249334952555317 0 -2.2596425098317324e-06 -0.025141115645617548 0 0.0001564118228162845 -0.024600216758808271 0 -2.2596425098317324e-06 -0.025141115645617548 0 0.0001564118228162845 -0.024600216758808271 0 0.00032574602694437319 -0.02506721290820068 0 -0.00066051660397396621 -0.027148168285498899 0 -0.00021017710340426028 -0.022480747986357456 0 0.00011469433677627308 -0.024946835344104884 0 -0.0016351970818878228 -0.027139871537247832 0 0.00055533017486029555 -0.026056635495762797 0 0.0011357215510761681 -0.016676820923038238 0 0.00094102207101933258 -0.016630425349526613 0 0.0010871392115549055 -0.016976881873905308 0 -0.00037987894847252865 -0.025831445180921307 0 -0.00021017710340426028 -0.022480747986357456 0 0.0014502306390854678 -0.016536679609964158 0 0.0011357215510761681 -0.016676820923038238 0 0.0014935910809101276 -0.016939108074836763 0 0.0011357215510761681 -0.016676820923038238 0 0.0010871392115549055 -0.016976881873905308 0 0.0014935910809101276 -0.016939108074836763 0 0.0010871392115549055 -0.016976881873905308 0 0.0014935910809101276 -0.016939108074836763 0 0.0013701858007041437 -0.017758376389233069 0 0.0019102945158439699 -0.016616367156129873 0 0.0014502306390854678 -0.016536679609964158 0 0.0014935910809101276 -0.016939108074836763 0 0.0019102945158439699 -0.016616367156129873 0 0.0014935910809101276 -0.016939108074836763 0 0.0019663748649743746 -0.017153790249719733 0 0.0019102945158439699 -0.016616367156129873 0 0.0019663748649743746 -0.017153790249719733 0 0.0027774368178892909 -0.016858398825108444 0 0.0024992710987584675 -0.016320620150277489 0 0.0019102945158439699 -0.016616367156129873 0 0.0027774368178892909 -0.016858398825108444 0 0.0019663748649743746 -0.017153790249719733 0 0.0023011542329993305 -0.017707764098695161 0 0.0013701858007041437 -0.017758376389233069 0 0.0019663748649743746 -0.017153790249719733 0 0.0023011542329993305 -0.017707764098695161 0 0.0027774368178892909 -0.016858398825108444 0 -0.00021017710340426028 -0.022480747986357456 0 0.00085724733571099351 -0.020986341424330465 0 0.0014935910809101276 -0.016939108074836763 0 0.0019663748649743746 -0.017153790249719733 0 0.0013701858007041437 -0.017758376389233069 0 0.00085724733571099351 -0.020986341424330465 0 0.00068181075300141039 -0.022990549916495094 0 0.0023011542329993305 -0.017707764098695161 0 0.0013701858007041437 -0.017758376389233069 0 0.0016640402134814394 -0.018454889925406937 0 0.00032574602694437319 -0.02506721290820068 0 0.00046842250944347641 -0.025486900392512675 0 9.8213014993027669e-05 -0.025440314119434693 0 0.0013701858007041437 -0.017758376389233069 0 0.0016640402134814394 -0.018454889925406937 0 0.0016945002031429762 -0.018629071582125057 0 0.0016640402134814394 -0.018454889925406937 0 0.0017540768070274191 -0.018542375472812705 0 0.0016945002031429762 -0.018629071582125057 0 0.0020285151176114655 -0.018601054104694224 0 0.0021438556195563854 -0.018687819912816834 0 0.0034005768807489766 -0.015501767908384768 0 0.0021438556195563854 -0.018687819912816834 0 0.0039699638888363344 -0.014274898213616022 0 0.0043645714452200841 -0.013694122535303006 0 0.0038988960001644988 -0.013712538825266858 0 0.0023011542329993305 -0.017707764098695161 0 0.0016640402134814394 -0.018454889925406937 0 0.0017598138725276994 -0.018540836677496442 0 0.0005380263682254788 -0.025245341812871403 0 0.00055195596818711113 -0.025467931563736734 0 0.00084224262029525775 -0.025627542124368591 0 0.0043645714452200841 -0.013694122535303006 0 0.0038988960001644988 -0.013712538825266858 0 0.0038045582554565396 -0.013145464734219927 0 0.0021438556195563854 -0.018687819912816834 0 0.0024219585657448569 -0.019543738258838313 0 0.00022946594932594718 -0.025588172129897925 0 0.00046842250944347641 -0.025486900392512675 0 9.8213014993027669e-05 -0.025440314119434693 0 0.0005380263682254788 -0.025245341812871403 0 0.00055195596818711113 -0.025467931563736734 0 0.0005029095315769648 -0.025292419590528345 0 0.0021438556195563854 -0.018687819912816834 0 0.00068181075300141039 -0.022990549916495094 0 0.0010175303052975542 -0.025088560317474008 0 0.00068181075300141039 -0.022990549916495094 0 0.00055195596818711113 -0.025467931563736734 0 0.0004909304628046068 -0.025305535759310986 0 0.00030303960790823299 -0.025622798260673464 0 0.00022946594932594718 -0.025588172129897925 0 0.00046842250944347641 -0.025486900392512675 0 0.00026499971786114577 -0.025752573465855896 0 0.00068181075300141039 -0.022990549916495094 0 7.1580266794299031e-05 -0.025979872304510317 0 0.00022946594932594718 -0.025588172129897925 0 3.6634926117015293e-05 -0.025710966941903141 0 0.00026499971786114577 -0.025752573465855896 0 0.00022946594932594718 -0.025588172129897925 0 3.6634926117015293e-05 -0.025710966941903141 0 9.8213014993027669e-05 -0.025440314119434693 0 3.6634926117015293e-05 -0.025710966941903141 0 -0.00014015458856979582 -0.025575233132883221 0 9.8213014993027669e-05 -0.025440314119434693 0 3.6634926117015293e-05 -0.025710966941903141 0 -0.00024878456706463456 -0.025753163182146689 0 -0.00014015458856979582 -0.025575233132883221 0 -0.00024878456706463456 -0.025753163182146689 0 -0.00030655479877946912 -0.025572110522005892 0 -0.00039401839423419422 -0.02569159851354667 0 -0.00030655479877946912 -0.025572110522005892 0 -0.00014015458856979582 -0.025575233132883221 0 -0.00025754809908287962 -0.025387042863672868 0 -0.00024878456706463456 -0.025753163182146689 0 -0.00030655479877946912 -0.025572110522005892 0 -0.00014015458856979582 -0.025575233132883221 0 -0.00014015458856979582 -0.025575233132883221 0 -0.00025754809908287962 -0.025387042863672868 0 9.8213014993027669e-05 -0.025440314119434693 0 -0.00025754809908287962 -0.025387042863672868 0 -0.00037636469577565732 -0.025402402600350833 0 -0.00036619146483035826 -0.025479149622108042 0 -0.00030655479877946912 -0.025572110522005892 0 -0.00025754809908287962 -0.025387042863672868 0 -0.00036619146483035826 -0.025479149622108042 0 -0.00034079958648413261 -0.025298703545969973 0 -0.00025754809908287962 -0.025387042863672868 0 -0.00037636469577565732 -0.025402402600350833 0 -2.2596425098317324e-06 -0.025141115645617548 0 0.00032574602694437319 -0.02506721290820068 0 9.8213014993027669e-05 -0.025440314119434693 0 -2.2596425098317324e-06 -0.025141115645617548 0 -0.00025754809908287962 -0.025387042863672868 0 9.8213014993027669e-05 -0.025440314119434693 0 0.0022397676838588425 -0.015192223761878038 0 0.0021367691635032211 -0.014370663832685459 0 0.001797250282893743 -0.0148471159566867 0 0.0022397676838588425 -0.015192223761878038 0 0.0021367691635032211 -0.014370663832685459 0 0.0027350571128693132 -0.014639760096092599 0 0.0026497853309719417 -0.015334179294868562 0 0.0022397676838588425 -0.015192223761878038 0 0.0027350571128693132 -0.014639760096092599 0 0.0021367691635032211 -0.014370663832685459 0 0.0027350571128693132 -0.014639760096092599 0 0.0025764134030581529 -0.01373209583691706 0 0.0027350571128693132 -0.014639760096092599 0 0.0033155823686438599 -0.014329595197662125 0 0.0035768998007201201 -0.014951551243136863 0 0.0027350571128693132 -0.014639760096092599 0 0.0033155823686438599 -0.014329595197662125 0 0.0025764134030581529 -0.01373209583691706 0 0.0026497853309719417 -0.015334179294868562 0 0.0027350571128693132 -0.014639760096092599 0 0.0035768998007201201 -0.014951551243136863 0 0.0034005768807489766 -0.015501767908384768 0 0.0030845766631879953 -0.016018792658667815 0 0.0039699638888363344 -0.014274898213616022 0 0.0033155823686438599 -0.014329595197662125 0 0.0035768998007201201 -0.014951551243136863 0 0.0039699638888363344 -0.014274898213616022 0 0.0038988960001644988 -0.013712538825266858 0 0.0034529518549482855 -0.013740121702341995 0 0.0039699638888363344 -0.014274898213616022 0 0.0033155823686438599 -0.014329595197662125 0 0.0034529518549482855 -0.013740121702341995 0 0.0038988960001644988 -0.013712538825266858 0 0.0034529518549482855 -0.013740121702341995 0 0.0038045582554565396 -0.013145464734219927 0 0.0034529518549482855 -0.013740121702341995 0 0.0031747588593425738 -0.013230056170505567 0 0.0038045582554565396 -0.013145464734219927 0 0.0034529518549482855 -0.013740121702341995 0 0.0031747588593425738 -0.013230056170505567 0 0.0025764134030581529 -0.01373209583691706 0 0.0033155823686438599 -0.014329595197662125 0 0.0034529518549482855 -0.013740121702341995 0 0.0025764134030581529 -0.01373209583691706 0 0.0031747588593425738 -0.013230056170505567 0 0.0025764134030581529 -0.01373209583691706 0 0.0026795235104914873 -0.01301509972759193 0 0.0025764134030581529 -0.01373209583691706 0 0.0021527213336335945 -0.013097186343835712 0 0.0026795235104914873 -0.01301509972759193 0 0.0025764134030581529 -0.01373209583691706 0 0.0021527213336335945 -0.013097186343835712 0 0.0017424513905791737 -0.013350710901300409 0 0.0021367691635032211 -0.014370663832685459 0 0.0025764134030581529 -0.01373209583691706 0 0.0017837063049394959 -0.0138906381394288 0 0.0025764134030581529 -0.01373209583691706 0 0.0017837063049394959 -0.0138906381394288 0 0.0017424513905791737 -0.013350710901300409 0 0.002021771680610436 -0.012169853685637224 0 0.002130535258545522 -0.012582148040852895 0 0.0015788013564523497 -0.012256934028597594 0 0.002021771680610436 -0.012169853685637224 0 0.002130535258545522 -0.012582148040852895 0 0.0024218906269346629 -0.011984540473449259 0 0.0025384844608282945 -0.011308071817892154 0 0.0022709230150894529 -0.015611505865227793 0 0.0021527213336335945 -0.013097186343835712 0 0.002130535258545522 -0.012582148040852895 0 0.0015119461922951049 -0.012795221355816457 0 0.0021527213336335945 -0.013097186343835712 0 0.002130535258545522 -0.012582148040852895 0 0.0026795235104914873 -0.01301509972759193 0 0.002130535258545522 -0.012582148040852895 0 0.0026795235104914873 -0.01301509972759193 0 0.0026157645215711964 -0.012474439023516649 0 0.002130535258545522 -0.012582148040852895 0 0.0026157645215711964 -0.012474439023516649 0 0.0024516906157319249 -0.012091832978307066 0 0.0026157645215711964 -0.012474439023516649 0 0.0026324900159583231 -0.012126437690258752 0 0.0024516906157319249 -0.012091832978307066 0 0.0010697742549266537 -0.026036659975184714 0 0.0010482795354416867 -0.025896120185345255 0 0.0012053233091693335 -0.026012899486317298 0 0.0026157645215711964 -0.012474439023516649 0 0.0032022105164974165 -0.012601566779487806 0 0.0026324900159583231 -0.012126437690258752 0 0.0020939850494784132 -0.019050025972131568 0 0.0015397894909393486 -0.020346378542468749 0 0.0010697742549266537 -0.026036659975184714 0 0.0010482795354416867 -0.025896120185345255 0 0.00086770759305724633 -0.026100324050981085 0 0.0026795235104914873 -0.01301509972759193 0 0.0026157645215711964 -0.012474439023516649 0 0.0032022105164974165 -0.012601566779487806 0 0.0031747588593425738 -0.013230056170505567 0 0.0026795235104914873 -0.01301509972759193 0 0.0032022105164974165 -0.012601566779487806 0 0.0020939850494784132 -0.019050025972131568 0 0.0024219585657448569 -0.019543738258838313 0 0.0010482795354416867 -0.025896120185345255 0 0.00084224262029525775 -0.025627542124368591 0 0.000782398750160725 -0.025935386963871446 0 0.0031747588593425738 -0.013230056170505567 0 0.0032022105164974165 -0.012601566779487806 0 0.0038045582554565396 -0.013145464734219927 0 0.0010482795354416867 -0.025896120185345255 0 0.00086770759305724633 -0.026100324050981085 0 0.000782398750160725 -0.025935386963871446 0 0.00086770759305724633 -0.026100324050981085 0 0.000782398750160725 -0.025935386963871446 0 0.00072482714627982012 -0.026222307676421783 0 0.0011288531501078025 -0.025838292636935063 0 0.00085606670570418015 -0.026057616665615208 0 0.00086222266366944844 -0.026214494273917362 0 0.00078874574378427949 -0.026355791176469096 0 0.00072482714627982012 -0.026222307676421783 0 0.00086770759305724633 -0.026100324050981085 0 0.00086222266366944844 -0.026214494273917362 0 0.00072482714627982012 -0.026222307676421783 0 0.00086222266366944844 -0.026214494273917362 0 0.00078874574378427949 -0.026355791176469096 0 0.00094684849178924531 -0.026228868323068942 0 0.00092848214041944767 -0.026133372899395896 0 0.00086770759305724633 -0.026100324050981085 0 0.00086222266366944844 -0.026214494273917362 0 0.00078874574378427949 -0.026355791176469096 0 0.00094963573841473387 -0.026334032483279021 0 0.00094684849178924531 -0.026228868323068942 0 0.00092848214041944767 -0.026133372899395896 0 0.00086222266366944844 -0.026214494273917362 0 0.00094684849178924531 -0.026228868323068942 0 0.0011288531501078025 -0.025838292636935063 0 0.0015397894909393486 -0.020346378542468749 0 0.00092848214041944767 -0.026133372899395896 0 0.00094684849178924531 -0.026228868323068942 0 0.0010243077991484832 -0.026114997067550386 0 0.00094684849178924531 -0.026228868323068942 0 0.0010243077991484832 -0.026114997067550386 0 0.0010630268355664801 -0.026139753920267877 0 0.0015397894909393486 -0.020346378542468749 0 0.0022709230150894529 -0.015611505865227793 0 0.0015397894909393486 -0.020346378542468749 0 0.0010640595154995487 -0.019800492118144657 0 0.0020475156014204731 -0.018976477650202661 0 0.00011240619541928922 -0.018615259042349994 0 0.00059221682395908164 -0.017645959378825751 0 0.0022709230150894529 -0.015611505865227793 0 0.0010640595154995487 -0.019800492118144657 0 0.00036896975732669774 -0.019857468520055641 0 0.0008659180625041552 -0.018857632863432876 0 0.0015441959652656603 -0.019452735742138183 0 0.00036896975732669774 -0.019857468520055641 0 0.0015441959652656603 -0.019452735742138183 0 0.001266071508903078 -0.020416544904362392 0 0.00094963573841473387 -0.026334032483279021 0 0.00094684849178924531 -0.026228868323068942 0 0.0010630268355664801 -0.026139753920267877 0 0.00053634596895852879 -0.023594114110387553 0 0.0010640595154995487 -0.019800492118144657 0 0.0024489562473475807 -0.015762971258513451 0 0.0025404145778285992 -0.015579721316436704 0 0.0012950240243978482 -0.015517708750042627 0 0.002021771680610436 -0.012169853685637224 0 0.0024218906269346629 -0.011984540473449259 0 0.0017950075402214474 -0.011853634729389238 0 0.0025404145778285992 -0.015579721316436704 0 0.0016637199806130273 -0.014765562466581417 0 0.0012950240243978482 -0.015517708750042627 0 0.0022709230150894529 -0.015611505865227793 0 0.0016949021172561946 -0.013731128363293273 0 0.0010640595154995487 -0.019800492118144657 0 0.0019084890300308309 -0.01726199140100829 0 -0.00034722999014846805 -0.026221521457059825 0 0.00012078664744536606 -0.025954255815109527 0 0.00021278033975080792 -0.026543101602232607 0 0.00012078664744536606 -0.025954255815109527 0 0.00042800697282791456 -0.026202536491126621 0 0.00021278033975080792 -0.026543101602232607 0 -0.00034722999014846805 -0.026221521457059825 0 -0.00011623198261966296 -0.025904248421880879 0 0.00012078664744536606 -0.025954255815109527 0 -0.00034722999014846805 -0.026221521457059825 0 -0.00011623198261966296 -0.025904248421880879 0 -0.00032582348783832409 -0.025946034403250561 0 3.6634926117015293e-05 -0.025710966941903141 0 -0.00024878456706463456 -0.025753163182146689 0 -0.00011623198261966296 -0.025904248421880879 0 -0.00024878456706463456 -0.025753163182146689 0 -0.00011623198261966296 -0.025904248421880879 0 -0.00032582348783832409 -0.025946034403250561 0 3.6634926117015293e-05 -0.025710966941903141 0 0.00012078664744536606 -0.025954255815109527 0 0.00026499971786114577 -0.025752573465855896 0 3.6634926117015293e-05 -0.025710966941903141 0 -0.00011623198261966296 -0.025904248421880879 0 0.00012078664744536606 -0.025954255815109527 0 0.00020653742456476344 -0.025820692911927182 0 7.1580266794299031e-05 -0.025979872304510317 0 0.00030303960790823299 -0.025622798260673464 0 0.00040595283801011069 -0.025918981986093739 0 0.00058185954251922681 -0.025771199267572979 0 0.00055195596818711113 -0.025467931563736734 0 0.00030303960790823299 -0.025622798260673464 0 0.00058185954251922681 -0.025771199267572979 0 0.00040595283801011069 -0.025918981986093739 0 0.00058185954251922681 -0.025771199267572979 0 0.00057163622287664264 -0.02602043055303423 0 0.00012078664744536606 -0.025954255815109527 0 0.00030303960790823299 -0.025622798260673464 0 0.00040595283801011069 -0.025918981986093739 0 0.00055195596818711113 -0.025467931563736734 0 0.00084224262029525775 -0.025627542124368591 0 0.00058185954251922681 -0.025771199267572979 0 0.00084224262029525775 -0.025627542124368591 0 0.00058185954251922681 -0.025771199267572979 0 0.000782398750160725 -0.025935386963871446 0 0.00058185954251922681 -0.025771199267572979 0 0.000782398750160725 -0.025935386963871446 0 0.00057163622287664264 -0.02602043055303423 0 0.00057163622287664264 -0.02602043055303423 0 0.00042800697282791456 -0.026202536491126621 0 0.00072482714627982012 -0.026222307676421783 0 0.000782398750160725 -0.025935386963871446 0 0.00057163622287664264 -0.02602043055303423 0 0.00072482714627982012 -0.026222307676421783 0 0.00012078664744536606 -0.025954255815109527 0 0.00040595283801011069 -0.025918981986093739 0 0.00042800697282791456 -0.026202536491126621 0 0.00040595283801011069 -0.025918981986093739 0 0.00057163622287664264 -0.02602043055303423 0 0.00042800697282791456 -0.026202536491126621 0 0.00042800697282791456 -0.026202536491126621 0 0.0006046231437397356 -0.026460292125950479 0 0.00072482714627982012 -0.026222307676421783 0 0.00042800697282791456 -0.026202536491126621 0 0.0006046231437397356 -0.026460292125950479 0 0.00021278033975080792 -0.026543101602232607 0 0.00078874574378427949 -0.026355791176469096 0 0.0006046231437397356 -0.026460292125950479 0 0.00072482714627982012 -0.026222307676421783 0 0.00078874574378427949 -0.026355791176469096 0 0.0006046231437397356 -0.026460292125950479 0 0.00070234100634836876 -0.026432249970654062 0 0.0006046231437397356 -0.026460292125950479 0 0.00021278033975080792 -0.026543101602232607 0 0.00037948355323845392 -0.026995544922320217 0 0.0006046231437397356 -0.026460292125950479 0 0.0006569700714456608 -0.026436375351486185 0 0.00070234100634836876 -0.026432249970654062 0 0.00062715546475560933 -0.026442412813305168 0 0.0004751129937082392 -0.026838664516451442 0 0.00011771125439444083 -0.026993193513507402 0 0.00021278033975080792 -0.026543101602232607 0 -4.4725092751290699e-06 -0.026796005318575442 0 0.00011771125439444083 -0.026993193513507402 0 0.00021278033975080792 -0.026543101602232607 0 0.00037948355323845392 -0.026995544922320217 0 -8.4811598159765356e-05 -0.026690878269095945 0 0.00021278033975080792 -0.026543101602232607 0 -4.4725092751290699e-06 -0.026796005318575442 0 -0.00018372158865186006 -0.026490539524863445 0 0.00018755871667318488 -0.026547321440348385 0 0.00011771125439444083 -0.026993193513507402 0 -4.4725092751290699e-06 -0.026796005318575442 0 -4.2021769236253522e-05 -0.027015612462736503 0 -4.4725092751290699e-06 -0.026796005318575442 0 -4.2021769236253522e-05 -0.027015612462736503 0 -0.00016230896952085648 -0.026851366700507782 0 -4.2021769236253522e-05 -0.027015612462736503 0 -0.00025727561007404446 -0.027068487504898972 0 -0.00016230896952085648 -0.026851366700507782 0 -0.00025727561007404446 -0.027068487504898972 0 -0.0003358476754718048 -0.02688151156180232 0 -0.00016230896952085648 -0.026851366700507782 0 -0.00025727561007404446 -0.027068487504898972 0 -0.0003358476754718048 -0.02688151156180232 0 -0.000472213711988141 -0.027021072271526881 0 -0.0003358476754718048 -0.02688151156180232 0 -0.00016230896952085648 -0.026851366700507782 0 -0.00026563655406858293 -0.02677484628737594 0 -8.4811598159765356e-05 -0.026690878269095945 0 -0.00016230896952085648 -0.026851366700507782 0 -0.00026563655406858293 -0.02677484628737594 0 -8.4811598159765356e-05 -0.026690878269095945 0 -4.4725092751290699e-06 -0.026796005318575442 0 -0.00016230896952085648 -0.026851366700507782 0 -0.00018372158865186006 -0.026490539524863445 0 -0.00054450885992962206 -0.026107497196985321 0 -8.4811598159765356e-05 -0.026690878269095945 0 -0.00026563655406858293 -0.02677484628737594 0 -0.00034003205515470978 -0.026679012731874813 0 -0.00034722999014846805 -0.026221521457059825 0 -0.00071677170970559751 -0.025950794599829793 0 -0.00050197556851698608 -0.02594482003077752 0 -0.00034722999014846805 -0.026221521457059825 0 -0.00032582348783832409 -0.025946034403250561 0 -0.00050197556851698608 -0.02594482003077752 0 -0.00026563655406858293 -0.02677484628737594 0 -0.00034003205515470978 -0.026679012731874813 0 -0.00041043193978258248 -0.026783702720816108 0 -0.0003358476754718048 -0.02688151156180232 0 -0.00026563655406858293 -0.02677484628737594 0 -0.00041043193978258248 -0.026783702720816108 0 -0.00071677170970559751 -0.025950794599829793 0 -0.00061801200049246352 -0.025855014386941745 0 -0.00073920212254976049 -0.025821174388991917 0 -0.00071677170970559751 -0.025950794599829793 0 -0.00061801200049246352 -0.025855014386941745 0 -0.00050197556851698608 -0.02594482003077752 0 -0.00071677170970559751 -0.025950794599829793 0 -0.00073920212254976049 -0.025821174388991917 0 -0.00072819425974662367 -0.025846696784193487 0 -0.00061801200049246352 -0.025855014386941745 0 -0.00043807939949715808 -0.025825399259900118 0 -0.00050197556851698608 -0.02594482003077752 0 -0.00024878456706463456 -0.025753163182146689 0 -0.00032582348783832409 -0.025946034403250561 0 -0.00043807939949715808 -0.025825399259900118 0 -0.00032582348783832409 -0.025946034403250561 0 -0.00043807939949715808 -0.025825399259900118 0 -0.00050197556851698608 -0.02594482003077752 0 -0.00056753782391180728 -0.026743340356109851 0 -0.00060866880020451716 -0.026709355479452489 0 -0.00053344557014941402 -0.0266960859035381 0 -0.00056753782391180728 -0.026743340356109851 0 -0.00063408388834960234 -0.026760852961729375 0 -0.00060866880020451716 -0.026709355479452489 0 -0.00063408388834960234 -0.026760852961729375 0 -0.00060866880020451716 -0.026709355479452489 0 -0.00068897671096106671 -0.026710509549808949 0 -0.00060939901116403752 -0.026665324371094017 0 -0.00060866880020451716 -0.026709355479452489 0 -0.00068897671096106671 -0.026710509549808949 0 -0.00060939901116403752 -0.026665324371094017 0 -0.00060866880020451716 -0.026709355479452489 0 -0.00053344557014941402 -0.0266960859035381 0 -0.00060939901116403752 -0.026665324371094017 0 -0.00053344557014941402 -0.0266960859035381 0 -0.00058177876045482587 -0.026641515524982319 0 -0.00034003205515470978 -0.026679012731874813 0 -0.00053344557014941402 -0.0266960859035381 0 -0.00058177876045482587 -0.026641515524982319 0 -0.00054450885992962206 -0.026107497196985321 0 -0.00083964613170619358 -0.027601570651540445 0 -0.00034003205515470978 -0.026679012731874813 0 -0.00053344557014941402 -0.0266960859035381 0 -0.00048895711426195183 -0.026739528011511127 0 -0.00071677170970559751 -0.025950794599829793 0 -0.00079839769857121504 -0.025866079504718142 0 -0.00082108634654493636 -0.025884857082959817 0 -0.00056753782391180728 -0.026743340356109851 0 -0.00053344557014941402 -0.0266960859035381 0 -0.00048895711426195183 -0.026739528011511127 0 -0.00034003205515470978 -0.026679012731874813 0 -0.00048895711426195183 -0.026739528011511127 0 -0.00041043193978258248 -0.026783702720816108 0 -0.00041043193978258248 -0.026783702720816108 0 -0.00057170313020456838 -0.026813815469709783 0 -0.00048822290629692272 -0.026875527444001016 0 -0.00048895711426195183 -0.026739528011511127 0 -0.00041043193978258248 -0.026783702720816108 0 -0.00057170313020456838 -0.026813815469709783 0 -0.00063408388834960234 -0.026760852961729375 0 -0.00057170313020456838 -0.026813815469709783 0 -0.00072247670538093053 -0.026834656274762822 0 -0.00057170313020456838 -0.026813815469709783 0 -0.0006639561117953173 -0.026972643186625865 0 -0.00072247670538093053 -0.026834656274762822 0 -0.00056753782391180728 -0.026743340356109851 0 -0.00048895711426195183 -0.026739528011511127 0 -0.00057170313020456838 -0.026813815469709783 0 -0.00056753782391180728 -0.026743340356109851 0 -0.00063408388834960234 -0.026760852961729375 0 -0.00057170313020456838 -0.026813815469709783 0 -0.0006639561117953173 -0.026972643186625865 0 -0.00048822290629692272 -0.026875527444001016 0 -0.000472213711988141 -0.027021072271526881 0 -0.00057170313020456838 -0.026813815469709783 0 -0.0006639561117953173 -0.026972643186625865 0 -0.00048822290629692272 -0.026875527444001016 0 -0.0003358476754718048 -0.02688151156180232 0 -0.00048822290629692272 -0.026875527444001016 0 -0.000472213711988141 -0.027021072271526881 0 -0.0003358476754718048 -0.02688151156180232 0 -0.00041043193978258248 -0.026783702720816108 0 -0.00048822290629692272 -0.026875527444001016 0 -0.00025727561007404446 -0.027068487504898972 0 -0.000472213711988141 -0.027021072271526881 0 -0.00044214588733498193 -0.027219851697858909 0 -0.000472213711988141 -0.027021072271526881 0 -0.00044214588733498193 -0.027219851697858909 0 -0.0006765079490449814 -0.027221937535792991 0 -0.0006639561117953173 -0.026972643186625865 0 -0.000472213711988141 -0.027021072271526881 0 -0.0006765079490449814 -0.027221937535792991 0 -0.0006639561117953173 -0.026972643186625865 0 -0.00087507406142184666 -0.027148680301410578 0 -0.0006765079490449814 -0.027221937535792991 0 -0.00087507406142184666 -0.027148680301410578 0 -0.00086932415805246748 -0.026954990735132182 0 -0.0010570899410972624 -0.027092642022883529 0 -0.0006639561117953173 -0.026972643186625865 0 -0.00087507406142184666 -0.027148680301410578 0 -0.00086932415805246748 -0.026954990735132182 0 -0.0006639561117953173 -0.026972643186625865 0 -0.00086932415805246748 -0.026954990735132182 0 -0.00072247670538093053 -0.026834656274762822 0 2.2220943218319658e-08 -0.034999980775247845 0 -4.3117188658833629e-06 -0.034983738061962297 0 -5.4750585311066769e-06 -0.034992433425991468 0 -4.3117188658833629e-06 -0.034983738061962297 0 -5.4750585311066769e-06 -0.034992433425991468 0 -9.4947484589400746e-06 -0.034986653946248218 0 -0.00014873472677349623 -0.034084299968506253 0 -0.00067663835910632315 -0.030449526282378458 0 -0.00087507406142184666 -0.027148680301410578 0 -0.0010570899410972624 -0.027092642022883529 0 -0.0011139663585566441 -0.027343242248703884 0 -0.00084642574112041822 -0.029455456872394994 0 -0.00067663835910632315 -0.030449526282378458 0 -4.3117188658833629e-06 -0.034983738061962297 0 -9.4947484589400746e-06 -0.034986653946248218 0 -9.4504460459384907e-06 -0.034964875576947559 0 -0.00041837421399201492 -0.032217874635003377 0 -0.00060290439121453768 -0.03231138139362872 0 -0.0006840955501939257 -0.030509235918484139 0 -0.00041837421399201492 -0.032217874635003377 0 -0.00060290439121453768 -0.03231138139362872 0 -0.00019529826322448184 -0.033824873724856423 0 -0.00086932415805246748 -0.026954990735132182 0 -0.0010570899410972624 -0.027092642022883529 0 -0.001007827570806557 -0.026899965976452667 0 -0.00014873472677349623 -0.034084299968506253 0 -0.00013270226617104728 -0.034302146132609193 0 -0.00084642574112041822 -0.029455456872394994 0 -0.00082344850209036305 -0.030111937358370807 0 -9.4947484589400746e-06 -0.034986653946248218 0 -1.1674711381508768e-05 -0.034989034870501326 0 -1.5243923452357154e-05 -0.034986356607082422 0 -1.1674711381508768e-05 -0.034989034870501326 0 -1.3567213737178027e-05 -0.034989679897545471 0 -1.5243923452357154e-05 -0.034986356607082422 0 -9.4947484589400746e-06 -0.034986653946248218 0 -1.1674711381508768e-05 -0.034989034870501326 0 -8.8740539519056957e-06 -0.034989837338002559 0 2.2220943218319658e-08 -0.034999980775247845 0 -5.4750585311066769e-06 -0.034992433425991468 0 -1.0894435964153582e-07 -0.034999947136533253 0 -5.4750585311066769e-06 -0.034992433425991468 0 -9.9976240503640637e-06 -0.034991835646574612 0 -1.0894435964153582e-07 -0.034999947136533253 0 -5.4750585311066769e-06 -0.034992433425991468 0 -8.8740539519056957e-06 -0.034989837338002559 0 -9.9976240503640637e-06 -0.034991835646574612 0 -5.4750585311066769e-06 -0.034992433425991468 0 -9.4947484589400746e-06 -0.034986653946248218 0 -8.8740539519056957e-06 -0.034989837338002559 0 -1.1674711381508768e-05 -0.034989034870501326 0 -1.3567213737178027e-05 -0.034989679897545471 0 -9.9976240503640637e-06 -0.034991835646574612 0 -1.1674711381508768e-05 -0.034989034870501326 0 -8.8740539519056957e-06 -0.034989837338002559 0 -9.9976240503640637e-06 -0.034991835646574612 0 -1.3567213737178027e-05 -0.034989679897545471 0 -9.9976240503640637e-06 -0.034991835646574612 0 -1.6609117446383907e-05 -0.034991232384557931 0 -1.0894435964153582e-07 -0.034999947136533253 0 -3.134740029891312e-05 -0.034983048208569213 0 -3.4879433605302796e-05 -0.034983115247904976 0 -1.0894435964153582e-07 -0.034999947136533253 0 -1.6609117446383907e-05 -0.034991232384557931 0 -3.134740029891312e-05 -0.034983048208569213 0 -9.9976240503640637e-06 -0.034991835646574612 0 -1.0894435964153582e-07 -0.034999947136533253 0 -1.6609117446383907e-05 -0.034991232384557931 0 -1.6609117446383907e-05 -0.034991232384557931 0 -3.134740029891312e-05 -0.034983048208569213 0 -1.5243923452357154e-05 -0.034986356607082422 0 -1.3567213737178027e-05 -0.034989679897545471 0 -1.6609117446383907e-05 -0.034991232384557931 0 -1.5243923452357154e-05 -0.034986356607082422 0 -0.00060290439121453768 -0.03231138139362872 0 -0.00049874831103191336 -0.033984213784009093 0 -0.00019529826322448184 -0.033824873724856423 0 -0.00049874831103191336 -0.033984213784009093 0 -0.00019529826322448184 -0.033824873724856423 0 -0.00013402056945566244 -0.034969355342402871 0 -0.00082344850209036305 -0.030111937358370807 0 9.8082085078362379e-05 -0.03268941846702561 0 -0.00049874831103191336 -0.033984213784009093 0 -0.00013402056945566244 -0.034969355342402871 0 -0.0002961532579447006 -0.035069527041202177 0 -0.001007827570806557 -0.026899965976452667 0 -0.00086315618711403186 -0.026817347547489306 0 -0.00098640999109817201 -0.026755006930311798 0 -0.00013270226617104728 -0.034302146132609193 0 -0.00010855229807980002 -0.034974706632377395 0 -3.134740029891312e-05 -0.034983048208569213 0 -0.00013402056945566244 -0.034969355342402871 0 -3.4879433605302796e-05 -0.034983115247904976 0 -3.134740029891312e-05 -0.034983048208569213 0 -1.5243923452357154e-05 -0.034986356607082422 0 -0.00013402056945566244 -0.034969355342402871 0 -1.0894435964153582e-07 -0.034999947136533253 0 -3.4879433605302796e-05 -0.034983115247904976 0 1.8502140651892385e-07 -0.034999963436698228 0 -0.00013402056945566244 -0.034969355342402871 0 -3.4879433605302796e-05 -0.034983115247904976 0 1.8502140651892385e-07 -0.034999963436698228 0 -0.00086932415805246748 -0.026954990735132182 0 -0.00072247670538093053 -0.026834656274762822 0 -0.00086315618711403186 -0.026817347547489306 0 -0.00086932415805246748 -0.026954990735132182 0 -0.001007827570806557 -0.026899965976452667 0 -0.00086315618711403186 -0.026817347547489306 0 -0.00086315618711403186 -0.026817347547489306 0 -0.00081813726317334556 -0.026692659513702744 0 -0.00098640999109817201 -0.026755006930311798 0 -0.00086315618711403186 -0.026817347547489306 0 -0.00068897671096106671 -0.026710509549808949 0 -0.00081813726317334556 -0.026692659513702744 0 -0.00072247670538093053 -0.026834656274762822 0 -0.00086315618711403186 -0.026817347547489306 0 -0.00068897671096106671 -0.026710509549808949 0 -0.00063408388834960234 -0.026760852961729375 0 -0.00072247670538093053 -0.026834656274762822 0 -0.00068897671096106671 -0.026710509549808949 0 -0.00068897671096106671 -0.026710509549808949 0 -0.00081813726317334556 -0.026692659513702744 0 -0.00062281832271841289 -0.026638425539429127 0 -0.00011121616494101729 -0.034553761678520346 0 -0.00022601458393624416 -0.034398692367262111 0 -0.00019502095979562155 -0.034529174006577901 0 -9.9097424655709716e-05 -0.034453853991537914 0 -0.00011121616494101729 -0.034553761678520346 0 -0.00028604890775398028 -0.034412817295982466 0 -0.00058466963338196028 -0.030352904597864345 0 -0.000257025298190562 -0.031056753345546306 0 0.00022338596773759231 -0.035255505474194232 0 -0.000257025298190562 -0.031056753345546306 0 -9.9097424655709716e-05 -0.034453853991537914 0 -5.6485857072937912e-06 -0.034574745217111791 0 0.0001064756115812779 -0.034454953356108799 0 -0.00058466963338196028 -0.030352904597864345 0 9.8082085078362379e-05 -0.03268941846702561 0 -9.9097424655709716e-05 -0.034453853991537914 0 -4.8109252452559559e-05 -0.03460381677481994 0 -0.00011121616494101729 -0.034553761678520346 0 -9.9097424655709716e-05 -0.034453853991537914 0 -5.6485857072937912e-06 -0.034574745217111791 0 -4.8109252452559559e-05 -0.03460381677481994 0 -4.8109252452559559e-05 -0.03460381677481994 0 -2.4396447183629802e-05 -0.03466563144030755 0 -0.00013151491672025898 -0.034624659478892969 0 -5.6485857072937912e-06 -0.034574745217111791 0 -4.8109252452559559e-05 -0.03460381677481994 0 1.5506089336505668e-05 -0.034687918923246838 0 -4.8109252452559559e-05 -0.03460381677481994 0 -2.4396447183629802e-05 -0.03466563144030755 0 1.5506089336505668e-05 -0.034687918923246838 0 -0.00013151491672025898 -0.034624659478892969 0 -0.00011121616494101729 -0.034553761678520346 0 -0.00019502095979562155 -0.034529174006577901 0 -4.8109252452559559e-05 -0.03460381677481994 0 -0.00013151491672025898 -0.034624659478892969 0 -0.00011121616494101729 -0.034553761678520346 0 -8.2308462475766475e-08 -0.034999897396422841 0 5.5543927700116481e-05 -0.034969304964340933 0 1.1897373822804503e-05 -0.034896927949429113 0 -4.7490259257366029e-07 -0.035000780952853305 0 9.8082085078362379e-05 -0.03268941846702561 0 -0.00013402056945566244 -0.034969355342402871 0 1.8502140651892385e-07 -0.034999963436698228 0 -0.0002961532579447006 -0.035069527041202177 0 -8.2308462475766475e-08 -0.034999897396422841 0 1.1897373822804503e-05 -0.034896927949429113 0 5.6659640082826492e-08 -0.034999910498510138 0 5.5543927700116481e-05 -0.034969304964340933 0 1.1897373822804503e-05 -0.034896927949429113 0 5.3595717831327526e-05 -0.034766499394431653 0 9.8082085078362379e-05 -0.03268941846702561 0 6.8690971531150472e-05 -0.035522894731820673 0 -5.6485857072937912e-06 -0.034574745217111791 0 0.0001064756115812779 -0.034454953356108799 0 5.3595717831327526e-05 -0.034766499394431653 0 1.1897373822804503e-05 -0.034896927949429113 0 3.5738271348999398e-06 -0.034974855793751605 0 -1.6323484197076442e-05 -0.034996360557414563 0 1.1897373822804503e-05 -0.034896927949429113 0 5.3595717831327526e-05 -0.034766499394431653 0 4.5591353810924593e-05 -0.034660113417014013 0 1.0513003439916279e-05 -0.034889509364705272 0 1.6335319381551522e-05 -0.034834222190423675 0 -2.4396447183629802e-05 -0.03466563144030755 0 1.5506089336505668e-05 -0.034687918923246838 0 4.5591353810924593e-05 -0.034660113417014013 0 -5.6485857072937912e-06 -0.034574745217111791 0 1.5506089336505668e-05 -0.034687918923246838 0 5.3595717831327526e-05 -0.034766499394431653 0 1.5506089336505668e-05 -0.034687918923246838 0 5.3595717831327526e-05 -0.034766499394431653 0 4.5591353810924593e-05 -0.034660113417014013 0 1.1897373822804503e-05 -0.034896927949429113 0 3.5738271348999398e-06 -0.034974855793751605 0 5.6659640082826492e-08 -0.034999910498510138 0 3.5738271348999398e-06 -0.034974855793751605 0 5.6659640082826492e-08 -0.034999910498510138 0 -1.1044171660713305e-06 -0.034995402764578 0 5.6659640082826492e-08 -0.034999910498510138 0 -1.1044171660713305e-06 -0.034995402764578 0 -1.3563360511901674e-08 -0.035000011884317006 0 3.5738271348999398e-06 -0.034974855793751605 0 -1.1044171660713305e-06 -0.034995402764578 0 -1.6323484197076442e-05 -0.034996360557414563 0 -1.0195278682237163e-05 -0.03499469525003137 0 -1.1044171660713305e-06 -0.034995402764578 0 -1.6323484197076442e-05 -0.034996360557414563 0 2.5556085287730821e-05 -0.03482954978565677 0 4.5591353810924593e-05 -0.034660113417014013 0 -3.0780428686176767e-05 -0.034738712605614876 0 4.3450275560615347e-06 -0.034911151684086705 0 1.6335319381551522e-05 -0.034834222190423675 0 -1.0195278682237163e-05 -0.03499469525003137 0 -1.1044171660713305e-06 -0.034995402764578 0 -1.3563360511901674e-08 -0.035000011884317006 0 -1.0195278682237163e-05 -0.03499469525003137 0 -6.0786452725860099e-09 -0.034999982989944563 0 -1.3563360511901674e-08 -0.035000011884317006 0 -0.00013151491672025898 -0.034624659478892969 0 -0.00011015547013751052 -0.034725689570037348 0 -0.00021924558734529471 -0.034710800324807806 0 -2.4396447183629802e-05 -0.03466563144030755 0 -0.00013151491672025898 -0.034624659478892969 0 -0.00011015547013751052 -0.034725689570037348 0 -2.4396447183629802e-05 -0.03466563144030755 0 4.5591353810924593e-05 -0.034660113417014013 0 -3.0780428686176767e-05 -0.034738712605614876 0 -2.4396447183629802e-05 -0.03466563144030755 0 -0.00011015547013751052 -0.034725689570037348 0 -3.0780428686176767e-05 -0.034738712605614876 0 -7.9700913101577326e-05 -0.034833851854548278 0 -0.00011015547013751052 -0.034725689570037348 0 -3.0780428686176767e-05 -0.034738712605614876 0 -7.9700913101577326e-05 -0.034833851854548278 0 2.5556085287730821e-05 -0.03482954978565677 0 -3.0780428686176767e-05 -0.034738712605614876 0 -7.9700913101577326e-05 -0.034833851854548278 0 -0.0002069669729690079 -0.034841767249564649 0 -0.00011015547013751052 -0.034725689570037348 0 -0.0002069669729690079 -0.034841767249564649 0 -0.00011015547013751052 -0.034725689570037348 0 -0.00021924558734529471 -0.034710800324807806 0 -0.0003635590847870758 -0.034078808412421335 0 -0.00037422597687079357 -0.034470725373952293 0 -0.0002069669729690079 -0.034841767249564649 0 -0.00021924558734529471 -0.034710800324807806 0 -0.00036476668214667539 -0.034703397355020364 0 -0.00021924558734529471 -0.034710800324807806 0 -0.00036476668214667539 -0.034703397355020364 0 -0.00026031916734241874 -0.034583486280340268 0 -0.00013151491672025898 -0.034624659478892969 0 -0.00021924558734529471 -0.034710800324807806 0 -0.00026031916734241874 -0.034583486280340268 0 -0.00059768225644340881 -0.033477810760167051 0 -0.00044876300885389578 -0.033480613201704812 0 -0.00054615649279450671 -0.033363464563402709 0 -0.00059768225644340881 -0.033477810760167051 0 -0.00054615649279450671 -0.033363464563402709 0 -0.00063401555523469799 -0.033413813432707225 0 -0.00054615649279450671 -0.033363464563402709 0 -0.00063401555523469799 -0.033413813432707225 0 -0.00062880179886909708 -0.033338035879595815 0 -0.00063401555523469799 -0.033413813432707225 0 -0.00066111207319446248 -0.033359084472918653 0 -0.00062880179886909708 -0.033338035879595815 0 -0.00066089713547022361 -0.033411143178323173 0 -0.00063401555523469799 -0.033413813432707225 0 -0.00066111207319446248 -0.033359084472918653 0 -0.00070936858563993373 -0.033339722050419136 0 -0.00066089713547022361 -0.033411143178323173 0 -0.00066111207319446248 -0.033359084472918653 0 -0.00068125441608157973 -0.033296517010807852 0 -0.00062880179886909708 -0.033338035879595815 0 -0.00062150133070707945 -0.033254569210508747 0 -0.00068125441608157973 -0.033296517010807852 0 -0.00066111207319446248 -0.033359084472918653 0 -0.00062880179886909708 -0.033338035879595815 0 -0.00063215838646312557 -0.029226083669161351 0 -0.00043331652823974903 -0.031416404761789682 0 -0.00054615649279450671 -0.033363464563402709 0 -0.00062880179886909708 -0.033338035879595815 0 -0.00062150133070707945 -0.033254569210508747 0 -0.00037422597687079357 -0.034470725373952293 0 -0.00043331652823974903 -0.031416404761789682 0 -0.00036476668214667539 -0.034703397355020364 0 -0.00041596345444867058 -0.034453772551643655 0 -0.00053779600939321602 -0.03451926115431779 0 -0.00059502232340893381 -0.030256600583754872 0 -0.00043331652823974903 -0.031416404761789682 0 -0.00084538852293441591 -0.026021755927421533 0 -0.0007215998911300239 -0.026005213980805422 0 -0.0009638077288076708 -0.026224288383368745 0 -0.00084538852293441591 -0.026021755927421533 0 -0.0009638077288076708 -0.026224288383368745 0 -0.0010506967851754703 -0.026146359040836044 0 -0.00034079958648413261 -0.025298703545969973 0 -0.00037636469577565732 -0.025402402600350833 0 -0.00048328651905474133 -0.02542343606388409 0 -0.00063215838646312557 -0.029226083669161351 0 -0.00084411550237137203 -0.026905424195131089 0 -0.0004121387276558119 -0.02932337015461365 0 -0.00076999064316208622 -0.029567726339294206 0 -0.00067589754190735293 -0.029647709742272682 0 -0.00043331652823974903 -0.031416404761789682 0 -0.00084411550237137203 -0.026905424195131089 0 -0.00050159911400120413 -0.02552979310205267 0 -0.00052336176156033798 -0.025401628537311469 0 -0.00057211876978577813 -0.025631109895882673 0 -0.00050159911400120413 -0.02552979310205267 0 -0.00045615389703234011 -0.025456715060067751 0 -0.0004464180031709286 -0.025592044405287635 0 -0.00050159911400120413 -0.02552979310205267 0 -0.00045615389703234011 -0.025456715060067751 0 -0.00052336176156033798 -0.025401628537311469 0 -0.00094324651273690319 -0.026574846791624675 0 -0.00084411550237137203 -0.026905424195131089 0 -0.00037636469577565732 -0.025402402600350833 0 -0.00045615389703234011 -0.025456715060067751 0 -0.00048328651905474133 -0.02542343606388409 0 -0.00037636469577565732 -0.025402402600350833 0 -0.00045615389703234011 -0.025456715060067751 0 -0.00036619146483035826 -0.025479149622108042 0 -0.00045615389703234011 -0.025456715060067751 0 -0.00036619146483035826 -0.025479149622108042 0 -0.0004464180031709286 -0.025592044405287635 0 -0.00030655479877946912 -0.025572110522005892 0 -0.00036619146483035826 -0.025479149622108042 0 -0.0004464180031709286 -0.025592044405287635 0 -0.00030655479877946912 -0.025572110522005892 0 -0.0004464180031709286 -0.025592044405287635 0 -0.00039401839423419422 -0.02569159851354667 0 -0.0004464180031709286 -0.025592044405287635 0 -0.00050949660432387167 -0.025726361120442354 0 -0.00039401839423419422 -0.02569159851354667 0 -0.0004464180031709286 -0.025592044405287635 0 -0.00057211876978577813 -0.025631109895882673 0 -0.00050949660432387167 -0.025726361120442354 0 -0.00050159911400120413 -0.02552979310205267 0 -0.0004464180031709286 -0.025592044405287635 0 -0.00057211876978577813 -0.025631109895882673 0 -0.00061801200049246352 -0.025855014386941745 0 -0.00043807939949715808 -0.025825399259900118 0 -0.00050949660432387167 -0.025726361120442354 0 -0.00057211876978577813 -0.025631109895882673 0 -0.00050949660432387167 -0.025726361120442354 0 -0.00061038719155176782 -0.025761512002673546 0 -0.00061801200049246352 -0.025855014386941745 0 -0.00050949660432387167 -0.025726361120442354 0 -0.00061038719155176782 -0.025761512002673546 0 -0.00043807939949715808 -0.025825399259900118 0 -0.00050949660432387167 -0.025726361120442354 0 -0.00039401839423419422 -0.02569159851354667 0 -0.00024878456706463456 -0.025753163182146689 0 -0.00043807939949715808 -0.025825399259900118 0 -0.00039401839423419422 -0.02569159851354667 0 -0.00052336176156033798 -0.025401628537311469 0 -0.00057211876978577813 -0.025631109895882673 0 -0.00073920212254976049 -0.025821174388991917 0 -0.00084538852293441591 -0.026021755927421533 0 -0.0010506967851754703 -0.026146359040836044 0 -0.00073920212254976049 -0.025821174388991917 0 -0.00084411550237137203 -0.026905424195131089 0 -0.00060863983729249891 -0.025442775799844601 0 -0.0007215998911300239 -0.026005213980805422 0 -0.00075769398746294977 -0.025925449403702689 0 -0.00072819425974662367 -0.025846696784193487 0 -0.00084538852293441591 -0.026021755927421533 0 -0.00075769398746294977 -0.025925449403702689 0 -0.00073920212254976049 -0.025821174388991917 0 -0.00084538852293441591 -0.026021755927421533 0 -0.0007215998911300239 -0.026005213980805422 0 -0.00075769398746294977 -0.025925449403702689 0 -0.00061801200049246352 -0.025855014386941745 0 -0.00061038719155176782 -0.025761512002673546 0 -0.00073920212254976049 -0.025821174388991917 0 -0.00057211876978577813 -0.025631109895882673 0 -0.00061038719155176782 -0.025761512002673546 0 -0.00073920212254976049 -0.025821174388991917 0 -0.00075769398746294977 -0.025925449403702689 0 -0.00073920212254976049 -0.025821174388991917 0 -0.00072819425974662367 -0.025846696784193487 0 -0.00041596345444867058 -0.034453772551643655 0 -0.00030327443613488474 -0.034388237404711558 0 -0.00026090101165893907 -0.034475696275465477 0 -0.00071677170970559751 -0.025950794599829793 0 -0.00072819425974662367 -0.025846696784193487 0 -0.00079839769857121504 -0.025866079504718142 0 -0.00059502232340893381 -0.030256600583754872 0 -0.00077311429961545439 -0.028728292643869491 0 -0.0007215998911300239 -0.026005213980805422 0 -0.00072819425974662367 -0.025846696784193487 0 -0.00054700888351658398 -0.025857026005968245 0 -0.00061631023602678418 -0.026385131893521999 0 -0.00077311429961545439 -0.028728292643869491 0 -0.00058399171089519315 -0.029595634305096499 0 -0.00061330566287823589 -0.02961922491682499 0 -0.00064148937369844217 -0.029608000423227115 0 -0.00077311429961545439 -0.028728292643869491 0 -0.000257025298190562 -0.031056753345546306 0 -0.00060939901116403752 -0.026665324371094017 0 -0.00059015930908039489 -0.026654650005417682 0 -0.00062281832271841289 -0.026638425539429127 0 -0.00083964613170619358 -0.027601570651540445 0 -0.000257025298190562 -0.031056753345546306 0 -0.00062423079606365578 -0.02734398019157808 0 -0.00083964613170619358 -0.027601570651540445 0 -0.00077311429961545439 -0.028728292643869491 0 -0.00083964613170619358 -0.027601570651540445 0 -0.00060939901116403752 -0.026665324371094017 0 -0.00068897671096106671 -0.026710509549808949 0 -0.00062281832271841289 -0.026638425539429127 0 -0.00022601458393624416 -0.034398692367262111 0 -0.00026090101165893907 -0.034475696275465477 0 -0.00019502095979562155 -0.034529174006577901 0 -0.00030327443613488474 -0.034388237404711558 0 -0.00022601458393624416 -0.034398692367262111 0 -0.00026090101165893907 -0.034475696275465477 0 -0.00013151491672025898 -0.034624659478892969 0 -0.00019502095979562155 -0.034529174006577901 0 -0.00026031916734241874 -0.034583486280340268 0 -0.00026090101165893907 -0.034475696275465477 0 -0.00019502095979562155 -0.034529174006577901 0 -0.00026031916734241874 -0.034583486280340268 0 -0.00036476668214667539 -0.034703397355020364 0 -0.00041596345444867058 -0.034453772551643655 0 -0.00026031916734241874 -0.034583486280340268 0 -0.00041596345444867058 -0.034453772551643655 0 -0.00026090101165893907 -0.034475696275465477 0 -0.00026031916734241874 -0.034583486280340268 0 0.0015418888619594621 0.012864862689640924 0 0.0011142230716277934 0.012499468405297429 0 0.00094260866155535981 0.013370228078596771 0 0.0015418888619594621 0.012864862689640924 0 0.0020411470344945085 0.01269152460886102 0 0.0018112620341477949 0.012221578872289892 0 0.0015418888619594621 0.012864862689640924 0 0.0011142230716277934 0.012499468405297429 0 0.0018112620341477949 0.012221578872289892 0 0.0011142230716277934 0.012499468405297429 0 0.00094260866155535981 0.013370228078596771 0 0.0003253846375668452 0.01293364140935117 0 0.0019380358013830349 0.015107672799038263 0 -4.7013265155450614e-05 0.013595154506303055 0 0.00094260866155535981 0.013370228078596771 0 0.0013819486205190238 0.013816516880662905 0 0.00024390290391177789 0.013889792209986991 0 0.00094260866155535981 0.013370228078596771 0 0.0003253846375668452 0.01293364140935117 0 0.00024390290391177789 0.013889792209986991 0 0.0010566373200506223 0.014004653512866111 0 0.00024390290391177789 0.013889792209986991 0 0.00050888502073717916 0.014318442799739432 0 0.0013819486205190238 0.013816516880662905 0 0.001777238343461797 0.013537147165084926 0 0.0020465059898911427 0.013726960383476747 0 0.00094260866155535981 0.013370228078596771 0 0.0013819486205190238 0.013816516880662905 0 0.0014944466626080114 0.013375508915942289 0 0.0015418888619594621 0.012864862689640924 0 0.00094260866155535981 0.013370228078596771 0 0.0014944466626080114 0.013375508915942289 0 0.0014944466626080114 0.013375508915942289 0 0.001777238343461797 0.013537147165084926 0 0.0018625284918184896 0.013181190938325968 0 0.0015418888619594621 0.012864862689640924 0 0.0014944466626080114 0.013375508915942289 0 0.0018625284918184896 0.013181190938325968 0 0.0013819486205190238 0.013816516880662905 0 0.0014944466626080114 0.013375508915942289 0 0.001777238343461797 0.013537147165084926 0 0.001777238343461797 0.013537147165084926 0 0.0020465059898911427 0.013726960383476747 0 0.0021339252864769455 0.013450001810227291 0 0.0023645904171298851 0.013670204504466269 0 0.0025918612715374969 0.013381970114171875 0 0.0023756508326048162 0.013842404346046083 0 0.0023645904171298851 0.013670204504466269 0 0.0023573626527155908 0.013498036613051288 0 0.0025918612715374969 0.013381970114171875 0 0.0020465059898911427 0.013726960383476747 0 0.0022309979769725426 0.013627518940890294 0 0.0021339252864769455 0.013450001810227291 0 0.0020465059898911427 0.013726960383476747 0 0.0022309979769725426 0.013627518940890294 0 0.0022414837661804388 0.013769387960611647 0 0.0022309979769725426 0.013627518940890294 0 0.0023645904171298851 0.013670204504466269 0 0.0022414837661804388 0.013769387960611647 0 0.0022309979769725426 0.013627518940890294 0 0.0023645904171298851 0.013670204504466269 0 0.0023573626527155908 0.013498036613051288 0 0.0022309979769725426 0.013627518940890294 0 0.0023573626527155908 0.013498036613051288 0 0.0021339252864769455 0.013450001810227291 0 0.0021339252864769455 0.013450001810227291 0 0.0023845064514239848 0.01331608139946145 0 0.002229368458384718 0.013098976293733661 0 0.0023573626527155908 0.013498036613051288 0 0.0021339252864769455 0.013450001810227291 0 0.0023845064514239848 0.01331608139946145 0 0.0023845064514239848 0.01331608139946145 0 0.0024731237255523402 0.013105208380101535 0 0.0025918612715374969 0.013381970114171875 0 0.0023573626527155908 0.013498036613051288 0 0.0023845064514239848 0.01331608139946145 0 0.0025918612715374969 0.013381970114171875 0 0.0023845064514239848 0.01331608139946145 0 0.0024731237255523402 0.013105208380101535 0 0.002229368458384718 0.013098976293733661 0 0.001777238343461797 0.013537147165084926 0 0.0021339252864769455 0.013450001810227291 0 0.0018625284918184896 0.013181190938325968 0 0.0021339252864769455 0.013450001810227291 0 0.002229368458384718 0.013098976293733661 0 0.0018625284918184896 0.013181190938325968 0 0.0025918612715374969 0.013381970114171875 0 0.0032341238514730563 0.013090500821024458 0 0.0023756508326048162 0.013842404346046083 0 -0.00010155784799044807 0.0013337058813761853 0 -0.0028538078637721617 -0.0021424358058781132 0 -0.003614842318358309 -0.010762058996044337 0 -0.0036378087119603073 -0.011462170427973067 0 -0.0042172549432955026 -0.010268417595418876 0 0.0025918612715374969 0.013381970114171875 0 0.0032341238514730563 0.013090500821024458 0 0.0027076051371764899 0.01296673516972582 0 0.0024731237255523402 0.013105208380101535 0 0.0025918612715374969 0.013381970114171875 0 0.0027076051371764899 0.01296673516972582 0 -0.003614842318358309 -0.010762058996044337 0 -0.0036378087119603073 -0.011462170427973067 0 -0.003338229533482328 -0.011163318052588156 0 0.0032341238514730563 0.013090500821024458 0 0.0028398177289748901 0.012139454656139725 0 0.0055880925223181629 0.0084650218378097292 0 -0.00010155784799044807 0.0013337058813761853 0 0.00143595341690642 -0.0015791633898713537 0 -0.0036378087119603073 -0.011462170427973067 0 -0.0032409441104419806 -0.011445992461007462 0 -0.003338229533482328 -0.011163318052588156 0 0.0027076051371764899 0.01296673516972582 0 0.0028398177289748901 0.012139454656139725 0 0.002436037656002909 0.012675603742515671 0 0.0032341238514730563 0.013090500821024458 0 0.0027076051371764899 0.01296673516972582 0 0.0028398177289748901 0.012139454656139725 0 0.0024731237255523402 0.013105208380101535 0 0.0027076051371764899 0.01296673516972582 0 0.002436037656002909 0.012675603742515671 0 0.0028398177289748901 0.012139454656139725 0 0.002436037656002909 0.012675603742515671 0 0.0023532064365309295 0.01208682112002466 0 0.0015418888619594621 0.012864862689640924 0 0.0018625284918184896 0.013181190938325968 0 0.0020411470344945085 0.01269152460886102 0 0.002229368458384718 0.013098976293733661 0 0.0018625284918184896 0.013181190938325968 0 0.0020411470344945085 0.01269152460886102 0 0.002229368458384718 0.013098976293733661 0 0.0020411470344945085 0.01269152460886102 0 0.002436037656002909 0.012675603742515671 0 0.0024731237255523402 0.013105208380101535 0 0.002229368458384718 0.013098976293733661 0 0.002436037656002909 0.012675603742515671 0 0.0020411470344945085 0.01269152460886102 0 0.002436037656002909 0.012675603742515671 0 0.0023532064365309295 0.01208682112002466 0 0.0020411470344945085 0.01269152460886102 0 0.0023532064365309295 0.01208682112002466 0 0.0018112620341477949 0.012221578872289892 0 0.0023532064365309295 0.01208682112002466 0 0.002149992802130637 0.011606901391655985 0 0.0026673682951069101 0.011513783115299801 0 0.0023532064365309295 0.01208682112002466 0 0.002149992802130637 0.011606901391655985 0 0.0018112620341477949 0.012221578872289892 0 0.002149992802130637 0.011606901391655985 0 0.0015114391654883986 0.011806061473655961 0 0.0018112620341477949 0.012221578872289892 0 0.00281026425728944 0.011926166467251696 0 0.0021552659615083434 0.0091958075717064464 0 0.0028398177289748901 0.012139454656139725 0 0.0018868176984007889 0.006712077091070948 0 0.0055880925223181629 0.0084650218378097292 0 0.0028398177289748901 0.012139454656139725 0 0.0023532064365309295 0.01208682112002466 0 0.0026673682951069101 0.011513783115299801 0 0.0018868176984007889 0.006712077091070948 0 0.0032738422146908874 0.0038201319680154981 0 0.0011001569197217154 0.0011998657270829692 0 0.0018868176984007889 0.006712077091070948 0 0.0055880925223181629 0.0084650218378097292 0 0.0046065936260001761 0.0052947689769050283 0 0.0021552659615083434 0.0091958075717064464 0 0.0033036385505743611 0.0054100036053569799 0 0.0032738422146908874 0.0038201319680154981 0 0.0046065936260001761 0.0052947689769050283 0 0.0049734917653382511 0.0030296359471796374 0 0.0018868176984007889 0.006712077091070948 0 0.0032738422146908874 0.0038201319680154981 0 0.0046065936260001761 0.0052947689769050283 0 0.0026673682951069101 0.011513783115299801 0 0.0022271836340927238 0.011075433364574656 0 0.0025724882122608781 0.01037664258454815 0 0.002149992802130637 0.011606901391655985 0 0.0026673682951069101 0.011513783115299801 0 0.0022271836340927238 0.011075433364574656 0 0.002149992802130637 0.011606901391655985 0 0.0022271836340927238 0.011075433364574656 0 0.0015325563332158846 0.010989774653117648 0 0.0015325563332158846 0.010989774653117648 0 0.0015114391654883986 0.011806061473655961 0 0.00045383926497098064 0.011691743349636899 0 0.002149992802130637 0.011606901391655985 0 0.0015325563332158846 0.010989774653117648 0 0.0015114391654883986 0.011806061473655961 0 0.0011142230716277934 0.012499468405297429 0 0.0015114391654883986 0.011806061473655961 0 0.0018112620341477949 0.012221578872289892 0 0.0011142230716277934 0.012499468405297429 0 0.0015114391654883986 0.011806061473655961 0 0.00045383926497098064 0.011691743349636899 0 0.0011142230716277934 0.012499468405297429 0 0.00045383926497098064 0.011691743349636899 0 0.0003253846375668452 0.01293364140935117 0 0.0046241306526206638 0.0094376859886414182 0 0.0018044957072122527 0.011057201036306752 0 0.0025501376310036747 0.0090607817589588129 0 0.0018044957072122527 0.011057201036306752 0 0.0012806145386324872 0.0094696886223854301 0 0.0025501376310036747 0.0090607817589588129 0 0.0032579565265875563 0.010653265788317398 0 0.0011043078197862932 0.011340887358463277 0 0.0018044957072122527 0.011057201036306752 0 0.00059696622793748713 0.010393139902362424 0 -0.00027702636883574752 0.01203975663518651 0 0.00059696622793748713 0.010393139902362424 0 -0.00027702636883574752 0.01203975663518651 0 -0.00037992389086931235 0.0091059322235334944 0 0.0018044957072122527 0.011057201036306752 0 0.0012806145386324872 0.0094696886223854301 0 0.00059696622793748713 0.010393139902362424 0 0.0012806145386324872 0.0094696886223854301 0 0.00059696622793748713 0.010393139902362424 0 -0.00037992389086931235 0.0091059322235334944 0 -0.00074841488619793327 0.011405473961771811 0 -0.00027702636883574752 0.01203975663518651 0 0.00016675724245658437 0.010215008463409414 0 -0.00074841488619793327 0.011405473961771811 0 -0.0015323010240138079 0.01058307184894532 0 0.00016675724245658437 0.010215008463409414 0 -0.00026682994360614423 0.011834113333619192 0 -0.00010240036915079633 0.009667996358078218 0 -0.00074841488619793327 0.011405473961771811 0 -0.0015323010240138079 0.01058307184894532 0 -0.001396896143818057 0.012033087000880153 0 -0.00074841488619793327 0.011405473961771811 0 -0.00027702636883574752 0.01203975663518651 0 -0.00082903089240813504 0.01206315213700567 0 -0.00027702636883574752 0.01203975663518651 0 -0.00082903089240813504 0.01206315213700567 0 -0.00060909875490889535 0.012539703647791244 0 -0.00074841488619793327 0.011405473961771811 0 -0.00082903089240813504 0.01206315213700567 0 -0.001396896143818057 0.012033087000880153 0 -0.00082903089240813504 0.01206315213700567 0 -0.00097099063104500024 0.012489784758726502 0 -0.001396896143818057 0.012033087000880153 0 -0.00097099063104500024 0.012489784758726502 0 -0.00060909875490889535 0.012539703647791244 0 -0.00078400318392098534 0.012927686410539752 0 -0.00097099063104500024 0.012489784758726502 0 -0.0012769392898167801 0.012784474902015602 0 -0.00078400318392098534 0.012927686410539752 0 -0.00082903089240813504 0.01206315213700567 0 -0.00097099063104500024 0.012489784758726502 0 -0.00060909875490889535 0.012539703647791244 0 0.0018044957072122527 0.011057201036306752 0 -0.00027702636883574752 0.01203975663518651 0 -0.00060909875490889535 0.012539703647791244 0 0.00045383926497098064 0.011691743349636899 0 -0.00060909875490889535 0.012539703647791244 0 -0.00026744907132361542 0.012835871575998256 0 0.00045383926497098064 0.011691743349636899 0 0.0003253846375668452 0.01293364140935117 0 -0.00026744907132361542 0.012835871575998256 0 0.0011043078197862932 0.011340887358463277 0 -0.00051874459441147622 0.01246016241730369 0 -0.0028059613327154355 0.010163033688835496 0 -0.0037873758345309755 0.011291689261128177 0 -0.0028946155072830425 0.01141267547808604 0 -0.0026602325978120817 0.010165458848758623 0 -0.0043196266430200522 0.010828191955182895 0 -0.0020653774969425056 0.012075485351265102 0 -0.0025032811733685556 0.012481655625938764 0 -0.002728070642904438 0.012245162100078998 0 -0.0020653774969425056 0.012075485351265102 0 -0.002728070642904438 0.012245162100078998 0 -0.0027819371925739116 0.011889382459065186 0 -0.0024019687779063613 0.01175938231990812 0 -0.0037873758345309755 0.011291689261128177 0 -0.0024019687779063613 0.01175938231990812 0 -0.0015353847151108318 0.012030534636425795 0 -0.0028946155072830425 0.01141267547808604 0 -0.0015323010240138079 0.01058307184894532 0 -0.0026602325978120817 0.010165458848758623 0 -0.0028946155072830425 0.01141267547808604 0 -0.0015323010240138079 0.01058307184894532 0 -0.001396896143818057 0.012033087000880153 0 -0.001396896143818057 0.012033087000880153 0 -0.0012769392898167801 0.012784474902015602 0 -0.0017989203294203585 0.012614001420500693 0 -0.00097099063104500024 0.012489784758726502 0 -0.001396896143818057 0.012033087000880153 0 -0.0012769392898167801 0.012784474902015602 0 -0.0012769392898167801 0.012784474902015602 0 -0.0017989203294203585 0.012614001420500693 0 -0.0016082247359850393 0.013019613521983267 0 -0.0020653774969425056 0.012075485351265102 0 -0.001396896143818057 0.012033087000880153 0 -0.0017989203294203585 0.012614001420500693 0 -0.0020653774969425056 0.012075485351265102 0 -0.0022462434616840939 0.012712473875877409 0 -0.0025032811733685556 0.012481655625938764 0 -0.0020653774969425056 0.012075485351265102 0 -0.0017989203294203585 0.012614001420500693 0 -0.0022462434616840939 0.012712473875877409 0 -0.0017989203294203585 0.012614001420500693 0 -0.0022462434616840939 0.012712473875877409 0 -0.0020813737004155989 0.013136835179178869 0 -0.0022462434616840939 0.012712473875877409 0 -0.0024939377764922215 0.013081322311115907 0 -0.0020813737004155989 0.013136835179178869 0 -0.0026827449894799823 0.012838382765165095 0 -0.0024939377764922215 0.013081322311115907 0 -0.0029114858964713586 0.013237747901618696 0 -0.0022462434616840939 0.012712473875877409 0 -0.0026827449894799823 0.012838382765165095 0 -0.0024939377764922215 0.013081322311115907 0 -0.0022462434616840939 0.012712473875877409 0 -0.0026827449894799823 0.012838382765165095 0 -0.0025032811733685556 0.012481655625938764 0 -0.0026827449894799823 0.012838382765165095 0 -0.0025032811733685556 0.012481655625938764 0 -0.0028647841391004282 0.012597926127489284 0 -0.0025032811733685556 0.012481655625938764 0 -0.0028647841391004282 0.012597926127489284 0 -0.002728070642904438 0.012245162100078998 0 -0.0025915504230759781 0.013491202451374133 0 -0.0022121106066134754 0.013640643922256663 0 -0.0026720803016162644 0.01408116739344481 0 -0.0025915504230759781 0.013491202451374133 0 -0.0024939377764922215 0.013081322311115907 0 -0.0020813737004155989 0.013136835179178869 0 -0.0025915504230759781 0.013491202451374133 0 -0.0024939377764922215 0.013081322311115907 0 -0.0029114858964713586 0.013237747901618696 0 -0.0025915504230759781 0.013491202451374133 0 -0.0020813737004155989 0.013136835179178869 0 -0.0022121106066134754 0.013640643922256663 0 -0.0020813737004155989 0.013136835179178869 0 -0.0022121106066134754 0.013640643922256663 0 -0.0015926427769324954 0.013426527562529883 0 -0.0022121106066134754 0.013640643922256663 0 -0.0015926427769324954 0.013426527562529883 0 -0.0018442134084838109 0.013843482460417908 0 -0.0020813737004155989 0.013136835179178869 0 -0.0015926427769324954 0.013426527562529883 0 -0.0016082247359850393 0.013019613521983267 0 -0.0017989203294203585 0.012614001420500693 0 -0.0020813737004155989 0.013136835179178869 0 -0.0016082247359850393 0.013019613521983267 0 -0.0015926427769324954 0.013426527562529883 0 -0.0016082247359850393 0.013019613521983267 0 -0.0011450841158358732 0.013282153985710726 0 -0.0012769392898167801 0.012784474902015602 0 -0.0016082247359850393 0.013019613521983267 0 -0.0011450841158358732 0.013282153985710726 0 -0.0015926427769324954 0.013426527562529883 0 -0.0011450841158358732 0.013282153985710726 0 -0.0011601391862061698 0.013974776162197293 0 -0.0011601391862061698 0.013974776162197293 0 -0.0018321321811739931 0.014322812276711162 0 -0.0015997824455604985 0.014875798547620424 0 -0.0015926427769324954 0.013426527562529883 0 -0.0011601391862061698 0.013974776162197293 0 -0.0018442134084838109 0.013843482460417908 0 -0.0011601391862061698 0.013974776162197293 0 -0.0018321321811739931 0.014322812276711162 0 -0.0018442134084838109 0.013843482460417908 0 -0.0018321321811739931 0.014322812276711162 0 -0.0018442134084838109 0.013843482460417908 0 -0.0022121935456956387 0.014098930605959455 0 -0.0022121106066134754 0.013640643922256663 0 -0.0018442134084838109 0.013843482460417908 0 -0.0022121935456956387 0.014098930605959455 0 -0.0018321321811739931 0.014322812276711162 0 -0.0022121935456956387 0.014098930605959455 0 -0.0024202777087305996 0.014682003286924266 0 -0.0022121935456956387 0.014098930605959455 0 -0.0026720803016162644 0.01408116739344481 0 -0.0024202777087305996 0.014682003286924266 0 -0.0022121106066134754 0.013640643922256663 0 -0.0022121935456956387 0.014098930605959455 0 -0.0026720803016162644 0.01408116739344481 0 0.0003253846375668452 0.01293364140935117 0 -0.00026744907132361542 0.012835871575998256 0 -0.00049591456405693893 0.013509333843151073 0 -0.00026744907132361542 0.012835871575998256 0 -0.00078400318392098534 0.012927686410539752 0 -0.00049591456405693893 0.013509333843151073 0 -0.00060909875490889535 0.012539703647791244 0 -0.00026744907132361542 0.012835871575998256 0 -0.00078400318392098534 0.012927686410539752 0 -0.0012769392898167801 0.012784474902015602 0 -0.0011450841158358732 0.013282153985710726 0 -0.00078400318392098534 0.012927686410539752 0 -0.0011450841158358732 0.013282153985710726 0 -0.00078400318392098534 0.012927686410539752 0 -0.00049591456405693893 0.013509333843151073 0 -0.0011450841158358732 0.013282153985710726 0 -0.0011601391862061698 0.013974776162197293 0 -0.00049591456405693893 0.013509333843151073 0 -0.0011601391862061698 0.013974776162197293 0 -0.00049591456405693893 0.013509333843151073 0 -0.00042643731004081116 0.014279545891592724 0 -0.0011601391862061698 0.013974776162197293 0 -0.00042643731004081116 0.014279545891592724 0 -0.00089449427242128195 0.014862038585041386 0 0.0003253846375668452 0.01293364140935117 0 -0.00049591456405693893 0.013509333843151073 0 0.00024390290391177789 0.013889792209986991 0 -0.00049591456405693893 0.013509333843151073 0 -0.00042643731004081116 0.014279545891592724 0 0.00024390290391177789 0.013889792209986991 0 -0.00042643731004081116 0.014279545891592724 0 0.00024390290391177789 0.013889792209986991 0 1.8545746189934914e-05 0.014445956228234367 0 0.00024390290391177789 0.013889792209986991 0 1.8545746189934914e-05 0.014445956228234367 0 0.00050888502073717916 0.014318442799739432 0 1.8545746189934914e-05 0.014445956228234367 0 0.00010204694555827972 0.014897553551710085 0 0.00050888502073717916 0.014318442799739432 0 1.8545746189934914e-05 0.014445956228234367 0 -0.00041125739576726504 0.014775563266896538 0 0.00010204694555827972 0.014897553551710085 0 -0.00042643731004081116 0.014279545891592724 0 1.8545746189934914e-05 0.014445956228234367 0 -0.00041125739576726504 0.014775563266896538 0 -0.00042643731004081116 0.014279545891592724 0 -0.00089449427242128195 0.014862038585041386 0 -0.00041125739576726504 0.014775563266896538 0 -0.00053636278916511788 0.017880733588851446 0 -0.0013717282719506285 0.0069727053016978872 0 -0.0028736551454676424 -0.0080119410230852124 0 -0.0028755684227564577 -0.0080422918819257633 0 -0.0030548606199101067 -0.0081266663773602484 0 -0.00041125739576726504 0.014775563266896538 0 -0.00080372811127538601 0.015228139436932332 0 0.00010204694555827972 0.014897553551710085 0 -0.0013717282719506285 0.0069727053016978872 0 -0.0014343132426811276 0.0029629845835761914 0 -0.00089449427242128195 0.014862038585041386 0 -0.00041125739576726504 0.014775563266896538 0 -0.00080372811127538601 0.015228139436932332 0 -0.0027714934063359275 0.0035229673195764357 0 -0.00276688378180893 0.0035094221835054789 0 -0.0027577444784570582 0.0035180884738833158 0 -0.0029417556685729204 -0.0017840255532466582 0 -0.0027125403709631472 -0.00096939619458906911 0 -0.0013717282719506285 0.0069727053016978872 0 -0.0029417556685729204 -0.0017840255532466582 0 -0.0028755684227564577 -0.0080422918819257633 0 -0.0030548606199101067 -0.0081266663773602484 0 -0.0030701459654385961 -0.0082818986024137346 0 -0.0029417556685729204 -0.0017840255532466582 0 -0.0035634517730990718 -0.0089821333356834773 0 -0.0024202777087305996 0.014682003286924266 0 -0.0021441073917263008 0.015449155790523797 0 -0.0027248003072711437 0.015630029554878393 0 -0.0024202777087305996 0.014682003286924266 0 -0.0021441073917263008 0.015449155790523797 0 -0.0015997824455604985 0.014875798547620424 0 -0.0018321321811739931 0.014322812276711162 0 -0.0024202777087305996 0.014682003286924266 0 -0.0015997824455604985 0.014875798547620424 0 -0.0011601391862061698 0.013974776162197293 0 -0.00089449427242128195 0.014862038585041386 0 -0.0015997824455604985 0.014875798547620424 0 -0.0021441073917263008 0.015449155790523797 0 -0.0015997824455604985 0.014875798547620424 0 -0.0016472792473551034 0.015700696439321656 0 -0.00089449427242128195 0.014862038585041386 0 -0.0015997824455604985 0.014875798547620424 0 -0.0016472792473551034 0.015700696439321656 0 -0.0013717282719506285 0.0069727053016978872 0 -0.0026215813781874956 0.010408138412136459 0 -0.0027714934063359275 0.0035229673195764357 0 -0.0027577444784570582 0.0035180884738833158 0 -0.0026647931240475911 0.0035560769666979253 0 -0.00089449427242128195 0.014862038585041386 0 -0.00067300489557690175 0.016116700628963063 0 -0.0016472792473551034 0.015700696439321656 0 -0.00067300489557690175 0.016116700628963063 0 -0.0016472792473551034 0.015700696439321656 0 -0.0022195666232424534 0.016792562785273992 0 -0.0023360384731874418 0.016047544829877993 0 -0.0022195666232424534 0.016792562785273992 0 -0.0031721480297590763 0.016528755287203812 0 -0.0016472792473551034 0.015700696439321656 0 -0.0023360384731874418 0.016047544829877993 0 -0.0022195666232424534 0.016792562785273992 0 -0.0021441073917263008 0.015449155790523797 0 -0.0016472792473551034 0.015700696439321656 0 -0.0023360384731874418 0.016047544829877993 0 -0.0021441073917263008 0.015449155790523797 0 -0.0023360384731874418 0.016047544829877993 0 -0.0027248003072711437 0.015630029554878393 0 -0.0027661696036907668 0.003837362909391199 0 -0.0026647931240475911 0.0035560769666979253 0 -0.0029644276633352825 0.0038365546944272924 0 -0.0027661696036907668 0.003837362909391199 0 -0.0026647931240475911 0.0035560769666979253 0 -0.0026575916390034603 0.0034890802720322195 0 -0.0023997305861649249 0.0033122157521827634 0 -0.0026575916390034603 0.0034890802720322195 0 -0.0025355231275762677 0.0032590425100065879 0 -0.0022480014980075682 0.003342481239513348 0 -0.002775550488797325 0.0036036271141233183 0 -0.0027577444784570582 0.0035180884738833158 0 -0.0026647931240475911 0.0035560769666979253 0 -0.0026575916390034603 0.0034890802720322195 0 -0.0028105587460972568 0.0035050583584694027 0 -0.0027577444784570582 0.0035180884738833158 0 -0.0026575916390034603 0.0034890802720322195 0 -0.0028105587460972568 0.0035050583584694027 0 -0.0026575916390034603 0.0034890802720322195 0 -0.0029048764668904098 0.0030520676104799989 0 -0.002645207113564228 0.0031458600129333353 0 -0.0029048764668904098 0.0030520676104799989 0 -0.0026502970738294255 0.0029013782970080089 0 -0.0026575916390034603 0.0034890802720322195 0 -0.002645207113564228 0.0031458600129333353 0 -0.0025355231275762677 0.0032590425100065879 0 -0.0026575916390034603 0.0034890802720322195 0 -0.002645207113564228 0.0031458600129333353 0 -0.0029048764668904098 0.0030520676104799989 0 -0.002645207113564228 0.0031458600129333353 0 -0.0025355231275762677 0.0032590425100065879 0 -0.0024513127321700288 0.0031102135135243477 0 -0.002645207113564228 0.0031458600129333353 0 -0.0024513127321700288 0.0031102135135243477 0 -0.0026502970738294255 0.0029013782970080089 0 -0.0023997305861649249 0.0033122157521827634 0 -0.0025355231275762677 0.0032590425100065879 0 -0.0024513127321700288 0.0031102135135243477 0 -0.0037078455685164262 -0.0081206757189626212 0 -0.0038347558492729775 -0.0079943704906589568 0 -0.0037372604252132974 -0.0079417904260923027 0 -0.0039436349837167059 -0.0080531356464923626 0 -0.0037078455685164262 -0.0081206757189626212 0 -0.0038347558492729775 -0.0079943704906589568 0 -0.0039436349837167059 -0.0080531356464923626 0 -0.0038347558492729775 -0.0079943704906589568 0 -0.0039466308227945109 -0.0078058653334189057 0 -0.0029417556685729204 -0.0017840255532466582 0 -0.0034913652645704308 -0.002460144705308605 0 -0.0039466308227945109 -0.0078058653334189057 0 -0.0037372604252132974 -0.0079417904260923027 0 -0.0037403082681635035 -0.0077314862640668752 0 -0.0037372604252132974 -0.0079417904260923027 0 -0.0035872801195262448 -0.0078655480476138451 0 -0.0037403082681635035 -0.0077314862640668752 0 -0.0038347558492729775 -0.0079943704906589568 0 -0.0039466308227945109 -0.0078058653334189057 0 -0.0037372604252132974 -0.0079417904260923027 0 -0.0035872801195262448 -0.0078655480476138451 0 -0.003453091133810897 -0.008034610754540792 0 -0.0035872336133103799 -0.0080520612539928902 0 -0.0037372604252132974 -0.0079417904260923027 0 -0.0035872801195262448 -0.0078655480476138451 0 -0.0035872336133103799 -0.0080520612539928902 0 -0.003453091133810897 -0.008034610754540792 0 -0.0033178828354671445 -0.0079922947807599624 0 -0.003401728690149312 -0.0077836137749170593 0 -0.0035872801195262448 -0.0078655480476138451 0 -0.003453091133810897 -0.008034610754540792 0 -0.003401728690149312 -0.0077836137749170593 0 -0.003453091133810897 -0.008034610754540792 0 -0.0034522264824144448 -0.0082253429839101166 0 -0.0035872336133103799 -0.0080520612539928902 0 -0.003453091133810897 -0.008034610754540792 0 -0.0034522264824144448 -0.0082253429839101166 0 -0.003329945649602564 -0.0081756867440206191 0 -0.0035634517730990718 -0.0089821333356834773 0 -0.0033861203725132198 -0.0082718893662750044 0 -0.0037078455685164262 -0.0081206757189626212 0 -0.0037372604252132974 -0.0079417904260923027 0 -0.0035872336133103799 -0.0080520612539928902 0 -0.0037078455685164262 -0.0081206757189626212 0 -0.0034522264824144448 -0.0082253429839101166 0 -0.0035872336133103799 -0.0080520612539928902 0 -0.0030701459654385961 -0.0082818986024137346 0 -0.0034484620056286375 -0.0085150771688059373 0 -0.0032379366727764269 -0.008293009911639268 0 -0.0030548606199101067 -0.0081266663773602484 0 -0.0030701459654385961 -0.0082818986024137346 0 -0.0032379366727764269 -0.008293009911639268 0 -0.0030548606199101067 -0.0081266663773602484 0 -0.0032379366727764269 -0.008293009911639268 0 -0.0032712364161380284 -0.008175061894911427 0 -0.0034484620056286375 -0.0085150771688059373 0 -0.0032379366727764269 -0.008293009911639268 0 -0.0033679437114207986 -0.0083850869003852784 0 -0.0034484620056286375 -0.0085150771688059373 0 -0.0033679437114207986 -0.0083850869003852784 0 -0.0034783664948144261 -0.0086087449149077084 0 -0.0032379366727764269 -0.008293009911639268 0 -0.0033679437114207986 -0.0083850869003852784 0 -0.0032712364161380284 -0.008175061894911427 0 0.0010566373200506223 0.014004653512866111 0 0.0010297965272781282 0.014378029661217845 0 0.00050888502073717916 0.014318442799739432 0 0.0010566373200506223 0.014004653512866111 0 0.0010297965272781282 0.014378029661217845 0 0.0016923897785996813 0.013938581815587643 0 -0.0033679437114207986 -0.0083850869003852784 0 -0.0032712364161380284 -0.008175061894911427 0 -0.0034837922219894436 -0.0082129758445382596 0 0.00010204694555827972 0.014897553551710085 0 0.0010297965272781282 0.014378029661217845 0 0.00050888502073717916 0.014318442799739432 0 -0.0014343132426811276 0.0029629845835761914 0 -0.00132308241685557 0.003220275360828936 0 -0.0033412079849404509 -0.0095393407807010614 0 -0.0031442998403872591 -0.0090327429932724988 0 -0.0028513294666542631 -0.0095799096694584203 0 -0.003614842318358309 -0.010762058996044337 0 -0.0042172549432955026 -0.010268417595418876 0 -0.0033415735345663574 -0.010152828957494257 0 -0.0028538078637721617 -0.0021424358058781132 0 -0.0034688773419258453 -0.010000874776144218 0 -0.0031442998403872591 -0.0090327429932724988 0 -0.0028513294666542631 -0.0095799096694584203 0 -0.0027664505669951866 -0.0092661927686260442 0 -0.00132308241685557 0.003220275360828936 0 -0.00020263879506757221 0.0027630758455827542 0 -0.0036984897224369242 -0.0079429679650370542 0 -0.0036611918644362355 -0.0079419227738253082 0 -0.0034837922219894436 -0.0082129758445382596 0 -0.0032712364161380284 -0.008175061894911427 0 -0.0036611918644362355 -0.0079419227738253082 0 -0.0034837922219894436 -0.0082129758445382596 0 0.0013819486205190238 0.013816516880662905 0 0.0020465059898911427 0.013726960383476747 0 0.0023563879925903625 0.013833677427352893 0 -0.0036984897224369242 -0.0079429679650370542 0 -0.0034837922219894436 -0.0082129758445382596 0 -0.0034783664948144261 -0.0086087449149077084 0 0.0023645904171298851 0.013670204504466269 0 0.0023756508326048162 0.013842404346046083 0 0.0023532668216271055 0.013779907520762982 0 -0.0028538078637721617 -0.0021424358058781132 0 -0.0031219357558505264 -0.011080967875345389 0 0.0019380358013830349 0.015107672799038263 0 -0.00020263879506757221 0.0027630758455827542 0 0.0023756508326048162 0.013842404346046083 0 0.0023532668216271055 0.013779907520762982 0 0.0023563879925903625 0.013833677427352893 0 -0.0028538078637721617 -0.0021424358058781132 0 -0.00020263879506757221 0.0027630758455827542 0 0.0023532668216271055 0.013779907520762982 0 0.0023563879925903625 0.013833677427352893 0 0.0022414837661804388 0.013769387960611647 0 0.0023645904171298851 0.013670204504466269 0 0.0023532668216271055 0.013779907520762982 0 0.0022414837661804388 0.013769387960611647 0 0.0020465059898911427 0.013726960383476747 0 0.0023563879925903625 0.013833677427352893 0 0.0022414837661804388 0.013769387960611647 0 -0.0033412079849404509 -0.0095393407807010614 0 -0.0034783664948144261 -0.0086087449149077084 0 -0.0031442998403872591 -0.0090327429932724988 0 -0.0033679437114207986 -0.0083850869003852784 0 -0.0034837922219894436 -0.0082129758445382596 0 -0.0034783664948144261 -0.0086087449149077084 0 -0.0034783664948144261 -0.0086087449149077084 0 -0.0031442998403872591 -0.0090327429932724988 0 -0.0031777868914853132 -0.0085034778357942764 0 -0.0031442998403872591 -0.0090327429932724988 0 -0.0029341798182368852 -0.0088602192684578002 0 -0.0031777868914853132 -0.0085034778357942764 0 -0.0031442998403872591 -0.0090327429932724988 0 -0.0029341798182368852 -0.0088602192684578002 0 -0.0027664505669951866 -0.0092661927686260442 0 -0.0029341798182368852 -0.0088602192684578002 0 -0.0031777868914853132 -0.0085034778357942764 0 -0.00275511563539923 -0.008562234010053564 0 -0.0031777868914853132 -0.0085034778357942764 0 -0.0029233601425455121 -0.0082080084288322364 0 -0.00275511563539923 -0.008562234010053564 0 -0.0034522264824144448 -0.0082253429839101166 0 -0.0031777868914853132 -0.0085034778357942764 0 -0.003329945649602564 -0.0081756867440206191 0 -0.0034484620056286375 -0.0085150771688059373 0 -0.0034783664948144261 -0.0086087449149077084 0 -0.0031777868914853132 -0.0085034778357942764 0 -0.0033861203725132198 -0.0082718893662750044 0 -0.0032028041488283629 -0.0085009620302278262 0 -0.0031777868914853132 -0.0085034778357942764 0 -0.003329945649602564 -0.0081756867440206191 0 -0.0031654119595259005 -0.0080934345432654466 0 -0.003453091133810897 -0.008034610754540792 0 -0.003329945649602564 -0.0081756867440206191 0 -0.0033178828354671445 -0.0079922947807599624 0 -0.003329945649602564 -0.0081756867440206191 0 -0.0033178828354671445 -0.0079922947807599624 0 -0.0031654119595259005 -0.0080934345432654466 0 -0.0033178828354671445 -0.0079922947807599624 0 -0.0031654119595259005 -0.0080934345432654466 0 -0.0032269344851230983 -0.0078622753228987548 0 -0.0031777868914853132 -0.0085034778357942764 0 -0.0029233601425455121 -0.0082080084288322364 0 -0.0031654119595259005 -0.0080934345432654466 0 -0.0029233601425455121 -0.0082080084288322364 0 -0.0031654119595259005 -0.0080934345432654466 0 -0.00293784186600551 -0.0078172548667944132 0 -0.0016096570095424402 -0.0084747050930778067 0 -0.0022653523103671972 -0.0081671965078736093 0 -0.0026940684020758479 -0.0081975500834486053 0 -0.0024158643296784636 -0.0080933317045365494 0 -0.00293784186600551 -0.0078172548667944132 0 -0.0029233601425455121 -0.0082080084288322364 0 -0.0026940684020758479 -0.0081975500834486053 0 -0.00293784186600551 -0.0078172548667944132 0 -0.0026940684020758479 -0.0081975500834486053 0 -0.002401802193645971 -0.0084225829629028751 0 -0.0024158643296784636 -0.0080933317045365494 0 -0.0029233601425455121 -0.0082080084288322364 0 -0.0026940684020758479 -0.0081975500834486053 0 -0.00275511563539923 -0.008562234010053564 0 -0.00275511563539923 -0.008562234010053564 0 -0.0024074563724059716 -0.0088058120719726254 0 -0.002401802193645971 -0.0084225829629028751 0 -0.0026940684020758479 -0.0081975500834486053 0 -0.00275511563539923 -0.008562234010053564 0 -0.002401802193645971 -0.0084225829629028751 0 -0.00275511563539923 -0.008562234010053564 0 -0.0024074563724059716 -0.0088058120719726254 0 -0.0026582175386541556 -0.0089785565555126727 0 -0.0029341798182368852 -0.0088602192684578002 0 -0.00275511563539923 -0.008562234010053564 0 -0.0026582175386541556 -0.0089785565555126727 0 -0.0020814262566641343 -0.0085740630613259563 0 -0.0023932044364731709 -0.007946957981622732 0 -0.0014833599168654081 -0.0084797513733539092 0 -0.0020814262566641343 -0.0085740630613259563 0 -0.0017129597393221617 -0.0087845544694848433 0 -0.0020122517220422364 -0.0090064931139232467 0 -0.0024074563724059716 -0.0088058120719726254 0 -0.0020814262566641343 -0.0085740630613259563 0 -0.0020122517220422364 -0.0090064931139232467 0 -0.0024074563724059716 -0.0088058120719726254 0 -0.002401802193645971 -0.0084225829629028751 0 -0.0020814262566641343 -0.0085740630613259563 0 -0.0016096570095424402 -0.0084747050930778067 0 -0.0010487716446978986 -0.0088362570665716025 0 -0.00091397686701167116 -0.008979717857550449 0 -0.00060379138049413425 -0.0090669684992740161 0 -0.00090626396583040158 -0.0088190231949821212 0 0.00051103817635008049 -0.0099980480606906875 0 0.00025736105616384295 -0.0095135126999426559 0 0.001271991348507996 -0.010265888191956353 0 -4.4813447792362543e-05 -0.0093753477277605177 0 -0.00038322249148393407 -0.00931738994256061 0 -0.002401802193645971 -0.0084225829629028751 0 -0.0020814262566641343 -0.0085740630613259563 0 -0.0023932044364731709 -0.007946957981622732 0 -0.0021530233362559671 -0.0082742466387305206 0 -0.0016096570095424402 -0.0084747050930778067 0 -0.0016096570095424402 -0.0084747050930778067 0 -0.00038322249148393407 -0.00931738994256061 0 0.00051103817635008049 -0.0099980480606906875 0 5.0665111465673216e-05 -0.0099616638987047174 0 0.00053184827675025902 -0.010238912192179189 0 -0.00091397686701167116 -0.008979717857550449 0 -0.00060379138049413425 -0.0090669684992740161 0 -0.00061404617890608963 -0.0091664178794028921 0 5.0665111465673216e-05 -0.0099616638987047174 0 0.00025736105616384295 -0.0095135126999426559 0 -0.00023133819452229163 -0.0095439163776264695 0 0.00051103817635008049 -0.0099980480606906875 0 5.0665111465673216e-05 -0.0099616638987047174 0 0.00025736105616384295 -0.0095135126999426559 0 0.00025736105616384295 -0.0095135126999426559 0 -0.00023133819452229163 -0.0095439163776264695 0 -0.0002109519703659845 -0.0094205350560507516 0 5.0665111465673216e-05 -0.0099616638987047174 0 -0.00023133819452229163 -0.0095439163776264695 0 -0.00054021747561336028 -0.010261278584196691 0 -0.0014833599168654081 -0.0084797513733539092 0 -0.0010058472934508147 -0.0090800465570049817 0 -0.00031461114448167062 -0.009360409799582619 0 -4.4813447792362543e-05 -0.0093753477277605177 0 -0.00031038402709065793 -0.0092900515322872617 0 -0.00028030517003359832 -0.0093311515592082537 0 -0.00061404617890608963 -0.0091664178794028921 0 -0.00031461114448167062 -0.009360409799582619 0 -0.0010487716446978986 -0.0088362570665716025 0 -0.00036129383512429616 -0.0093124530193849416 0 0.00025736105616384295 -0.0095135126999426559 0 -0.0002109519703659845 -0.0094205350560507516 0 -0.00028030517003359832 -0.0093311515592082537 0 -0.00023133819452229163 -0.0095439163776264695 0 -0.0002109519703659845 -0.0094205350560507516 0 -3.6270232745774405e-05 -0.0093187201435261987 0 -0.0002109519703659845 -0.0094205350560507516 0 -0.00028030517003359832 -0.0093311515592082537 0 -0.00017591320541585152 -0.0093718393133412955 0 -0.00060379138049413425 -0.0090669684992740161 0 -0.00028030517003359832 -0.0093311515592082537 0 -0.00061404617890608963 -0.0091664178794028921 0 -0.0020814262566641343 -0.0085740630613259563 0 -0.0014833599168654081 -0.0084797513733539092 0 -0.0017129597393221617 -0.0087845544694848433 0 -0.0014833599168654081 -0.0084797513733539092 0 -0.0010058472934508147 -0.0090800465570049817 0 -0.0014059036781074623 -0.0089076598957205429 0 -0.0014059036781074623 -0.0089076598957205429 0 -0.0015667019098996656 -0.0090552428249333836 0 -0.0012298009124648362 -0.0091342854051252847 0 -0.0010058472934508147 -0.0090800465570049817 0 -0.0014059036781074623 -0.0089076598957205429 0 -0.0012298009124648362 -0.0091342854051252847 0 -0.0014059036781074623 -0.0089076598957205429 0 -0.0015667019098996656 -0.0090552428249333836 0 -0.0017129597393221617 -0.0087845544694848433 0 -0.0015667019098996656 -0.0090552428249333836 0 -0.0017129597393221617 -0.0087845544694848433 0 -0.0020122517220422364 -0.0090064931139232467 0 -0.0014833599168654081 -0.0084797513733539092 0 -0.0014059036781074623 -0.0089076598957205429 0 -0.0017129597393221617 -0.0087845544694848433 0 -0.0015667019098996656 -0.0090552428249333836 0 -0.0017293942055921813 -0.0093291774070952994 0 -0.0020122517220422364 -0.0090064931139232467 0 -0.0017293942055921813 -0.0093291774070952994 0 -0.0013328660352074429 -0.0093610168868810302 0 -0.0014984147822415352 -0.0096748389184578374 0 -0.0015667019098996656 -0.0090552428249333836 0 -0.0017293942055921813 -0.0093291774070952994 0 -0.0013328660352074429 -0.0093610168868810302 0 -0.0015667019098996656 -0.0090552428249333836 0 -0.0012298009124648362 -0.0091342854051252847 0 -0.0013328660352074429 -0.0093610168868810302 0 -0.0012298009124648362 -0.0091342854051252847 0 -0.0013328660352074429 -0.0093610168868810302 0 -0.00096471294671939478 -0.0093468252567995465 0 -0.0010058472934508147 -0.0090800465570049817 0 -0.0012298009124648362 -0.0091342854051252847 0 -0.00096471294671939478 -0.0093468252567995465 0 -0.0013328660352074429 -0.0093610168868810302 0 -0.0010714515553709892 -0.0096764182089968172 0 -0.00096471294671939478 -0.0093468252567995465 0 -0.0010714515553709892 -0.0096764182089968172 0 -0.0014984147822415352 -0.0096748389184578374 0 -0.0012067929414749927 -0.010228159865895555 0 -0.0013328660352074429 -0.0093610168868810302 0 -0.0010714515553709892 -0.0096764182089968172 0 -0.0014984147822415352 -0.0096748389184578374 0 -0.0017293942055921813 -0.0093291774070952994 0 -0.0014984147822415352 -0.0096748389184578374 0 -0.0020110031000362726 -0.0095660445414889415 0 -0.0014984147822415352 -0.0096748389184578374 0 -0.0017823900749401682 -0.0099989153379393195 0 -0.0020110031000362726 -0.0095660445414889415 0 -0.00036520630083065431 -0.009559804580395407 0 -0.00022977092428888213 -0.0094966644568152264 0 -0.0003236568054401702 -0.0097731067535108147 0 -0.00028030517003359832 -0.0093311515592082537 0 -0.00022977092428888213 -0.0094966644568152264 0 -0.00031461114448167062 -0.009360409799582619 0 -0.00036520630083065431 -0.009559804580395407 0 -0.00022977092428888213 -0.0094966644568152264 0 -0.00031461114448167062 -0.009360409799582619 0 -0.00036520630083065431 -0.009559804580395407 0 -0.00031461114448167062 -0.009360409799582619 0 -0.00048846127596656669 -0.0094643682352800046 0 -0.00031461114448167062 -0.009360409799582619 0 -0.00048846127596656669 -0.0094643682352800046 0 -0.00066313293263743677 -0.0093375419659606027 0 -0.00036520630083065431 -0.009559804580395407 0 -0.00063226730719342168 -0.0095673818528045559 0 -0.0003236568054401702 -0.0097731067535108147 0 -0.00036520630083065431 -0.009559804580395407 0 -0.00048846127596656669 -0.0094643682352800046 0 -0.00063226730719342168 -0.0095673818528045559 0 -0.0010714515553709892 -0.0096764182089968172 0 -0.00063226730719342168 -0.0095673818528045559 0 -0.00096471294671939478 -0.0093468252567995465 0 -0.0010058472934508147 -0.0090800465570049817 0 -0.00031461114448167062 -0.009360409799582619 0 -0.00066313293263743677 -0.0093375419659606027 0 -0.00063226730719342168 -0.0095673818528045559 0 -0.00066313293263743677 -0.0093375419659606027 0 -0.00096471294671939478 -0.0093468252567995465 0 -0.00048846127596656669 -0.0094643682352800046 0 -0.00063226730719342168 -0.0095673818528045559 0 -0.00066313293263743677 -0.0093375419659606027 0 -0.0010058472934508147 -0.0090800465570049817 0 -0.00066313293263743677 -0.0093375419659606027 0 -0.00096471294671939478 -0.0093468252567995465 0 -0.0010714515553709892 -0.0096764182089968172 0 -0.00063226730719342168 -0.0095673818528045559 0 -0.00075706272646370286 -0.0099549216143472487 0 -0.00063226730719342168 -0.0095673818528045559 0 -0.00075706272646370286 -0.0099549216143472487 0 -0.0003236568054401702 -0.0097731067535108147 0 -0.00075706272646370286 -0.0099549216143472487 0 -0.0003236568054401702 -0.0097731067535108147 0 -0.00052818564237707907 -0.010542723651439229 0 -0.0010714515553709892 -0.0096764182089968172 0 -0.00075706272646370286 -0.0099549216143472487 0 -0.0012067929414749927 -0.010228159865895555 0 -0.00075706272646370286 -0.0099549216143472487 0 -0.00052818564237707907 -0.010542723651439229 0 -0.0012067929414749927 -0.010228159865895555 0 -0.00052818564237707907 -0.010542723651439229 0 -0.0012067929414749927 -0.010228159865895555 0 -0.001209851948699118 -0.011098811303392754 0 -0.0014984147822415352 -0.0096748389184578374 0 -0.0017823900749401682 -0.0099989153379393195 0 -0.0012067929414749927 -0.010228159865895555 0 -0.0012067929414749927 -0.010228159865895555 0 -0.001773775981033751 -0.010620857493745292 0 -0.001209851948699118 -0.011098811303392754 0 -0.0017823900749401682 -0.0099989153379393195 0 -0.0012067929414749927 -0.010228159865895555 0 -0.001773775981033751 -0.010620857493745292 0 -0.001773775981033751 -0.010620857493745292 0 -0.0023994472614682991 -0.0099200980438158958 0 -0.0025401244889073074 -0.010768002527160835 0 -0.0017823900749401682 -0.0099989153379393195 0 -0.001773775981033751 -0.010620857493745292 0 -0.0023994472614682991 -0.0099200980438158958 0 -0.0017823900749401682 -0.0099989153379393195 0 -0.0023994472614682991 -0.0099200980438158958 0 -0.0020110031000362726 -0.0095660445414889415 0 -0.0023994472614682991 -0.0099200980438158958 0 -0.0033415735345663574 -0.010152828957494257 0 -0.0025401244889073074 -0.010768002527160835 0 -0.0023077450778020364 -0.0098414711097092791 0 -0.0034688773419258453 -0.010000874776144218 0 -0.0023994472614682991 -0.0099200980438158958 0 -0.0028513294666542631 -0.0095799096694584203 0 -0.0027664505669951866 -0.0092661927686260442 0 -0.0023994472614682991 -0.0099200980438158958 0 -0.0027664505669951866 -0.0092661927686260442 0 -0.0023955398947086304 -0.0092702477632280889 0 -0.0029341798182368852 -0.0088602192684578002 0 -0.0027664505669951866 -0.0092661927686260442 0 -0.0026582175386541556 -0.0089785565555126727 0 -0.0024074563724059716 -0.0088058120719726254 0 -0.0026582175386541556 -0.0089785565555126727 0 -0.0023955398947086304 -0.0092702477632280889 0 -0.0027664505669951866 -0.0092661927686260442 0 -0.0026582175386541556 -0.0089785565555126727 0 -0.0023955398947086304 -0.0092702477632280889 0 -0.0024074563724059716 -0.0088058120719726254 0 -0.0023955398947086304 -0.0092702477632280889 0 -0.0020122517220422364 -0.0090064931139232467 0 -0.0017293942055921813 -0.0093291774070952994 0 -0.0020122517220422364 -0.0090064931139232467 0 -0.0020110031000362726 -0.0095660445414889415 0 -0.0023955398947086304 -0.0092702477632280889 0 -0.0020122517220422364 -0.0090064931139232467 0 -0.0020110031000362726 -0.0095660445414889415 0 -0.0023994472614682991 -0.0099200980438158958 0 -0.0023955398947086304 -0.0092702477632280889 0 -0.0020110031000362726 -0.0095660445414889415 0 0.0016949021172561946 -0.013731128363293273 0 9.5606038366816742e-05 -0.011305661804096251 0 0.0017950075402214474 -0.011853634729389238 0 0.0011904962018323771 -0.011735848686802157 0 0.0015788013564523497 -0.012256934028597594 0 0.0016637199806130273 -0.014765562466581417 0 0.0012950240243978482 -0.015517708750042627 0 0.00015669262477375977 -0.01528142672206448 0 9.5606038366816742e-05 -0.011305661804096251 0 -0.00029471392824880784 -0.014536051439479631 0 0.0016637199806130273 -0.014765562466581417 0 0.00015669262477375977 -0.01528142672206448 0 0.0007992161182234363 -0.013973450175116357 0 0.0019084890300308309 -0.01726199140100829 0 -0.00029471392824880784 -0.014536051439479631 0 -0.001997020753863031 -0.010090207639443913 0 -0.0023370386507551829 -0.0093396111095049132 0 -0.0027969745245474756 -0.010311926732344412 0 9.5606038366816742e-05 -0.011305661804096251 0 -0.00074111425649013845 -0.0090780482799279662 0 0.0005608392617029959 -0.0094777767802636647 0 0.00022308139158030659 -0.0091191885176311275 0 -3.6270232745774405e-05 -0.0093187201435261987 0 0.0010868704409559154 -0.0092168439628539205 0 0.0005608392617029959 -0.0094777767802636647 0 0.00022308139158030659 -0.0091191885176311275 0 -0.001997020753863031 -0.010090207639443913 0 -0.0023370386507551829 -0.0093396111095049132 0 -0.0013551258826838826 -0.0094555088193773312 0 -0.001997020753863031 -0.010090207639443913 0 -0.0013551258826838826 -0.0094555088193773312 0 -0.0013463183552632338 -0.010605380731256239 0 -0.00023133819452229163 -0.0095439163776264695 0 -0.0013551258826838826 -0.0094555088193773312 0 -0.00054021747561336028 -0.010261278584196691 0 -0.0013551258826838826 -0.0094555088193773312 0 -0.0013463183552632338 -0.010605380731256239 0 -0.00054021747561336028 -0.010261278584196691 0 -0.00012364277051769862 -0.0095623169846281806 0 -0.00074111425649013845 -0.0090780482799279662 0 -0.00023133819452229163 -0.0095439163776264695 0 0.00022308139158030659 -0.0091191885176311275 0 -3.6270232745774405e-05 -0.0093187201435261987 0 -0.0002109519703659845 -0.0094205350560507516 0 -3.6270232745774405e-05 -0.0093187201435261987 0 -0.00017591320541585152 -0.0093718393133412955 0 0.0005608392617029959 -0.0094777767802636647 0 -3.6270232745774405e-05 -0.0093187201435261987 0 0.00018538982755443399 -0.0096606279227544091 0 -3.6270232745774405e-05 -0.0093187201435261987 0 -0.0001173995482055074 -0.0094425599195649256 0 0.00018538982755443399 -0.0096606279227544091 0 -0.00028030517003359832 -0.0093311515592082537 0 -0.0001173995482055074 -0.0094425599195649256 0 -0.00017591320541585152 -0.0093718393133412955 0 -3.6270232745774405e-05 -0.0093187201435261987 0 -0.0001173995482055074 -0.0094425599195649256 0 -0.00017591320541585152 -0.0093718393133412955 0 -8.2076338754906577e-05 -0.0096213148379773218 0 0.00018538982755443399 -0.0096606279227544091 0 -1.5609042465515563e-05 -0.0098091343123879148 0 -0.0001173995482055074 -0.0094425599195649256 0 -8.2076338754906577e-05 -0.0096213148379773218 0 0.00018538982755443399 -0.0096606279227544091 0 -0.00022977092428888213 -0.0094966644568152264 0 -0.0003236568054401702 -0.0097731067535108147 0 -8.2076338754906577e-05 -0.0096213148379773218 0 -0.00022977092428888213 -0.0094966644568152264 0 -0.0001173995482055074 -0.0094425599195649256 0 -8.2076338754906577e-05 -0.0096213148379773218 0 -0.00028030517003359832 -0.0093311515592082537 0 -0.00022977092428888213 -0.0094966644568152264 0 -0.0001173995482055074 -0.0094425599195649256 0 0.00018538982755443399 -0.0096606279227544091 0 -1.5609042465515563e-05 -0.0098091343123879148 0 0.0001338645538178724 -0.010194970609975615 0 -0.0003236568054401702 -0.0097731067535108147 0 -1.5609042465515563e-05 -0.0098091343123879148 0 0.0001338645538178724 -0.010194970609975615 0 -0.0003236568054401702 -0.0097731067535108147 0 -8.2076338754906577e-05 -0.0096213148379773218 0 -1.5609042465515563e-05 -0.0098091343123879148 0 -0.0003236568054401702 -0.0097731067535108147 0 -0.00052818564237707907 -0.010542723651439229 0 0.0001338645538178724 -0.010194970609975615 0 -0.00052818564237707907 -0.010542723651439229 0 0.0001338645538178724 -0.010194970609975615 0 0.00069010722543039443 -0.011157610546277917 0 0.0001338645538178724 -0.010194970609975615 0 0.0008396166073664712 -0.0099957745623895315 0 0.00069010722543039443 -0.011157610546277917 0 0.0010298170058807607 -0.01100777866858758 0 0.00052041176384560464 -0.012165982919859751 0 0.0005608392617029959 -0.0094777767802636647 0 0.00018538982755443399 -0.0096606279227544091 0 0.0008396166073664712 -0.0099957745623895315 0 0.00018538982755443399 -0.0096606279227544091 0 0.0001338645538178724 -0.010194970609975615 0 0.0008396166073664712 -0.0099957745623895315 0 0.00084789819147310487 -0.012414851222902775 0 0.0015119461922951049 -0.012795221355816457 0 0.0012000251377188437 -0.013310273445097116 0 0.00084789819147310487 -0.012414851222902775 0 0.0015119461922951049 -0.012795221355816457 0 0.0015788013564523497 -0.012256934028597594 0 0.0010868704409559154 -0.0092168439628539205 0 0.0005608392617029959 -0.0094777767802636647 0 0.0008396166073664712 -0.0099957745623895315 0 0.0011904962018323771 -0.011735848686802157 0 0.00084789819147310487 -0.012414851222902775 0 0.0015788013564523497 -0.012256934028597594 0 9.5606038366816742e-05 -0.011305661804096251 0 0.0010298170058807607 -0.01100777866858758 0 0.002130535258545522 -0.012582148040852895 0 0.0015119461922951049 -0.012795221355816457 0 0.0015788013564523497 -0.012256934028597594 0 0.002021771680610436 -0.012169853685637224 0 0.0017950075402214474 -0.011853634729389238 0 0.0015788013564523497 -0.012256934028597594 0 0.0017837063049394959 -0.0138906381394288 0 0.0012000251377188437 -0.013310273445097116 0 0.0014333114540463106 -0.014193626704172081 0 0.0017837063049394959 -0.0138906381394288 0 0.0017424513905791737 -0.013350710901300409 0 0.0012000251377188437 -0.013310273445097116 0 0.0015119461922951049 -0.012795221355816457 0 0.0017424513905791737 -0.013350710901300409 0 0.0012000251377188437 -0.013310273445097116 0 0.0021527213336335945 -0.013097186343835712 0 0.0015119461922951049 -0.012795221355816457 0 0.0017424513905791737 -0.013350710901300409 0 0.0012000251377188437 -0.013310273445097116 0 0.00076914342677891073 -0.013765752653066492 0 0.0014333114540463106 -0.014193626704172081 0 0.00084789819147310487 -0.012414851222902775 0 0.0012000251377188437 -0.013310273445097116 0 0.00049062580533098556 -0.012988361745721771 0 0.00049062580533098556 -0.012988361745721771 0 4.9048172519615024e-05 -0.013211739589156645 0 0.00076914342677891073 -0.013765752653066492 0 0.0012000251377188437 -0.013310273445097116 0 0.00049062580533098556 -0.012988361745721771 0 0.00076914342677891073 -0.013765752653066492 0 -0.00052818564237707907 -0.010542723651439229 0 0.00069010722543039443 -0.011157610546277917 0 -0.00038432044798919886 -0.011658716026966501 0 0.00069010722543039443 -0.011157610546277917 0 4.9048172519615024e-05 -0.013211739589156645 0 -0.00038432044798919886 -0.011658716026966501 0 0.00052041176384560464 -0.012165982919859751 0 8.2976773258450163e-05 -0.013150764837102379 0 4.9048172519615024e-05 -0.013211739589156645 0 0.00019179450855228626 -0.014160030282377431 0 -0.00092486884598735235 -0.014083241545758147 0 -0.00028153989363585301 -0.014887448472805875 0 0.00019179450855228626 -0.014160030282377431 0 -0.00092486884598735235 -0.014083241545758147 0 -0.00028153989363585301 -0.014887448472805875 0 0.00019179450855228626 -0.014160030282377431 0 0.00066943934674805895 -0.014823561593281633 0 0.00019179450855228626 -0.014160030282377431 0 0.00066943934674805895 -0.014823561593281633 0 0.00076914342677891073 -0.013765752653066492 0 0.00066943934674805895 -0.014823561593281633 0 0.00076914342677891073 -0.013765752653066492 0 0.0010870598180040218 -0.014457401784598379 0 4.9048172519615024e-05 -0.013211739589156645 0 0.00019179450855228626 -0.014160030282377431 0 0.00076914342677891073 -0.013765752653066492 0 0.00076914342677891073 -0.013765752653066492 0 0.0010870598180040218 -0.014457401784598379 0 0.0014333114540463106 -0.014193626704172081 0 0.00066943934674805895 -0.014823561593281633 0 0.0010870598180040218 -0.014457401784598379 0 0.0013272182953242115 -0.014990023169864454 0 0.0010870598180040218 -0.014457401784598379 0 0.0013272182953242115 -0.014990023169864454 0 0.0014333114540463106 -0.014193626704172081 0 0.0013272182953242115 -0.014990023169864454 0 0.001797250282893743 -0.0148471159566867 0 0.0014333114540463106 -0.014193626704172081 0 0.0021367691635032211 -0.014370663832685459 0 0.0017837063049394959 -0.0138906381394288 0 0.0014333114540463106 -0.014193626704172081 0 0.0021367691635032211 -0.014370663832685459 0 0.001797250282893743 -0.0148471159566867 0 0.0014333114540463106 -0.014193626704172081 0 -0.0024984462463217153 -0.011519116559948651 0 -0.0022698903038424847 -0.012043265352726044 0 -0.0030065335682369436 -0.011869709778928044 0 -0.0024984462463217153 -0.011519116559948651 0 -0.0022698903038424847 -0.012043265352726044 0 -0.0019228397152382547 -0.011420410870213064 0 -0.0036378087119603073 -0.011462170427973067 0 -0.0030065335682369436 -0.011869709778928044 0 -0.003007339286830659 -0.012451857152573366 0 -0.0030065335682369436 -0.011869709778928044 0 -0.0032409441104419806 -0.011445992461007462 0 -0.0029918920109581609 -0.011282665106846106 0 -0.0036378087119603073 -0.011462170427973067 0 -0.0030065335682369436 -0.011869709778928044 0 -0.0032409441104419806 -0.011445992461007462 0 -0.0024984462463217153 -0.011519116559948651 0 -0.0030065335682369436 -0.011869709778928044 0 -0.0029918920109581609 -0.011282665106846106 0 -0.0033415735345663574 -0.010152828957494257 0 -0.003185139775295717 -0.010814292755462529 0 -0.0025401244889073074 -0.010768002527160835 0 -0.0024984462463217153 -0.011519116559948651 0 -0.0029918920109581609 -0.011282665106846106 0 -0.0025401244889073074 -0.010768002527160835 0 -0.0029918920109581609 -0.011282665106846106 0 -0.003338229533482328 -0.011163318052588156 0 -0.003185139775295717 -0.010814292755462529 0 -0.0032409441104419806 -0.011445992461007462 0 -0.0029918920109581609 -0.011282665106846106 0 -0.003338229533482328 -0.011163318052588156 0 -0.003614842318358309 -0.010762058996044337 0 -0.0033415735345663574 -0.010152828957494257 0 -0.003185139775295717 -0.010814292755462529 0 -0.003614842318358309 -0.010762058996044337 0 -0.003338229533482328 -0.011163318052588156 0 -0.003185139775295717 -0.010814292755462529 0 -0.0029918920109581609 -0.011282665106846106 0 -0.003185139775295717 -0.010814292755462529 0 -0.0025401244889073074 -0.010768002527160835 0 -0.001773775981033751 -0.010620857493745292 0 -0.0025401244889073074 -0.010768002527160835 0 -0.0019228397152382547 -0.011420410870213064 0 -0.0024984462463217153 -0.011519116559948651 0 -0.0025401244889073074 -0.010768002527160835 0 -0.0019228397152382547 -0.011420410870213064 0 -0.001209851948699118 -0.011098811303392754 0 -0.0019228397152382547 -0.011420410870213064 0 -0.0013209007210821548 -0.012225033038762122 0 -0.001773775981033751 -0.010620857493745292 0 -0.001209851948699118 -0.011098811303392754 0 -0.0019228397152382547 -0.011420410870213064 0 -0.001209851948699118 -0.011098811303392754 0 -0.00038432044798919886 -0.011658716026966501 0 -0.0013209007210821548 -0.012225033038762122 0 -0.00052818564237707907 -0.010542723651439229 0 -0.001209851948699118 -0.011098811303392754 0 -0.00038432044798919886 -0.011658716026966501 0 4.9048172519615024e-05 -0.013211739589156645 0 -0.00038432044798919886 -0.011658716026966501 0 -0.0013209007210821548 -0.012225033038762122 0 -0.0022698903038424847 -0.012043265352726044 0 -0.0019228397152382547 -0.011420410870213064 0 -0.0013209007210821548 -0.012225033038762122 0 -0.0013209007210821548 -0.012225033038762122 0 -0.00092486884598735235 -0.014083241545758147 0 -0.0023344038231813006 -0.013754990905406963 0 -0.0022698903038424847 -0.012043265352726044 0 -0.0013209007210821548 -0.012225033038762122 0 -0.0020277067454558544 -0.012592757809532193 0 -0.0010040359003023768 -0.011742578064565299 0 -0.0029756820987093466 -0.014409157045103031 0 4.9048172519615024e-05 -0.013211739589156645 0 -0.0013209007210821548 -0.012225033038762122 0 -0.00092486884598735235 -0.014083241545758147 0 -0.00092486884598735235 -0.014083241545758147 0 -0.001936809699730171 -0.015208056259039971 0 -0.0010276162858306028 -0.015016201032044525 0 -0.00028153989363585301 -0.014887448472805875 0 -0.00092486884598735235 -0.014083241545758147 0 -0.0010276162858306028 -0.015016201032044525 0 -0.00092486884598735235 -0.014083241545758147 0 -0.0023344038231813006 -0.013754990905406963 0 -0.001936809699730171 -0.015208056259039971 0 -0.0029756820987093466 -0.014409157045103031 0 0.00029124753162653919 -0.0082207467357505708 0 -0.0023344038231813006 -0.013754990905406963 0 -0.0031541754756525976 -0.01490495276735429 0 -0.001936809699730171 -0.015208056259039971 0 -0.0020277067454558544 -0.012592757809532193 0 -0.003007339286830659 -0.012451857152573366 0 -0.0025852115896589289 -0.013192069957409768 0 -0.0022698903038424847 -0.012043265352726044 0 -0.0020277067454558544 -0.012592757809532193 0 -0.003007339286830659 -0.012451857152573366 0 -0.0022698903038424847 -0.012043265352726044 0 -0.0030065335682369436 -0.011869709778928044 0 -0.003007339286830659 -0.012451857152573366 0 0.0055880925223181629 0.0084650218378097292 0 0.0046065936260001761 0.0052947689769050283 0 0.0078950694456813887 0.0032247621021733348 0 0.00143595341690642 -0.0015791633898713537 0 0.00029124753162653919 -0.0082207467357505708 0 0.0046065936260001761 0.0052947689769050283 0 0.0049734917653382511 0.0030296359471796374 0 0.0078950694456813887 0.0032247621021733348 0 0.0011097287901707211 -0.0084753676222196293 0 -1.0321078127301446e-05 -0.0099229015819333171 0 0.0020965957862266048 -0.010684069001457581 0 0.0049734917653382511 0.0030296359471796374 0 0.0078950694456813887 0.0032247621021733348 0 0.0051681633245092701 -0.00018124769348770343 0 0.00029124753162653919 -0.0082207467357505708 0 0.003500906950897182 -0.003817223310239596 0 0.0049734917653382511 0.0030296359471796374 0 0.0051681633245092701 -0.00018124769348770343 0 0.0033259399206234086 0.0014645480614578481 0 -1.0321078127301446e-05 -0.0099229015819333171 0 0.0020965957862266048 -0.010684069001457581 0 0.00065473093665700441 -0.011871200700939838 0 -1.0321078127301446e-05 -0.0099229015819333171 0 0.00065473093665700441 -0.011871200700939838 0 -0.001142694406699226 -0.011381240744552054 0 -0.0031541754756525976 -0.01490495276735429 0 -0.0025166559595528348 -0.016241854093126163 0 -0.001936809699730171 -0.015208056259039971 0 0.00029124753162653919 -0.0082207467357505708 0 -0.00015722959705736383 -0.014020763001511789 0 -0.001936809699730171 -0.015208056259039971 0 -0.0010276162858306028 -0.015016201032044525 0 -0.0010571991992077525 -0.015946421300664086 0 -0.00028153989363585301 -0.014887448472805875 0 -0.0010276162858306028 -0.015016201032044525 0 -0.0010571991992077525 -0.015946421300664086 0 -0.0010571991992077525 -0.015946421300664086 0 -0.0017295211720646099 -0.016279303525452146 0 -0.0012390447368713716 -0.016781753006143478 0 -0.0010571991992077525 -0.015946421300664086 0 -0.0012390447368713716 -0.016781753006143478 0 -0.00060051577802832214 -0.016696502192246603 0 -0.001936809699730171 -0.015208056259039971 0 -0.0010571991992077525 -0.015946421300664086 0 -0.0017295211720646099 -0.016279303525452146 0 -0.0025166559595528348 -0.016241854093126163 0 -0.001936809699730171 -0.015208056259039971 0 -0.0017295211720646099 -0.016279303525452146 0 -0.0025166559595528348 -0.016241854093126163 0 -0.0017295211720646099 -0.016279303525452146 0 -0.0018960853941823808 -0.017031508825684948 0 -0.0025166559595528348 -0.016241854093126163 0 -0.0018960853941823808 -0.017031508825684948 0 -0.0018847560937928097 -0.017480795656151234 0 -0.0018960853941823808 -0.017031508825684948 0 -0.0014550057142273343 -0.017249604534583955 0 -0.0012390447368713716 -0.016781753006143478 0 -0.0017295211720646099 -0.016279303525452146 0 -0.0018960853941823808 -0.017031508825684948 0 -0.0012390447368713716 -0.016781753006143478 0 -0.0018960853941823808 -0.017031508825684948 0 -0.0014550057142273343 -0.017249604534583955 0 -0.0018841540533559478 -0.017445912872434292 0 -0.0010380560426480872 -0.017155873141921154 0 -0.00022585422914676666 -0.015596643706746889 0 -0.0012390447368713716 -0.016781753006143478 0 -0.0007620593096474232 -0.017365440496025356 0 -0.00060051577802832214 -0.016696502192246603 0 -0.0014550057142273343 -0.017249604534583955 0 -0.0012390447368713716 -0.016781753006143478 0 -0.0007620593096474232 -0.017365440496025356 0 -0.00062885982277536699 -0.017411037191724363 0 -0.00049206371170621701 -0.017398977646402757 0 -0.0002822786016162069 -0.01732916265573153 0 -0.00050938192143921903 -0.017560723394702122 0 -0.0001837553486814767 -0.017663924936534577 0 -0.0014550057142273343 -0.017249604534583955 0 -0.0007620593096474232 -0.017365440496025356 0 -0.0016352702166743064 -0.017964925861084797 0 -0.00022585422914676666 -0.015596643706746889 0 0.00075407844654919458 -0.016523394542482941 0 -0.00022585422914676666 -0.015596643706746889 0 -0.00049206371170621701 -0.017398977646402757 0 -0.0014550057142273343 -0.017249604534583955 0 -0.0018841540533559478 -0.017445912872434292 0 -0.0016352702166743064 -0.017964925861084797 0 -4.6153792634734957e-05 -0.015914169244533524 0 0.00033689272300933674 -0.016746589208251318 0 -5.8811746929846604e-05 -0.017018997297357889 0 -0.00049206371170621701 -0.017398977646402757 0 0.00075407844654919458 -0.016523394542482941 0 0.0030647066042810119 -0.012880787435442059 0 0.0030351307502633545 -0.014205138324420333 0 0.001559389763692945 -0.013452167075835225 0 0.0030351307502633545 -0.014205138324420333 0 0.001559389763692945 -0.013452167075835225 0 0.0015991319670254048 -0.015187327550252244 0 0.001559389763692945 -0.013452167075835225 0 0.0015991319670254048 -0.015187327550252244 0 -0.00049509816050448635 -0.013796537178990211 0 0.001559389763692945 -0.013452167075835225 0 0.00065473093665700441 -0.011871200700939838 0 -0.00049509816050448635 -0.013796537178990211 0 0.00065473093665700441 -0.011871200700939838 0 -0.00049509816050448635 -0.013796537178990211 0 -0.001142694406699226 -0.011381240744552054 0 0.001559389763692945 -0.013452167075835225 0 0.00065473093665700441 -0.011871200700939838 0 0.0018440630330938169 -0.012222758287337565 0 0.0030647066042810119 -0.012880787435442059 0 0.001559389763692945 -0.013452167075835225 0 0.0018440630330938169 -0.012222758287337565 0 0.0020965957862266048 -0.010684069001457581 0 0.00065473093665700441 -0.011871200700939838 0 0.0018440630330938169 -0.012222758287337565 0 -0.00015722959705736383 -0.014020763001511789 0 -0.00022585422914676666 -0.015596643706746889 0 0.0020965957862266048 -0.010684069001457581 0 0.0030647066042810119 -0.012880787435442059 0 0.0018440630330938169 -0.012222758287337565 0 0.0019701129727884271 -0.01615909028683123 0 0.0013687815393620098 -0.016062314030455639 0 0.0018443424270672187 -0.015580196288620507 0 0.0020458882082783265 -0.016179683223851028 0 0.0015243749593025879 -0.016018853863607185 0 0.0018443424270672187 -0.015580196288620507 0 0.0015243749593025879 -0.016018853863607185 0 0.0012908535903193158 -0.015684895494743396 0 0.0018443424270672187 -0.015580196288620507 0 0.0013272182953242115 -0.014990023169864454 0 0.0012908535903193158 -0.015684895494743396 0 0.0018443424270672187 -0.015580196288620507 0 0.0013272182953242115 -0.014990023169864454 0 0.001797250282893743 -0.0148471159566867 0 0.00066943934674805895 -0.014823561593281633 0 0.0013272182953242115 -0.014990023169864454 0 0.00094804781284628761 -0.015432912655485666 0 0.0013272182953242115 -0.014990023169864454 0 0.00094804781284628761 -0.015432912655485666 0 0.0012908535903193158 -0.015684895494743396 0 0.0013687815393620098 -0.016062314030455639 0 0.00058551000405399978 -0.015490745566190822 0 0.0015243749593025879 -0.016018853863607185 0 0.0012908535903193158 -0.015684895494743396 0 0.00097517611981747974 -0.01592647673775174 0 0.00094804781284628761 -0.015432912655485666 0 0.00097517611981747974 -0.01592647673775174 0 0.00073274778300937377 -0.015637803453671002 0 0.00094804781284628761 -0.015432912655485666 0 0.0012908535903193158 -0.015684895494743396 0 0.00097517611981747974 -0.01592647673775174 0 0.0006118956556027226 -0.016634792952610816 0 0.00044409409976341494 -0.016800252944803095 0 0.00047236344681701509 -0.017081302238366083 0 0.00058551000405399978 -0.015490745566190822 0 1.9149867581421366e-05 -0.01621702040301768 0 0.00097517611981747974 -0.01592647673775174 0 0.00045871005994376488 -0.015758289326970463 0 8.4160216934359061e-05 -0.015923615817048837 0 0.0006118956556027226 -0.016634792952610816 0 0.00024659868435777694 -0.016728744731149037 0 -6.801342267711793e-05 -0.016391431290283712 0 0.0006118956556027226 -0.016634792952610816 0 0.00044409409976341494 -0.016800252944803095 0 0.00024659868435777694 -0.016728744731149037 0 0.00044409409976341494 -0.016800252944803095 0 0.00024659868435777694 -0.016728744731149037 0 0.00027622242620238026 -0.01696133561121782 0 0.00024659868435777694 -0.016728744731149037 0 -6.801342267711793e-05 -0.016391431290283712 0 4.4047805563403318e-06 -0.016901452762588313 0 0.00045871005994376488 -0.015758289326970463 0 0.00015578656271167309 -0.015393278925146364 0 8.4160216934359061e-05 -0.015923615817048837 0 0.00097517611981747974 -0.01592647673775174 0 0.00045871005994376488 -0.015758289326970463 0 0.00073274778300937377 -0.015637803453671002 0 0.00094804781284628761 -0.015432912655485666 0 0.00073274778300937377 -0.015637803453671002 0 0.0005918110232859601 -0.015443169905677357 0 0.00045871005994376488 -0.015758289326970463 0 0.00073274778300937377 -0.015637803453671002 0 0.0005918110232859601 -0.015443169905677357 0 0.00066943934674805895 -0.014823561593281633 0 0.00094804781284628761 -0.015432912655485666 0 0.0005918110232859601 -0.015443169905677357 0 0.00066943934674805895 -0.014823561593281633 0 0.0005918110232859601 -0.015443169905677357 0 0.00015578656271167309 -0.015393278925146364 0 0.00045871005994376488 -0.015758289326970463 0 0.0005918110232859601 -0.015443169905677357 0 0.00015578656271167309 -0.015393278925146364 0 -0.00028153989363585301 -0.014887448472805875 0 0.00066943934674805895 -0.014823561593281633 0 0.00015578656271167309 -0.015393278925146364 0 -0.00028153989363585301 -0.014887448472805875 0 -0.0010571991992077525 -0.015946421300664086 0 0.00015578656271167309 -0.015393278925146364 0 -0.0010571991992077525 -0.015946421300664086 0 -6.801342267711793e-05 -0.016391431290283712 0 -0.00060051577802832214 -0.016696502192246603 0 -0.0010571991992077525 -0.015946421300664086 0 0.00015578656271167309 -0.015393278925146364 0 8.4160216934359061e-05 -0.015923615817048837 0 -0.0010306254642374981 -0.01595462462974042 0 1.9149867581421366e-05 -0.01621702040301768 0 -6.801342267711793e-05 -0.016391431290283712 0 -0.00060051577802832214 -0.016696502192246603 0 4.4047805563403318e-06 -0.016901452762588313 0 -0.0007620593096474232 -0.017365440496025356 0 -0.00060051577802832214 -0.016696502192246603 0 4.4047805563403318e-06 -0.016901452762588313 0 -0.0002822786016162069 -0.01732916265573153 0 4.4047805563403318e-06 -0.016901452762588313 0 3.3949627389896304e-05 -0.017455871450110145 0 -0.00062885982277536699 -0.017411037191724363 0 2.825075642675442e-05 -0.016906964239682763 0 3.3949627389896304e-05 -0.017455871450110145 0 3.720764694820103e-05 -0.017764641581132775 0 -0.0001837553486814767 -0.017663924936534577 0 -0.0002822786016162069 -0.01732916265573153 0 3.3949627389896304e-05 -0.017455871450110145 0 -0.0001837553486814767 -0.017663924936534577 0 3.3949627389896304e-05 -0.017455871450110145 0 0.00022119370832508945 -0.017235905555271946 0 0.00038344581967038105 -0.017517987587296349 0 3.3949627389896304e-05 -0.017455871450110145 0 0.00038344581967038105 -0.017517987587296349 0 0.0002715656726889238 -0.017769543674566061 0 4.4047805563403318e-06 -0.016901452762588313 0 3.3949627389896304e-05 -0.017455871450110145 0 0.00022119370832508945 -0.017235905555271946 0 0.00022119370832508945 -0.017235905555271946 0 0.00047236344681701509 -0.017081302238366083 0 0.00038344581967038105 -0.017517987587296349 0 0.00024659868435777694 -0.016728744731149037 0 4.4047805563403318e-06 -0.016901452762588313 0 0.00027622242620238026 -0.01696133561121782 0 4.4047805563403318e-06 -0.016901452762588313 0 0.00022119370832508945 -0.017235905555271946 0 0.00027622242620238026 -0.01696133561121782 0 0.00022119370832508945 -0.017235905555271946 0 0.00027622242620238026 -0.01696133561121782 0 0.00047236344681701509 -0.017081302238366083 0 0.00044409409976341494 -0.016800252944803095 0 0.00027622242620238026 -0.01696133561121782 0 0.00047236344681701509 -0.017081302238366083 0 0.00058551000405399978 -0.015490745566190822 0 -0.00012814467869233805 -0.021910496960849027 0 0.0011494557442986513 -0.016083359352726163 0 0.0002407231684617251 -0.015964871598281222 0 0.00096205365168378163 -0.017075058659955525 0 0.0006118956556027226 -0.016634792952610816 0 0.00047236344681701509 -0.017081302238366083 0 0.0010219472531368401 -0.01734670737282263 0 0.00047236344681701509 -0.017081302238366083 0 0.00038344581967038105 -0.017517987587296349 0 0.0010219472531368401 -0.01734670737282263 0 0.0011076574803364828 -0.017076732637769657 0 -0.00012814467869233805 -0.021910496960849027 0 0.00038344581967038105 -0.017517987587296349 0 0.00051602421276617818 -0.017569812935264266 0 0.00044176827556200587 -0.017757171388310834 0 0.00038344581967038105 -0.017517987587296349 0 0.00044176827556200587 -0.017757171388310834 0 0.0002715656726889238 -0.017769543674566061 0 0.00063512408712708109 -0.017837480193544086 0 0.00051602421276617818 -0.017569812935264266 0 0.00044176827556200587 -0.017757171388310834 0 -1.2403444891689313e-06 -0.025410426880666897 0 -0.00012814467869233805 -0.021910496960849027 0 -0.00082792335485190832 -0.032701740198154597 0 -0.00082955160834475292 -0.032733465207739287 0 -0.00083501061216388086 -0.032613160615734965 0 0.00058849921120858809 -0.024978792634573501 0 -0.00012814467869233805 -0.021910496960849027 0 0.0021570319438281855 -0.016604685429783168 0 0.0011494557442986513 -0.016083359352726163 0 0.00096205365168378163 -0.017075058659955525 0 0.00058806816311144489 -0.018205047653244572 0 0.00057224426492173382 -0.018146042796865085 0 0.00050253411268963292 -0.018157070340266142 0 0.00061707104322557098 -0.018115257921704542 0 0.000527595948512596 -0.01808637136079063 0 0.00057224426492173382 -0.018146042796865085 0 0.000527595948512596 -0.01808637136079063 0 0.00057224426492173382 -0.018146042796865085 0 0.00050253411268963292 -0.018157070340266142 0 0.000527595948512596 -0.01808637136079063 0 0.00050253411268963292 -0.018157070340266142 0 0.00039467564282546981 -0.018105690606397062 0 0.000527595948512596 -0.01808637136079063 0 0.00047960459350296461 -0.017949375064786416 0 0.00039467564282546981 -0.018105690606397062 0 0.000527595948512596 -0.01808637136079063 0 0.00060663124367617673 -0.018022207408806081 0 0.00047960459350296461 -0.017949375064786416 0 0.00061707104322557098 -0.018115257921704542 0 0.000527595948512596 -0.01808637136079063 0 0.00060663124367617673 -0.018022207408806081 0 0.00063512408712708109 -0.017837480193544086 0 0.00060663124367617673 -0.018022207408806081 0 0.00047960459350296461 -0.017949375064786416 0 0.00063512408712708109 -0.017837480193544086 0 0.00047960459350296461 -0.017949375064786416 0 0.00044176827556200587 -0.017757171388310834 0 0.00047960459350296461 -0.017949375064786416 0 0.00044176827556200587 -0.017757171388310834 0 0.00032910927232761717 -0.017943194261932815 0 0.00044176827556200587 -0.017757171388310834 0 0.00032910927232761717 -0.017943194261932815 0 0.0002715656726889238 -0.017769543674566061 0 0.00047960459350296461 -0.017949375064786416 0 0.00032910927232761717 -0.017943194261932815 0 0.00039467564282546981 -0.018105690606397062 0 0.00032910927232761717 -0.017943194261932815 0 0.00039467564282546981 -0.018105690606397062 0 0.00019792778489997556 -0.01809239025132011 0 6.9757789293290967e-05 -0.018046678390396819 0 0.00014414499227133093 -0.017940819134299901 0 0.00019792778489997556 -0.01809239025132011 0 0.00032910927232761717 -0.017943194261932815 0 0.00014414499227133093 -0.017940819134299901 0 0.00019792778489997556 -0.01809239025132011 0 3.3949627389896304e-05 -0.017455871450110145 0 0.0002715656726889238 -0.017769543674566061 0 3.720764694820103e-05 -0.017764641581132775 0 0.00032910927232761717 -0.017943194261932815 0 0.00014414499227133093 -0.017940819134299901 0 0.0002715656726889238 -0.017769543674566061 0 0.00014414499227133093 -0.017940819134299901 0 0.0002715656726889238 -0.017769543674566061 0 3.720764694820103e-05 -0.017764641581132775 0 0.00014414499227133093 -0.017940819134299901 0 3.720764694820103e-05 -0.017764641581132775 0 -4.4176734057051274e-05 -0.017939134998716261 0 3.720764694820103e-05 -0.017764641581132775 0 -4.4176734057051274e-05 -0.017939134998716261 0 -0.0001837553486814767 -0.017663924936534577 0 -4.4176734057051274e-05 -0.017939134998716261 0 -2.6527548072353664e-05 -0.018066124296170383 0 -0.00010260617489284454 -0.018028124926510264 0 6.9757789293290967e-05 -0.018046678390396819 0 -4.4176734057051274e-05 -0.017939134998716261 0 -2.6527548072353664e-05 -0.018066124296170383 0 6.9757789293290967e-05 -0.018046678390396819 0 0.00014414499227133093 -0.017940819134299901 0 -4.4176734057051274e-05 -0.017939134998716261 0 6.9757789293290967e-05 -0.018046678390396819 0 -2.6527548072353664e-05 -0.018066124296170383 0 6.9242837668427514e-05 -0.018147776803696707 0 -2.6527548072353664e-05 -0.018066124296170383 0 1.6870648981990818e-06 -0.018084234448956175 0 6.9242837668427514e-05 -0.018147776803696707 0 1.6870648981990818e-06 -0.018084234448956175 0 4.3485691325227643e-05 -0.018113407133763852 0 -5.2988641355281422e-06 -0.018049248393244212 0 1.6870648981990818e-06 -0.018084234448956175 0 4.3485691325227643e-05 -0.018113407133763852 0 6.9242837668427514e-05 -0.018147776803696707 0 0.00030706779756591317 -0.017173957839034831 0 -0.00045362825717076393 -0.021513794202805522 0 6.9242837668427514e-05 -0.018147776803696707 0 0.00014345063770959134 -0.018218555881222669 0 7.1456878371642675e-05 -0.018156344239855196 0 4.3485691325227643e-05 -0.018113407133763852 0 6.9242837668427514e-05 -0.018147776803696707 0 7.1456878371642675e-05 -0.018156344239855196 0 6.9242837668427514e-05 -0.018147776803696707 0 0.00019792778489997556 -0.01809239025132011 0 0.00014345063770959134 -0.018218555881222669 0 6.9757789293290967e-05 -0.018046678390396819 0 6.9242837668427514e-05 -0.018147776803696707 0 0.00019792778489997556 -0.01809239025132011 0 0.00019792778489997556 -0.01809239025132011 0 0.00029581982370527831 -0.018178775347979223 0 0.00014345063770959134 -0.018218555881222669 0 0.00039467564282546981 -0.018105690606397062 0 0.00019792778489997556 -0.01809239025132011 0 0.00029581982370527831 -0.018178775347979223 0 0.00039467564282546981 -0.018105690606397062 0 0.00029581982370527831 -0.018178775347979223 0 0.00045748171432467003 -0.018207762959267886 0 0.00029581982370527831 -0.018178775347979223 0 0.00014345063770959134 -0.018218555881222669 0 0.00040009574081288727 -0.018321336703130801 0 0.00029581982370527831 -0.018178775347979223 0 0.00040009574081288727 -0.018321336703130801 0 0.00045748171432467003 -0.018207762959267886 0 0.00014345063770959134 -0.018218555881222669 0 0.00040009574081288727 -0.018321336703130801 0 6.7644280132857224e-05 -0.018636601863329744 0 -0.0026826476091813193 -0.030638209955933436 0 -0.0028713682649037717 -0.029646454051706697 0 -0.00072281271919961163 -0.029564977517792791 0 -0.0011925000033485848 -0.024531545130959304 0 -0.00045362825717076393 -0.021513794202805522 0 -0.0026826476091813193 -0.030638209955933436 0 -0.0028713682649037717 -0.029646454051706697 0 -0.0035132542000727652 -0.030438329730888634 0 -0.0038724822997884762 -0.030071260305236908 0 -0.0028713682649037717 -0.029646454051706697 0 -0.0035132542000727652 -0.030438329730888634 0 0.00060300752934377099 -0.018215497390909635 0 0.00040009574081288727 -0.018321336703130801 0 0.00045748171432467003 -0.018207762959267886 0 -0.00090528404348544779 -0.026777537786141056 0 -0.0011925000033485848 -0.024531545130959304 0 -0.0036273135987138667 -0.030930551395841777 0 -0.0026826476091813193 -0.030638209955933436 0 -0.0035132542000727652 -0.030438329730888634 0 0.00050253411268963292 -0.018157070340266142 0 0.00039467564282546981 -0.018105690606397062 0 0.00045748171432467003 -0.018207762959267886 0 0.00058806816311144489 -0.018205047653244572 0 0.00050253411268963292 -0.018157070340266142 0 0.00045748171432467003 -0.018207762959267886 0 0.00058806816311144489 -0.018205047653244572 0 0.00060300752934377099 -0.018215497390909635 0 0.00045748171432467003 -0.018207762959267886 0 6.7274333667619312e-05 -0.017902427163537415 0 7.0269960982400142e-05 -0.017809232608731743 0 0.00011992537358481131 -0.01790371456792033 0 6.7274333667619312e-05 -0.017902427163537415 0 0.00011992537358481131 -0.01790371456792033 0 6.5566531661163406e-05 -0.017936813388823244 0 6.7274333667619312e-05 -0.017902427163537415 0 1.8228395500900312e-05 -0.017861922838757285 0 7.0269960982400142e-05 -0.017809232608731743 0 6.7274333667619312e-05 -0.017902427163537415 0 1.8228395500900312e-05 -0.017861922838757285 0 9.0839597965363262e-05 -0.017945780115626364 0 0.00015535355162806338 -0.01617700800690949 0 0.0015991319670254048 -0.015187327550252244 0 -0.00049509816050448635 -0.013796537178990211 0 0.0002047395918592988 -0.016084269360457877 0 0.00090180885816607448 -0.01647477227320111 0 0.0002047395918592988 -0.016084269360457877 0 -3.5265430911687289e-05 -0.013813861696768884 0 0.00015326047670084875 -0.017742215041872223 0 7.0269960982400142e-05 -0.017809232608731743 0 0.00011992537358481131 -0.01790371456792033 0 0.00075407844654919458 -0.016523394542482941 0 0.00090180885816607448 -0.01647477227320111 0 -7.0073628397593406e-05 -0.018011129298612153 0 -7.338534341239786e-05 -0.018015955436220636 0 -7.0209081348906606e-05 -0.018034267739683325 0 0.00075407844654919458 -0.016523394542482941 0 -6.6887536229133781e-05 -0.018285060005625187 0 -7.338534341239786e-05 -0.018015955436220636 0 -7.0209081348906606e-05 -0.018034267739683325 0 -5.4775901553892125e-05 -0.018036990431535376 0 -0.00049206371170621701 -0.017398977646402757 0 -0.00016617660104136374 -0.0179974928517945 0 -0.00050938192143921903 -0.017560723394702122 0 -0.0001837553486814767 -0.017663924936534577 0 -0.00033476448012236486 -0.017830057716067226 0 -4.4176734057051274e-05 -0.017939134998716261 0 -0.0001837553486814767 -0.017663924936534577 0 -0.00033476448012236486 -0.017830057716067226 0 -7.0209081348906606e-05 -0.018034267739683325 0 -0.00010260617489284454 -0.018028124926510264 0 -5.4775901553892125e-05 -0.018036990431535376 0 -4.4176734057051274e-05 -0.017939134998716261 0 -0.00033476448012236486 -0.017830057716067226 0 -0.00010260617489284454 -0.018028124926510264 0 -0.00016617660104136374 -0.0179974928517945 0 -0.00013901625947158132 -0.017986387035879691 0 -5.4775901553892125e-05 -0.018036990431535376 0 -5.7515340231986635e-05 -0.018021840546688199 0 -5.0799767966501117e-07 -0.01796218919294764 0 0.00011992537358481131 -0.01790371456792033 0 -5.0799767966501117e-07 -0.01796218919294764 0 6.5566531661163406e-05 -0.017936813388823244 0 -6.6887536229133781e-05 -0.018285060005625187 0 3.1368122965768619e-05 -0.017815821237457764 0 -0.00010260617489284454 -0.018028124926510264 0 -5.4775901553892125e-05 -0.018036990431535376 0 -5.7515340231986635e-05 -0.018021840546688199 0 -2.6527548072353664e-05 -0.018066124296170383 0 1.6870648981990818e-06 -0.018084234448956175 0 -5.7515340231986635e-05 -0.018021840546688199 0 -2.6527548072353664e-05 -0.018066124296170383 0 -0.00010260617489284454 -0.018028124926510264 0 -5.7515340231986635e-05 -0.018021840546688199 0 1.6870648981990818e-06 -0.018084234448956175 0 -5.7515340231986635e-05 -0.018021840546688199 0 -5.2988641355281422e-06 -0.018049248393244212 0 -5.7515340231986635e-05 -0.018021840546688199 0 -5.2988641355281422e-06 -0.018049248393244212 0 -5.9013839976587776e-05 -0.017972328158246332 0 -5.7515340231986635e-05 -0.018021840546688199 0 -5.0799767966501117e-07 -0.01796218919294764 0 -5.9013839976587776e-05 -0.017972328158246332 0 0.00021689070098161105 -0.017321212512987263 0 0.00013885941340989932 -0.017601383084512492 0 -5.0799767966501117e-07 -0.01796218919294764 0 9.0839597965363262e-05 -0.017945780115626364 0 0.00011254182027843574 -0.017723854388021536 0 -5.0799767966501117e-07 -0.01796218919294764 0 6.5566531661163406e-05 -0.017936813388823244 0 9.0839597965363262e-05 -0.017945780115626364 0 6.7274333667619312e-05 -0.017902427163537415 0 6.5566531661163406e-05 -0.017936813388823244 0 9.0839597965363262e-05 -0.017945780115626364 0 0.0002297879915735547 -0.015408236563038514 0 0.00039171123664438697 -0.016475400376102203 0 -0.00029896704897750822 -0.015732557099319436 0 0.0002047395918592988 -0.016084269360457877 0 0.00021689070098161105 -0.017321212512987263 0 0.00039171123664438697 -0.016475400376102203 0 0.00011254182027843574 -0.017723854388021536 0 -0.00010458933769352463 -0.01729833489351083 0 0.00039171123664438697 -0.016475400376102203 0 -0.0002412988826529091 -0.016526779371561068 0 -0.00010458933769352463 -0.01729833489351083 0 -0.0002412988826529091 -0.016526779371561068 0 -0.00045575127457049374 -0.01686839709427794 0 -0.00010458933769352463 -0.01729833489351083 0 -0.0002412988826529091 -0.016526779371561068 0 -0.00045575127457049374 -0.01686839709427794 0 -0.00061652615536452176 -0.016264348011508434 0 -0.00089231625618313795 -0.016525727212157722 0 -0.00098113733267253794 -0.016087005909906169 0 -0.00097834443217405514 -0.016667622429957982 0 -0.00045575127457049374 -0.01686839709427794 0 -0.00089231625618313795 -0.016525727212157722 0 -0.00061652615536452176 -0.016264348011508434 0 -0.00061652615536452176 -0.016264348011508434 0 -0.00098113733267253794 -0.016087005909906169 0 -0.00067190940589367083 -0.015839739884383423 0 -0.00098113733267253794 -0.016087005909906169 0 -0.00067190940589367083 -0.015839739884383423 0 -0.00073108222167761927 -0.015369181665345804 0 -0.00089231625618313795 -0.016525727212157722 0 -0.00061652615536452176 -0.016264348011508434 0 -0.00098113733267253794 -0.016087005909906169 0 0.00039171123664438697 -0.016475400376102203 0 -0.0002412988826529091 -0.016526779371561068 0 -0.00029896704897750822 -0.015732557099319436 0 -0.00061652615536452176 -0.016264348011508434 0 -0.00067190940589367083 -0.015839739884383423 0 -0.00029896704897750822 -0.015732557099319436 0 -0.0002412988826529091 -0.016526779371561068 0 -0.00061652615536452176 -0.016264348011508434 0 -0.00029896704897750822 -0.015732557099319436 0 0.0015811671516933006 -0.0039154634345893117 0 0.0025036226405078243 -0.004049193646274549 0 0.0017002766847274359 -0.0029347417169783719 0 0.0015811671516933006 -0.0039154634345893117 0 0.0017002766847274359 -0.0029347417169783719 0 0.000590173923448742 -0.0029626112288107121 0 0.0015811671516933006 -0.0039154634345893117 0 0.00068547700421059637 -0.0040228810204264581 0 0.000590173923448742 -0.0029626112288107121 0 0.00078615421558680845 -0.0102016360231696 0 0.00025572057769482278 -0.0091823472228910515 0 0.0025036226405078243 -0.004049193646274549 0 0.0025601921994249138 -0.0020925163035324184 0 0.0017002766847274359 -0.0029347417169783719 0 -0.00098113733267253794 -0.016087005909906169 0 -0.00097834443217405514 -0.016667622429957982 0 -0.0015768853717295736 -0.015300251306083206 0 0.0025601921994249138 -0.0020925163035324184 0 0.0017002766847274359 -0.0029347417169783719 0 0.0017668554239684581 -0.0021377829675192348 0 0.0017002766847274359 -0.0029347417169783719 0 0.0011275532223131051 -0.002166973515049791 0 0.000590173923448742 -0.0029626112288107121 0 0.0017668554239684581 -0.0021377829675192348 0 0.0011275532223131051 -0.002166973515049791 0 0.0015036076535596429 -0.0017235357257074605 0 0.0017002766847274359 -0.0029347417169783719 0 0.0017668554239684581 -0.0021377829675192348 0 0.0011275532223131051 -0.002166973515049791 0 0.0015573349618981051 -0.0010832660204555711 0 0.00099458185942695844 -0.0007683062807554244 0 0.00089738464981608417 -0.0013774265885766518 0 0.0015036076535596429 -0.0017235357257074605 0 0.0015573349618981051 -0.0010832660204555711 0 0.00089738464981608417 -0.0013774265885766518 0 0.0011275532223131051 -0.002166973515049791 0 0.0015036076535596429 -0.0017235357257074605 0 0.00089738464981608417 -0.0013774265885766518 0 0.0017668554239684581 -0.0021377829675192348 0 0.0015036076535596429 -0.0017235357257074605 0 0.0019349803280329428 -0.0015981378205355661 0 0.0015036076535596429 -0.0017235357257074605 0 0.0015573349618981051 -0.0010832660204555711 0 0.0019349803280329428 -0.0015981378205355661 0 0.0015573349618981051 -0.0010832660204555711 0 0.0019349803280329428 -0.0015981378205355661 0 0.0021944975561442297 -0.00084074327517042683 0 0.00025572057769482278 -0.0091823472228910515 0 0.0023371743985776861 -0.0037233016933450177 0 0.0025601921994249138 -0.0020925163035324184 0 0.0019349803280329428 -0.0015981378205355661 0 0.0021944975561442297 -0.00084074327517042683 0 -0.0015768853717295736 -0.015300251306083206 0 -0.0014479242105320022 -0.011591757117431059 0 -8.9160727925366638e-05 -0.012989170884624748 0 0.0025601921994249138 -0.0020925163035324184 0 0.0026236696718329095 -0.00028664197881840135 0 0.0021944975561442297 -0.00084074327517042683 0 0.0025601921994249138 -0.0020925163035324184 0 0.0017668554239684581 -0.0021377829675192348 0 0.0019349803280329428 -0.0015981378205355661 0 0.0026593577670607671 -0.00025034527325484623 0 0.0014789434799099463 -0.00023080434777171278 0 0.0026823141202260612 9.8876012180032502e-05 0 0.0026593577670607671 -0.00025034527325484623 0 0.0021944975561442297 -0.00084074327517042683 0 0.0014789434799099463 -0.00023080434777171278 0 0.0023371743985776861 -0.0037233016933450177 0 0.0030244074277997863 -0.00060441761104545154 0 0.0014789434799099463 -0.00023080434777171278 0 0.00099458185942695844 -0.0007683062807554244 0 0.00029067622582548751 -0.00054348722269704423 0 0.0015573349618981051 -0.0010832660204555711 0 0.0021944975561442297 -0.00084074327517042683 0 0.0014789434799099463 -0.00023080434777171278 0 0.0015573349618981051 -0.0010832660204555711 0 0.0014789434799099463 -0.00023080434777171278 0 0.00099458185942695844 -0.0007683062807554244 0 -0.00029896704897750822 -0.015732557099319436 0 -0.00073108222167761927 -0.015369181665345804 0 -0.00023911919780758212 -0.014589062182877833 0 0.00089845846953597454 -0.01505624017309848 0 -0.00029896704897750822 -0.015732557099319436 0 -0.00023911919780758212 -0.014589062182877833 0 0.0002047395918592988 -0.016084269360457877 0 9.7195398292625644e-06 -0.015509211594918932 0 -0.00098113733267253794 -0.016087005909906169 0 -0.0015768853717295736 -0.015300251306083206 0 -8.9160727925366638e-05 -0.012989170884624748 0 -0.00083608827307304629 -0.015483419328267524 0 -0.00094507268900697987 -0.014865779627858497 0 -0.00067190940589367083 -0.015839739884383423 0 -0.00029896704897750822 -0.015732557099319436 0 -0.00073108222167761927 -0.015369181665345804 0 -0.00098113733267253794 -0.016087005909906169 0 -0.00073108222167761927 -0.015369181665345804 0 -0.0011288726546409551 -0.014651084693713052 0 -0.00073108222167761927 -0.015369181665345804 0 -0.0011288726546409551 -0.014651084693713052 0 -0.00023911919780758212 -0.014589062182877833 0 -0.0011288726546409551 -0.014651084693713052 0 -0.00044312833499353176 -0.013695814694645427 0 -0.00023911919780758212 -0.014589062182877833 0 0.00089845846953597454 -0.01505624017309848 0 -0.00023911919780758212 -0.014589062182877833 0 0.00051876970518886052 -0.013187453891762584 0 -0.00044312833499353176 -0.013695814694645427 0 -0.00023911919780758212 -0.014589062182877833 0 0.00051876970518886052 -0.013187453891762584 0 -0.00044312833499353176 -0.013695814694645427 0 0.00051876970518886052 -0.013187453891762584 0 -0.00093354968979867292 -0.012294183087862195 0 0.0025041614990383601 -0.0035304166536011643 0 8.1464073398319464e-05 -0.006663337072996588 0 0.00060390699299658489 -0.0027949402710052201 0 -3.5265430911687289e-05 -0.013813861696768884 0 0.00043445957647963193 -0.0090581622174709352 0 0.00051876970518886052 -0.013187453891762584 0 -8.0459994128372479e-07 -0.011068896852224248 0 -0.00093354968979867292 -0.012294183087862195 0 0.00043445957647963193 -0.0090581622174709352 0 0.0017025720906982489 -0.0062633223943764933 0 0.0017025720906982489 -0.0062633223943764933 0 0.0040107404476961437 0.0020567474864844329 0 0.0068115282626193853 0.0032090805280321241 0 0.0071509581206117044 0.0055335249650256589 0 0.0057447626981581281 0.0056277403710229667 0 0.0068115282626193853 0.0032090805280321241 0 0.0050605275486766826 0.0043727033034227196 0 0.0057447626981581281 0.0056277403710229667 0 0.0068115282626193853 0.0032090805280321241 0 0.005273845617577955 0.0029174113193466654 0 0.0050605275486766826 0.0043727033034227196 0 0.0023371743985776861 -0.0037233016933450177 0 0.0017025720906982489 -0.0062633223943764933 0 0.0049246325211587585 0.00076522375806771438 0 0.0068115282626193853 0.0032090805280321241 0 0.0053024555836638397 0.0015911888087613174 0 -0.0014479242105320022 -0.011591757117431059 0 -8.9160727925366638e-05 -0.012989170884624748 0 0.00059882517377149425 -0.0089289034895115322 0 -0.00094507268900697987 -0.014865779627858497 0 0.0017025720906982489 -0.0062633223943764933 0 0.0068115282626193853 0.0032090805280321241 0 0.0053024555836638397 0.0015911888087613174 0 0.005273845617577955 0.0029174113193466654 0 -0.0011288726546409551 -0.014651084693713052 0 -0.00044312833499353176 -0.013695814694645427 0 -0.00093354968979867292 -0.012294183087862195 0 0.0023371743985776861 -0.0037233016933450177 0 0.0038872864498637944 0.0009428322498068949 0 0.0049246325211587585 0.00076522375806771438 0 0.0049675756263116606 0.0014896476085757382 0 0.0053024555836638397 0.0015911888087613174 0 0.0049795374664240348 0.0015924999452499161 0 0.0040099392100630526 0.0020405189428077944 0 0.005022654147219194 0.0022471644781446101 0 0.0019473711719637794 0.00027541842568492745 0 0.0038872864498637944 0.0009428322498068949 0 0.0026278819765322148 0.00092957811741697656 0 0.0049795374664240348 0.0015924999452499161 0 0.0040099392100630526 0.0020405189428077944 0 0.0038872864498637944 0.0009428322498068949 0 0.0042149814386320738 0.0010550277879250235 0 0.0038872864498637944 0.0009428322498068949 0 0.0042040172381744836 0.0016935779380736129 0 0.0049547563195050858 0.0014888584609881509 0 0.0053024555836638397 0.0015911888087613174 0 0.005022654147219194 0.0022471644781446101 0 0.0040099392100630526 0.0020405189428077944 0 0.0041965723305406174 0.0031254167951200139 0 0.003207991331139021 0.0023114282404584465 0 0.0040099392100630526 0.0020405189428077944 0 0.0041965723305406174 0.0031254167951200139 0 0.005022654147219194 0.0022471644781446101 0 0.0053024555836638397 0.0015911888087613174 0 0.005273845617577955 0.0029174113193466654 0 0.005022654147219194 0.0022471644781446101 0 0.0041965723305406174 0.0031254167951200139 0 0.005273845617577955 0.0029174113193466654 0 0.005022654147219194 0.0022471644781446101 0 0.0026278819765322148 0.00092957811741697656 0 0.0018968503227727118 0.002287664343022106 0 0.0010929396486344619 0.0017619443304571203 0 0.0026278819765322148 0.00092957811741697656 0 0.0040099392100630526 0.0020405189428077944 0 0.003207991331139021 0.0023114282404584465 0 0.0026278819765322148 0.00092957811741697656 0 0.003207991331139021 0.0023114282404584465 0 0.0018968503227727118 0.002287664343022106 0 0.003207991331139021 0.0023114282404584465 0 0.0018968503227727118 0.002287664343022106 0 0.0025448720293729456 0.0033075734425998412 0 0.0041965723305406174 0.0031254167951200139 0 0.003207991331139021 0.0023114282404584465 0 0.0025448720293729456 0.0033075734425998412 0 0.0025448720293729456 0.0033075734425998412 0 0.0035921132396969356 0.0043854903439566112 0 0.0015191899101936932 0.0049221645280858933 0 0.0035921132396969356 0.0043854903439566112 0 0.0032715299169428676 0.0057655776165415886 0 0.0015191899101936932 0.0049221645280858933 0 0.0041965723305406174 0.0031254167951200139 0 0.0025448720293729456 0.0033075734425998412 0 0.0035921132396969356 0.0043854903439566112 0 0.0041965723305406174 0.0031254167951200139 0 0.005273845617577955 0.0029174113193466654 0 0.0050605275486766826 0.0043727033034227196 0 0.0041965723305406174 0.0031254167951200139 0 0.0035921132396969356 0.0043854903439566112 0 0.0050605275486766826 0.0043727033034227196 0 0.0035921132396969356 0.0043854903439566112 0 0.0050605275486766826 0.0043727033034227196 0 0.0045619101203538117 0.0059685332160909332 0 0.0050605275486766826 0.0043727033034227196 0 0.0045619101203538117 0.0059685332160909332 0 0.0057447626981581281 0.0056277403710229667 0 0.0035921132396969356 0.0043854903439566112 0 0.0045619101203538117 0.0059685332160909332 0 0.0032715299169428676 0.0057655776165415886 0 0.0045619101203538117 0.0059685332160909332 0 0.0032715299169428676 0.0057655776165415886 0 0.0034999474165784195 0.0073985078605719838 0 0.0045619101203538117 0.0059685332160909332 0 0.0054266921354670303 0.0071812985784763216 0 0.0034999474165784195 0.0073985078605719838 0 0.0045619101203538117 0.0059685332160909332 0 0.0054266921354670303 0.0071812985784763216 0 0.0057447626981581281 0.0056277403710229667 0 0.0020552226546657242 0.0063390172207103551 0 0.0034999474165784195 0.0073985078605719838 0 0.0015485149540214707 0.0079201323320037161 0 0.0032715299169428676 0.0057655776165415886 0 0.0020552226546657242 0.0063390172207103551 0 0.0015191899101936932 0.0049221645280858933 0 0.0032715299169428676 0.0057655776165415886 0 0.0020552226546657242 0.0063390172207103551 0 0.0034999474165784195 0.0073985078605719838 0 0.0025501376310036747 0.0090607817589588129 0 0.0034999474165784195 0.0073985078605719838 0 0.0015485149540214707 0.0079201323320037161 0 0.0012806145386324872 0.0094696886223854301 0 0.0025501376310036747 0.0090607817589588129 0 0.0015485149540214707 0.0079201323320037161 0 0.0046241306526206638 0.0094376859886414182 0 0.0054266921354670303 0.0071812985784763216 0 0.0034999474165784195 0.0073985078605719838 0 0.0046241306526206638 0.0094376859886414182 0 0.0025501376310036747 0.0090607817589588129 0 0.0034999474165784195 0.0073985078605719838 0 0.0032579565265875563 0.010653265788317398 0 0.0033036385505743611 0.0054100036053569799 0 0.0046241306526206638 0.0094376859886414182 0 0.0054266921354670303 0.0071812985784763216 0 0.0074662414275214247 0.0078290895563756756 0 0.0054266921354670303 0.0071812985784763216 0 0.0074662414275214247 0.0078290895563756756 0 0.006447724909191239 0.0065445098384870389 0 0.0022271836340927238 0.011075433364574656 0 0.0015325563332158846 0.010989774653117648 0 0.0025724882122608781 0.01037664258454815 0 0.0032738422146908874 0.0038201319680154981 0 0.0033259399206234086 0.0014645480614578481 0 0.0011001569197217154 0.0011998657270829692 0 0.0032738422146908874 0.0038201319680154981 0 0.0049734917653382511 0.0030296359471796374 0 0.0033259399206234086 0.0014645480614578481 0 0.0033259399206234086 0.0014645480614578481 0 0.0018616010641459508 0.00078928861588562925 0 0.0031122013699813305 -0.00032315774192077012 0 0.0051681633245092701 -0.00018124769348770343 0 0.0033259399206234086 0.0014645480614578481 0 0.0031122013699813305 -0.00032315774192077012 0 0.0033259399206234086 0.0014645480614578481 0 0.0011001569197217154 0.0011998657270829692 0 0.0018616010641459508 0.00078928861588562925 0 0.0033036385505743611 0.0054100036053569799 0 0.0032401903042335784 0.0047342487325409679 0 0.0018616010641459508 0.00078928861588562925 0 0.0020704094365730672 5.6811334761398557e-06 0 0.0031122013699813305 -0.00032315774192077012 0 0.0011283081945266545 0.0011911346883403805 0 0.0018616010641459508 0.00078928861588562925 0 0.0020704094365730672 5.6811334761398557e-06 0 0.0011283081945266545 0.0011911346883403805 0 0.0020704094365730672 5.6811334761398557e-06 0 0.001874768671020014 -0.0012505714127951319 0 0.0011283081945266545 0.0011911346883403805 0 0.001874768671020014 -0.0012505714127951319 0 0.00060390699299658489 -0.0027949402710052201 0 0.001874768671020014 -0.0012505714127951319 0 0.0031122013699813305 -0.00032315774192077012 0 0.002414362739600127 -0.0032032010475893571 0 0.0020704094365730672 5.6811334761398557e-06 0 0.001874768671020014 -0.0012505714127951319 0 0.0031122013699813305 -0.00032315774192077012 0 0.0051681633245092701 -0.00018124769348770343 0 0.0031122013699813305 -0.00032315774192077012 0 0.002414362739600127 -0.0032032010475893571 0 0.003500906950897182 -0.003817223310239596 0 0.00043445957647963193 -0.0090581622174709352 0 0.0051681633245092701 -0.00018124769348770343 0 0.0025046960609097437 -0.0035409659635373685 0 0.002414362739600127 -0.0032032010475893571 0 0.0025041614990383601 -0.0035304166536011643 0 0.002414362739600127 -0.0032032010475893571 0 0.00060390699299658489 -0.0027949402710052201 0 0.001874768671020014 -0.0012505714127951319 0 0.002414362739600127 -0.0032032010475893571 0 0.00060390699299658489 -0.0027949402710052201 0 0.00043445957647963193 -0.0090581622174709352 0 0.00039164706169389176 -0.0085823525791795287 0 0.0071509581206117044 0.0055335249650256589 0 0.0057447626981581281 0.0056277403710229667 0 0.006447724909191239 0.0065445098384870389 0 0.0074662414275214247 0.0078290895563756756 0 0.0071509581206117044 0.0055335249650256589 0 0.006447724909191239 0.0065445098384870389 0 0.0033036385505743611 0.0054100036053569799 0 0.0040107404476961437 0.0020567474864844329 0 0.0054266921354670303 0.0071812985784763216 0 0.0057447626981581281 0.0056277403710229667 0 0.006447724909191239 0.0065445098384870389 0 -0.0024668032553651163 0.0086827840561137602 0 -0.0011024787716660081 0.007984432470221868 0 -0.0017963253291270673 0.0069255298425691591 0 -0.0024668032553651163 0.0086827840561137602 0 -0.002946940420170597 0.0074240556509683128 0 -0.0017963253291270673 0.0069255298425691591 0 -0.0024668032553651163 0.0086827840561137602 0 -0.0010239161304820431 0.0094802504438495413 0 -0.0011024787716660081 0.007984432470221868 0 -0.002946940420170597 0.0074240556509683128 0 -0.0041870991612310187 0.0073402053647056249 0 -0.0039258893757575649 0.0089107309294940949 0 -0.0024668032553651163 0.0086827840561137602 0 -0.002946940420170597 0.0074240556509683128 0 -0.0039258893757575649 0.0089107309294940949 0 -0.0024668032553651163 0.0086827840561137602 0 -0.0036513704906502467 0.0097025131226314634 0 -0.0028275633550210832 0.010149369637802117 0 -0.0036513704906502467 0.0097025131226314634 0 -0.0028275633550210832 0.010149369637802117 0 -0.0046263499806181814 0.010898303875265329 0 -0.0024668032553651163 0.0086827840561137602 0 -0.0039258893757575649 0.0089107309294940949 0 -0.0036513704906502467 0.0097025131226314634 0 -0.0044219566587974301 0.0099176700500285611 0 -0.0036513704906502467 0.0097025131226314634 0 -0.0046263499806181814 0.010898303875265329 0 -0.0039258893757575649 0.0089107309294940949 0 -0.0044219566587974301 0.0099176700500285611 0 -0.0036513704906502467 0.0097025131226314634 0 -0.0024668032553651163 0.0086827840561137602 0 -0.0028275633550210832 0.010149369637802117 0 -0.0010239161304820431 0.0094802504438495413 0 -0.0028059613327154355 0.010163033688835496 0 -0.0011567850114012649 0.0095343707166860615 0 -0.0015323010240138079 0.01058307184894532 0 -0.0026602325978120817 0.010165458848758623 0 -0.0010239161304820431 0.0094802504438495413 0 0.00016675724245658437 0.010215008463409414 0 -0.0010239161304820431 0.0094802504438495413 0 0.00048844731883681191 0.0078118390179644989 0 -0.0015323010240138079 0.01058307184894532 0 0.00016675724245658437 0.010215008463409414 0 -0.0010239161304820431 0.0094802504438495413 0 0.0012806145386324872 0.0094696886223854301 0 -0.00037992389086931235 0.0091059322235334944 0 0.0015485149540214707 0.0079201323320037161 0 -0.00010240036915079633 0.009667996358078218 0 0.00013168848836064606 0.006912397082158339 0 -0.00037992389086931235 0.0091059322235334944 0 0.0015485149540214707 0.0079201323320037161 0 -0.00023052708251421078 0.0061003659618573099 0 0.0020552226546657242 0.0063390172207103551 0 -0.00023052708251421078 0.0061003659618573099 0 0.0015191899101936932 0.0049221645280858933 0 0.0020552226546657242 0.0063390172207103551 0 0.0015485149540214707 0.0079201323320037161 0 -0.00023052708251421078 0.0061003659618573099 0 -0.0010239161304820431 0.0094802504438495413 0 0.00048844731883681191 0.0078118390179644989 0 -0.0011024787716660081 0.007984432470221868 0 0.00048844731883681191 0.0078118390179644989 0 -0.0011024787716660081 0.007984432470221868 0 -0.00058899823014771965 0.0065919921233469677 0 -0.0011024787716660081 0.007984432470221868 0 -0.00058899823014771965 0.0065919921233469677 0 -0.0017963253291270673 0.0069255298425691591 0 -0.00058899823014771965 0.0065919921233469677 0 0.00073222343283191002 0.0053535056621652616 0 -0.0015783152223007709 0.0053758761486637071 0 0.00048844731883681191 0.0078118390179644989 0 -0.00058899823014771965 0.0065919921233469677 0 0.00073222343283191002 0.0053535056621652616 0 0.00013168848836064606 0.006912397082158339 0 0.00035881065331076452 0.004403125808777099 0 0.0025448720293729456 0.0033075734425998412 0 0.0015191899101936932 0.0049221645280858933 0 -1.1987847317572223e-06 0.0031382582642492923 0 -0.00023052708251421078 0.0061003659618573099 0 0.0015191899101936932 0.0049221645280858933 0 -1.1987847317572223e-06 0.0031382582642492923 0 -1.1987847317572223e-06 0.0031382582642492923 0 0.0010929396486344619 0.0017619443304571203 0 0.00024675324723800156 0.00023718767700343693 0 0.00035881065331076452 0.004403125808777099 0 0.00058182557209635543 0.00081288654252458577 0 0.0018968503227727118 0.002287664343022106 0 0.0025448720293729456 0.0033075734425998412 0 -1.1987847317572223e-06 0.0031382582642492923 0 0.0018968503227727118 0.002287664343022106 0 -1.1987847317572223e-06 0.0031382582642492923 0 0.0010929396486344619 0.0017619443304571203 0 0.00073222343283191002 0.0053535056621652616 0 -0.00083366836884178521 0.0039860265872820218 0 -0.0015783152223007709 0.0053758761486637071 0 0.00073222343283191002 0.0053535056621652616 0 -0.00083366836884178521 0.0039860265872820218 0 0.00094638663277325536 0.0028846721444846209 0 -0.00083366836884178521 0.0039860265872820218 0 -0.0015783152223007709 0.0053758761486637071 0 -0.0029968174436460623 0.0047357120929078528 0 -0.0015783152223007709 0.0053758761486637071 0 -0.0027046196197966265 0.0063626796105982356 0 -0.0017963253291270673 0.0069255298425691591 0 -0.0015783152223007709 0.0053758761486637071 0 -0.0027046196197966265 0.0063626796105982356 0 -0.0029968174436460623 0.0047357120929078528 0 -0.002946940420170597 0.0074240556509683128 0 -0.0027046196197966265 0.0063626796105982356 0 -0.0017963253291270673 0.0069255298425691591 0 -0.00058899823014771965 0.0065919921233469677 0 -0.0015783152223007709 0.0053758761486637071 0 -0.0017963253291270673 0.0069255298425691591 0 -0.0041870991612310187 0.0073402053647056249 0 -0.0027046196197966265 0.0063626796105982356 0 -0.0029968174436460623 0.0047357120929078528 0 -0.0038025161944804944 0.0068101304661480266 0 -0.0032586400465806028 0.0050900103082592634 0 -0.0022802956205358917 0.0035890600051908944 0 -0.0040075955971956949 0.0070608170882956395 0 -0.0026353496077501861 0.0043280007426345756 0 -0.0038025161944804944 0.0068101304661480266 0 -0.0032586400465806028 0.0050900103082592634 0 -0.0046235497326542136 0.0056021315542919385 0 -0.002946940420170597 0.0074240556509683128 0 -0.0041870991612310187 0.0073402053647056249 0 -0.0027046196197966265 0.0063626796105982356 0 -0.0032586400465806028 0.0050900103082592634 0 -0.0022802956205358917 0.0035890600051908944 0 -0.0046519753916942031 0.0034018988808035447 0 -0.0022802956205358917 0.0035890600051908944 0 -0.0035261040888834448 0.0016850579851998995 0 -0.0046519753916942031 0.0034018988808035447 0 -0.0033767841027226406 0.0049493680882338959 0 -0.004764518899058795 0.0033880759138044296 0 -0.0035261040888834448 0.0016850579851998995 0 -0.00082324829910841257 0.00050559733973267417 0 -0.0036418022911455078 -0.00030502579322196137 0 -0.00083366836884178521 0.0039860265872820218 0 -0.0029968174436460623 0.0047357120929078528 0 -0.001746194707230476 0.0020961875125422237 0 -0.0022802956205358917 0.0035890600051908944 0 -0.0035261040888834448 0.0016850579851998995 0 -0.00082324829910841257 0.00050559733973267417 0 -0.0026353496077501861 0.0043280007426345756 0 -0.001500466697909807 0.00044113213326146735 0 -0.001500466697909807 0.00044113213326146735 0 -0.0033726661571439414 -0.00028548219543580593 0 -0.0015232850701775292 0.00013784740465054224 0 -0.00059546973555664668 -0.0022992186347680211 0 -0.0022438261430311104 -0.0015860489695724413 0 -0.0015232850701775292 0.00013784740465054224 0 -0.0036418022911455078 -0.00030502579322196137 0 -0.0022438261430311104 -0.0015860489695724413 0 -0.0035261040888834448 0.0016850579851998995 0 -0.0036418022911455078 -0.00030502579322196137 0 -0.0048702456092469025 0.00022499198183975261 0 -0.0036418022911455078 -0.00030502579322196137 0 -0.0035470311030077815 -0.0020199252263917657 0 -0.0045559042784514923 -0.0012474829188248325 0 0.0026278819765322148 0.00092957811741697656 0 0.0010929396486344619 0.0017619443304571203 0 0.00024675324723800156 0.00023718767700343693 0 0.0019473711719637794 0.00027541842568492745 0 0.00058182557209635543 0.00081288654252458577 0 0.00099458185942695844 -0.0007683062807554244 0 0.00029067622582548751 -0.00054348722269704423 0 0.00032493598137304624 -0.0010615898391426431 0 0.00058182557209635543 0.00081288654252458577 0 0.0005156818276336266 -0.00087529695933416941 0 -0.00083366836884178521 0.0039860265872820218 0 -0.001746194707230476 0.0020961875125422237 0 0.00094638663277325536 0.0028846721444846209 0 -0.0012077619566754475 -0.00098040886620301979 0 0.00026864941974212542 -0.00054424521264338852 0 -0.00018582207733499194 -0.0013676384376883699 0 -0.001500466697909807 0.00044113213326146735 0 0.00058182557209635543 0.00081288654252458577 0 -0.0012077619566754475 -0.00098040886620301979 0 -0.00018582207733499194 -0.0013676384376883699 0 -0.00059546973555664668 -0.0022992186347680211 0 -0.001500466697909807 0.00044113213326146735 0 -0.00052595776572665739 -0.0025295686274690423 0 -0.00018582207733499194 -0.0013676384376883699 0 0.00032371728785749669 -0.0019226522675348026 0 -0.00059546973555664668 -0.0022992186347680211 0 0.00026864941974212542 -0.00054424521264338852 0 -0.00018582207733499194 -0.0013676384376883699 0 0.00032493598137304624 -0.0010615898391426431 0 -0.00018582207733499194 -0.0013676384376883699 0 0.00032493598137304624 -0.0010615898391426431 0 0.00032371728785749669 -0.0019226522675348026 0 0.00032493598137304624 -0.0010615898391426431 0 0.00089738464981608417 -0.0013774265885766518 0 0.00032371728785749669 -0.0019226522675348026 0 0.0011275532223131051 -0.002166973515049791 0 0.00089738464981608417 -0.0013774265885766518 0 0.00032371728785749669 -0.0019226522675348026 0 0.00099458185942695844 -0.0007683062807554244 0 0.00032493598137304624 -0.0010615898391426431 0 0.00089738464981608417 -0.0013774265885766518 0 0.0011275532223131051 -0.002166973515049791 0 0.00032371728785749669 -0.0019226522675348026 0 0.000590173923448742 -0.0029626112288107121 0 0.00032371728785749669 -0.0019226522675348026 0 -0.00059546973555664668 -0.0022992186347680211 0 0.000590173923448742 -0.0029626112288107121 0 -0.00059546973555664668 -0.0022992186347680211 0 -0.00051625295277827373 -0.0039936523405197611 0 -0.0015383560485035682 -0.0033042184624716008 0 -0.00059546973555664668 -0.0022992186347680211 0 -0.00051625295277827373 -0.0039936523405197611 0 0.000590173923448742 -0.0029626112288107121 0 -0.00051625295277827373 -0.0039936523405197611 0 0.00068547700421059637 -0.0040228810204264581 0 0.000590173923448742 -0.0029626112288107121 0 -0.0035470311030077815 -0.0020199252263917657 0 -0.0026779036944561563 -0.0028051096245616026 0 -0.0043774085506528507 -0.0030564659669091382 0 -0.0036418022911455078 -0.00030502579322196137 0 -0.0035470311030077815 -0.0020199252263917657 0 -0.0022438261430311104 -0.0015860489695724413 0 -0.0035470311030077815 -0.0020199252263917657 0 -0.0022438261430311104 -0.0015860489695724413 0 -0.0026779036944561563 -0.0028051096245616026 0 -0.0022438261430311104 -0.0015860489695724413 0 -0.0015383560485035682 -0.0033042184624716008 0 -0.0026779036944561563 -0.0028051096245616026 0 -0.00059546973555664668 -0.0022992186347680211 0 -0.0022438261430311104 -0.0015860489695724413 0 -0.0015383560485035682 -0.0033042184624716008 0 -0.0025190895846213101 -0.0037562786019021892 0 -0.0014223994262776006 -0.0020602891373720095 0 -0.00051625295277827373 -0.0039936523405197611 0 -0.0015383560485035682 -0.0033042184624716008 0 -0.0020693046967657984 -0.0043707307295341022 0 -0.0015383560485035682 -0.0033042184624716008 0 -0.0026779036944561563 -0.0028051096245616026 0 -0.0020693046967657984 -0.0043707307295341022 0 -0.0014223994262776006 -0.0020602891373720095 0 -0.0023758364333593186 0.0011306094160714053 0 0.00028428732501722259 0.0042410239943133496 0 0.0014992220818866512 0.004265048922724066 0 -0.00040553758633092232 0.0055034033144488884 0 -0.0026779036944561563 -0.0028051096245616026 0 -0.0020941682731394264 -0.0046688399999377309 0 -0.0043774085506528507 -0.0030564659669091382 0 0.00028428732501722259 0.0042410239943133496 0 0.00012093757884708833 0.0028499886588450795 0 -0.00050245490918121962 0.0048489741393575392 0 6.7754615538599423e-05 0.0036121254629374088 0 -0.00045851109643796058 0.0047364388340123574 0 0.00028428732501722259 0.0042410239943133496 0 0.0014992220818866512 0.004265048922724066 0 0.00012093757884708833 0.0028499886588450795 0 -0.0014223994262776006 -0.0020602891373720095 0 0.00039153854663973324 -0.0012106645807262919 0 -0.0014223994262776006 -0.0020602891373720095 0 -0.00047705397725285407 -0.0054822441205786667 0 0.0014992220818866512 0.004265048922724066 0 0.0021717964880025344 0.0022390969518946758 0 0.00012093757884708833 0.0028499886588450795 0 -0.0018875753219233776 -0.0038174713898723868 0 -0.0014305467078634209 -0.0053667151765349544 0 -0.00040562692666987416 -0.0049995031897780325 0 0.0021717964880025344 0.0022390969518946758 0 0.00012093757884708833 0.0028499886588450795 0 0.0010009547982437069 0.00061069273462405129 0 6.7754615538599423e-05 0.0036121254629374088 0 0.00096699959634678875 0.0018239702533739738 0 -2.2291551998398126e-05 0.0043863552287698292 0 0.00088785339254581657 0.003220311464777944 0 -0.00034172128533025917 0.0036641679119970389 0 0.00088785339254581657 0.003220311464777944 0 8.8891028950234882e-05 0.002708620544170474 0 -0.00034172128533025917 0.0036641679119970389 0 0.00039153854663973324 -0.0012106645807262919 0 0.0010096550771195741 -0.0032871118968415282 0 0.0021717964880025344 0.0022390969518946758 0 0.0010009547982437069 0.00061069273462405129 0 0.0028611588770411259 3.8575434422045616e-06 0 0.00096699959634678875 0.0018239702533739738 0 0.0019080346519148544 0.0001439335643921569 0 0.00088785339254581657 0.003220311464777944 0 0.0018459425694278379 0.001458456840884993 0 0.00073235006748095593 0.0018192921155339133 0 0.0010009547982437069 0.00061069273462405129 0 0.0020183687152804512 -0.0017719089167155234 0 0.0028611588770411259 3.8575434422045616e-06 0 0.00088785339254581657 0.003220311464777944 0 0.00073235006748095593 0.0018192921155339133 0 8.8891028950234882e-05 0.002708620544170474 0 0.00073235006748095593 0.0018192921155339133 0 -0.00017952451718194617 0.0018270309411806843 0 0.0003703780465600241 0.0008366649329209937 0 0.00073235006748095593 0.0018192921155339133 0 -0.00017952451718194617 0.0018270309411806843 0 8.8891028950234882e-05 0.002708620544170474 0 0.00050004309793076933 -0.0070422273262916602 0 0.0003884363723205375 -0.0077868515413914013 0 -0.00044031508536051303 -0.0073430413745545651 0 0.00050004309793076933 -0.0070422273262916602 0 -0.00044031508536051303 -0.0073430413745545651 0 -1.8459458799865325e-05 -0.0064293774076391134 0 0.00050004309793076933 -0.0070422273262916602 0 0.00094769968122237179 -0.0075718307237001231 0 0.0012458742385348437 -0.0071246940295229171 0 0.00094769968122237179 -0.0075718307237001231 0 0.0003884363723205375 -0.0077868515413914013 0 0.00090176591044459429 -0.0081954395078729664 0 0.00050004309793076933 -0.0070422273262916602 0 0.00094769968122237179 -0.0075718307237001231 0 0.0003884363723205375 -0.0077868515413914013 0 0.0003884363723205375 -0.0077868515413914013 0 -0.00044031508536051303 -0.0073430413745545651 0 -3.7038646611501058e-05 -0.008059917249197834 0 -0.00033820386803931098 -0.0079233239809684639 0 0.00042158517130164147 -0.0065144311291773383 0 0.0020183687152804512 -0.0017719089167155234 0 0.0028611588770411259 3.8575434422045616e-06 0 0.0035530909580202262 -0.0023517595120987303 0 0.0010096550771195741 -0.0032871118968415282 0 0.00042158517130164147 -0.0065144311291773383 0 -0.00044031508536051303 -0.0073430413745545651 0 -0.00094991273297567952 -0.0068363876701788709 0 -0.00049319931338318783 -0.0081945209083991843 0 -0.00044031508536051303 -0.0073430413745545651 0 -0.00048664762132074203 -0.0082069927863087713 0 -3.7038646611501058e-05 -0.008059917249197834 0 -0.00044031508536051303 -0.0073430413745545651 0 -1.8459458799865325e-05 -0.0064293774076391134 0 -0.00094991273297567952 -0.0068363876701788709 0 -0.0014305467078634209 -0.0053667151765349544 0 -0.00094991273297567952 -0.0068363876701788709 0 -0.00070079531173918486 -0.0059132999405565982 0 -1.8459458799865325e-05 -0.0064293774076391134 0 -0.00094991273297567952 -0.0068363876701788709 0 -0.00070079531173918486 -0.0059132999405565982 0 -1.8459458799865325e-05 -0.0064293774076391134 0 0.00095527264280864915 -0.0061536938406614224 0 -0.00040562692666987416 -0.0049995031897780325 0 0.00050004309793076933 -0.0070422273262916602 0 -1.8459458799865325e-05 -0.0064293774076391134 0 0.00095527264280864915 -0.0061536938406614224 0 0.00050004309793076933 -0.0070422273262916602 0 0.00095527264280864915 -0.0061536938406614224 0 0.0012458742385348437 -0.0071246940295229171 0 0.00088249721516048566 -0.0064072421808340401 0 -0.00052834797068271387 -0.0054198647904135132 0 0.00047233462705927146 -0.0049592408320777897 0 0.00090743452955493575 -0.0062436517019469045 0 -0.00047705397725285407 -0.0054822441205786667 0 -1.8459458799865325e-05 -0.0064293774076391134 0 -0.00070079531173918486 -0.0059132999405565982 0 -0.00040562692666987416 -0.0049995031897780325 0 -0.0014305467078634209 -0.0053667151765349544 0 -0.00070079531173918486 -0.0059132999405565982 0 -0.00040562692666987416 -0.0049995031897780325 0 -0.00051625295277827373 -0.0039936523405197611 0 -0.0020693046967657984 -0.0043707307295341022 0 -0.00052834797068271387 -0.0054198647904135132 0 -0.00051625295277827373 -0.0039936523405197611 0 -0.00052834797068271387 -0.0054198647904135132 0 0.00047233462705927146 -0.0049592408320777897 0 0.00068547700421059637 -0.0040228810204264581 0 0.00047233462705927146 -0.0049592408320777897 0 0.00152318748867227 -0.0049548753609458488 0 -0.00051625295277827373 -0.0039936523405197611 0 0.00068547700421059637 -0.0040228810204264581 0 0.00047233462705927146 -0.0049592408320777897 0 0.0015811671516933006 -0.0039154634345893117 0 0.00068547700421059637 -0.0040228810204264581 0 0.00152318748867227 -0.0049548753609458488 0 0.0015811671516933006 -0.0039154634345893117 0 0.0025036226405078243 -0.004049193646274549 0 0.00152318748867227 -0.0049548753609458488 0 0.0025036226405078243 -0.004049193646274549 0 0.00152318748867227 -0.0049548753609458488 0 0.0023630463428834865 -0.0060038561001308456 0 0.00078615421558680845 -0.0102016360231696 0 0.00085744727219958634 -0.011161349837686713 0 -0.00089231625618313795 -0.016525727212157722 0 -0.00097834443217405514 -0.016667622429957982 0 -0.0008510803824779208 -0.016500505635598826 0 -0.00097834443217405514 -0.016667622429957982 0 -0.00063066795113693105 -0.016305092598262086 0 -0.0008510803824779208 -0.016500505635598826 0 -0.00063066795113693105 -0.016305092598262086 0 -0.0008510803824779208 -0.016500505635598826 0 -0.00074618739203798751 -0.016155095185443717 0 0.00088249721516048566 -0.0064072421808340401 0 0.00047233462705927146 -0.0049592408320777897 0 0.00152318748867227 -0.0049548753609458488 0 0.00088249721516048566 -0.0064072421808340401 0 0.00152318748867227 -0.0049548753609458488 0 0.0023630463428834865 -0.0060038561001308456 0 -0.00045575127457049374 -0.01686839709427794 0 -0.00044262122905936059 -0.017654767187675263 0 -0.00010458933769352463 -0.01729833489351083 0 -0.00089231625618313795 -0.016525727212157722 0 -0.0008510803824779208 -0.016500505635598826 0 -0.0009101676848758698 -0.016477301587074292 0 -0.00045575127457049374 -0.01686839709427794 0 -0.00089231625618313795 -0.016525727212157722 0 -0.00044262122905936059 -0.017654767187675263 0 -0.0008847612858529487 -0.01656220062404536 0 -0.00066881100130745171 -0.017042619734185398 0 -0.0008510803824779208 -0.016500505635598826 0 -0.0009101676848758698 -0.016477301587074292 0 -0.00074618739203798751 -0.016155095185443717 0 -0.00044262122905936059 -0.017654767187675263 0 -1.2230902895688231e-05 -0.01793884280705995 0 -2.1140523395683623e-05 -0.017928752422663157 0 -0.00066881100130745171 -0.017042619734185398 0 -0.00048380877673436624 -0.017028946171110639 0 -0.0009101676848758698 -0.016477301587074292 0 -0.00094600506361642363 -0.016163028337414106 0 -0.00074618739203798751 -0.016155095185443717 0 -0.00074618739203798751 -0.016155095185443717 0 -0.00064744420685620453 -0.015954669769916399 0 -0.00076572896918347666 -0.015911204625727898 0 -0.00094600506361642363 -0.016163028337414106 0 -0.00076572896918347666 -0.015911204625727898 0 -0.0010035399977015099 -0.015834515819411206 0 -0.00094600506361642363 -0.016163028337414106 0 -0.00074618739203798751 -0.016155095185443717 0 -0.00076572896918347666 -0.015911204625727898 0 0.00090743452955493575 -0.0062436517019469045 0 0.0021157886509724304 -0.007232007632309777 0 0.00095527264280864915 -0.0061536938406614224 0 0.0021866214595763489 -0.0072891984818932182 0 0.0012458742385348437 -0.0071246940295229171 0 0.00088249721516048566 -0.0064072421808340401 0 0.0023630463428834865 -0.0060038561001308456 0 0.0021866214595763489 -0.0072891984818932182 0 -0.00063066795113693105 -0.016305092598262086 0 -0.00074618739203798751 -0.016155095185443717 0 -0.00052455840640155743 -0.015950018235550398 0 0.0023630463428834865 -0.0060038561001308456 0 0.0021866214595763489 -0.0072891984818932182 0 0.0022482391286587698 -0.0077251727084606181 0 0.00085744727219958634 -0.011161349837686713 0 0.000844056918070217 -0.011890170685450837 0 -0.00074618739203798751 -0.016155095185443717 0 -0.00064744420685620453 -0.015954669769916399 0 -0.00052455840640155743 -0.015950018235550398 0 0.0022482391286587698 -0.0077251727084606181 0 0.0019546661461042089 -0.0076371105421860859 0 0.0017778456106681511 -0.0081607353759213901 0 0.0021866214595763489 -0.0072891984818932182 0 0.0022482391286587698 -0.0077251727084606181 0 0.0019546661461042089 -0.0076371105421860859 0 0.0016042377880131021 -0.0075622038303220732 0 0.0013227871021001683 -0.0079970731330537819 0 0.0017778456106681511 -0.0081607353759213901 0 0.0016042377880131021 -0.0075622038303220732 0 0.0019546661461042089 -0.0076371105421860859 0 0.0017778456106681511 -0.0081607353759213901 0 0.0021866214595763489 -0.0072891984818932182 0 0.0016042377880131021 -0.0075622038303220732 0 0.0012458742385348437 -0.0071246940295229171 0 0.0021866214595763489 -0.0072891984818932182 0 0.0016042377880131021 -0.0075622038303220732 0 0.0019546661461042089 -0.0076371105421860859 0 0.00094769968122237179 -0.0075718307237001231 0 0.0016042377880131021 -0.0075622038303220732 0 0.0012458742385348437 -0.0071246940295229171 0 0.00094769968122237179 -0.0075718307237001231 0 0.0016042377880131021 -0.0075622038303220732 0 0.0013227871021001683 -0.0079970731330537819 0 0.00094769968122237179 -0.0075718307237001231 0 0.0013227871021001683 -0.0079970731330537819 0 0.00090176591044459429 -0.0081954395078729664 0 0.0013227871021001683 -0.0079970731330537819 0 0.0014056838376016625 -0.0086118155969064445 0 0.00090176591044459429 -0.0081954395078729664 0 0.0014056838376016625 -0.0086118155969064445 0 0.0017778456106681511 -0.0081607353759213901 0 0.0021305639233724681 -0.009533574935770792 0 0.0014056838376016625 -0.0086118155969064445 0 0.0008938472548732652 -0.0086797098508594652 0 0.00079830319024290172 -0.009372651713819645 0 0.0014056838376016625 -0.0086118155969064445 0 0.00090176591044459429 -0.0081954395078729664 0 0.0008938472548732652 -0.0086797098508594652 0 0.0013227871021001683 -0.0079970731330537819 0 0.0014056838376016625 -0.0086118155969064445 0 0.0017778456106681511 -0.0081607353759213901 0 0.000844056918070217 -0.011890170685450837 0 0.00092178070957330883 -0.012394841418101061 0 -0.00052455840640155743 -0.015950018235550398 0 -0.00050371047763475845 -0.015753585369762717 0 -0.00059818887594370433 -0.015857735254453092 0 0.0022482391286587698 -0.0077251727084606181 0 0.0017778456106681511 -0.0081607353759213901 0 0.0021305639233724681 -0.009533574935770792 0 -0.00064744420685620453 -0.015954669769916399 0 -0.00052455840640155743 -0.015950018235550398 0 -0.00059818887594370433 -0.015857735254453092 0 0.000498696952436342 -0.016053894585005109 0 -0.00055671485759555635 -0.015792232156307956 0 -0.00013095140910524561 -0.015416876723161867 0 0.00092178070957330883 -0.012394841418101061 0 -0.00075839641458259736 -0.016210884070084607 0 -0.00050371047763475845 -0.015753585369762717 0 -0.00059818887594370433 -0.015857735254453092 0 -0.00055671485759555635 -0.015792232156307956 0 0.0014056838376016625 -0.0086118155969064445 0 0.0021305639233724681 -0.009533574935770792 0 0.00079830319024290172 -0.009372651713819645 0 0.00092178070957330883 -0.012394841418101061 0 0.0011760410541886534 -0.0090150857877118844 0 0.0016713667566085378 -0.0087138918121890726 0 0.0016489330852938382 -0.0087107820247253366 0 0.0016374042975624381 -0.0086826316686272262 0 -0.00076572896918347666 -0.015911204625727898 0 -0.00088019978771959042 -0.01575818423677814 0 -0.0010035399977015099 -0.015834515819411206 0 -0.00076572896918347666 -0.015911204625727898 0 -0.00059818887594370433 -0.015857735254453092 0 -0.00055671485759555635 -0.015792232156307956 0 -0.00064744420685620453 -0.015954669769916399 0 -0.00076572896918347666 -0.015911204625727898 0 -0.00059818887594370433 -0.015857735254453092 0 -0.00076572896918347666 -0.015911204625727898 0 -0.00055671485759555635 -0.015792232156307956 0 -0.00088019978771959042 -0.01575818423677814 0 -0.00055671485759555635 -0.015792232156307956 0 -0.00088019978771959042 -0.01575818423677814 0 -0.00076117957484029327 -0.015451103802727796 0 -0.00088019978771959042 -0.01575818423677814 0 -0.0010843872300179435 -0.015413091344811615 0 -0.00076117957484029327 -0.015451103802727796 0 -0.0010843872300179435 -0.015413091344811615 0 -0.00076117957484029327 -0.015451103802727796 0 -0.0010860581880845089 -0.014978454353885317 0 -0.00055671485759555635 -0.015792232156307956 0 -0.00076117957484029327 -0.015451103802727796 0 -0.00013095140910524561 -0.015416876723161867 0 -0.00076117957484029327 -0.015451103802727796 0 -0.00013095140910524561 -0.015416876723161867 0 -0.00037019596629828843 -0.014865905834389032 0 -0.00037019596629828843 -0.014865905834389032 0 0.00013615447995140589 -0.01395970967225761 0 -0.00096627334724076373 -0.014106755301918543 0 -0.00037019596629828843 -0.014865905834389032 0 -0.0010860581880845089 -0.014978454353885317 0 -0.00096627334724076373 -0.014106755301918543 0 -0.00076117957484029327 -0.015451103802727796 0 -0.00037019596629828843 -0.014865905834389032 0 -0.0010860581880845089 -0.014978454353885317 0 -0.0010860581880845089 -0.014978454353885317 0 -0.00160808037928291 -0.014620139144018574 0 -0.00096627334724076373 -0.014106755301918543 0 -0.0010860581880845089 -0.014978454353885317 0 -0.0012644182195470715 -0.01511637486081171 0 -0.00160808037928291 -0.014620139144018574 0 -0.0010843872300179435 -0.015413091344811615 0 -0.0010860581880845089 -0.014978454353885317 0 -0.0012644182195470715 -0.01511637486081171 0 0.0016713667566085378 -0.0087138918121890726 0 0.0016489330852938382 -0.0087107820247253366 0 0.0016996051209433166 -0.0087444019140256839 0 0.00092178070957330883 -0.012394841418101061 0 0.0013181650749925537 -0.011804804132893426 0 0.000498696952436342 -0.016053894585005109 0 -0.00013095140910524561 -0.015416876723161867 0 0.00084901501645454503 -0.014930088810231919 0 -0.00013095140910524561 -0.015416876723161867 0 -0.00037019596629828843 -0.014865905834389032 0 0.00084901501645454503 -0.014930088810231919 0 -0.00037019596629828843 -0.014865905834389032 0 0.00084901501645454503 -0.014930088810231919 0 0.00013615447995140589 -0.01395970967225761 0 0.0016489330852938382 -0.0087107820247253366 0 0.0016996051209433166 -0.0087444019140256839 0 0.0016035969887241389 -0.0087435774910037314 0 0.0016212306725722015 -0.0086950444923797974 0 0.0016102073844508533 -0.008698232638557046 0 0.0016035969887241389 -0.0087435774910037314 0 0.0016489330852938382 -0.0087107820247253366 0 0.0016212306725722015 -0.0086950444923797974 0 0.0016374042975624381 -0.0086826316686272262 0 0.0016489330852938382 -0.0087107820247253366 0 0.0016212306725722015 -0.0086950444923797974 0 0.0016035969887241389 -0.0087435774910037314 0 0.0019117012046611533 -0.0078980151827069064 0 0.0017087971158782941 -0.0058061193326251637 0 0.0021993721895954741 -0.0067427593014802853 0 0.0013485881411406568 -0.0052098314158035477 0 0.0023996788870654859 -0.0048622152358130223 0 0.0016212306725722015 -0.0086950444923797974 0 0.0016102073844508533 -0.008698232638557046 0 0.0016058006937254483 -0.0086562775166882048 0 0.0016102073844508533 -0.008698232638557046 0 0.0016042161215308233 -0.0085600504337039335 0 0.0016035969887241389 -0.0087435774910037314 0 0.0019117012046611533 -0.0078980151827069064 0 0.001654480599008057 -0.0084148407436025648 0 0.0021993721895954741 -0.0067427593014802853 0 0.00092371008715614971 -0.0078214123708337108 0 0.00077478117286932388 -0.0064032168554674458 0 0.0021993721895954741 -0.0067427593014802853 0 0.00092371008715614971 -0.0078214123708337108 0 0.0016042161215308233 -0.0085600504337039335 0 0.00083086265900896884 -0.007814846505937811 0 -0.00018376619332180635 -0.007716447153848908 0 0.00092371008715614971 -0.0078214123708337108 0 -0.000124434751480299 -0.0068904029017165195 0 -0.00085403062392548277 -0.0076503343365795758 0 0.00092371008715614971 -0.0078214123708337108 0 -0.000124434751480299 -0.0068904029017165195 0 0.00077478117286932388 -0.0064032168554674458 0 -0.000124434751480299 -0.0068904029017165195 0 -0.00045595674194514728 -0.0058498987535003013 0 0.00077478117286932388 -0.0064032168554674458 0 -0.00045595674194514728 -0.0058498987535003013 0 0.00077478117286932388 -0.0064032168554674458 0 0.00040494452265870941 -0.005358164461082204 0 -0.00045595674194514728 -0.0058498987535003013 0 -0.00038054438328250021 -0.004971897889158243 0 0.00040494452265870941 -0.005358164461082204 0 0.0021993721895954741 -0.0067427593014802853 0 0.00077478117286932388 -0.0064032168554674458 0 0.0013485881411406568 -0.0052098314158035477 0 0.00077478117286932388 -0.0064032168554674458 0 0.0013485881411406568 -0.0052098314158035477 0 0.00040494452265870941 -0.005358164461082204 0 0.0013485881411406568 -0.0052098314158035477 0 0.00055467815410374655 -0.0044036321065689336 0 0.0022900496439552044 -0.0046257729800500526 0 0.00083500830072031317 -0.00015067460144642633 0 0.0014059251992417411 0.00060629511096487018 0 0.0027086861019432508 -0.00037856019544304896 0 0.00069264550460446279 -0.0022422838941554913 0 0.0023890624595974091 -0.004042478577385239 0 0.0013485881411406568 -0.0052098314158035477 0 0.00040494452265870941 -0.005358164461082204 0 0.00055467815410374655 -0.0044036321065689336 0 -0.00038054438328250021 -0.004971897889158243 0 0.00040494452265870941 -0.005358164461082204 0 0.00055467815410374655 -0.0044036321065689336 0 0.00069264550460446279 -0.0022422838941554913 0 -0.00030355388716522336 -0.0026998866658704047 0 -0.00038054438328250021 -0.004971897889158243 0 0.00055467815410374655 -0.0044036321065689336 0 -0.00026269776811671303 -0.0042696352128920451 0 -2.6477343075664348e-05 -4.3483765611706537e-05 0 0.0003703780465600241 0.0008366649329209937 0 -0.00052870093317675961 0.0010592389881549599 0 0.00083500830072031317 -0.00015067460144642633 0 0.0003703780465600241 0.0008366649329209937 0 0.0014059251992417411 0.00060629511096487018 0 0.00083500830072031317 -0.00015067460144642633 0 -2.6477343075664348e-05 -4.3483765611706537e-05 0 0.0003703780465600241 0.0008366649329209937 0 0.00073235006748095593 0.0018192921155339133 0 0.0003703780465600241 0.0008366649329209937 0 0.0014059251992417411 0.00060629511096487018 0 -0.00017952451718194617 0.0018270309411806843 0 0.0003703780465600241 0.0008366649329209937 0 -0.00052870093317675961 0.0010592389881549599 0 0.0018459425694278379 0.001458456840884993 0 0.0014059251992417411 0.00060629511096487018 0 0.0027086861019432508 -0.00037856019544304896 0 0.0019080346519148544 0.0001439335643921569 0 0.0023890624595974091 -0.004042478577385239 0 0.0018459425694278379 0.001458456840884993 0 0.00073235006748095593 0.0018192921155339133 0 0.0014059251992417411 0.00060629511096487018 0 -0.00046931966753872281 -0.0081171089177593091 0 -0.00055779776243821137 -0.0092111060652525431 0 -0.00020798374495086 -0.0090358496812320173 0 0.0020183687152804512 -0.0017719089167155234 0 0.0035530909580202262 -0.0023517595120987303 0 0.0031172357154287031 -0.0042028485720333559 0 0.00042158517130164147 -0.0065144311291773383 0 0.0017087971158782941 -0.0058061193326251637 0 0.0035530909580202262 -0.0023517595120987303 0 0.0031172357154287031 -0.0042028485720333559 0 0.0033696789751392346 -0.0042299384391272961 0 0.00042158517130164147 -0.0065144311291773383 0 2.5719434796772231e-05 -0.0091757397126974241 0 -0.00048664762132074203 -0.0082069927863087713 0 -5.7822542959350999e-05 -0.0084639680383369071 0 -0.00020798374495086 -0.0090358496812320173 0 -0.00048664762132074203 -0.0082069927863087713 0 -5.7822542959350999e-05 -0.0084639680383369071 0 -3.7038646611501058e-05 -0.008059917249197834 0 0.0003884363723205375 -0.0077868515413914013 0 -3.7038646611501058e-05 -0.008059917249197834 0 0.00039644394925949931 -0.0084702548614392203 0 -5.7822542959350999e-05 -0.0084639680383369071 0 -3.7038646611501058e-05 -0.008059917249197834 0 0.00039644394925949931 -0.0084702548614392203 0 0.0003884363723205375 -0.0077868515413914013 0 0.00090176591044459429 -0.0081954395078729664 0 0.00039644394925949931 -0.0084702548614392203 0 0.0008938472548732652 -0.0086797098508594652 0 0.00039644394925949931 -0.0084702548614392203 0 0.00079830319024290172 -0.009372651713819645 0 0.00090176591044459429 -0.0081954395078729664 0 0.0008938472548732652 -0.0086797098508594652 0 0.00039644394925949931 -0.0084702548614392203 0 -5.7822542959350999e-05 -0.0084639680383369071 0 0.00039644394925949931 -0.0084702548614392203 0 -0.00020798374495086 -0.0090358496812320173 0 0.00039644394925949931 -0.0084702548614392203 0 0.00079830319024290172 -0.009372651713819645 0 -0.00020798374495086 -0.0090358496812320173 0 0.0016212306725722015 -0.0086950444923797974 0 0.0016374042975624381 -0.0086826316686272262 0 0.0016058006937254483 -0.0086562775166882048 0 0.0011760410541886534 -0.0090150857877118844 0 0.0017087971158782941 -0.0058061193326251637 0 0.0021993721895954741 -0.0067427593014802853 0 0.0023996788870654859 -0.0048622152358130223 0 0.0024774871480629187 -0.0046351137658420909 0 0.00079830319024290172 -0.009372651713819645 0 -0.00055779776243821137 -0.0092111060652525431 0 -0.00020798374495086 -0.0090358496812320173 0 0.0013485881411406568 -0.0052098314158035477 0 0.0023996788870654859 -0.0048622152358130223 0 0.0022900496439552044 -0.0046257729800500526 0 0.0023996788870654859 -0.0048622152358130223 0 0.0022889850511694965 -0.0046153967311134917 0 0.0024774871480629187 -0.0046351137658420909 0 0.0024519586348396199 -0.0042545297825383709 0 0.0023890624595974091 -0.004042478577385239 0 0.0023890624595974091 -0.004042478577385239 0 0.0017087971158782941 -0.0058061193326251637 0 -0.0056742995466575342 -0.023306020987232601 0 -0.0022917609928000365 -0.021704029018433341 0 -0.004067217546176111 -0.019989982978244589 0 -0.0022917609928000365 -0.021704029018433341 0 -0.0023761819361865465 -0.024853762671006373 0 0.00038120043659900814 -0.02335899313829182 0 -0.0056742995466575342 -0.023306020987232601 0 -0.0022917609928000365 -0.021704029018433341 0 -0.0023761819361865465 -0.024853762671006373 0 -0.0056742995466575342 -0.023306020987232601 0 -0.0023761819361865465 -0.024853762671006373 0 -0.004630441122869971 -0.025794210326190465 0 -0.0023761819361865465 -0.024853762671006373 0 -0.004630441122869971 -0.025794210326190465 0 -0.0033480396439273005 -0.028384485509456849 0 -0.0038724822997884762 -0.030071260305236908 0 -0.0028713682649037717 -0.029646454051706697 0 -0.0033480396439273005 -0.028384485509456849 0 -0.0028713682649037717 -0.029646454051706697 0 -0.0015779634385470549 -0.028173152870364589 0 -0.00072281271919961163 -0.029564977517792791 0 -0.0028713682649037717 -0.029646454051706697 0 -0.0033480396439273005 -0.028384485509456849 0 -0.0015779634385470549 -0.028173152870364589 0 -0.0023761819361865465 -0.024853762671006373 0 -0.0015779634385470549 -0.028173152870364589 0 5.9989525559071433e-05 -0.026802731676709882 0 -0.0023761819361865465 -0.024853762671006373 0 -0.0033480396439273005 -0.028384485509456849 0 -0.0015779634385470549 -0.028173152870364589 0 0.00039859692807865779 -0.018209247739030224 0 0.00026819999095081983 -0.018073035784057782 0 0.00024136455461235337 -0.018344130869416834 0 -0.0015779634385470549 -0.028173152870364589 0 5.9989525559071433e-05 -0.026802731676709882 0 -0.00072281271919961163 -0.029564977517792791 0 0.00017304326675075574 -0.022938740011742335 0 -0.00045362825717076393 -0.021513794202805522 0 0.00039859692807865779 -0.018209247739030224 0 0.00026819999095081983 -0.018073035784057782 0 0.00039082947149968975 -0.018008205531353808 0 4.3485691325227643e-05 -0.018113407133763852 0 5.5637543325104467e-05 -0.018115431688013484 0 7.1456878371642675e-05 -0.018156344239855196 0 0.00052216477113841645 -0.017782217863008692 0 -0.00045362825717076393 -0.021513794202805522 0 4.3485691325227643e-05 -0.018113407133763852 0 5.5637543325104467e-05 -0.018115431688013484 0 -5.2988641355281422e-06 -0.018049248393244212 0 5.5637543325104467e-05 -0.018115431688013484 0 3.0930453535020951e-05 -0.018148737759797091 0 -5.2988641355281422e-06 -0.018049248393244212 0 0.00026819999095081983 -0.018073035784057782 0 3.0930453535020951e-05 -0.018148737759797091 0 0.00024136455461235337 -0.018344130869416834 0 0.00052216477113841645 -0.017782217863008692 0 -7.6486809144444656e-05 -0.018260375169087548 0 3.0930453535020951e-05 -0.018148737759797091 0 0.00024136455461235337 -0.018344130869416834 0 -5.3341292031591498e-05 -0.018578614561489154 0 0.00024136455461235337 -0.018344130869416834 0 0.00039834314252424501 -0.018636286455584086 0 -5.3341292031591498e-05 -0.018578614561489154 0 0.00017304326675075574 -0.022938740011742335 0 0.00033879445845016521 -0.020917042236858783 0 -0.0023761819361865465 -0.024853762671006373 0 5.9989525559071433e-05 -0.026802731676709882 0 0.00038120043659900814 -0.02335899313829182 0 0.00039859692807865779 -0.018209247739030224 0 0.00024136455461235337 -0.018344130869416834 0 0.00039834314252424501 -0.018636286455584086 0 -0.0022917609928000365 -0.021704029018433341 0 0.00038120043659900814 -0.02335899313829182 0 8.8790148415383291e-05 -0.019583280937875553 0 0.00033879445845016521 -0.020917042236858783 0 0.00019313971476607678 -0.019792933376022816 0 0.00039834314252424501 -0.018636286455584086 0 -5.3341292031591498e-05 -0.018578614561489154 0 8.8790148415383291e-05 -0.019583280937875553 0 -5.3341292031591498e-05 -0.018578614561489154 0 -4.1514997034650935e-05 -0.018842474146251172 0 8.8790148415383291e-05 -0.019583280937875553 0 -5.3341292031591498e-05 -0.018578614561489154 0 -2.6676696557595268e-05 -0.018725937388503981 0 -4.1514997034650935e-05 -0.018842474146251172 0 -0.00034759636542869955 -0.018114174702527804 0 -5.3341292031591498e-05 -0.018578614561489154 0 -2.6676696557595268e-05 -0.018725937388503981 0 -0.00038507790618213015 -0.018073010603426233 0 -0.00046244665803466499 -0.017800326941128958 0 -0.00034759636542869955 -0.018114174702527804 0 -0.00013168162208587804 -0.018201294689691616 0 -0.00010674533242193233 -0.018005080036743924 0 -0.00034759636542869955 -0.018114174702527804 0 -0.00013168162208587804 -0.018201294689691616 0 -5.3341292031591498e-05 -0.018578614561489154 0 3.0930453535020951e-05 -0.018148737759797091 0 -0.00013168162208587804 -0.018201294689691616 0 -5.3341292031591498e-05 -0.018578614561489154 0 3.0930453535020951e-05 -0.018148737759797091 0 -5.2988641355281422e-06 -0.018049248393244212 0 -0.00010674533242193233 -0.018005080036743924 0 3.0930453535020951e-05 -0.018148737759797091 0 -0.00013168162208587804 -0.018201294689691616 0 -0.00010674533242193233 -0.018005080036743924 0 -5.2988641355281422e-06 -0.018049248393244212 0 -5.9013839976587776e-05 -0.017972328158246332 0 -0.00010674533242193233 -0.018005080036743924 0 -5.0799767966501117e-07 -0.01796218919294764 0 -5.9013839976587776e-05 -0.017972328158246332 0 0.00011254182027843574 -0.017723854388021536 0 -5.9013839976587776e-05 -0.017972328158246332 0 -0.00010674533242193233 -0.018005080036743924 0 0.00011254182027843574 -0.017723854388021536 0 -0.00010674533242193233 -0.018005080036743924 0 0.00011254182027843574 -0.017723854388021536 0 -2.1140523395683623e-05 -0.017928752422663157 0 -0.00034759636542869955 -0.018114174702527804 0 -0.00010674533242193233 -0.018005080036743924 0 -2.1140523395683623e-05 -0.017928752422663157 0 -0.00044262122905936059 -0.017654767187675263 0 -0.00010458933769352463 -0.01729833489351083 0 -2.1140523395683623e-05 -0.017928752422663157 0 0.00011254182027843574 -0.017723854388021536 0 -0.00010458933769352463 -0.01729833489351083 0 -2.1140523395683623e-05 -0.017928752422663157 0 -1.2230902895688231e-05 -0.01793884280705995 0 -2.1140523395683623e-05 -0.017928752422663157 0 -0.00010792772065640605 -0.017792637747607344 0 -0.00034759636542869955 -0.018114174702527804 0 -2.1140523395683623e-05 -0.017928752422663157 0 -0.00010792772065640605 -0.017792637747607344 0 -0.00034759636542869955 -0.018114174702527804 0 -0.00010792772065640605 -0.017792637747607344 0 -0.00097468532924686706 -0.016996001363698207 0 -0.00048380877673436624 -0.017028946171110639 0 -0.00048779224752783359 -0.016462640295346002 0 -1.2230902895688231e-05 -0.01793884280705995 0 -0.00010792772065640605 -0.017792637747607344 0 6.8404654723823379e-05 -0.017102100815181452 0 -0.00010792772065640605 -0.017792637747607344 0 6.8404654723823379e-05 -0.017102100815181452 0 -0.00097468532924686706 -0.016996001363698207 0 6.8404654723823379e-05 -0.017102100815181452 0 -0.00077214640970784982 -0.015683484323642811 0 -0.00097468532924686706 -0.016996001363698207 0 -0.0010035399977015099 -0.015834515819411206 0 -0.00096307834832602994 -0.015649603032087928 0 -0.00077214640970784982 -0.015683484323642811 0 -0.00048779224752783359 -0.016462640295346002 0 -0.00074503755232376847 -0.015749155064287354 0 -0.00088019978771959042 -0.01575818423677814 0 -0.0010035399977015099 -0.015834515819411206 0 -0.00096307834832602994 -0.015649603032087928 0 -0.00096307834832602994 -0.015649603032087928 0 -0.0011775473530838969 -0.015365472305483595 0 -0.00077214640970784982 -0.015683484323642811 0 -0.0010843872300179435 -0.015413091344811615 0 -0.00096307834832602994 -0.015649603032087928 0 -0.0011775473530838969 -0.015365472305483595 0 -0.00088019978771959042 -0.01575818423677814 0 -0.0010843872300179435 -0.015413091344811615 0 -0.00096307834832602994 -0.015649603032087928 0 -0.0010843872300179435 -0.015413091344811615 0 -0.0012644182195470715 -0.01511637486081171 0 -0.0011775473530838969 -0.015365472305483595 0 -0.0011775473530838969 -0.015365472305483595 0 -0.00084160724966868684 -0.015903246393743162 0 -0.00160808037928291 -0.014620139144018574 0 -0.0012644182195470715 -0.01511637486081171 0 -0.0011775473530838969 -0.015365472305483595 0 -0.00160808037928291 -0.014620139144018574 0 -0.0008418816565879169 -0.015659413341220632 0 -0.0003810017240227949 -0.016087644429737431 0 -0.00084160724966868684 -0.015903246393743162 0 -0.0011775473530838969 -0.015365472305483595 0 -0.0008418816565879169 -0.015659413341220632 0 -0.00084160724966868684 -0.015903246393743162 0 -0.0008418816565879169 -0.015659413341220632 0 -0.00077214640970784982 -0.015683484323642811 0 -0.0010418038457601384 -0.015730978253184473 0 -0.0011775473530838969 -0.015365472305483595 0 -0.0008418816565879169 -0.015659413341220632 0 -0.00077214640970784982 -0.015683484323642811 0 -0.0008418816565879169 -0.015659413341220632 0 -0.0010418038457601384 -0.015730978253184473 0 -0.0003810017240227949 -0.016087644429737431 0 -0.00035134575859298951 -0.016864574894562237 0 -0.0003662696328134174 -0.016202553517982027 0 0.00039283158876524089 -0.01795063165513875 0 -0.00018975420735418725 -0.017011841954190345 0 -0.0003810017240227949 -0.016087644429737431 0 0.00039283158876524089 -0.01795063165513875 0 -0.00018975420735418725 -0.017011841954190345 0 -0.00016001062286630384 -0.01784921544350555 0 -0.00018975420735418725 -0.017011841954190345 0 -0.0006275367669578651 -0.016496483020890639 0 -0.0010043375222686299 -0.016686949114106401 0 -0.00018975420735418725 -0.017011841954190345 0 -0.0003810017240227949 -0.016087644429737431 0 -0.0006275367669578651 -0.016496483020890639 0 -0.0006275367669578651 -0.016496483020890639 0 -0.0011255111686945183 -0.016254398279904166 0 -0.00040123350739244243 -0.016177930119336079 0 -0.0003810017240227949 -0.016087644429737431 0 -0.0006275367669578651 -0.016496483020890639 0 -0.00040123350739244243 -0.016177930119336079 0 -0.00022223316355340621 -0.017017336442513509 0 -0.00060630869321414284 -0.017082669857681049 0 -0.00016001062286630384 -0.01784921544350555 0 -0.00017040424149427177 -0.018424511744651248 0 -0.0004653608916861391 -0.017433510041466038 0 -0.00018975420735418725 -0.017011841954190345 0 -0.00016001062286630384 -0.01784921544350555 0 -0.0004653608916861391 -0.017433510041466038 0 -0.00016001062286630384 -0.01784921544350555 0 -0.00017040424149427177 -0.018424511744651248 0 -1.5508001251095355e-06 -0.018438523771927642 0 0.00039283158876524089 -0.01795063165513875 0 -0.00016001062286630384 -0.01784921544350555 0 -1.5508001251095355e-06 -0.018438523771927642 0 0.00039283158876524089 -0.01795063165513875 0 -1.5508001251095355e-06 -0.018438523771927642 0 -2.6676696557595268e-05 -0.018725937388503981 0 -0.00077214640970784982 -0.015683484323642811 0 -0.0010418038457601384 -0.015730978253184473 0 -0.00097468532924686706 -0.016996001363698207 0 -0.00035134575859298951 -0.016864574894562237 0 -0.00046244665803466499 -0.017800326941128958 0 -1.5508001251095355e-06 -0.018438523771927642 0 -2.6676696557595268e-05 -0.018725937388503981 0 -4.1514997034650935e-05 -0.018842474146251172 0 -0.00017040424149427177 -0.018424511744651248 0 -1.5508001251095355e-06 -0.018438523771927642 0 -4.1514997034650935e-05 -0.018842474146251172 0 -0.00017040424149427177 -0.018424511744651248 0 -4.1514997034650935e-05 -0.018842474146251172 0 8.8790148415383291e-05 -0.019583280937875553 0 8.8790148415383291e-05 -0.019583280937875553 0 -0.0010841870124078123 -0.018687417384181029 0 -0.0021595011857500446 -0.019607063867271016 0 8.8790148415383291e-05 -0.019583280937875553 0 -0.0010841870124078123 -0.018687417384181029 0 -0.00051600547401076178 -0.01835882004167658 0 -0.0010841870124078123 -0.018687417384181029 0 -0.00051600547401076178 -0.01835882004167658 0 -0.0012044016802078489 -0.01791743406895412 0 -0.00017040424149427177 -0.018424511744651248 0 8.8790148415383291e-05 -0.019583280937875553 0 -0.00051600547401076178 -0.01835882004167658 0 -0.00017040424149427177 -0.018424511744651248 0 -0.00051600547401076178 -0.01835882004167658 0 -0.0004653608916861391 -0.017433510041466038 0 -0.0006275367669578651 -0.016496483020890639 0 -0.0010043375222686299 -0.016686949114106401 0 -0.0011255111686945183 -0.016254398279904166 0 -0.0010043375222686299 -0.016686949114106401 0 -0.0014363593995557181 -0.016634940412871665 0 -0.0011255111686945183 -0.016254398279904166 0 -0.0014363593995557181 -0.016634940412871665 0 -0.0015251040007402447 -0.016325519448126165 0 -0.0011255111686945183 -0.016254398279904166 0 -0.00051600547401076178 -0.01835882004167658 0 -0.0004653608916861391 -0.017433510041466038 0 -0.0012044016802078489 -0.01791743406895412 0 -0.0004653608916861391 -0.017433510041466038 0 -0.0012044016802078489 -0.01791743406895412 0 -0.0016025985285538218 -0.01721587475081433 0 -0.00060630869321414284 -0.017082669857681049 0 -0.0020308638875757932 -0.016580468058882334 0 -0.0012044016802078489 -0.01791743406895412 0 -0.0020747571916797563 -0.017781997568460439 0 -0.0016025985285538218 -0.01721587475081433 0 -0.0020308638875757932 -0.016580468058882334 0 -2.5366379482889574e-05 -0.02007390336811293 0 -0.0020747571916797563 -0.017781997568460439 0 -0.0016025985285538218 -0.01721587475081433 0 -0.0028326339920751965 -0.017228427452139476 0 -0.0014363593995557181 -0.016634940412871665 0 -0.0016887315261866361 -0.016434731114040865 0 -0.0015251040007402447 -0.016325519448126165 0 -0.0014363593995557181 -0.016634940412871665 0 -0.0016887315261866361 -0.016434731114040865 0 -0.0017501816980358175 -0.016627145443530986 0 -0.0018460202907130325 -0.016355041856540638 0 -0.0016887315261866361 -0.016434731114040865 0 -0.0017501816980358175 -0.016627145443530986 0 -2.5366379482889574e-05 -0.02007390336811293 0 -0.0018019773240597766 -0.022162444945612727 0 -0.0020747571916797563 -0.017781997568460439 0 -0.0028326339920751965 -0.017228427452139476 0 -0.0024469808812973581 -0.018086910483165838 0 0.00041232555419998311 -0.028476262546463571 0 0.0014227436187906786 -0.027260817162397886 0 0.0020821647455455221 -0.028723795593302862 0 -0.0028774533112002521 -0.018420829301095256 0 -0.0031626062372670919 -0.017820063207450429 0 -0.004067217546176111 -0.019989982978244589 0 -0.0026797095363639651 -0.025079222230024761 0 -0.0018019773240597766 -0.022162444945612727 0 -0.0027404906184985921 -0.019782582737872759 0 -0.0018019773240597766 -0.022162444945612727 0 -0.0020747571916797563 -0.017781997568460439 0 -0.0029604033913699546 -0.01809585955887243 0 -0.0020078555639366997 -0.018334403570007297 0 -0.0028774533112002521 -0.018420829301095256 0 -0.0029604033913699546 -0.01809585955887243 0 -0.0020078555639366997 -0.018334403570007297 0 -0.0013222117154213305 -0.018722057465653027 0 -0.0018019773240597766 -0.022162444945612727 0 -0.0010841870124078123 -0.018687417384181029 0 -0.0012044016802078489 -0.01791743406895412 0 -0.0020078555639366997 -0.018334403570007297 0 -0.0012044016802078489 -0.01791743406895412 0 -0.0020747571916797563 -0.017781997568460439 0 -0.0020078555639366997 -0.018334403570007297 0 -0.0010841870124078123 -0.018687417384181029 0 -0.0020078555639366997 -0.018334403570007297 0 -0.0021595011857500446 -0.019607063867271016 0 -0.0028774533112002521 -0.018420829301095256 0 -0.0020078555639366997 -0.018334403570007297 0 -0.0021595011857500446 -0.019607063867271016 0 -0.0022917609928000365 -0.021704029018433341 0 -0.0021595011857500446 -0.019607063867271016 0 -0.004067217546176111 -0.019989982978244589 0 -0.0022917609928000365 -0.021704029018433341 0 8.8790148415383291e-05 -0.019583280937875553 0 -0.0021595011857500446 -0.019607063867271016 0 -0.0061527186710719928 -0.019810344265116679 0 -0.0031626062372670919 -0.017820063207450429 0 -0.004067217546176111 -0.019989982978244589 0 -0.0028774533112002521 -0.018420829301095256 0 -0.0021595011857500446 -0.019607063867271016 0 -0.004067217546176111 -0.019989982978244589 0 -0.0012034713284426615 -0.016656965998186724 0 -0.0014449361925479543 -0.016803778918805863 0 -0.0013076650108641815 -0.01641106718977605 0 -0.0012034713284426615 -0.016656965998186724 0 -0.00096407484243803403 -0.016634175522807961 0 -0.0013076650108641815 -0.01641106718977605 0 -0.00096407484243803403 -0.016634175522807961 0 -0.0013076650108641815 -0.01641106718977605 0 -0.00091836107063827954 -0.016341307695553517 0 -0.00096407484243803403 -0.016634175522807961 0 -0.0012184767904374501 -0.016815656571035516 0 -0.0011155333490273059 -0.016955868653486725 0 -0.0012034713284426615 -0.016656965998186724 0 -0.00096407484243803403 -0.016634175522807961 0 -0.0012184767904374501 -0.016815656571035516 0 -0.0012034713284426615 -0.016656965998186724 0 -0.0012184767904374501 -0.016815656571035516 0 -0.0014449361925479543 -0.016803778918805863 0 -0.0012184767904374501 -0.016815656571035516 0 -0.0014449361925479543 -0.016803778918805863 0 -0.001406708736644485 -0.016956886683834719 0 -0.0015846514696530648 -0.016632120671339796 0 -0.0019092004489145054 -0.016351903187050841 0 -0.0016271708437958898 -0.016038559705443354 0 -0.0014470472832981158 -0.016526748982004767 0 -0.0010452644821438639 -0.016182452045967965 0 -0.0014470472832981158 -0.016526748982004767 0 -0.0016188325942674199 -0.016150510433427929 0 -0.0014449361925479543 -0.016803778918805863 0 -0.0016271708437958898 -0.016038559705443354 0 -0.0013076650108641815 -0.01641106718977605 0 -0.00120580322332108 -0.016081551257289349 0 -0.0010281880800204989 -0.016022232194222389 0 -0.0012153672203076306 -0.016000024770453428 0 -0.0014470472832981158 -0.016526748982004767 0 -0.0010024485532603388 -0.01564418237596989 0 -0.0015846514696530648 -0.016632120671339796 0 -0.0019092004489145054 -0.016351903187050841 0 -0.0019810278015836825 -0.016759392143257182 0 -0.0019727496791358884 -0.016010742260840823 0 -0.0016271708437958898 -0.016038559705443354 0 -0.001668101132766366 -0.01528890273018762 0 -0.0019092004489145054 -0.016351903187050841 0 -0.0019727496791358884 -0.016010742260840823 0 -0.0016271708437958898 -0.016038559705443354 0 -0.0016271708437958898 -0.016038559705443354 0 -0.001164257772930238 -0.01589456928157184 0 -0.0013076650108641815 -0.01641106718977605 0 -0.001164257772930238 -0.01589456928157184 0 -0.0013076650108641815 -0.01641106718977605 0 -0.00091836107063827954 -0.016341307695553517 0 -0.00073671023756329403 -0.016109866522821342 0 -0.001164257772930238 -0.01589456928157184 0 -0.00091836107063827954 -0.016341307695553517 0 -0.000801306912018845 -0.015674766192066324 0 -0.001164257772930238 -0.01589456928157184 0 -0.0011007612430339944 -0.01530284008847671 0 -0.000801306912018845 -0.015674766192066324 0 -0.00073671023756329403 -0.016109866522821342 0 -0.001164257772930238 -0.01589456928157184 0 -0.001164257772930238 -0.01589456928157184 0 -0.0011007612430339944 -0.01530284008847671 0 -0.001668101132766366 -0.01528890273018762 0 -0.0011007612430339944 -0.01530284008847671 0 -0.0014978462441159759 -0.015051926113603668 0 -0.001668101132766366 -0.01528890273018762 0 -0.00068962599315526151 -0.015306934440397775 0 -0.0011007612430339944 -0.01530284008847671 0 -0.00083261150935635053 -0.01505569063166985 0 -0.00068962599315526151 -0.015306934440397775 0 -0.000801306912018845 -0.015674766192066324 0 -0.0011007612430339944 -0.01530284008847671 0 -0.0011007612430339944 -0.01530284008847671 0 -0.00083261150935635053 -0.01505569063166985 0 -0.0011594248655624408 -0.014974255613997695 0 -0.00063709229272408056 -0.014703347484006592 0 -0.00083261150935635053 -0.01505569063166985 0 -0.0011594248655624408 -0.014974255613997695 0 -0.0018460202907130325 -0.016355041856540638 0 -0.0016887315261866361 -0.016434731114040865 0 -0.0015251040007402447 -0.016325519448126165 0 -0.00071305230015695782 -0.01637691408790554 0 -0.0017081861403619866 -0.015447300648552572 0 -0.00063709229272408056 -0.014703347484006592 0 -0.0011594248655624408 -0.014974255613997695 0 -0.0016823764195012831 -0.014788200429015083 0 -0.0011007612430339944 -0.01530284008847671 0 -0.0011594248655624408 -0.014974255613997695 0 -0.0014978462441159759 -0.015051926113603668 0 -0.0011594248655624408 -0.014974255613997695 0 -0.0016823764195012831 -0.014788200429015083 0 -0.0014978462441159759 -0.015051926113603668 0 -0.0016823764195012831 -0.014788200429015083 0 -0.0014978462441159759 -0.015051926113603668 0 -0.0018281086506053885 -0.014950610466932357 0 -0.0016271708437958898 -0.016038559705443354 0 -0.001164257772930238 -0.01589456928157184 0 -0.001668101132766366 -0.01528890273018762 0 -0.0019727496791358884 -0.016010742260840823 0 -0.001668101132766366 -0.01528890273018762 0 -0.0022587371994434633 -0.015908597798639353 0 -0.0018281086506053885 -0.014950610466932357 0 -0.001668101132766366 -0.01528890273018762 0 -0.0018652367964892965 -0.015027353342491504 0 -0.0016939952243515248 -0.01526602283345811 0 -0.0020344675768156845 -0.015384823283742417 0 -0.0014978462441159759 -0.015051926113603668 0 -0.0018281086506053885 -0.014950610466932357 0 -0.001668101132766366 -0.01528890273018762 0 -0.0019258383092857284 -0.014947378154623102 0 -0.0018652367964892965 -0.015027353342491504 0 -0.0019499843667296938 -0.014924653399938108 0 -0.0019580210311406733 -0.014893917749590467 0 -0.0019969265413543229 -0.014822640969951516 0 -0.0019499843667296938 -0.014924653399938108 0 -0.001668101132766366 -0.01528890273018762 0 -0.0018652367964892965 -0.015027353342491504 0 -0.0019499843667296938 -0.014924653399938108 0 -0.0019258383092857284 -0.014947378154623102 0 -0.0019580210311406733 -0.014893917749590467 0 -0.0019499843667296938 -0.014924653399938108 0 -0.0019258383092857284 -0.014947378154623102 0 -0.0019580210311406733 -0.014893917749590467 0 -0.0019338153317130429 -0.014907678681231974 0 -0.0019580210311406733 -0.014893917749590467 0 -0.0019338153317130429 -0.014907678681231974 0 -0.0019912176468239399 -0.014820098669005233 0 -0.0018281086506053885 -0.014950610466932357 0 -0.0019338153317130429 -0.014907678681231974 0 -0.0018652367964892965 -0.015027353342491504 0 -0.0019258383092857284 -0.014947378154623102 0 -0.0019338153317130429 -0.014907678681231974 0 -0.0018652367964892965 -0.015027353342491504 0 -0.0017081861403619866 -0.015447300648552572 0 -0.0015272466220573298 -0.015503686468608013 0 -0.0018281086506053885 -0.014950610466932357 0 -0.0019338153317130429 -0.014907678681231974 0 -0.0019977636610420181 -0.014739193702367391 0 -0.0016823764195012831 -0.014788200429015083 0 -0.0018281086506053885 -0.014950610466932357 0 -0.0019977636610420181 -0.014739193702367391 0 -0.0015272466220573298 -0.015503686468608013 0 -0.0012821264822802632 -0.01536414823362022 0 -0.0019977636610420181 -0.014739193702367391 0 -0.0020409258103845909 -0.014711621301078229 0 -0.0019912176468239399 -0.014820098669005233 0 -0.0019338153317130429 -0.014907678681231974 0 -0.0019977636610420181 -0.014739193702367391 0 -0.0019912176468239399 -0.014820098669005233 0 -0.0019977636610420181 -0.014739193702367391 0 -0.0020409258103845909 -0.014711621301078229 0 -0.0020962400409123114 -0.014555322452919187 0 -0.0020409258103845909 -0.014711621301078229 0 -0.0019912176468239399 -0.014820098669005233 0 -0.0019969265413543229 -0.014822640969951516 0 -0.0019580210311406733 -0.014893917749590467 0 -0.0019912176468239399 -0.014820098669005233 0 -0.0019969265413543229 -0.014822640969951516 0 -0.0019969265413543229 -0.014822640969951516 0 -0.0020084833913349 -0.014818526922531728 0 -0.0019499843667296938 -0.014924653399938108 0 -0.0019969265413543229 -0.014822640969951516 0 -0.0020084833913349 -0.014818526922531728 0 -0.002050539716766598 -0.014769118509057494 0 -0.0022646809257137255 -0.015544544740482906 0 -0.0020344675768156845 -0.015384823283742417 0 -0.0023416654396473512 -0.016040592851514716 0 -0.0022587371994434633 -0.015908597798639353 0 -0.0022486102300925989 -0.016013234264105284 0 -0.0019727496791358884 -0.016010742260840823 0 -0.0022587371994434633 -0.015908597798639353 0 -0.0022486102300925989 -0.016013234264105284 0 -0.0019092004489145054 -0.016351903187050841 0 -0.0019727496791358884 -0.016010742260840823 0 -0.002065525849738542 -0.016173144914821681 0 -0.0019727496791358884 -0.016010742260840823 0 -0.002065525849738542 -0.016173144914821681 0 -0.0022486102300925989 -0.016013234264105284 0 -0.002065525849738542 -0.016173144914821681 0 -0.0022486102300925989 -0.016013234264105284 0 -0.0022155681272144163 -0.016458939345196127 0 -0.0022155681272144163 -0.016458939345196127 0 -0.002582997593099576 -0.016686189329222854 0 -0.0019810278015836825 -0.016759392143257182 0 -0.0024300004291056164 -0.016384618357955096 0 -0.0020736896715509746 -0.015499213994292587 0 -0.0022486102300925989 -0.016013234264105284 0 -0.0022155681272144163 -0.016458939345196127 0 -0.002582997593099576 -0.016686189329222854 0 -0.0020736896715509746 -0.015499213994292587 0 -0.0010024485532603388 -0.01564418237596989 0 -0.0019092004489145054 -0.016351903187050841 0 -0.002065525849738542 -0.016173144914821681 0 -0.0022155681272144163 -0.016458939345196127 0 -0.0019092004489145054 -0.016351903187050841 0 -0.0022155681272144163 -0.016458939345196127 0 -0.0019810278015836825 -0.016759392143257182 0 -0.0023416654396473512 -0.016040592851514716 0 -0.0023191362586794705 -0.016084149113671956 0 -0.0023739040190919091 -0.016052135290812536 0 -0.0023416654396473512 -0.016040592851514716 0 -0.0022486102300925989 -0.016013234264105284 0 -0.0023191362586794705 -0.016084149113671956 0 -0.0020084833913349 -0.014818526922531728 0 -0.002085361897074037 -0.014847649349442426 0 -0.002050539716766598 -0.014769118509057494 0 -0.0020736896715509746 -0.015499213994292587 0 -0.0020328120072034481 -0.014517199217683865 0 -0.0018884428803973875 -0.013901690776270993 0 -0.0014815978614667617 -0.013942813465581766 0 -0.001595074291468038 -0.013773024417351105 0 -0.0014815978614667617 -0.013942813465581766 0 -0.0013253912035394949 -0.013834083808205468 0 -0.001595074291468038 -0.013773024417351105 0 -0.0022646809257137255 -0.015544544740482906 0 -0.0020328120072034481 -0.014517199217683865 0 -0.002085361897074037 -0.014847649349442426 0 -0.0021940082901187284 -0.014839276728150729 0 -0.0021173353978350923 -0.014729492207297976 0 -0.0020328120072034481 -0.014517199217683865 0 -0.0018456790018998551 -0.0122679022957051 0 -0.0020575844028939954 -0.013309595350182503 0 -0.0022067907164470147 -0.013282528586075905 0 -0.0021537577383939316 -0.013366374037170607 0 -0.0020328120072034481 -0.014517199217683865 0 -0.0024653600992364717 -0.012703703346009414 0 -0.0024653600992364717 -0.012703703346009414 0 -0.0018456790018998551 -0.0122679022957051 0 -0.0027552207498637844 -0.010151066818166656 0 -0.002828915187900384 -0.010214826918385966 0 -0.002703059882988136 -0.010234635182307118 0 -0.0021940082901187284 -0.014839276728150729 0 -0.0021173353978350923 -0.014729492207297976 0 -0.0022115662962078554 -0.01456865283336309 0 -0.0021173353978350923 -0.014729492207297976 0 -0.0020721603262051557 -0.014699304561848767 0 -0.0021373338442534787 -0.014635121699634032 0 -0.0021173353978350923 -0.014729492207297976 0 -0.0021373338442534787 -0.014635121699634032 0 -0.0022115662962078554 -0.01456865283336309 0 -0.002085361897074037 -0.014847649349442426 0 -0.0021173353978350923 -0.014729492207297976 0 -0.002050539716766598 -0.014769118509057494 0 -0.0019969265413543229 -0.014822640969951516 0 -0.002050539716766598 -0.014769118509057494 0 -0.0020721603262051557 -0.014699304561848767 0 -0.0021173353978350923 -0.014729492207297976 0 -0.002050539716766598 -0.014769118509057494 0 -0.0020721603262051557 -0.014699304561848767 0 -0.0020409258103845909 -0.014711621301078229 0 -0.0019969265413543229 -0.014822640969951516 0 -0.0020721603262051557 -0.014699304561848767 0 -0.0020721603262051557 -0.014699304561848767 0 -0.0020883024621475839 -0.014633439846030093 0 -0.0021511290913494704 -0.014567257541563482 0 -0.0020409258103845909 -0.014711621301078229 0 -0.0020721603262051557 -0.014699304561848767 0 -0.0020883024621475839 -0.014633439846030093 0 -0.0020409258103845909 -0.014711621301078229 0 -0.0020883024621475839 -0.014633439846030093 0 -0.0020962400409123114 -0.014555322452919187 0 -0.0020883024621475839 -0.014633439846030093 0 -0.0020962400409123114 -0.014555322452919187 0 -0.0021511290913494704 -0.014567257541563482 0 -0.0012821264822802632 -0.01536414823362022 0 -0.0015254347699908434 -0.015116490484812006 0 -0.0020962400409123114 -0.014555322452919187 0 -0.0021511290913494704 -0.014567257541563482 0 -0.0023134341824951319 -0.014410691167659877 0 -0.0022078199093154348 -0.014491853839687659 0 -0.0021511290913494704 -0.014567257541563482 0 -0.0023134341824951319 -0.014410691167659877 0 -0.0003810017240227949 -0.016087644429737431 0 -0.00040123350739244243 -0.016177930119336079 0 -0.00084160724966868684 -0.015903246393743162 0 -0.0022078199093154348 -0.014491853839687659 0 -0.0021511290913494704 -0.014567257541563482 0 -0.0021373338442534787 -0.014635121699634032 0 -0.0020721603262051557 -0.014699304561848767 0 -0.0021511290913494704 -0.014567257541563482 0 -0.0021373338442534787 -0.014635121699634032 0 -0.0022078199093154348 -0.014491853839687659 0 -0.0021373338442534787 -0.014635121699634032 0 -0.0022115662962078554 -0.01456865283336309 0 -0.0023129540787521718 -0.01429914429154922 0 -0.0024090835444981777 -0.013802286798101217 0 -0.002209534789619758 -0.014374361328191067 0 -0.0020601173371034495 -0.01416812520080944 0 -0.0022550265411346686 -0.014494846002655822 0 -0.0022115662962078554 -0.01456865283336309 0 -0.002209534789619758 -0.014374361328191067 0 -0.0022550265411346686 -0.014494846002655822 0 -0.0022078199093154348 -0.014491853839687659 0 -0.0022115662962078554 -0.01456865283336309 0 -0.002209534789619758 -0.014374361328191067 0 -0.0022078199093154348 -0.014491853839687659 0 -0.002209534789619758 -0.014374361328191067 0 -0.0023134341824951319 -0.014410691167659877 0 -0.002209534789619758 -0.014374361328191067 0 -0.0023134341824951319 -0.014410691167659877 0 -0.0020601173371034495 -0.01416812520080944 0 -0.0023134341824951319 -0.014410691167659877 0 -0.0019517555431142895 -0.014309099116698113 0 -0.00160808037928291 -0.014620139144018574 0 -0.0023134341824951319 -0.014410691167659877 0 -0.0020601173371034495 -0.01416812520080944 0 -0.0019517555431142895 -0.014309099116698113 0 -0.0015254347699908434 -0.015116490484812006 0 -0.0015310013526549568 -0.01472588792024295 0 -0.0019517555431142895 -0.014309099116698113 0 -0.0018252111785607397 -0.013875006445936498 0 -0.00160808037928291 -0.014620139144018574 0 -0.0020601173371034495 -0.01416812520080944 0 -0.0019517555431142895 -0.014309099116698113 0 -0.0018252111785607397 -0.013875006445936498 0 -0.0020601173371034495 -0.01416812520080944 0 -0.0019877568672417218 -0.01388776589833611 0 -0.0022142987376286547 -0.013761091297051161 0 -0.0020601173371034495 -0.01416812520080944 0 -0.0019877568672417218 -0.01388776589833611 0 -0.0018252111785607397 -0.013875006445936498 0 -0.0019877568672417218 -0.01388776589833611 0 -0.0018252111785607397 -0.013875006445936498 0 -0.0019334975425413957 -0.013762839580345241 0 -0.0020010061914298004 -0.014328044578369387 0 -0.0024090835444981777 -0.013802286798101217 0 -0.0024090835444981777 -0.013802286798101217 0 -0.0034111847433654363 -0.0116648680807674 0 -0.0019877568672417218 -0.01388776589833611 0 -0.0022142987376286547 -0.013761091297051161 0 -0.0019334975425413957 -0.013762839580345241 0 -0.0030847543408601035 -0.012064688858061745 0 -0.0028774374121759484 -0.01184781663342104 0 -0.003320000456473733 -0.011967120045099386 0 -0.004341586500746961 -0.010012021146999461 0 -0.0034111847433654363 -0.0116648680807674 0 -0.0030847543408601035 -0.012064688858061745 0 -0.0032883443532027777 -0.012209880719982658 0 -0.003320000456473733 -0.011967120045099386 0 -0.002578946512320972 -0.012320779019497689 0 -0.0028774374121759484 -0.01184781663342104 0 -0.002931886206001235 -0.012267184979257502 0 -0.0021940082901187284 -0.014839276728150729 0 -0.0022115662962078554 -0.01456865283336309 0 -0.0023224647203663362 -0.014595978116513786 0 -0.0030847543408601035 -0.012064688858061745 0 -0.0028774374121759484 -0.01184781663342104 0 -0.002931886206001235 -0.012267184979257502 0 -0.0024653600992364717 -0.012703703346009414 0 -0.0024090835444981777 -0.013802286798101217 0 -0.0024653600992364717 -0.012703703346009414 0 -0.0027862480746186549 -0.011216986084505914 0 -0.0027552207498637844 -0.010151066818166656 0 -0.002927606578461292 -0.010117599167700752 0 -0.002828915187900384 -0.010214826918385966 0 -0.002927606578461292 -0.010117599167700752 0 -0.0029887099289029159 -0.010189260430676172 0 -0.00291622924194203 -0.010222571001577124 0 -0.002927606578461292 -0.010117599167700752 0 -0.002828915187900384 -0.010214826918385966 0 -0.00291622924194203 -0.010222571001577124 0 -0.002927606578461292 -0.010117599167700752 0 -0.0029887099289029159 -0.010189260430676172 0 -0.0030922081173636404 -0.010092521920211499 0 -0.004341586500746961 -0.010012021146999461 0 -0.0049233076434420696 -0.0082994076604422703 0 -0.0027862480746186549 -0.011216986084505914 0 -0.004341586500746961 -0.010012021146999461 0 -0.0029887099289029159 -0.010189260430676172 0 -0.0030922081173636404 -0.010092521920211499 0 -0.0030556650959100077 -0.010243858710604814 0 -0.0030847543408601035 -0.012064688858061745 0 -0.002931886206001235 -0.012267184979257502 0 -0.0032883443532027777 -0.012209880719982658 0 -0.0064594731082996343 -0.0088497750530200057 0 -0.0067124671542001559 -0.006891385275608424 0 -0.0058527333108489912 -0.0077480892354303849 0 -0.0049233076434420696 -0.0082994076604422703 0 -0.0030646443321159745 -0.0084394929794524322 0 -0.0030556650959100077 -0.010243858710604814 0 -0.0029544752673454928 -0.010273327051054949 0 -0.0030250971773199144 -0.010358218302209352 0 -0.0067124671542001559 -0.006891385275608424 0 -0.0069407892658302833 -0.0049692440828607637 0 -0.0055440243243701738 -0.0059359619104102168 0 -0.0029544752673454928 -0.010273327051054949 0 -0.0029015700269706987 -0.010297252507454349 0 -0.0030250971773199144 -0.010358218302209352 0 -0.0029887099289029159 -0.010189260430676172 0 -0.0030556650959100077 -0.010243858710604814 0 -0.0029544752673454928 -0.010273327051054949 0 -0.00291622924194203 -0.010222571001577124 0 -0.0029544752673454928 -0.010273327051054949 0 -0.0028736588263879692 -0.010322444084799572 0 -0.0029887099289029159 -0.010189260430676172 0 -0.00291622924194203 -0.010222571001577124 0 -0.0029544752673454928 -0.010273327051054949 0 -0.002828915187900384 -0.010214826918385966 0 -0.0028736588263879692 -0.010322444084799572 0 -0.002703059882988136 -0.010234635182307118 0 -0.002828915187900384 -0.010214826918385966 0 -0.00291622924194203 -0.010222571001577124 0 -0.0028736588263879692 -0.010322444084799572 0 -0.0021759056017348817 -0.010822920933545577 0 -0.00088803705750484826 -0.011503114137466533 0 -0.0029519766200412903 -0.010371616725402464 0 -0.0021759056017348817 -0.010822920933545577 0 -0.0014212087928191204 -0.010375393491244765 0 -0.0014213848547548348 -0.010399051673578023 0 -0.0014587729954790092 -0.010386547058029513 0 -0.0014212087928191204 -0.010375393491244765 0 -0.0014213848547548348 -0.010399051673578023 0 -0.0013807694491183384 -0.010399449715155789 0 -0.00067654192206967952 -0.010888843111402173 0 -0.00088803705750484826 -0.011503114137466533 0 -0.0014213848547548348 -0.010399051673578023 0 -0.0014587729954790092 -0.010386547058029513 0 -0.0014556139539872322 -0.01039609341088295 0 -0.00012208513337085361 -0.011485043915855002 0 0.00064950336749556279 -0.011461862141176006 0 2.0057184148461817e-05 -0.010790775330794597 0 -0.0021759056017348817 -0.010822920933545577 0 -0.0030646443321159745 -0.0084394929794524322 0 -0.00067654192206967952 -0.010888843111402173 0 -0.0010094484396639767 -0.0094827035873794388 0 -0.0026805754224943847 -0.008161647414543222 0 -0.002742972905824446 -0.0077004943065818151 0 -0.0012570182614438895 -0.0072143350744822811 0 -0.0030646443321159745 -0.0084394929794524322 0 -0.0010094484396639767 -0.0094827035873794388 0 -0.0010094484396639767 -0.0094827035873794388 0 0.000549246315465744 -0.0097655293893727634 0 0.00025624561265104833 -0.0079938127805398319 0 -9.3166195239401789e-05 -0.0086396676854799508 0 0.00018805125129398113 -0.0096288347620454504 0 0.00064950336749556279 -0.011461862141176006 0 0.00018805125129398113 -0.0096288347620454504 0 2.0057184148461817e-05 -0.010790775330794597 0 -9.3166195239401789e-05 -0.0086396676854799508 0 0.00018805125129398113 -0.0096288347620454504 0 -0.00013536667651817066 -0.0084385714801772146 0 0.00018805125129398113 -0.0096288347620454504 0 4.2984898563340322e-07 -0.0091517848013041199 0 -0.00013536667651817066 -0.0084385714801772146 0 0.00018805125129398113 -0.0096288347620454504 0 4.2984898563340322e-07 -0.0091517848013041199 0 -1.2683412883443804e-05 -0.010355729923349412 0 4.2984898563340322e-07 -0.0091517848013041199 0 -1.2683412883443804e-05 -0.010355729923349412 0 -3.8345757377232745e-07 -0.011064359547716614 0 -1.2683412883443804e-05 -0.010355729923349412 0 -0.00016529112433815723 -0.011042477248638027 0 -3.8345757377232745e-07 -0.011064359547716614 0 0.00018805125129398113 -0.0096288347620454504 0 -1.2683412883443804e-05 -0.010355729923349412 0 2.0057184148461817e-05 -0.010790775330794597 0 -0.00012208513337085361 -0.011485043915855002 0 -0.00016529112433815723 -0.011042477248638027 0 -0.00023004939849653866 -0.01139796294881428 0 -0.00012208513337085361 -0.011485043915855002 0 -0.00016529112433815723 -0.011042477248638027 0 2.0057184148461817e-05 -0.010790775330794597 0 -1.2683412883443804e-05 -0.010355729923349412 0 -0.00016529112433815723 -0.011042477248638027 0 2.0057184148461817e-05 -0.010790775330794597 0 -0.00016529112433815723 -0.011042477248638027 0 -0.00015607380336050833 -0.011544596313535632 0 -0.00023004939849653866 -0.01139796294881428 0 -0.00015607380336050833 -0.011544596313535632 0 -6.8304895938027193e-05 -0.011591921335113817 0 -0.00023004939849653866 -0.01139796294881428 0 -0.00015607380336050833 -0.011544596313535632 0 -1.4897904820750702e-05 -0.012169804428203219 0 -6.8304895938027193e-05 -0.011591921335113817 0 -0.00015607380336050833 -0.011544596313535632 0 -3.8345757377232745e-07 -0.011064359547716614 0 -1.4897904820750702e-05 -0.012169804428203219 0 -0.00016529112433815723 -0.011042477248638027 0 -0.00015607380336050833 -0.011544596313535632 0 -3.8345757377232745e-07 -0.011064359547716614 0 -8.5849379816749801e-08 -0.012976137802110248 0 -8.9353655931118594e-05 -0.012844653202156459 0 -1.4897904820750702e-05 -0.012169804428203219 0 -3.8345757377232745e-07 -0.011064359547716614 0 -8.5849379816749801e-08 -0.012976137802110248 0 -1.4897904820750702e-05 -0.012169804428203219 0 0.00014193226480846611 -0.012012262360887477 0 -0.00020882799419992264 -0.013133023885493355 0 -8.9353655931118594e-05 -0.012844653202156459 0 -1.4897904820750702e-05 -0.012169804428203219 0 -0.00022116034099093504 -0.01303423471701908 0 -1.4897904820750702e-05 -0.012169804428203219 0 -0.00022116034099093504 -0.01303423471701908 0 -3.1526617742921469e-05 -0.013414636787044753 0 -1.4897904820750702e-05 -0.012169804428203219 0 -6.8304895938027193e-05 -0.011591921335113817 0 0.00027333378578529811 -0.011393370838422142 0 -0.00021014315353563642 -0.013081971203517605 0 -0.00020882799419992264 -0.013133023885493355 0 -0.00070192669147636723 -0.013114219150791345 0 -0.00050701850816018584 -0.013429710642973009 0 -0.0010145061003035472 -0.013596246518167685 0 -0.00029581405690282543 -0.012792300558599985 0 -0.00088803705750484826 -0.011503114137466533 0 -0.00039174125811953272 -0.01253054653592609 0 -0.0010428493512478509 -0.012221083879630414 0 -0.00065845403066512793 -0.012103274927360935 0 -6.8304895938027193e-05 -0.011591921335113817 0 0.00020535638737931663 -0.011383169751428822 0 -0.00022845340790258746 -0.01133842174323621 0 -0.000746585752189332 -0.0130934182557788 0 -0.00070192669147636723 -0.013114219150791345 0 -0.0010145061003035472 -0.013596246518167685 0 -0.00020882799419992264 -0.013133023885493355 0 -0.00029581405690282543 -0.012792300558599985 0 -0.00029581405690282543 -0.012792300558599985 0 -0.0010708730364640537 -0.012800637692005281 0 -6.8304895938027193e-05 -0.011591921335113817 0 0.00027333378578529811 -0.011393370838422142 0 0.00020535638737931663 -0.011383169751428822 0 -6.8304895938027193e-05 -0.011591921335113817 0 -0.00023004939849653866 -0.01139796294881428 0 -0.00022845340790258746 -0.01133842174323621 0 -0.00012208513337085361 -0.011485043915855002 0 -0.00023004939849653866 -0.01139796294881428 0 -0.00022845340790258746 -0.01133842174323621 0 -0.00088803705750484826 -0.011503114137466533 0 -0.0010708730364640537 -0.012800637692005281 0 -0.0015167478099442481 -0.012018431356323562 0 -0.0014752407602080483 -0.01168363541727201 0 -0.0013035309020054458 -0.011955718322608404 0 -0.0017959372811074414 -0.011884198518204577 0 -0.0015167478099442481 -0.012018431356323562 0 -0.0014752407602080483 -0.01168363541727201 0 -0.0021759056017348817 -0.010822920933545577 0 -0.0018456790018998551 -0.0122679022957051 0 -0.0018456790018998551 -0.0122679022957051 0 -0.0010708730364640537 -0.012800637692005281 0 -0.001595074291468038 -0.013773024417351105 0 -0.001466552838849717 -0.013603744089198783 0 -0.0017919088869522014 -0.013717420262468439 0 -0.0010708730364640537 -0.012800637692005281 0 -0.00093809122396950175 -0.014260168784469 0 -0.0013253912035394949 -0.013834083808205468 0 -0.001595074291468038 -0.013773024417351105 0 -0.001466552838849717 -0.013603744089198783 0 -0.0018884428803973875 -0.013901690776270993 0 -0.001595074291468038 -0.013773024417351105 0 -0.0017919088869522014 -0.013717420262468439 0 -0.0020736896715509746 -0.015499213994292587 0 -0.00093809122396950175 -0.014260168784469 0 -0.0012712231781996438 -0.015150597778039754 0 -0.0012506711904252212 -0.015109106872866462 0 -0.0013352560622093403 -0.015148498862604574 0 -0.00093809122396950175 -0.014260168784469 0 -0.0010024485532603388 -0.01564418237596989 0 -0.00010747530335831781 -0.014635496291550939 0 -6.0285205994780434e-05 -0.014632412681899394 0 -7.2470906871605997e-05 -0.014656384567639472 0 -6.0285205994780434e-05 -0.014632412681899394 0 -7.2470906871605997e-05 -0.014656384567639472 0 -5.2802190858402108e-05 -0.014650212744389459 0 -7.2470906871605997e-05 -0.014656384567639472 0 -4.7285611807710713e-05 -0.014678494126386712 0 -5.2802190858402108e-05 -0.014650212744389459 0 -7.2470906871605997e-05 -0.014656384567639472 0 -4.7285611807710713e-05 -0.014678494126386712 0 -6.15374994447966e-05 -0.014689965316370656 0 -4.7285611807710713e-05 -0.014678494126386712 0 -6.15374994447966e-05 -0.014689965316370656 0 -3.9008900458337956e-05 -0.01470345278612612 0 -7.2470906871605997e-05 -0.014656384567639472 0 -6.15374994447966e-05 -0.014689965316370656 0 -9.1413763513598144e-05 -0.014667152196131952 0 -6.15374994447966e-05 -0.014689965316370656 0 -9.1413763513598144e-05 -0.014667152196131952 0 -8.0330312435048033e-05 -0.014695349365458356 0 -0.00010747530335831781 -0.014635496291550939 0 -7.2470906871605997e-05 -0.014656384567639472 0 -9.1413763513598144e-05 -0.014667152196131952 0 -0.00012867451261850603 -0.014666483361246648 0 -0.00010747530335831781 -0.014635496291550939 0 -9.1413763513598144e-05 -0.014667152196131952 0 -0.00020882799419992264 -0.013133023885493355 0 -0.00093809122396950175 -0.014260168784469 0 -0.00012867451261850603 -0.014666483361246648 0 -9.1413763513598144e-05 -0.014667152196131952 0 -8.0330312435048033e-05 -0.014695349365458356 0 -0.00020882799419992264 -0.013133023885493355 0 -0.00011267344825729486 -0.014151310407168795 0 -0.00022116034099093504 -0.01303423471701908 0 -0.00024803580062381954 -0.012852990064790447 0 -0.00010336996706789407 -0.013447762257978573 0 -0.00010336996706789407 -0.013447762257978573 0 -0.00014543726481189187 -0.013328581612407131 0 -7.5439300073512649e-05 -0.014075800415035401 0 -0.00022116034099093504 -0.01303423471701908 0 -0.00010336996706789407 -0.013447762257978573 0 -0.00014543726481189187 -0.013328581612407131 0 -8.9353655931118594e-05 -0.012844653202156459 0 -0.00022116034099093504 -0.01303423471701908 0 -0.00014543726481189187 -0.013328581612407131 0 -8.5849379816749801e-08 -0.012976137802110248 0 -8.9353655931118594e-05 -0.012844653202156459 0 -0.00014543726481189187 -0.013328581612407131 0 -8.5849379816749801e-08 -0.012976137802110248 0 -0.00014543726481189187 -0.013328581612407131 0 -7.2998090561937598e-07 -0.014889126182809059 0 -7.2998090561937598e-07 -0.014889126182809059 0 -7.5439300073512649e-05 -0.014075800415035401 0 -5.4648889066699956e-05 -0.014695280525304756 0 -0.00014543726481189187 -0.013328581612407131 0 -7.2998090561937598e-07 -0.014889126182809059 0 -7.5439300073512649e-05 -0.014075800415035401 0 -6.15374994447966e-05 -0.014689965316370656 0 -8.0330312435048033e-05 -0.014695349365458356 0 -5.4648889066699956e-05 -0.014695280525304756 0 -0.00011267344825729486 -0.014151310407168795 0 -0.00010143111865510645 -0.014508561598033754 0 -0.00010336996706789407 -0.013447762257978573 0 -7.5439300073512649e-05 -0.014075800415035401 0 -5.4648889066699956e-05 -0.014695280525304756 0 -6.15374994447966e-05 -0.014689965316370656 0 -3.9008900458337956e-05 -0.01470345278612612 0 -5.4648889066699956e-05 -0.014695280525304756 0 -3.9008900458337956e-05 -0.01470345278612612 0 5.2206777349556891e-05 -0.01477987471449629 0 -1.0290507999307458e-05 -0.01468722195187276 0 5.2206777349556891e-05 -0.01477987471449629 0 8.5914314145259086e-05 -0.014763252631993301 0 6.2838491214104234e-05 -0.014697544771536441 0 5.2206777349556891e-05 -0.01477987471449629 0 6.2838491214104234e-05 -0.014697544771536441 0 -1.0290507999307458e-05 -0.01468722195187276 0 0.00027873365315728567 -0.015313696746980883 0 1.6955426133775394e-05 -0.015912715597594444 0 -3.9008900458337956e-05 -0.01470345278612612 0 5.2206777349556891e-05 -0.01477987471449629 0 -5.4648889066699956e-05 -0.014695280525304756 0 5.2206777349556891e-05 -0.01477987471449629 0 -5.4648889066699956e-05 -0.014695280525304756 0 1.6094671509174282e-06 -0.01679829060318096 0 -7.2998090561937598e-07 -0.014889126182809059 0 -5.4648889066699956e-05 -0.014695280525304756 0 1.6094671509174282e-06 -0.01679829060318096 0 2.351913142986959e-07 -0.016800885188888722 0 1.6955426133775394e-05 -0.015912715597594444 0 -0.00013803089504746361 -0.017501900607477312 0 8.1532793673454621e-09 -0.017084508779382019 0 6.2449625689949516e-05 -0.017683165994271086 0 -1.0266322656665235e-07 -0.016805752894804647 0 1.0177928068435522e-07 -0.017076819245040318 0 -4.257325024805464e-05 -0.01706575966299664 0 5.2206777349556891e-05 -0.01477987471449629 0 1.6094671509174282e-06 -0.01679829060318096 0 0.00058877875493862396 -0.014658464043560381 0 -1.0266322656665235e-07 -0.016805752894804647 0 -4.257325024805464e-05 -0.01706575966299664 0 4.9019359824678218e-05 -0.017073574343906668 0 7.8241600515295761e-08 -0.017081121496414775 0 -0.00022601984840909278 -0.017554351666704184 0 -0.00024013222007235349 -0.018545243707223425 0 -0.00017837633476021572 -0.018543846390116366 0 -0.00017936504270158713 -0.018559167790723058 0 -0.00022601984840909278 -0.017554351666704184 0 -0.00036594322055402581 -0.017077383834444185 0 -0.00022601984840909278 -0.017554351666704184 0 -0.00059305028843899266 -0.017622517683661427 0 -4.257325024805464e-05 -0.01706575966299664 0 4.9019359824678218e-05 -0.017073574343906668 0 -1.7581371680643321e-05 -0.017092897345870401 0 1.6955426133775394e-05 -0.015912715597594444 0 -0.00036594322055402581 -0.017077383834444185 0 -0.0003642109878252642 -0.016512428199235527 0 -6.7442231447475777e-05 -0.016434651680761376 0 -0.00042407392811757581 -0.016029483166099177 0 -0.0010688505676677753 -0.017557698033169512 0 -0.0011077122458938173 -0.017567496344844242 0 -0.0012256029535053282 -0.017439153426776981 0 1.6955426133775394e-05 -0.015912715597594444 0 -0.00031538396037550712 -0.015689919522624326 0 -0.00036594322055402581 -0.017077383834444185 0 -0.00031538396037550712 -0.015689919522624326 0 -0.00059305028843899266 -0.017622517683661427 0 -0.00036594322055402581 -0.017077383834444185 0 -0.00021469711948758163 -0.017334807095676814 0 -0.00020430200236726796 -0.017126774318943858 0 -0.00036199230221533658 -0.017168434994513215 0 -0.00071101189127141713 -0.017748479885249656 0 -0.001045061052642049 -0.018147197420137207 0 -0.0010108620185707595 -0.017390452079878875 0 -0.0012256029535053282 -0.017439153426776981 0 -0.0013063934771350993 -0.016936926366110702 0 -0.0010509655982335563 -0.017162553566387708 0 -0.00059305028843899266 -0.017622517683661427 0 -0.0010713104300907653 -0.017318246610060629 0 -0.0010688505676677753 -0.017557698033169512 0 -0.0012256029535053282 -0.017439153426776981 0 -0.0010509655982335563 -0.017162553566387708 0 -0.00031538396037550712 -0.015689919522624326 0 -0.0010452644821438639 -0.016182452045967965 0 -0.00031538396037550712 -0.015689919522624326 0 -5.3543693458117689e-05 -0.014384268833608136 0 6.2838491214104234e-05 -0.014697544771536441 0 -1.0290507999307458e-05 -0.01468722195187276 0 -5.2802190858402108e-05 -0.014650212744389459 0 -4.7285611807710713e-05 -0.014678494126386712 0 -1.0290507999307458e-05 -0.01468722195187276 0 -5.2802190858402108e-05 -0.014650212744389459 0 -4.7285611807710713e-05 -0.014678494126386712 0 -3.9008900458337956e-05 -0.01470345278612612 0 -1.0290507999307458e-05 -0.01468722195187276 0 -2.2657814384680792e-05 -0.014711253405385153 0 -5.2802190858402108e-05 -0.014650212744389459 0 -3.4003984532967223e-05 -0.014639735554152555 0 -0.0010024485532603388 -0.01564418237596989 0 -0.0010452644821438639 -0.016182452045967965 0 -6.0285205994780434e-05 -0.014632412681899394 0 -5.2802190858402108e-05 -0.014650212744389459 0 -3.4003984532967223e-05 -0.014639735554152555 0 -0.00096407484243803403 -0.016634175522807961 0 -0.0011155333490273059 -0.016955868653486725 0 -0.0010509655982335563 -0.017162553566387708 0 -0.0013063934771350993 -0.016936926366110702 0 -0.0011155333490273059 -0.016955868653486725 0 -0.0010509655982335563 -0.017162553566387708 0 -0.0010452644821438639 -0.016182452045967965 0 -0.0011657361095503988 -0.016660927006493142 0 -0.00096484789610200457 -0.016652485632637267 0 -0.0010713104300907653 -0.017318246610060629 0 -0.0012184767904374501 -0.016815656571035516 0 -0.001406708736644485 -0.016956886683834719 0 -0.0011155333490273059 -0.016955868653486725 0 0.0016028912566375586 -0.0090501185358905951 0 0.0016029513043328879 -0.0090114191213440803 0 0.0014954885704801164 -0.0090943639224899675 0 0.0016028912566375586 -0.0090501185358905951 0 0.0015581461367835362 -0.009158479945749148 0 0.0015843142888695078 -0.0092094194663977259 0 0.0016028912566375586 -0.0090501185358905951 0 0.0016029513043328879 -0.0090114191213440803 0 0.0015843142888695078 -0.0092094194663977259 0 0.0015841600474732656 -0.0088436272794024766 0 0.0016823383948067216 -0.0088000907116343469 0 0.0014788564273135432 -0.008956650890704786 0 0.0016029513043328879 -0.0090114191213440803 0 0.0015841600474732656 -0.0088436272794024766 0 0.0016823383948067216 -0.0088000907116343469 0 0.0016029513043328879 -0.0090114191213440803 0 0.0015843142888695078 -0.0092094194663977259 0 0.0016823383948067216 -0.0088000907116343469 0 0.0015544986612859441 -0.0088349572940794041 0 0.0012979718422500516 -0.0087212585486756613 0 0.0016029513043328879 -0.0090114191213440803 0 0.0015841600474732656 -0.0088436272794024766 0 0.0014954885704801164 -0.0090943639224899675 0 0.0013387628514773433 -0.0088100497671997503 0 0.0011313750026278877 -0.0087202172117524165 0 0.0011304584462527754 -0.0083634877891035197 0 0.0015841600474732656 -0.0088436272794024766 0 0.0013387628514773433 -0.0088100497671997503 0 0.0011304584462527754 -0.0083634877891035197 0 0.0011313750026278877 -0.0087202172117524165 0 0.00079040732168096553 -0.008478622970303322 0 0.00097948319785662167 -0.0088054657617665771 0 0.0011313750026278877 -0.0087202172117524165 0 0.00079040732168096553 -0.008478622970303322 0 0.0011304584462527754 -0.0083634877891035197 0 0.00072817206594932057 -0.0087058811241235348 0 0.00079040732168096553 -0.008478622970303322 0 0.00097948319785662167 -0.0088054657617665771 0 0.00072817206594932057 -0.0087058811241235348 0 0.00051712045986602507 -0.008672452040194862 0 0.00050980567013844788 -0.0084810144500946181 0 0.00072817206594932057 -0.0087058811241235348 0 0.00079040732168096553 -0.008478622970303322 0 0.00050980567013844788 -0.0084810144500946181 0 0.00079040732168096553 -0.008478622970303322 0 0.00050980567013844788 -0.0084810144500946181 0 0.0004187337420194716 -0.008225883677421119 0 0.00079040732168096553 -0.008478622970303322 0 0.00064943235022578687 -0.008085703602642165 0 0.0004187337420194716 -0.008225883677421119 0 0.00079040732168096553 -0.008478622970303322 0 0.0011304584462527754 -0.0083634877891035197 0 0.00064943235022578687 -0.008085703602642165 0 0.0012979718422500516 -0.0087212585486756613 0 0.00073467039079254523 -0.0083995235463744516 0 0.0014954885704801164 -0.0090943639224899675 0 0.0011248973010434154 -0.008538174607214748 0 0.0016042161215308233 -0.0085600504337039335 0 0.0014954885704801164 -0.0090943639224899675 0 0.00079755447091629903 -0.0087339539455389865 0 0.0011248973010434154 -0.008538174607214748 0 0.00092371008715614971 -0.0078214123708337108 0 0.00066047631153439692 -0.0081447386633194136 0 0.0011248973010434154 -0.008538174607214748 0 0.00092371008715614971 -0.0078214123708337108 0 0.00066047631153439692 -0.0081447386633194136 0 0.00040316805276517447 -0.0078188153126772086 0 0.00079755447091629903 -0.0087339539455389865 0 0.00066047631153439692 -0.0081447386633194136 0 0.0011248973010434154 -0.008538174607214748 0 0.00092371008715614971 -0.0078214123708337108 0 0.0011248973010434154 -0.008538174607214748 0 0.0016042161215308233 -0.0085600504337039335 0 0.0016042161215308233 -0.0085600504337039335 0 0.0016129777099626462 -0.0088139247067978571 0 0.0016035969887241389 -0.0087435774910037314 0 0.0016028912566375586 -0.0090501185358905951 0 0.0014954885704801164 -0.0090943639224899675 0 0.0016129777099626462 -0.0088139247067978571 0 0.0014954885704801164 -0.0090943639224899675 0 0.0016042161215308233 -0.0085600504337039335 0 0.0016129777099626462 -0.0088139247067978571 0 0.0016028912566375586 -0.0090501185358905951 0 0.0016005676743208095 -0.0089186375728193112 0 0.0015581461367835362 -0.009158479945749148 0 0.0016028912566375586 -0.0090501185358905951 0 0.0016129777099626462 -0.0088139247067978571 0 0.0016005676743208095 -0.0089186375728193112 0 0.0016129777099626462 -0.0088139247067978571 0 0.0016005676743208095 -0.0089186375728193112 0 0.0016035969887241389 -0.0087435774910037314 0 0.0016005676743208095 -0.0089186375728193112 0 0.0016035969887241389 -0.0087435774910037314 0 0.0017551455310749304 -0.0088957861884786105 0 0.0016996051209433166 -0.0087444019140256839 0 0.0016035969887241389 -0.0087435774910037314 0 0.0017551455310749304 -0.0088957861884786105 0 0.00084901501645454503 -0.014930088810231919 0 0.001557659559709312 -0.012800672117958455 0 0.00013615447995140589 -0.01395970967225761 0 0.001557659559709312 -0.012800672117958455 0 0.00013615447995140589 -0.01395970967225761 0 -0.00051682767614898487 -0.012435584965314614 0 0.0013181650749925537 -0.011804804132893426 0 0.001587759549828013 -0.010811478741148838 0 -0.00053547154942383069 -0.012215806388545808 0 0.00047311797591123215 -0.01035508229611126 0 -0.00051682767614898487 -0.012435584965314614 0 -0.00070033569242734469 -0.011375485395380112 0 -0.00012791171162587851 -0.010632766972082944 0 0.001557659559709312 -0.012800672117958455 0 -0.00051682767614898487 -0.012435584965314614 0 0.0011500571869306221 -0.0099128903098127975 0 0.001587759549828013 -0.010811478741148838 0 0.0014826212506266632 -0.0096487706623189038 0 0.0016005676743208095 -0.0089186375728193112 0 0.0017551455310749304 -0.0088957861884786105 0 0.0015581461367835362 -0.009158479945749148 0 0.0017551455310749304 -0.0088957861884786105 0 0.0015581461367835362 -0.009158479945749148 0 0.001413963670533872 -0.0095621817506797036 0 -0.0018252111785607397 -0.013875006445936498 0 -0.00160808037928291 -0.014620139144018574 0 -0.00096627334724076373 -0.014106755301918543 0 -0.0018252111785607397 -0.013875006445936498 0 -0.00096627334724076373 -0.014106755301918543 0 -0.0012290801614265004 -0.013185143313174413 0 0.00013615447995140589 -0.01395970967225761 0 -0.00096627334724076373 -0.014106755301918543 0 -0.00051682767614898487 -0.012435584965314614 0 -0.00096627334724076373 -0.014106755301918543 0 -0.00051682767614898487 -0.012435584965314614 0 -0.0012290801614265004 -0.013185143313174413 0 -0.00051682767614898487 -0.012435584965314614 0 -0.0014463279274222604 -0.012108170662519881 0 -0.00070033569242734469 -0.011375485395380112 0 -0.00051682767614898487 -0.012435584965314614 0 -0.0012290801614265004 -0.013185143313174413 0 -0.0014463279274222604 -0.012108170662519881 0 -0.0018252111785607397 -0.013875006445936498 0 -0.0014463279274222604 -0.012108170662519881 0 -0.0026316710068695799 -0.011070088144109518 0 -0.0015786437624024222 -0.014134524637139559 0 -0.0034111847433654363 -0.0116648680807674 0 -0.0018252111785607397 -0.013875006445936498 0 -0.0012290801614265004 -0.013185143313174413 0 -0.0014463279274222604 -0.012108170662519881 0 -0.0014463279274222604 -0.012108170662519881 0 -0.0026316710068695799 -0.011070088144109518 0 -0.00087946709538015829 -0.010379223343892959 0 -0.0062357586067612169 -0.010121182790414266 0 -0.0035250571342200099 -0.0093697446705969193 0 -0.005715337981906982 -0.0089536374775611438 0 -0.0034111847433654363 -0.0116648680807674 0 -0.0023425401090572074 -0.0097058271683489114 0 -0.0064055612621420456 -0.008865013381692842 0 -0.0062357586067612169 -0.010121182790414266 0 -0.005715337981906982 -0.0089536374775611438 0 -0.0014463279274222604 -0.012108170662519881 0 -0.00087946709538015829 -0.010379223343892959 0 -0.00070033569242734469 -0.011375485395380112 0 -0.0035250571342200099 -0.0093697446705969193 0 -0.0019949263916405396 -0.0078833740595907857 0 -0.0032799663885588319 -0.0071961697919684089 0 -0.0035250571342200099 -0.0093697446705969193 0 -0.0046249784440018328 -0.0080586527690089324 0 -0.0032799663885588319 -0.0071961697919684089 0 -0.0035250571342200099 -0.0093697446705969193 0 -0.0046249784440018328 -0.0080586527690089324 0 -0.005715337981906982 -0.0089536374775611438 0 -0.0046249784440018328 -0.0080586527690089324 0 -0.0058527333108489912 -0.0077480892354303849 0 -0.005715337981906982 -0.0089536374775611438 0 -0.0046249784440018328 -0.0080586527690089324 0 -0.0058527333108489912 -0.0077480892354303849 0 -0.0047134400716086237 -0.0069992823449298415 0 -0.0064594731082996343 -0.0088497750530200057 0 -0.0058527333108489912 -0.0077480892354303849 0 -0.005715337981906982 -0.0089536374775611438 0 -0.004341586500746961 -0.010012021146999461 0 -0.0057081099030052091 -0.0095270834934965548 0 0.00047311797591123215 -0.01035508229611126 0 0.0012094676494473996 -0.008777648767985622 0 0.001413963670533872 -0.0095621817506797036 0 0.0011500571869306221 -0.0099128903098127975 0 0.0016823383948067216 -0.0088000907116343469 0 0.001413963670533872 -0.0095621817506797036 0 0.0015843142888695078 -0.0092094194663977259 0 0.0016823383948067216 -0.0088000907116343469 0 0.0015581461367835362 -0.009158479945749148 0 0.001413963670533872 -0.0095621817506797036 0 0.0015843142888695078 -0.0092094194663977259 0 0.001557659559709312 -0.012800672117958455 0 0.001413963670533872 -0.0095621817506797036 0 0.0011500571869306221 -0.0099128903098127975 0 -0.00087946709538015829 -0.010379223343892959 0 -0.00012791171162587851 -0.010632766972082944 0 -0.0001313608118801663 -0.0088164745450217408 0 -0.00087946709538015829 -0.010379223343892959 0 -0.00070033569242734469 -0.011375485395380112 0 -0.00012791171162587851 -0.010632766972082944 0 -0.0035250571342200099 -0.0093697446705969193 0 -0.0019949263916405396 -0.0078833740595907857 0 -0.00047680074204069548 -0.008550663149119387 0 -0.0023425401090572074 -0.0097058271683489114 0 -6.1697700455456782e-05 -0.008921587480169085 0 -0.0035250571342200099 -0.0093697446705969193 0 -0.00047680074204069548 -0.008550663149119387 0 -0.0001313608118801663 -0.0088164745450217408 0 -0.0019949263916405396 -0.0078833740595907857 0 -0.0011604863955113017 -0.0076506268673129383 0 -0.00047680074204069548 -0.008550663149119387 0 -0.00047680074204069548 -0.008550663149119387 0 -0.00019185255327984371 -0.0069709742692414768 0 -0.00074020724855528085 -0.0073055606849321596 0 -0.00047680074204069548 -0.008550663149119387 0 0.00064268212504487441 -0.0087161679634931277 0 0.0016122980298217888 -0.007182986431407792 0 -0.0011604863955113017 -0.0076506268673129383 0 -0.00047680074204069548 -0.008550663149119387 0 -0.00074020724855528085 -0.0073055606849321596 0 -0.00012791171162587851 -0.010632766972082944 0 -0.0001313608118801663 -0.0088164745450217408 0 0.00064268212504487441 -0.0087161679634931277 0 -0.00047680074204069548 -0.008550663149119387 0 -0.0001313608118801663 -0.0088164745450217408 0 0.00064268212504487441 -0.0087161679634931277 0 -0.00047680074204069548 -0.008550663149119387 0 -0.00019185255327984371 -0.0069709742692414768 0 0.00015753718739225695 -0.0064638131542395505 0 -0.0006070597173995746 -0.0085144305225069352 0 0.0013543010771758612 -0.0063104484917088218 0 -0.00047680074204069548 -0.008550663149119387 0 0.00015753718739225695 -0.0064638131542395505 0 0.00076334609832832642 -0.0057210860715475069 0 -0.00019185255327984371 -0.0069709742692414768 0 0.00015753718739225695 -0.0064638131542395505 0 -0.00016390362175544993 -0.0061119501778265578 0 -0.00019185255327984371 -0.0069709742692414768 0 -0.00016390362175544993 -0.0061119501778265578 0 -0.0005576740832670806 -0.0066667178364878286 0 0.00015753718739225695 -0.0064638131542395505 0 -0.00016390362175544993 -0.0061119501778265578 0 0.00030046652649133847 -0.0056543447963011044 0 -0.00016390362175544993 -0.0061119501778265578 0 -0.00068648499662915335 -0.0059615060140456198 0 -0.00020665723567744616 -0.0051593476822582836 0 -0.00016390362175544993 -0.0061119501778265578 0 -0.00020665723567744616 -0.0051593476822582836 0 0.00030046652649133847 -0.0056543447963011044 0 -0.00068648499662915335 -0.0059615060140456198 0 -0.0013832504625186199 -0.0067375541962037769 0 -0.0012863459737930839 -0.00520254875389955 0 -0.00016390362175544993 -0.0061119501778265578 0 -0.00068648499662915335 -0.0059615060140456198 0 -0.0005576740832670806 -0.0066667178364878286 0 -0.00068648499662915335 -0.0059615060140456198 0 -0.0005576740832670806 -0.0066667178364878286 0 -0.0013832504625186199 -0.0067375541962037769 0 -0.0005576740832670806 -0.0066667178364878286 0 -0.00074020724855528085 -0.0073055606849321596 0 -0.0013832504625186199 -0.0067375541962037769 0 -0.00019185255327984371 -0.0069709742692414768 0 -0.0005576740832670806 -0.0066667178364878286 0 -0.00074020724855528085 -0.0073055606849321596 0 -0.0011604863955113017 -0.0076506268673129383 0 -0.00074020724855528085 -0.0073055606849321596 0 -0.0013832504625186199 -0.0067375541962037769 0 -0.0013832504625186199 -0.0067375541962037769 0 -0.0023534966170884824 -0.0057117755214372732 0 -0.0032799663885588319 -0.0071961697919684089 0 -0.0019949263916405396 -0.0078833740595907857 0 -0.0013832504625186199 -0.0067375541962037769 0 -0.0032799663885588319 -0.0071961697919684089 0 -0.0019949263916405396 -0.0078833740595907857 0 -0.0011604863955113017 -0.0076506268673129383 0 -0.0013832504625186199 -0.0067375541962037769 0 -0.0013832504625186199 -0.0067375541962037769 0 -0.0023534966170884824 -0.0057117755214372732 0 -0.0012863459737930839 -0.00520254875389955 0 -0.0023534966170884824 -0.0057117755214372732 0 -0.0012863459737930839 -0.00520254875389955 0 -0.0021489399746748351 -0.0044960052904794408 0 -0.0023534966170884824 -0.0057117755214372732 0 -0.0021489399746748351 -0.0044960052904794408 0 -0.0038626308994745796 -0.0052538498449309435 0 -0.0012863459737930839 -0.00520254875389955 0 -0.0021489399746748351 -0.0044960052904794408 0 -0.0010622022385711628 -0.0037468074709243351 0 -0.00020665723567744616 -0.0051593476822582836 0 -0.0010622022385711628 -0.0037468074709243351 0 9.5226178379933951e-05 -0.0039936429194842703 0 -0.00068648499662915335 -0.0059615060140456198 0 -0.0012863459737930839 -0.00520254875389955 0 -0.00020665723567744616 -0.0051593476822582836 0 -0.0012863459737930839 -0.00520254875389955 0 -0.00020665723567744616 -0.0051593476822582836 0 -0.0010622022385711628 -0.0037468074709243351 0 -0.0067124671542001559 -0.006891385275608424 0 -0.0058527333108489912 -0.0077480892354303849 0 -0.0055440243243701738 -0.0059359619104102168 0 -0.0058527333108489912 -0.0077480892354303849 0 -0.0055440243243701738 -0.0059359619104102168 0 -0.0047134400716086237 -0.0069992823449298415 0 -0.0055440243243701738 -0.0059359619104102168 0 -0.0047134400716086237 -0.0069992823449298415 0 -0.0038626308994745796 -0.0052538498449309435 0 -0.0047134400716086237 -0.0069992823449298415 0 -0.0032799663885588319 -0.0071961697919684089 0 -0.0038626308994745796 -0.0052538498449309435 0 -0.0023534966170884824 -0.0057117755214372732 0 -0.0032799663885588319 -0.0071961697919684089 0 -0.0038626308994745796 -0.0052538498449309435 0 -0.0046249784440018328 -0.0080586527690089324 0 -0.0047134400716086237 -0.0069992823449298415 0 -0.0032799663885588319 -0.0071961697919684089 0 -0.0021489399746748351 -0.0044960052904794408 0 -0.0038626308994745796 -0.0052538498449309435 0 -0.0026079533773439223 -0.0030338349575764274 0 -0.0038626308994745796 -0.0052538498449309435 0 -0.0051703387137969226 -0.0038113050399755087 0 -0.0026079533773439223 -0.0030338349575764274 0 -0.0010094484396639767 -0.0094827035873794388 0 -0.0017554030436283444 -0.0060907534062575657 0 -0.0030646443321159745 -0.0084394929794524322 0 -0.0017554030436283444 -0.0060907534062575657 0 -0.0069407892658302833 -0.0049692440828607637 0 -0.0055440243243701738 -0.0059359619104102168 0 -0.0051703387137969226 -0.0038113050399755087 0 -0.0055440243243701738 -0.0059359619104102168 0 -0.0038626308994745796 -0.0052538498449309435 0 -0.0051703387137969226 -0.0038113050399755087 0 -0.00026352313936995367 -0.0083900819842005758 0 -8.5997824521077157e-05 -0.0077861276883295942 0 -0.00013536667651817066 -0.0084385714801772146 0 -9.3166195239401789e-05 -0.0086396676854799508 0 -0.00026352313936995367 -0.0083900819842005758 0 -0.00013536667651817066 -0.0084385714801772146 0 0.00025624561265104833 -0.0079938127805398319 0 -9.3166195239401789e-05 -0.0086396676854799508 0 -0.00026352313936995367 -0.0083900819842005758 0 -0.00026352313936995367 -0.0083900819842005758 0 0.00011630957406357101 -0.0075583500324361867 0 -8.5997824521077157e-05 -0.0077861276883295942 0 -0.0017554030436283444 -0.0060907534062575657 0 0.00033546356659513473 -0.0061413783768440918 0 -0.0017554030436283444 -0.0060907534062575657 0 -0.0013287004978058366 -0.0037793269315034373 0 -8.1137649761131678e-05 -0.0049724751886091757 0 0.0002306113277560042 -0.0048051200563449829 0 0.00023512705904498587 -0.0048392246594518755 0 0.00011630957406357101 -0.0075583500324361867 0 2.1009817820129073e-05 -0.0069917425281046663 0 -8.5997824521077157e-05 -0.0077861276883295942 0 2.1009817820129073e-05 -0.0069917425281046663 0 -5.3215603822475463e-07 -0.0072400391602779664 0 -8.5997824521077157e-05 -0.0077861276883295942 0 -5.3215603822475463e-07 -0.0072400391602779664 0 -8.5997824521077157e-05 -0.0077861276883295942 0 -0.00013536667651817066 -0.0084385714801772146 0 4.2984898563340322e-07 -0.0091517848013041199 0 -5.3215603822475463e-07 -0.0072400391602779664 0 -0.00013536667651817066 -0.0084385714801772146 0 -0.0010622022385711628 -0.0037468074709243351 0 -0.00043449842107120445 -0.0024456266644776342 0 9.5226178379933951e-05 -0.0039936429194842703 0 -0.0021489399746748351 -0.0044960052904794408 0 -0.0010622022385711628 -0.0037468074709243351 0 -0.0026079533773439223 -0.0030338349575764274 0 0.00023512705904498587 -0.0048392246594518755 0 0.0001081806612757231 -0.0048756163376043223 0 -8.0534253409158131e-05 -0.0047533991218618177 0 -0.0013287004978058366 -0.0037793269315034373 0 -0.00028565691654389033 -0.0035822415202482966 0 -0.0010622022385711628 -0.0037468074709243351 0 -0.0026079533773439223 -0.0030338349575764274 0 -0.00043449842107120445 -0.0024456266644776342 0 0.0002306113277560042 -0.0048051200563449829 0 0.00023512705904498587 -0.0048392246594518755 0 0.0001081806612757231 -0.0048756163376043223 0 0.0002306113277560042 -0.0048051200563449829 0 0.0001081806612757231 -0.0048756163376043223 0 5.5744133107385151e-06 -0.0051599455763240978 0 2.1009817820129073e-05 -0.0069917425281046663 0 -5.3215603822475463e-07 -0.0072400391602779664 0 5.3025342279305519e-07 -0.0053266610214455215 0 0.00011630957406357101 -0.0075583500324361867 0 2.1009817820129073e-05 -0.0069917425281046663 0 5.3025342279305519e-07 -0.0053266610214455215 0 0.00033546356659513473 -0.0061413783768440918 0 -0.00010811098070434016 -0.005439627257211312 0 0.00011630957406357101 -0.0075583500324361867 0 5.3025342279305519e-07 -0.0053266610214455215 0 5.5744133107385151e-06 -0.0051599455763240978 0 5.5744133107385151e-06 -0.0051599455763240978 0 -8.0534253409158131e-05 -0.0047533991218618177 0 -3.1284076395023311e-07 -0.0034150025705108095 0 5.3025342279305519e-07 -0.0053266610214455215 0 5.5744133107385151e-06 -0.0051599455763240978 0 -3.1284076395023311e-07 -0.0034150025705108095 0 0.0001081806612757231 -0.0048756163376043223 0 5.5744133107385151e-06 -0.0051599455763240978 0 -8.0534253409158131e-05 -0.0047533991218618177 0 -8.0534253409158131e-05 -0.0047533991218618177 0 -3.1284076395023311e-07 -0.0034150025705108095 0 3.294185130126043e-05 -0.003423634186045688 0 -0.00043449842107120445 -0.0024456266644776342 0 0.00074362661587259972 -0.0021745014354945229 0 0.00040033535741591005 -0.00289003967026509 0 -0.00028565691654389033 -0.0035822415202482966 0 0.00026810053337859846 -0.0027581909541034692 0 0.00074362661587259972 -0.0021745014354945229 0 0.00052197719658876921 -0.0020724745656418601 0 1.1182711279299731e-07 -0.0015014414408066798 0 -3.1284076395023311e-07 -0.0034150025705108095 0 3.294185130126043e-05 -0.003423634186045688 0 3.8923852481879875e-07 -0.0015026832851488632 0 0.00074362661587259972 -0.0021745014354945229 0 0.00052197719658876921 -0.0020724745656418601 0 0.00097384013832272969 -0.0026775755345583205 0 0.00026810053337859846 -0.0027581909541034692 0 7.8617108719777513e-08 -0.0015026485206889476 0 0.00052197719658876921 -0.0020724745656418601 0 0.00097384013832272969 -0.0026775755345583205 0 0.00031028532441438277 -0.0018645034835410919 0 0.00097384013832272969 -0.0026775755345583205 0 0.0021957402024711478 -0.004037714358602465 0 0.003435391449580519 -0.0027434225660835101 0 0.00120669875416762 -0.0024175148019695007 0 0.0012756808282204171 -0.0033672230415796697 0 0.00074362661587259972 -0.0021745014354945229 0 0.00097384013832272969 -0.0026775755345583205 0 0.00040033535741591005 -0.00289003967026509 0 0.00097384013832272969 -0.0026775755345583205 0 0.00040033535741591005 -0.00289003967026509 0 0.00097114458817456522 -0.0042634780086008199 0 -0.00043449842107120445 -0.0024456266644776342 0 0.00040033535741591005 -0.00289003967026509 0 9.5226178379933951e-05 -0.0039936429194842703 0 9.5226178379933951e-05 -0.0039936429194842703 0 0.00040789979604521139 -0.0049617746322174429 0 0.00097114458817456522 -0.0042634780086008199 0 0.00040033535741591005 -0.00289003967026509 0 9.5226178379933951e-05 -0.0039936429194842703 0 0.00097114458817456522 -0.0042634780086008199 0 -0.00020665723567744616 -0.0051593476822582836 0 9.5226178379933951e-05 -0.0039936429194842703 0 0.00040789979604521139 -0.0049617746322174429 0 -0.00020665723567744616 -0.0051593476822582836 0 0.00040789979604521139 -0.0049617746322174429 0 0.00030046652649133847 -0.0056543447963011044 0 0.00040789979604521139 -0.0049617746322174429 0 0.00097114458817456522 -0.0042634780086008199 0 0.00076334609832832642 -0.0057210860715475069 0 0.00097114458817456522 -0.0042634780086008199 0 0.0021957402024711478 -0.004037714358602465 0 0.00076334609832832642 -0.0057210860715475069 0 0.00097384013832272969 -0.0026775755345583205 0 0.00097114458817456522 -0.0042634780086008199 0 0.0021957402024711478 -0.004037714358602465 0 0.002039395311674048 -0.0061285066722048297 0 0.0017278837622252483 -0.0082723009691998226 0 0.002039395311674048 -0.0061285066722048297 0 0.0013543010771758612 -0.0063104484917088218 0 0.0011417808494938813 -0.0090887668277486802 0 0.0011937691528139704 -0.0089266183295448852 0 0.0014788564273135432 -0.008956650890704786 0 0.0013387628514773433 -0.0088100497671997503 0 0.0011937691528139704 -0.0089266183295448852 0 0.0014788564273135432 -0.008956650890704786 0 0.0033733593455673831 -0.0058775463329842096 0 0.0016122980298217888 -0.007182986431407792 0 0.0020791410875416038 -0.007216097703916213 0 0.0013387628514773433 -0.0088100497671997503 0 0.0011313750026278877 -0.0087202172117524165 0 0.0011937691528139704 -0.0089266183295448852 0 0.00064268212504487441 -0.0087161679634931277 0 0.0016122980298217888 -0.007182986431407792 0 0.0020791410875416038 -0.007216097703916213 0 0.0015841600474732656 -0.0088436272794024766 0 0.0013387628514773433 -0.0088100497671997503 0 0.0014788564273135432 -0.008956650890704786 0 0.0012094676494473996 -0.008777648767985622 0 0.0017278837622252483 -0.0082723009691998226 0 0.00040789979604521139 -0.0049617746322174429 0 0.00030046652649133847 -0.0056543447963011044 0 0.00076334609832832642 -0.0057210860715475069 0 0.00015753718739225695 -0.0064638131542395505 0 0.00030046652649133847 -0.0056543447963011044 0 0.00076334609832832642 -0.0057210860715475069 0 0.00060049063935302004 -0.0088307611505729616 0 0.00098032075414323898 -0.0089918760770603123 0 0.00043389304121502307 -0.0089067761564780926 0 0.00072817206594932057 -0.0087058811241235348 0 0.00060049063935302004 -0.0088307611505729616 0 0.00098032075414323898 -0.0089918760770603123 0 0.0011315348574432095 -0.009385355460182104 0 0.00034189972438048084 -0.0073867014508242962 0 0.00072817206594932057 -0.0087058811241235348 0 0.00060049063935302004 -0.0088307611505729616 0 0.00051712045986602507 -0.008672452040194862 0 0.00072817206594932057 -0.0087058811241235348 0 0.00097948319785662167 -0.0088054657617665771 0 0.00098032075414323898 -0.0089918760770603123 0 0.0011313750026278877 -0.0087202172117524165 0 0.0011937691528139704 -0.0089266183295448852 0 0.00097948319785662167 -0.0088054657617665771 0 0.0011937691528139704 -0.0089266183295448852 0 0.00097948319785662167 -0.0088054657617665771 0 0.00098032075414323898 -0.0089918760770603123 0 0.0011417808494938813 -0.0090887668277486802 0 0.00098032075414323898 -0.0089918760770603123 0 0.00097929442367029516 -0.0090386527757393819 0 0.0011417808494938813 -0.0090887668277486802 0 0.00097929442367029516 -0.0090386527757393819 0 0.00097014761148059639 -0.0090892025896397478 0 0.0011417808494938813 -0.0090887668277486802 0 0.0011937691528139704 -0.0089266183295448852 0 0.00098032075414323898 -0.0089918760770603123 0 0.00090270249418043064 -0.0089959072438046944 0 0.00097014761148059639 -0.0090892025896397478 0 0.00086691866594756472 -0.0090101058205072863 0 0.00098032075414323898 -0.0089918760770603123 0 0.00090270249418043064 -0.0089959072438046944 0 0.00083831190388366811 -0.0089095255653381996 0 0.00097929442367029516 -0.0090386527757393819 0 0.00090270249418043064 -0.0089959072438046944 0 0.00097014761148059639 -0.0090892025896397478 0 0.00098032075414323898 -0.0089918760770603123 0 0.00097929442367029516 -0.0090386527757393819 0 0.00090270249418043064 -0.0089959072438046944 0 0.00049396405495517469 -0.0049537210211979881 0 0.00065145234629705848 -0.0036993012830708232 0 0.00097014761148059639 -0.0090892025896397478 0 0.00085222033625497796 -0.0090412037909660507 0 0.00086691866594756472 -0.0090101058205072863 0 7.8269061834181024e-05 -0.0035261878557576289 0 0.00045207036710236717 -0.0032350637576389995 0 0.00069457058775585585 -0.003537353412200002 0 0.0012756808282204171 -0.0033672230415796697 0 0.00051639748281429975 -0.0020788333811378929 0 0.00049396405495517469 -0.0049537210211979881 0 0.00015040673830274184 -0.00098544713359174506 0 6.1862904699003848e-05 -0.0024422238944456108 0 0.00078349577135688889 -0.0018948529481861737 0 0.00036498294082338808 -0.0018522877943998204 0 -0.00018237296408682126 -0.0024380010203397329 0 6.1862904699003848e-05 -0.0024422238944456108 0 0.00036498294082338808 -0.0018522877943998204 0 0.002039395311674048 -0.0061285066722048297 0 0.00049396405495517469 -0.0049537210211979881 0 0.0014067350959616222 -0.0052079012624875682 0 0.0014849639317829216 -0.0050888793778766329 0 0.0015158166074790971 -0.0050866430124664888 0 0.002039395311674048 -0.0061285066722048297 0 0.0012756808282204171 -0.0033672230415796697 0 0.0012756808282204171 -0.0033672230415796697 0 0.00049396405495517469 -0.0049537210211979881 0 0.00031028532441438277 -0.0018645034835410919 0 0.00023960116233343051 -0.0018327796770547643 0 0.00036498294082338808 -0.0018522877943998204 0 0.00052197719658876921 -0.0020724745656418601 0 0.00031028532441438277 -0.0018645034835410919 0 0.00023960116233343051 -0.0018327796770547643 0 0.00052197719658876921 -0.0020724745656418601 0 0.00023960116233343051 -0.0018327796770547643 0 1.1182711279299731e-07 -0.0015014414408066798 0 0.00023960116233343051 -0.0018327796770547643 0 0.00036498294082338808 -0.0018522877943998204 0 0.00014244717877091149 -0.0015809199317640369 0 0.00023960116233343051 -0.0018327796770547643 0 1.1182711279299731e-07 -0.0015014414408066798 0 0.00014244717877091149 -0.0015809199317640369 0 1.1182711279299731e-07 -0.0015014414408066798 0 0.00014244717877091149 -0.0015809199317640369 0 9.4428944612610494e-07 -0.0010570901803009919 0 2.2241569530900874e-05 0.00010078637469063051 0 5.3255722989763708e-07 -0.0010536388492979941 0 -5.437053604930593e-07 0.00022063757731716557 0 0.00078349577135688889 -0.0018948529481861737 0 0.00036498294082338808 -0.0018522877943998204 0 0.00014244717877091149 -0.0015809199317640369 0 0.00015040673830274184 -0.00098544713359174506 0 1.631824622278346e-07 -0.0010551713967917006 0 0.00078349577135688889 -0.0018948529481861737 0 0.00014244717877091149 -0.0015809199317640369 0 9.4428944612610494e-07 -0.0010570901803009919 0 2.2241569530900874e-05 0.00010078637469063051 0 -5.437053604930593e-07 0.00022063757731716557 0 -6.920858290204848e-05 0.00063752135923551378 0 -5.437053604930593e-07 0.00022063757731716557 0 -6.920858290204848e-05 0.00063752135923551378 0 5.832098508508585e-07 0.0014955448407839743 0 0.00015040673830274184 -0.00098544713359174506 0 2.6591136222623696e-05 0.00058358524778903318 0 -0.00048454482251220928 0.00039923743846984392 0 -0.0002008251283197401 0.0004258120066836143 0 -6.920858290204848e-05 0.00063752135923551378 0 -0.0002008251283197401 0.0004258120066836143 0 -7.5611915250050341e-05 0.00055537771728844144 0 -6.920858290204848e-05 0.00063752135923551378 0 -7.5611915250050341e-05 0.00055537771728844144 0 0.00012213167544136786 0.00032858931682739489 0 -3.5846806730943646e-05 0.000276324088242446 0 -0.0002008251283197401 0.0004258120066836143 0 -7.5611915250050341e-05 0.00055537771728844144 0 -3.5846806730943646e-05 0.000276324088242446 0 -7.5611915250050341e-05 0.00055537771728844144 0 -6.920858290204848e-05 0.00063752135923551378 0 5.832098508508585e-07 0.0014955448407839743 0 2.4318592365689277e-07 0.0014970641355462704 0 0.00064319350409112726 0.0013723083084728764 0 -7.5611915250050341e-05 0.00055537771728844144 0 5.832098508508585e-07 0.0014955448407839743 0 0.00012213167544136786 0.00032858931682739489 0 5.832098508508585e-07 0.0014955448407839743 0 0.00012213167544136786 0.00032858931682739489 0 0.00019607589457122125 0.00020001190807067426 0 1.7198205459710383e-06 0.0014991887257359419 0 0.00010018653730313283 0.0029164140493001646 0 0.00068086272196611944 0.0030107581785922396 0 1.7198205459710383e-06 0.0014991887257359419 0 0.00010018653730313283 0.0029164140493001646 0 -5.5699610301292167e-07 0.0025603893847312843 0 0.00064719159556309003 0.0012618147066651491 0 0.00064319350409112726 0.0013723083084728764 0 0.00010018653730313283 0.0029164140493001646 0 0.00068086272196611944 0.0030107581785922396 0 0.00053435507764987484 0.0033028744007799556 0 0.00064319350409112726 0.0013723083084728764 0 0.00071486080699333348 -0.000361376618640144 0 0.00064319350409112726 0.0013723083084728764 0 0.0008637652068193009 0.0017780303843917679 0 0.0010372728828347271 0.0011286319791646302 0 0.0011141228322615205 0.000845373338428313 0 0.00096314010815298507 0.00084830303189785785 0 0.0008637652068193009 0.0017780303843917679 0 0.00071486080699333348 -0.000361376618640144 0 0.00074468990740813039 -0.0027807787762786267 0 0.00030885034701393576 -0.0027727294080310133 0 0.00063955729554293812 -0.0031854938751488785 0 0.00071486080699333348 -0.000361376618640144 0 0.00065145234629705848 -0.0036993012830708232 0 0.00071486080699333348 -0.000361376618640144 0 0.00085877395390902996 -0.0046357962793571721 0 0.00071964160442769781 -0.0010988088815721969 0 0.00079351826382279944 -0.0011030536035600549 0 0.00083462643175805508 -0.00094971671522405964 0 0.00065145234629705848 -0.0036993012830708232 0 0.00085877395390902996 -0.0046357962793571721 0 0.00085222033625497796 -0.0090412037909660507 0 0.00086691866594756472 -0.0090101058205072863 0 0.00081492450455978693 -0.0089925138348494593 0 0.00015040673830274184 -0.00098544713359174506 0 0.00065145234629705848 -0.0036993012830708232 0 -0.00048454482251220928 0.00039923743846984392 0 -0.0002008251283197401 0.0004258120066836143 0 -0.00024782934557531514 6.1581002784461591e-05 0 -0.0002008251283197401 0.0004258120066836143 0 -0.00024782934557531514 6.1581002784461591e-05 0 -3.5846806730943646e-05 0.000276324088242446 0 5.9330939676265431e-05 4.55242806793718e-05 0 -0.00024782934557531514 6.1581002784461591e-05 0 -3.5846806730943646e-05 0.000276324088242446 0 0.00012213167544136786 0.00032858931682739489 0 0.0001304528619815391 0.00028384025117850729 0 -3.5846806730943646e-05 0.000276324088242446 0 0.0001304528619815391 0.00028384025117850729 0 5.9330939676265431e-05 4.55242806793718e-05 0 -3.5846806730943646e-05 0.000276324088242446 0 -1.1596619933633541e-07 0.0036239160517693159 0 -0.0001222930651106032 0.0052277322866409815 0 -1.3170674017119127e-07 0.0036211085728152207 0 -5.1208271656694849e-05 0.0032859356004370957 0 -0.00035423347320042543 0.0037435915037715749 0 -1.3170674017119127e-07 0.0036211085728152207 0 -5.1208271656694849e-05 0.0032859356004370957 0 -5.5699610301292167e-07 0.0025603893847312843 0 0.00010018653730313283 0.0029164140493001646 0 -5.1208271656694849e-05 0.0032859356004370957 0 -5.5699610301292167e-07 0.0025603893847312843 0 0.00010018653730313283 0.0029164140493001646 0 0.00053435507764987484 0.0033028744007799556 0 3.9459754767792526e-05 0.0036676176013513721 0 0.0008637652068193009 0.0017780303843917679 0 5.1796057059930447e-05 0.0040167053347086494 0 0.0012025782871759078 0.0036198010249691151 0 3.9459754767792526e-05 0.0036676176013513721 0 0.00062296624685772878 0.0041118419408193033 0 0.00010018653730313283 0.0029164140493001646 0 -5.1208271656694849e-05 0.0032859356004370957 0 3.9459754767792526e-05 0.0036676176013513721 0 3.9459754767792526e-05 0.0036676176013513721 0 -0.00015066399860445958 0.0043136192314218464 0 -0.00035423347320042543 0.0037435915037715749 0 -5.1208271656694849e-05 0.0032859356004370957 0 3.9459754767792526e-05 0.0036676176013513721 0 -0.00035423347320042543 0.0037435915037715749 0 3.9459754767792526e-05 0.0036676176013513721 0 -0.00015066399860445958 0.0043136192314218464 0 0.0003499487366193284 0.0044472443564172372 0 3.9459754767792526e-05 0.0036676176013513721 0 0.0003499487366193284 0.0044472443564172372 0 0.00062296624685772878 0.0041118419408193033 0 0.0003499487366193284 0.0044472443564172372 0 0.00062296624685772878 0.0041118419408193033 0 0.00086985772660652931 0.0046473215717198237 0 -0.00023737904618113543 0.003295912035574302 0 0.00057001961657769022 -9.2719623276167078e-05 0 0.0003499487366193284 0.0044472443564172372 0 -7.8473402740552028e-05 0.0050215264380617007 0 0.00073339528660679209 0.0048019596691434531 0 0.0003499487366193284 0.0044472443564172372 0 0.00086985772660652931 0.0046473215717198237 0 0.00073339528660679209 0.0048019596691434531 0 -0.00015066399860445958 0.0043136192314218464 0 0.0003499487366193284 0.0044472443564172372 0 -7.8473402740552028e-05 0.0050215264380617007 0 -0.00015066399860445958 0.0043136192314218464 0 -7.8473402740552028e-05 0.0050215264380617007 0 -0.00037337210917457955 0.00494354256520756 0 0.0007948897036902337 -0.004503698624742025 0 0.00023343757124659652 -0.003799705525397077 0 0.00098257570232168916 -0.0037904684268095673 0 0.00085877395390902996 -0.0046357962793571721 0 0.00034189972438048084 -0.0073867014508242962 0 0.00085582222922617353 -0.0089775528667425351 0 0.00081492450455978693 -0.0089925138348494593 0 0.00083831190388366811 -0.0089095255653381996 0 0.00090270249418043064 -0.0089959072438046944 0 0.00085582222922617353 -0.0089775528667425351 0 0.00083831190388366811 -0.0089095255653381996 0 0.00090270249418043064 -0.0089959072438046944 0 0.00085582222922617353 -0.0089775528667425351 0 0.00086691866594756472 -0.0090101058205072863 0 0.00085582222922617353 -0.0089775528667425351 0 0.00086691866594756472 -0.0090101058205072863 0 0.00081492450455978693 -0.0089925138348494593 0 0.00071964160442769781 -0.0010988088815721969 0 0.00083462643175805508 -0.00094971671522405964 0 0.00058509716017773742 -0.00064492417903162802 0 0.00085877395390902996 -0.0046357962793571721 0 0.00059190164693681449 4.3069036641108371e-05 0 0.0012025782871759078 0.0036198010249691151 0 0.00062296624685772878 0.0041118419408193033 0 0.00086985772660652931 0.0046473215717198237 0 0.0008637652068193009 0.0017780303843917679 0 0.00059190164693681449 4.3069036641108371e-05 0 0.00023343757124659652 -0.003799705525397077 0 0.00018608808376653762 -0.0036246025086070725 0 0.00098257570232168916 -0.0037904684268095673 0 0.001135189194387956 -0.0021335139015994757 0 0.00034189972438048084 -0.0073867014508242962 0 3.7782793661235926e-05 -0.0088463159647763374 0 0.00027624360899676373 -0.0087799813350670029 0 0.00043389304121502307 -0.0089067761564780926 0 0.0015234896277599498 0.00089168923578065171 0 0.0016941553639557359 0.0008571219905603748 0 0.0012866327891119988 0.0023603693689128922 0 0.00059190164693681449 4.3069036641108371e-05 0 0.001135189194387956 -0.0021335139015994757 0 0.0011174375113137962 -0.00036190333623288838 0 0.0013844069102967374 -0.00071194931370012807 0 0.0012017121552420353 -0.00067858058615400795 0 0.00059190164693681449 4.3069036641108371e-05 0 0.00057001961657769022 -9.2719623276167078e-05 0 0.00057001961657769022 -9.2719623276167078e-05 0 0.001135189194387956 -0.0021335139015994757 0 3.7782793661235926e-05 -0.0088463159647763374 0 0.00010592252672765656 -0.008638701766787717 0 0.00016856159997528675 -0.0087157081710863438 0 3.7782793661235926e-05 -0.0088463159647763374 0 0.00027624360899676373 -0.0087799813350670029 0 0.00016856159997528675 -0.0087157081710863438 0 0.00010592252672765656 -0.008638701766787717 0 0.00016856159997528675 -0.0087157081710863438 0 0.00022996258751580982 -0.0086374441048737288 0 0.00027624360899676373 -0.0087799813350670029 0 0.00016856159997528675 -0.0087157081710863438 0 0.00022996258751580982 -0.0086374441048737288 0 0.00027624360899676373 -0.0087799813350670029 0 0.00033073702154093359 -0.0087200979220647401 0 0.00022996258751580982 -0.0086374441048737288 0 0.00027624360899676373 -0.0087799813350670029 0 0.00036909242646404828 -0.0088069288259379312 0 0.00043389304121502307 -0.0089067761564780926 0 0.00033073702154093359 -0.0087200979220647401 0 0.00041384433716046417 -0.0087446357090266366 0 0.00036909242646404828 -0.0088069288259379312 0 0.00033073702154093359 -0.0087200979220647401 0 0.00041384433716046417 -0.0087446357090266366 0 0.00035893649846580045 -0.0086347305255115216 0 0.00041384433716046417 -0.0087446357090266366 0 0.00036909242646404828 -0.0088069288259379312 0 0.00042366501048181815 -0.0088162857362940206 0 0.00027624360899676373 -0.0087799813350670029 0 0.00033073702154093359 -0.0087200979220647401 0 0.00036909242646404828 -0.0088069288259379312 0 0.00036909242646404828 -0.0088069288259379312 0 0.00042366501048181815 -0.0088162857362940206 0 0.00043389304121502307 -0.0089067761564780926 0 0.00060049063935302004 -0.0088307611505729616 0 0.00043389304121502307 -0.0089067761564780926 0 0.00048755617523223735 -0.0088052176473399496 0 0.00041384433716046417 -0.0087446357090266366 0 0.00048755617523223735 -0.0088052176473399496 0 0.00051712045986602507 -0.008672452040194862 0 0.00060049063935302004 -0.0088307611505729616 0 0.00048755617523223735 -0.0088052176473399496 0 0.00051712045986602507 -0.008672452040194862 0 0.00042366501048181815 -0.0088162857362940206 0 0.00043389304121502307 -0.0089067761564780926 0 0.00048755617523223735 -0.0088052176473399496 0 0.00041384433716046417 -0.0087446357090266366 0 0.00042366501048181815 -0.0088162857362940206 0 0.00048755617523223735 -0.0088052176473399496 0 0.00041384433716046417 -0.0087446357090266366 0 0.00051712045986602507 -0.008672452040194862 0 0.00035893649846580045 -0.0086347305255115216 0 0.00051712045986602507 -0.008672452040194862 0 0.00035893649846580045 -0.0086347305255115216 0 0.00033179945677220933 -0.0085073907087466691 0 0.00035893649846580045 -0.0086347305255115216 0 0.00033179945677220933 -0.0085073907087466691 0 0.00022996258751580982 -0.0086374441048737288 0 0.00033073702154093359 -0.0087200979220647401 0 0.00035893649846580045 -0.0086347305255115216 0 0.00022996258751580982 -0.0086374441048737288 0 0.00051712045986602507 -0.008672452040194862 0 0.00033179945677220933 -0.0085073907087466691 0 0.00050980567013844788 -0.0084810144500946181 0 0.00050980567013844788 -0.0084810144500946181 0 0.0004187337420194716 -0.008225883677421119 0 0.00026840232747018573 -0.0083503416330229056 0 0.0004187337420194716 -0.008225883677421119 0 0.00026840232747018573 -0.0083503416330229056 0 0.00014952666742711759 -0.0081601675255493882 0 0.00033179945677220933 -0.0085073907087466691 0 0.00050980567013844788 -0.0084810144500946181 0 0.00026840232747018573 -0.0083503416330229056 0 0.00026840232747018573 -0.0083503416330229056 0 1.2255886159229694e-05 -0.0084412373428863641 0 0.00014952666742711759 -0.0081601675255493882 0 0.001135189194387956 -0.0021335139015994757 0 0.00017939593691443083 -0.0045802359414983708 0 3.7782793661235926e-05 -0.0088463159647763374 0 0.00010592252672765656 -0.008638701766787717 0 -0.00022374866106684158 -0.0080627091346477508 0 0.00026840232747018573 -0.0083503416330229056 0 0.00018577052286875616 -0.0085126921973348816 0 1.2255886159229694e-05 -0.0084412373428863641 0 0.00033179945677220933 -0.0085073907087466691 0 0.00026840232747018573 -0.0083503416330229056 0 0.00018577052286875616 -0.0085126921973348816 0 0.00010592252672765656 -0.008638701766787717 0 0.00018577052286875616 -0.0085126921973348816 0 0.00022996258751580982 -0.0086374441048737288 0 0.00033179945677220933 -0.0085073907087466691 0 0.00018577052286875616 -0.0085126921973348816 0 0.00022996258751580982 -0.0086374441048737288 0 0.00010592252672765656 -0.008638701766787717 0 0.00018577052286875616 -0.0085126921973348816 0 1.2255886159229694e-05 -0.0084412373428863641 0 0.00058859580666107173 -0.0094755926717102132 0 0.00017939593691443083 -0.0045802359414983708 0 -0.00029013895279684214 0.0012728339480431276 0 0.0015234896277599498 0.00089168923578065171 0 0.0012866327891119988 0.0023603693689128922 0 -0.00029013895279684214 0.0012728339480431276 0 -0.00035132102797687178 0.002722680932210347 0 -0.0011694454813729459 0.0021711630832439593 0 -0.00029013895279684214 0.0012728339480431276 0 0.0012866327891119988 0.0023603693689128922 0 -0.00035132102797687178 0.002722680932210347 0 -0.00035132102797687178 0.002722680932210347 0 0.00056708289167982341 0.0036921539754067767 0 -0.00062276319652392119 0.0037696279729707966 0 0.00014996100115848503 -0.0039432416842907613 0 -0.00053292244939898874 -0.0027502627940362602 0 -0.00036270142622635905 -0.0021939988492597233 0 0.00017939593691443083 -0.0045802359414983708 0 -0.0001468961585325854 0.0010611165708085603 0 1.2255886159229694e-05 -0.0084412373428863641 0 -0.00011171554939880826 -0.008079684539386487 0 0.00014952666742711759 -0.0081601675255493882 0 0.00017939593691443083 -0.0045802359414983708 0 -4.2415491711528522e-05 -0.0055635478370231048 0 0.0012866327891119988 0.0023603693689128922 0 -0.00035132102797687178 0.002722680932210347 0 0.00056708289167982341 0.0036921539754067767 0 -0.00053292244939898874 -0.0027502627940362602 0 -0.00036270142622635905 -0.0021939988492597233 0 -0.0012017845990557531 -0.0015610487891162177 0 -0.0001468961585325854 0.0010611165708085603 0 -0.00066143184665951613 0.0017184040466870817 0 -0.00062276319652392119 0.0037696279729707966 0 -0.00020817160136668401 0.0050253128233921111 0 -0.001322333595029683 0.0043799249051284126 0 0.00056708289167982341 0.0036921539754067767 0 -0.00062276319652392119 0.0037696279729707966 0 -0.00020817160136668401 0.0050253128233921111 0 -0.00020817160136668401 0.0050253128233921111 0 -0.00082229863548477868 0.0055830409960050051 0 -0.00085122720422676373 0.0058237903766806863 0 -0.00066143184665951613 0.0017184040466870817 0 -0.0017780579364871489 0.001896627969334702 0 -0.00036270142622635905 -0.0021939988492597233 0 -0.0012017845990557531 -0.0015610487891162177 0 -0.00085862735530613395 -0.00045749112468422532 0 -4.2415491711528522e-05 -0.0055635478370231048 0 -0.0017604365944554202 -0.0037774572128073266 0 -0.00011171554939880826 -0.008079684539386487 0 1.5827521884275761e-05 -0.0079351030922705391 0 -0.00025088866416151772 -0.0076972475884891966 0 1.5827521884275761e-05 -0.0079351030922705391 0 0.00022546314614375009 -0.0079584305643110552 0 4.9771597596686832e-05 -0.0077574443589578258 0 1.5827521884275761e-05 -0.0079351030922705391 0 0.00022546314614375009 -0.0079584305643110552 0 0.00014952666742711759 -0.0081601675255493882 0 0.00066047631153439692 -0.0081447386633194136 0 0.00022546314614375009 -0.0079584305643110552 0 0.00040316805276517447 -0.0078188153126772086 0 0.00073467039079254523 -0.0083995235463744516 0 0.00026277390412085463 -0.008003045619308544 0 0.00079755447091629903 -0.0087339539455389865 0 0.00066047631153439692 -0.0081447386633194136 0 0.00022546314614375009 -0.0079584305643110552 0 0.00064943235022578687 -0.008085703602642165 0 0.0004187337420194716 -0.008225883677421119 0 0.00022546314614375009 -0.0079584305643110552 0 0.0004187337420194716 -0.008225883677421119 0 0.00022546314614375009 -0.0079584305643110552 0 0.00014952666742711759 -0.0081601675255493882 0 -0.00011171554939880826 -0.008079684539386487 0 1.5827521884275761e-05 -0.0079351030922705391 0 0.00014952666742711759 -0.0081601675255493882 0 -0.00033318744981831138 0.0062515956796058599 0 -5.1261867372003448e-05 0.0061752377420944927 0 -0.00036743124006713337 0.0058807750533227121 0 -0.00033318744981831138 0.0062515956796058599 0 -0.00036743124006713337 0.0058807750533227121 0 -0.00058944932976705809 0.0060192095552248411 0 -0.00033318744981831138 0.0062515956796058599 0 -5.1261867372003448e-05 0.0061752377420944927 0 -0.00017439427275440237 0.0065308493678668048 0 -5.1261867372003448e-05 0.0061752377420944927 0 -0.00036743124006713337 0.0058807750533227121 0 -0.0001008344012771752 0.0057829562202699799 0 -5.1261867372003448e-05 0.0061752377420944927 0 0.00031591144758621656 0.0061148631950836063 0 -0.0001008344012771752 0.0057829562202699799 0 -0.00036743124006713337 0.0058807750533227121 0 -0.00058944932976705809 0.0060192095552248411 0 -0.00061480179153294379 0.0057571708401420547 0 -0.00058944932976705809 0.0060192095552248411 0 -0.00076085497339293054 0.0057851151115973776 0 -0.00088613795037542522 0.0060908952040266279 0 -0.00058944932976705809 0.0060192095552248411 0 -0.00076085497339293054 0.0057851151115973776 0 -0.00061480179153294379 0.0057571708401420547 0 -0.0008743713601978044 0.0055611385532172214 0 -0.0010720936782841802 0.0052675097846614401 0 -0.00020817160136668401 0.0050253128233921111 0 -0.00082229863548477868 0.0055830409960050051 0 -0.001322333595029683 0.0043799249051284126 0 -0.00082229863548477868 0.0055830409960050051 0 -0.00076085497339293054 0.0057851151115973776 0 -0.00088613795037542522 0.0060908952040266279 0 -0.00082229863548477868 0.0055830409960050051 0 -0.00076085497339293054 0.0057851151115973776 0 -0.00083462075622493955 0.0057178897332287116 0 -0.0010720936782841802 0.0052675097846614401 0 -0.0013704622643371425 0.0046146977063764132 0 -0.00062276319652392119 0.0037696279729707966 0 -0.001322333595029683 0.0043799249051284126 0 -0.0017925504380879775 0.0030101025729803214 0 -0.00058944932976705809 0.0060192095552248411 0 -0.00088613795037542522 0.0060908952040266279 0 -0.00062205891301399697 0.0062900095250503427 0 -0.00088613795037542522 0.0060908952040266279 0 -0.00062205891301399697 0.0062900095250503427 0 -0.00080299373757868151 0.0064994447503339964 0 -0.00033318744981831138 0.0062515956796058599 0 -0.00058944932976705809 0.0060192095552248411 0 -0.00062205891301399697 0.0062900095250503427 0 -0.00062205891301399697 0.0062900095250503427 0 -0.00080299373757868151 0.0064994447503339964 0 -0.00049455376127324226 0.0065916051753636172 0 -0.00035132102797687178 0.002722680932210347 0 -0.0017925504380879775 0.0030101025729803214 0 -0.0011694454813729459 0.0021711630832439593 0 -0.00035132102797687178 0.002722680932210347 0 -0.00062276319652392119 0.0037696279729707966 0 -0.0017925504380879775 0.0030101025729803214 0 -0.00029013895279684214 0.0012728339480431276 0 -0.0011694454813729459 0.0021711630832439593 0 -0.0022381838472148702 0.0016798629079475857 0 -0.0017925504380879775 0.0030101025729803214 0 -0.0011694454813729459 0.0021711630832439593 0 -0.0022381838472148702 0.0016798629079475857 0 -0.00080299373757868151 0.0064994447503339964 0 -0.00068741835329568239 0.0068496285993145797 0 -0.00049455376127324226 0.0065916051753636172 0 -0.0013704622643371425 0.0046146977063764132 0 -0.00076243513623096943 0.0048654533336886475 0 -0.00068741835329568239 0.0068496285993145797 0 -0.00049455376127324226 0.0065916051753636172 0 -0.00027385142294442051 0.0068466331003746743 0 -0.00028140978848496166 0.0062922536974975435 0 -0.0003898644051661519 0.0067400374904352054 0 -0.00027385142294442051 0.0068466331003746743 0 -0.00076243513623096943 0.0048654533336886475 0 -0.00026007612506748109 0.0072127607818257035 0 -0.0003898644051661519 0.0067400374904352054 0 -0.00027385142294442051 0.0068466331003746743 0 -0.00014627933843432719 0.0070080384094371876 0 -0.00033318744981831138 0.0062515956796058599 0 -0.00062205891301399697 0.0062900095250503427 0 -0.00049455376127324226 0.0065916051753636172 0 -0.00049455376127324226 0.0065916051753636172 0 -0.00017439427275440237 0.0065308493678668048 0 -0.00027385142294442051 0.0068466331003746743 0 -0.00033318744981831138 0.0062515956796058599 0 -0.00049455376127324226 0.0065916051753636172 0 -0.00017439427275440237 0.0065308493678668048 0 -0.00017439427275440237 0.0065308493678668048 0 5.7269715513185727e-06 0.0068596516364458271 0 0.00021182431140785005 0.0065247516030854796 0 -5.1261867372003448e-05 0.0061752377420944927 0 -0.00017439427275440237 0.0065308493678668048 0 0.00021182431140785005 0.0065247516030854796 0 5.7269715513185727e-06 0.0068596516364458271 0 8.3465865936329248e-05 0.0073333687634189433 0 0.00038620144364377972 0.0070150977832619818 0 5.7269715513185727e-06 0.0068596516364458271 0 8.3465865936329248e-05 0.0073333687634189433 0 -0.00014627933843432719 0.0070080384094371876 0 -0.00017439427275440237 0.0065308493678668048 0 5.7269715513185727e-06 0.0068596516364458271 0 -0.00027385142294442051 0.0068466331003746743 0 5.7269715513185727e-06 0.0068596516364458271 0 -0.00027385142294442051 0.0068466331003746743 0 -0.00014627933843432719 0.0070080384094371876 0 8.3465865936329248e-05 0.0073333687634189433 0 -0.00020150670881322727 0.007408685702333058 0 -0.00020284074250366505 0.0079952242761772308 0 8.3465865936329248e-05 0.0073333687634189433 0 -0.00014627933843432719 0.0070080384094371876 0 -0.00020150670881322727 0.007408685702333058 0 -0.00035851776361527148 0.0066140411304068478 0 -0.00043491235573926224 0.0063008649934890512 0 -0.0003898644051661519 0.0067400374904352054 0 -0.00020150670881322727 0.007408685702333058 0 -0.00031282271796308534 0.0079341582488947539 0 -0.0003898644051661519 0.0067400374904352054 0 -0.00014627933843432719 0.0070080384094371876 0 -0.00020150670881322727 0.007408685702333058 0 -0.00020284074250366505 0.0079952242761772308 0 -0.00031282271796308534 0.0079341582488947539 0 -0.00028359912572289368 0.0077295367400448921 0 -0.00020150670881322727 0.007408685702333058 0 -0.00020284074250366505 0.0079952242761772308 0 -0.00031282271796308534 0.0079341582488947539 0 -0.00026126414247859054 0.0081050774788978472 0 2.1810381155076088e-05 0.0086635018069788888 0 8.3465865936329248e-05 0.0073333687634189433 0 -0.00020284074250366505 0.0079952242761772308 0 0.00039783750630384526 0.0075793324593232845 0 -0.00020284074250366505 0.0079952242761772308 0 -0.00013349302414029102 0.0086557913503987824 0 -0.00012714269131249012 0.0096786667662431825 0 -0.00023737904618113543 0.003295912035574302 0 -0.00076243513623096943 0.0048654533336886475 0 -7.8473402740552028e-05 0.0050215264380617007 0 -0.00055860643673038147 0.0052596539088729279 0 -0.00037337210917457955 0.00494354256520756 0 -0.00037337210917457955 0.00494354256520756 0 -0.00049366335108605973 0.0051191003836974312 0 -0.00040170819120973123 0.0045748471947866087 0 -0.00028140978848496166 0.0062922536974975435 0 -0.0003898644051661519 0.0067400374904352054 0 -0.00049564413780871436 0.0054437796606229385 0 -0.0003898644051661519 0.0067400374904352054 0 -0.00049564413780871436 0.0054437796606229385 0 -0.00068969563202726043 0.0048031205317051063 0 -0.00049366335108605973 0.0051191003836974312 0 -0.00049564413780871436 0.0054437796606229385 0 -0.00068969563202726043 0.0048031205317051063 0 -0.00055860643673038147 0.0052596539088729279 0 -0.00037337210917457955 0.00494354256520756 0 -0.00049366335108605973 0.0051191003836974312 0 -0.00055860643673038147 0.0052596539088729279 0 -0.00049366335108605973 0.0051191003836974312 0 -0.00049564413780871436 0.0054437796606229385 0 -0.00076243513623096943 0.0048654533336886475 0 -0.00041474343607218782 0.0057396565305671754 0 -0.00049366335108605973 0.0051191003836974312 0 -0.00068969563202726043 0.0048031205317051063 0 -0.00040170819120973123 0.0045748471947866087 0 -0.00068969563202726043 0.0048031205317051063 0 -0.00040170819120973123 0.0045748471947866087 0 -0.00035423347320042543 0.0037435915037715749 0 -0.00043491235573926224 0.0063008649934890512 0 -0.0001222930651106032 0.0052277322866409815 0 -0.00015066399860445958 0.0043136192314218464 0 -0.00040170819120973123 0.0045748471947866087 0 -0.00035423347320042543 0.0037435915037715749 0 -0.00015066399860445958 0.0043136192314218464 0 -0.00037337210917457955 0.00494354256520756 0 -0.00040170819120973123 0.0045748471947866087 0 0.0003053693705829357 0.006630194372332354 0 -0.00028359912572289368 0.0077295367400448921 0 -0.00019324639485332771 0.0072295095052500634 0 -0.00031282271796308534 0.0079341582488947539 0 0.0003053693705829357 0.006630194372332354 0 -0.00028359912572289368 0.0077295367400448921 0 0.0003053693705829357 0.006630194372332354 0 -5.5967030327477597e-07 0.0056047825559597288 0 -0.00019324639485332771 0.0072295095052500634 0 1.8544157702557248e-06 0.0036259579033474836 0 0.0003053693705829357 0.006630194372332354 0 -5.5967030327477597e-07 0.0056047825559597288 0 -0.00013349302414029102 0.0086557913503987824 0 -0.00028359912572289368 0.0077295367400448921 0 -0.00019324639485332771 0.0072295095052500634 0 -0.00020284074250366505 0.0079952242761772308 0 -0.00013349302414029102 0.0086557913503987824 0 -0.00028359912572289368 0.0077295367400448921 0 -5.5967030327477597e-07 0.0056047825559597288 0 -3.159664560446651e-07 0.007586540734329893 0 -0.00019324639485332771 0.0072295095052500634 0 -0.00013349302414029102 0.0086557913503987824 0 -3.159664560446651e-07 0.007586540734329893 0 -0.00019324639485332771 0.0072295095052500634 0 -0.00013349302414029102 0.0086557913503987824 0 -3.159664560446651e-07 0.007586540734329893 0 -2.2789594704516619e-07 0.0095673269883960448 0 -0.00013349302414029102 0.0086557913503987824 0 -2.2789594704516619e-07 0.0095673269883960448 0 -0.00012407289558093745 0.010469795864614696 0 -0.00013349302414029102 0.0086557913503987824 0 -0.00012407289558093745 0.010469795864614696 0 -0.00012714269131249012 0.0096786667662431825 0 -2.2789594704516619e-07 0.0095673269883960448 0 -0.00012407289558093745 0.010469795864614696 0 -2.4835457211864183e-07 0.011548554244692918 0 -2.4835457211864183e-07 0.011548554244692918 0 -2.1880181628099616e-07 0.013529778992647269 0 -8.8843465726283469e-05 0.012920978094164221 0 -0.00015106177038053985 0.012044314933865397 0 -8.8843465726283469e-05 0.012920978094164221 0 -3.4668033540348864e-05 0.013280814086203432 0 -2.4835457211864183e-07 0.011548554244692918 0 -0.00015106177038053985 0.012044314933865397 0 -8.8843465726283469e-05 0.012920978094164221 0 -0.00012407289558093745 0.010469795864614696 0 -2.4835457211864183e-07 0.011548554244692918 0 -0.00015106177038053985 0.012044314933865397 0 -0.00012407289558093745 0.010469795864614696 0 -0.00015106177038053985 0.012044314933865397 0 -0.00018703671432169526 0.011213327980921702 0 -0.00015106177038053985 0.012044314933865397 0 -9.5185977194901051e-05 0.012320942863914696 0 -0.00018703671432169526 0.011213327980921702 0 -0.00015106177038053985 0.012044314933865397 0 -9.5185977194901051e-05 0.012320942863914696 0 -3.4668033540348864e-05 0.013280814086203432 0 0.00033783043508352065 0.011549363822269324 0 0.0004358734434067437 0.0091523981815690124 0 0.00033783043508352065 0.011549363822269324 0 0.00015496330492699838 0.010447055876430212 0 -0.00065752355709463087 0.014268370048503246 0 -0.00056292209552054253 0.014140024319133122 0 -0.00085821721289287031 0.01405776048184024 0 0.00096909804887377574 0.0075381709141511986 0 0.00078555381445437333 0.0071436702873115803 0 0.0012020007792110322 0.0070483076627796534 0 0.001588515428419539 0.0075280878649096163 0 0.00096909804887377574 0.0075381709141511986 0 0.0012020007792110322 0.0070483076627796534 0 0.00096909804887377574 0.0075381709141511986 0 0.00039783750630384526 0.0075793324593232845 0 0.00078555381445437333 0.0071436702873115803 0 8.3465865936329248e-05 0.0073333687634189433 0 0.00039783750630384526 0.0075793324593232845 0 0.00038620144364377972 0.0070150977832619818 0 0.00039783750630384526 0.0075793324593232845 0 0.00038620144364377972 0.0070150977832619818 0 0.00078555381445437333 0.0071436702873115803 0 0.0004358734434067437 0.0091523981815690124 0 2.1810381155076088e-05 0.0086635018069788888 0 -0.00012407289558093745 0.010469795864614696 0 -0.00018703671432169526 0.011213327980921702 0 -0.00012714269131249012 0.0096786667662431825 0 0.00014983223117123837 0.015795514882574656 0 0.00011065190746825922 0.014740101726527143 0 0.00072729397147974762 0.015267798290241805 0 0.00014983223117123837 0.015795514882574656 0 -7.9394320873195831e-05 0.015283519201338337 0 0.00011065190746825922 0.014740101726527143 0 0.00014983223117123837 0.015795514882574656 0 -1.8406437015460468e-07 0.017492352942885366 0 -7.9394320873195831e-05 0.015283519201338337 0 -1.8406437015460468e-07 0.017492352942885366 0 -2.6558851064681615e-07 0.015510602772380977 0 -7.9394320873195831e-05 0.015283519201338337 0 -2.6558851064681615e-07 0.015510602772380977 0 -7.9394320873195831e-05 0.015283519201338337 0 -0.00015341333638526706 0.014062201362156057 0 -7.9394320873195831e-05 0.015283519201338337 0 -0.00014310376651138158 0.014400832891316197 0 0.00011065190746825922 0.014740101726527143 0 -7.9394320873195831e-05 0.015283519201338337 0 -0.00015341333638526706 0.014062201362156057 0 -0.00014310376651138158 0.014400832891316197 0 -0.00015341333638526706 0.014062201362156057 0 -0.00020316674081148877 0.013908867835838135 0 -0.00014310376651138158 0.014400832891316197 0 -2.6558851064681615e-07 0.015510602772380977 0 -0.00015341333638526706 0.014062201362156057 0 -2.1880181628099616e-07 0.013529778992647269 0 -0.00015341333638526706 0.014062201362156057 0 -2.1880181628099616e-07 0.013529778992647269 0 -8.8843465726283469e-05 0.012920978094164221 0 -0.00015341333638526706 0.014062201362156057 0 -8.8843465726283469e-05 0.012920978094164221 0 -3.4668033540348864e-05 0.013280814086203432 0 0.00038688191153320959 0.013721952318404125 0 -3.4668033540348864e-05 0.013280814086203432 0 -0.00023329671978865085 0.013956979328890257 0 0.00033783043508352065 0.011549363822269324 0 0.00022902408656911563 0.013365971098621218 0 0.00033783043508352065 0.011549363822269324 0 -0.00044041904140027069 0.014341714991565063 0 -0.00065752355709463087 0.014268370048503246 0 -0.00056292209552054253 0.014140024319133122 0 -0.00039257142131631428 0.01427988694790005 0 -0.00039257142131631428 0.01427988694790005 0 -6.4983772103289667e-05 0.014282017763210295 0 -0.00037855117977988475 0.014022202010200952 0 -0.00023329671978865085 0.013956979328890257 0 -0.00020316674081148877 0.013908867835838135 0 -6.4983772103289667e-05 0.014282017763210295 0 -0.00056292209552054253 0.014140024319133122 0 -0.00039257142131631428 0.01427988694790005 0 -0.00037855117977988475 0.014022202010200952 0 -0.00015341333638526706 0.014062201362156057 0 -3.4668033540348864e-05 0.013280814086203432 0 -0.00020316674081148877 0.013908867835838135 0 -3.4668033540348864e-05 0.013280814086203432 0 -0.00023329671978865085 0.013956979328890257 0 -0.00020316674081148877 0.013908867835838135 0 -0.00020316674081148877 0.013908867835838135 0 -0.00014310376651138158 0.014400832891316197 0 -6.4983772103289667e-05 0.014282017763210295 0 -0.00014310376651138158 0.014400832891316197 0 -6.4983772103289667e-05 0.014282017763210295 0 0.00011065190746825922 0.014740101726527143 0 -0.00044041904140027069 0.014341714991565063 0 -5.2338479645390089e-05 0.014204150447057732 0 -6.4983772103289667e-05 0.014282017763210295 0 0.0003540627104300017 0.014217251036038644 0 0.00011065190746825922 0.014740101726527143 0 -0.00013112651915360711 0.013952404911137906 0 -7.7691119197042575e-05 0.013843580554729505 0 1.8673980389250016e-05 0.013949399786207864 0 -6.4983772103289667e-05 0.014282017763210295 0 0.0003540627104300017 0.014217251036038644 0 -0.00013112651915360711 0.013952404911137906 0 0.0003540627104300017 0.014217251036038644 0 -0.00013112651915360711 0.013952404911137906 0 0.00056562834968304314 0.013716150239194222 0 -0.00014060241865821815 0.014059263429861782 0 0.00033301151702787242 0.013338207838838408 0 -6.4983772103289667e-05 0.014282017763210295 0 -0.00013112651915360711 0.013952404911137906 0 -0.00037855117977988475 0.014022202010200952 0 -0.00013112651915360711 0.013952404911137906 0 -0.00031294539229162667 0.01381662098037194 0 -0.00037855117977988475 0.014022202010200952 0 -0.00013112651915360711 0.013952404911137906 0 -0.00031294539229162667 0.01381662098037194 0 -7.7691119197042575e-05 0.013843580554729505 0 -0.00031294539229162667 0.01381662098037194 0 -0.00037855117977988475 0.014022202010200952 0 -0.00050653788615384393 0.0138465682420977 0 -0.00056292209552054253 0.014140024319133122 0 -0.00037855117977988475 0.014022202010200952 0 -0.00060588051288973052 0.013986625656589929 0 -0.00037855117977988475 0.014022202010200952 0 -0.00060588051288973052 0.013986625656589929 0 -0.00050653788615384393 0.0138465682420977 0 -0.00060588051288973052 0.013986625656589929 0 -0.00050653788615384393 0.0138465682420977 0 -0.00074262170795277708 0.01380865430857376 0 -0.00050653788615384393 0.0138465682420977 0 -0.00051448294849722491 0.013663787670851722 0 -0.00074262170795277708 0.01380865430857376 0 -0.00051448294849722491 0.013663787670851722 0 -0.00072524162630631763 0.013581325131582162 0 -0.0005659518306592214 0.01340104940693356 0 -0.00051448294849722491 0.013663787670851722 0 -0.0004052625588164202 0.013535915997314329 0 -0.0005659518306592214 0.01340104940693356 0 -0.00051448294849722491 0.013663787670851722 0 -0.0004052625588164202 0.013535915997314329 0 -0.00035947597954707957 0.013681925332767977 0 -0.00031294539229162667 0.01381662098037194 0 -0.00050653788615384393 0.0138465682420977 0 -0.00051448294849722491 0.013663787670851722 0 -0.00031294539229162667 0.01381662098037194 0 -0.00051448294849722491 0.013663787670851722 0 -0.00035947597954707957 0.013681925332767977 0 -0.00031294539229162667 0.01381662098037194 0 -0.00020568315714614163 0.013701805680498941 0 -7.7691119197042575e-05 0.013843580554729505 0 -0.00031294539229162667 0.01381662098037194 0 -0.00035947597954707957 0.013681925332767977 0 -0.00020568315714614163 0.013701805680498941 0 -0.0004052625588164202 0.013535915997314329 0 -0.00020568315714614163 0.013701805680498941 0 -0.00027864256954166042 0.013500742602775189 0 -0.00020568315714614163 0.013701805680498941 0 -0.00010363628273599545 0.013587334646089655 0 -0.00027864256954166042 0.013500742602775189 0 -0.0004052625588164202 0.013535915997314329 0 -0.00035947597954707957 0.013681925332767977 0 -0.00020568315714614163 0.013701805680498941 0 -0.00020568315714614163 0.013701805680498941 0 -2.6223245996792055e-05 0.013741294443886224 0 -0.00010363628273599545 0.013587334646089655 0 -2.6223245996792055e-05 0.013741294443886224 0 -0.00010363628273599545 0.013587334646089655 0 2.5591529757581403e-05 0.013699563514731616 0 -0.00020568315714614163 0.013701805680498941 0 -2.6223245996792055e-05 0.013741294443886224 0 -7.7691119197042575e-05 0.013843580554729505 0 -2.6223245996792055e-05 0.013741294443886224 0 -7.7691119197042575e-05 0.013843580554729505 0 3.7385893124673192e-05 0.013822371203717492 0 0.00078040055049932375 0.0065586207782784983 0 0.00021182431140785005 0.0065247516030854796 0 0.00038620144364377972 0.0070150977832619818 0 5.7269715513185727e-06 0.0068596516364458271 0 0.00021182431140785005 0.0065247516030854796 0 0.00038620144364377972 0.0070150977832619818 0 0.00078040055049932375 0.0065586207782784983 0 0.00038620144364377972 0.0070150977832619818 0 0.00078555381445437333 0.0071436702873115803 0 0.00078040055049932375 0.0065586207782784983 0 0.00078555381445437333 0.0071436702873115803 0 0.0012020007792110322 0.0070483076627796534 0 -0.00056292209552054253 0.014140024319133122 0 -0.00060588051288973052 0.013986625656589929 0 -0.00085821721289287031 0.01405776048184024 0 -0.00060588051288973052 0.013986625656589929 0 -0.00085821721289287031 0.01405776048184024 0 -0.00074262170795277708 0.01380865430857376 0 -0.0010840237572089747 0.013870426432378834 0 -0.00085821721289287031 0.01405776048184024 0 -0.00074262170795277708 0.01380865430857376 0 -0.00015119509268046974 0.010231709991869122 0 0.00015496330492699838 0.010447055876430212 0 -0.0010840237572089747 0.013870426432378834 0 -0.00074262170795277708 0.01380865430857376 0 -0.00094532713220696839 0.013664432944735235 0 -0.00074262170795277708 0.01380865430857376 0 -0.00094532713220696839 0.013664432944735235 0 -0.00072524162630631763 0.013581325131582162 0 -0.00051448294849722491 0.013663787670851722 0 -0.00074262170795277708 0.01380865430857376 0 -0.00072524162630631763 0.013581325131582162 0 -0.00094532713220696839 0.013664432944735235 0 -0.00072524162630631763 0.013581325131582162 0 -0.00089196704060891924 0.01339516463377557 0 -0.00094532713220696839 0.013664432944735235 0 -0.0011593426284982457 0.013519633695552955 0 -0.00089196704060891924 0.01339516463377557 0 -0.00094532713220696839 0.013664432944735235 0 -0.0011593426284982457 0.013519633695552955 0 -0.0013728917529489272 0.013673655720031512 0 -0.0010840237572089747 0.013870426432378834 0 -0.00094532713220696839 0.013664432944735235 0 -0.0013728917529489272 0.013673655720031512 0 -0.00015119509268046974 0.010231709991869122 0 -0.00052402960227018031 0.0099019596802758601 0 0.00078040055049932375 0.0065586207782784983 0 0.00021182431140785005 0.0065247516030854796 0 0.00031591144758621656 0.0061148631950836063 0 -5.1261867372003448e-05 0.0061752377420944927 0 0.00021182431140785005 0.0065247516030854796 0 0.00031591144758621656 0.0061148631950836063 0 -0.00052402960227018031 0.0099019596802758601 0 -0.00095923870309908975 0.0095433740315227222 0 -0.0011593426284982457 0.013519633695552955 0 -0.0013728917529489272 0.013673655720031512 0 -0.0013334435492170166 0.013285724004107659 0 -0.0013728917529489272 0.013673655720031512 0 -0.0013334435492170166 0.013285724004107659 0 -0.0017446128339304323 0.013404053801171725 0 -0.0013334435492170166 0.013285724004107659 0 -0.0015258578280277965 0.012790328667248647 0 -0.0017496670504117406 0.013068500642788737 0 -0.0013334435492170166 0.013285724004107659 0 -0.00096266695653610156 0.013024523024986719 0 -0.0015258578280277965 0.012790328667248647 0 -0.0011593426284982457 0.013519633695552955 0 -0.0013334435492170166 0.013285724004107659 0 -0.00089196704060891924 0.01339516463377557 0 -0.0013334435492170166 0.013285724004107659 0 -0.00089196704060891924 0.01339516463377557 0 -0.00096266695653610156 0.013024523024986719 0 -0.00072524162630631763 0.013581325131582162 0 -0.00089196704060891924 0.01339516463377557 0 -0.0005659518306592214 0.01340104940693356 0 -0.00089196704060891924 0.01339516463377557 0 -0.00068225049445322426 0.013246989269742618 0 -0.0005659518306592214 0.01340104940693356 0 -0.00068225049445322426 0.013246989269742618 0 -0.00096266695653610156 0.013024523024986719 0 -0.00049687027015801527 0.013111889577884114 0 -0.00068225049445322426 0.013246989269742618 0 -0.00049687027015801527 0.013111889577884114 0 -0.00051083318988841243 0.013250186630223267 0 -0.00089196704060891924 0.01339516463377557 0 -0.00068225049445322426 0.013246989269742618 0 -0.00096266695653610156 0.013024523024986719 0 -0.00096266695653610156 0.013024523024986719 0 -0.00076539870197780328 0.012634132090145463 0 -0.0011538219016005659 0.012599389866736992 0 -0.00096266695653610156 0.013024523024986719 0 -0.00049687027015801527 0.013111889577884114 0 -0.00076539870197780328 0.012634132090145463 0 -0.00049687027015801527 0.013111889577884114 0 -0.00076539870197780328 0.012634132090145463 0 -0.00023207141899860272 0.012507549696463553 0 -0.00076539870197780328 0.012634132090145463 0 -0.00023207141899860272 0.012507549696463553 0 -0.0005325362636992352 0.012174093580795244 0 -0.00076539870197780328 0.012634132090145463 0 -0.0011538219016005659 0.012599389866736992 0 -0.0010250652981520451 0.012306068700172394 0 -0.0011538219016005659 0.012599389866736992 0 -0.0014787453535415715 0.012311189498572505 0 -0.0010250652981520451 0.012306068700172394 0 -0.0014787453535415715 0.012311189498572505 0 -0.0015258578280277965 0.012790328667248647 0 -0.001753138229769656 0.012421308830627815 0 -0.0011538219016005659 0.012599389866736992 0 -0.0014787453535415715 0.012311189498572505 0 -0.0015258578280277965 0.012790328667248647 0 -0.00096266695653610156 0.013024523024986719 0 -0.0011538219016005659 0.012599389866736992 0 -0.0015258578280277965 0.012790328667248647 0 -0.00076651136662649294 0.013304651301769601 0 -0.00089803752920020977 0.013419816533926791 0 -0.0009534869219432685 0.013398096131207442 0 -0.00076651136662649294 0.013304651301769601 0 -0.00089803752920020977 0.013419816533926791 0 -0.00083720488727287174 0.013465223190976375 0 -0.00043186760241910413 0.013367486989946544 0 -0.00064387170761234043 0.012890226528186378 0 -0.00089803752920020977 0.013419816533926791 0 -0.00083720488727287174 0.013465223190976375 0 -0.00095002905677038973 0.013476686972270098 0 -0.0002116146681182936 0.013348452698480973 0 -0.00010363628273599545 0.013587334646089655 0 -0.00027864256954166042 0.013500742602775189 0 -0.0002116146681182936 0.013348452698480973 0 -0.00010363628273599545 0.013587334646089655 0 8.1771394148908492e-06 0.013368083394108285 0 -0.0002116146681182936 0.013348452698480973 0 -0.00027864256954166042 0.013500742602775189 0 -0.00048461917688877575 0.013292288612435055 0 -0.00076651136662649294 0.013304651301769601 0 -0.00048461917688877575 0.013292288612435055 0 -0.00065636100445483499 0.013429632763429223 0 -0.00043186760241910413 0.013367486989946544 0 -0.00050425343690820262 0.013293726812227492 0 -0.00076651136662649294 0.013304651301769601 0 -0.00065636100445483499 0.013429632763429223 0 -0.00083720488727287174 0.013465223190976375 0 -0.00048461917688877575 0.013292288612435055 0 -0.00051083318988841243 0.013250186630223267 0 -0.00052364513664982708 0.013390103219180936 0 -0.0004052625588164202 0.013535915997314329 0 -0.00027864256954166042 0.013500742602775189 0 -0.00048461917688877575 0.013292288612435055 0 -0.0004052625588164202 0.013535915997314329 0 -0.00048461917688877575 0.013292288612435055 0 -0.0005659518306592214 0.01340104940693356 0 -0.00048461917688877575 0.013292288612435055 0 -0.0005659518306592214 0.01340104940693356 0 -0.00051083318988841243 0.013250186630223267 0 -0.00068225049445322426 0.013246989269742618 0 -0.0005659518306592214 0.01340104940693356 0 -0.00051083318988841243 0.013250186630223267 0 -0.00049687027015801527 0.013111889577884114 0 -0.00039038841537528942 0.013560590154600391 0 -0.00052364513664982708 0.013390103219180936 0 -0.00049687027015801527 0.013111889577884114 0 -0.00051083318988841243 0.013250186630223267 0 -0.00052364513664982708 0.013390103219180936 0 -0.00047550639254697604 0.013130736369897356 0 -0.00031358854431752802 0.013046055693785218 0 -0.00061590458551073388 0.013668551629080986 0 -0.00052364513664982708 0.013390103219180936 0 -0.00050514723581726725 0.013673402796719745 0 -0.00039038841537528942 0.013560590154600391 0 -0.00052364513664982708 0.013390103219180936 0 -0.00050514723581726725 0.013673402796719745 0 -0.00061590458551073388 0.013668551629080986 0 -0.00052364513664982708 0.013390103219180936 0 -0.00066505199553559098 0.01354140181082074 0 -0.00048461917688877575 0.013292288612435055 0 -0.00052364513664982708 0.013390103219180936 0 -0.00065636100445483499 0.013429632763429223 0 -0.00052364513664982708 0.013390103219180936 0 -0.00065636100445483499 0.013429632763429223 0 -0.00066505199553559098 0.01354140181082074 0 -0.00065636100445483499 0.013429632763429223 0 -0.00066505199553559098 0.01354140181082074 0 -0.00080134072836115025 0.013557315120785148 0 -0.00061590458551073388 0.013668551629080986 0 -0.00066505199553559098 0.01354140181082074 0 -0.00072539765791224922 0.013687049456096133 0 -0.00066505199553559098 0.01354140181082074 0 -0.00072539765791224922 0.013687049456096133 0 -0.00080134072836115025 0.013557315120785148 0 -0.00072539765791224922 0.013687049456096133 0 -0.000849839668428109 0.01373695459075667 0 -0.00080134072836115025 0.013557315120785148 0 -0.000849839668428109 0.01373695459075667 0 -0.00092152616561692131 0.013608648106339029 0 -0.0010054817435430781 0.013689179507887247 0 -0.000849839668428109 0.01373695459075667 0 -0.00097095064949466318 0.013820969006509323 0 -0.0010054817435430781 0.013689179507887247 0 -0.000849839668428109 0.01373695459075667 0 -0.00092152616561692131 0.013608648106339029 0 -0.00080134072836115025 0.013557315120785148 0 -0.00092152616561692131 0.013608648106339029 0 -0.00080134072836115025 0.013557315120785148 0 -0.0009419964177315392 0.013525960320798157 0 -0.00065636100445483499 0.013429632763429223 0 -0.00080134072836115025 0.013557315120785148 0 -0.00083720488727287174 0.013465223190976375 0 -0.00080134072836115025 0.013557315120785148 0 -0.00083720488727287174 0.013465223190976375 0 -0.0009419964177315392 0.013525960320798157 0 -0.00083720488727287174 0.013465223190976375 0 -0.00095002905677038973 0.013476686972270098 0 -0.0009419964177315392 0.013525960320798157 0 -0.00084002547323405784 0.013974309280610886 0 -0.00095179126995734577 0.015137542041785974 0 -0.0010651944973736126 0.015066888279857447 0 -0.00077357844505615667 0.014031100595585273 0 -0.00084002547323405784 0.013974309280610886 0 -0.00085681488216649926 0.01417064680067852 0 -0.00070163799974075802 0.013461360326628329 0 -0.001464208755783121 0.015893263521854245 0 -0.000849839668428109 0.01373695459075667 0 -0.00084002547323405784 0.013974309280610886 0 -0.00071733760153248178 0.013873666108365476 0 -0.00077357844505615667 0.014031100595585273 0 -0.00084002547323405784 0.013974309280610886 0 -0.00071733760153248178 0.013873666108365476 0 -0.000849839668428109 0.01373695459075667 0 -0.00084002547323405784 0.013974309280610886 0 -0.00097095064949466318 0.013820969006509323 0 -0.00072539765791224922 0.013687049456096133 0 -0.000849839668428109 0.01373695459075667 0 -0.00071733760153248178 0.013873666108365476 0 -0.00061590458551073388 0.013668551629080986 0 -0.00072539765791224922 0.013687049456096133 0 -0.00071733760153248178 0.013873666108365476 0 -0.00061590458551073388 0.013668551629080986 0 -0.00071733760153248178 0.013873666108365476 0 -0.00060439705349085737 0.013850572505582795 0 -0.00071733760153248178 0.013873666108365476 0 -0.00069760170441337122 0.013978517149202322 0 -0.00060439705349085737 0.013850572505582795 0 -0.00069760170441337122 0.013978517149202322 0 -0.00060969041188729757 0.01399003795825004 0 -0.00060439705349085737 0.013850572505582795 0 -0.00077357844505615667 0.014031100595585273 0 -0.00071733760153248178 0.013873666108365476 0 -0.00069760170441337122 0.013978517149202322 0 -0.00077357844505615667 0.014031100595585273 0 -0.00069760170441337122 0.013978517149202322 0 -0.00071184598394586664 0.014119834109392031 0 -0.00069760170441337122 0.013978517149202322 0 -0.00060969041188729757 0.01399003795825004 0 -0.00071184598394586664 0.014119834109392031 0 -0.00052564610419783412 0.014039390803304675 0 -0.00060969041188729757 0.01399003795825004 0 -0.00071184598394586664 0.014119834109392031 0 -0.001438191258908067 0.014507934808944651 0 -0.0015647695753947864 0.015034552910886107 0 -0.0018382080918755293 0.015753845497029177 0 -0.0019912649598899726 0.015814179344056982 0 -0.0018456290070234971 0.016241564161041173 0 -0.00089624532258572923 0.013240246163503227 0 -0.001438191258908067 0.014507934808944651 0 -0.00052564610419783412 0.014039390803304675 0 -0.00048465590586905269 0.013945789587566631 0 -0.00060969041188729757 0.01399003795825004 0 -0.001438191258908067 0.014507934808944651 0 -0.00038506355472581839 0.012920824070800243 0 -0.00062971784180134523 0.011952718110578206 0 -0.00059319224415198756 0.011943861531938101 0 -0.0006157493957379903 0.012011707669951495 0 -0.00038506355472581839 0.012920824070800243 0 -0.00072765618171659904 0.013811317740502234 0 -0.00045444770674037935 0.013918905006366025 0 -0.00060969041188729757 0.01399003795825004 0 -0.00060439705349085737 0.013850572505582795 0 -0.00045444770674037935 0.013918905006366025 0 -0.00060439705349085737 0.013850572505582795 0 -0.00050514723581726725 0.013673402796719745 0 -0.00061590458551073388 0.013668551629080986 0 -0.00060439705349085737 0.013850572505582795 0 -0.00050514723581726725 0.013673402796719745 0 -0.00039038841537528942 0.013560590154600391 0 -0.00045444770674037935 0.013918905006366025 0 -0.00050514723581726725 0.013673402796719745 0 -0.00031358854431752802 0.013046055693785218 0 -0.00038506355472581839 0.012920824070800243 0 -0.00023207141899860272 0.012507549696463553 0 -1.7578176702858387e-05 0.012028460345573824 0 -0.0005325362636992352 0.012174093580795244 0 -0.00038506355472581839 0.012920824070800243 0 -0.00066549694723264704 0.012028733775876767 0 -0.0006157493957379903 0.012011707669951495 0 -0.00071398059934602368 0.011964184222047914 0 -0.00088848682882100246 0.01208264004820076 0 -0.00071398059934602368 0.011964184222047914 0 -0.0008051790299806235 0.011708046147992245 0 -0.00090092227077369835 0.011907886420366819 0 -0.00061024912363624208 0.011929399707260372 0 -0.00071398059934602368 0.011964184222047914 0 -0.0008051790299806235 0.011708046147992245 0 -0.00089624532258572923 0.013240246163503227 0 -0.00048557295727475472 0.012499694633469701 0 -0.00062971784180134523 0.011952718110578206 0 -0.0006157493957379903 0.012011707669951495 0 -0.00071398059934602368 0.011964184222047914 0 -0.0018382080918755293 0.015753845497029177 0 -0.0013784359372358771 0.016261763101628534 0 -0.0018456290070234971 0.016241564161041173 0 -0.0013784359372358771 0.016261763101628534 0 -0.0016934124916307394 0.016769099118579597 0 -0.0018456290070234971 0.016241564161041173 0 -0.00089624532258572923 0.013240246163503227 0 -0.0011241305640466047 0.014034049363248303 0 -0.0016934124916307394 0.016769099118579597 0 -0.0023269681478519651 0.01658257567565757 0 -0.0021773420533809634 0.017099671986210912 0 -0.0016934124916307394 0.016769099118579597 0 -0.0018456290070234971 0.016241564161041173 0 -0.0023269681478519651 0.01658257567565757 0 -0.0019912649598899726 0.015814179344056982 0 -0.0018456290070234971 0.016241564161041173 0 -0.0023269681478519651 0.01658257567565757 0 -0.001438191258908067 0.014507934808944651 0 -0.0023686555786218079 0.016878286052286168 0 -0.0024037744737095273 0.015967463042217966 0 -0.0026091868104494865 0.016424393619790086 0 -0.0021792085480186376 0.016600604703711216 0 -0.0017405911754137231 0.015698161114725485 0 -0.0024037744737095273 0.015967463042217966 0 -0.0021792085480186376 0.016600604703711216 0 -0.0021792085480186376 0.016600604703711216 0 -0.0026700917212988061 0.016973385212388947 0 -0.0026129136129990549 0.017354791254124986 0 -0.0026091868104494865 0.016424393619790086 0 -0.0021792085480186376 0.016600604703711216 0 -0.0026700917212988061 0.016973385212388947 0 -0.0026091868104494865 0.016424393619790086 0 -0.0026700917212988061 0.016973385212388947 0 -0.003019594222443293 0.016619197414533955 0 -0.0031244184207703742 0.0166478715193818 0 -0.0023045278252127794 0.01845378721820724 0 -0.0026700917212988061 0.016973385212388947 0 -0.0029594020403307755 0.01670732127784175 0 -0.0029725058805841241 0.017130042235380748 0 -0.0022305846872419386 0.02178118858929249 0 -0.0023869431995522613 0.021886000941402167 0 -0.0022352681007723313 0.022084222427598433 0 -0.0023045278252127794 0.01845378721820724 0 -0.0026075211970596648 0.019458167903598264 0 -0.0022305846872419386 0.02178118858929249 0 -0.0023826244624061371 0.021632416920274539 0 -0.0023869431995522613 0.021886000941402167 0 -0.0023045278252127794 0.01845378721820724 0 -0.0017776339256780054 0.019157238311701328 0 -0.00095179126995734577 0.015137542041785974 0 -0.0010651944973736126 0.015066888279857447 0 -0.00089244963034422703 0.014756533239918471 0 -0.0023045278252127794 0.01845378721820724 0 -0.001464208755783121 0.015893263521854245 0 -0.0019372646140835953 0.018180368790213973 0 -0.0019340094101819908 0.017816957843674458 0 -0.0021921597243728503 0.017922284490924846 0 -0.0015647695753947864 0.015034552910886107 0 -0.001464208755783121 0.015893263521854245 0 -0.001464208755783121 0.015893263521854245 0 -0.0017776339256780054 0.019157238311701328 0 -0.0024037744737095273 0.015967463042217966 0 -0.0026091868104494865 0.016424393619790086 0 -0.0030207384426385918 0.016230299578280469 0 -0.00077357844505615667 0.014031100595585273 0 -0.00071184598394586664 0.014119834109392031 0 -0.00085681488216649926 0.01417064680067852 0 -0.0026091868104494865 0.016424393619790086 0 -0.003019594222443293 0.016619197414533955 0 -0.0030207384426385918 0.016230299578280469 0 -0.001451329802004301 0.012011915182142594 0 -0.0012159579584223074 0.01193453901404022 0 -0.0013879046350203873 0.01176710079820502 0 -0.0012159579584223074 0.01193453901404022 0 -0.0012317040783154198 0.011782880877285549 0 -0.0013879046350203873 0.01176710079820502 0 -0.0015510987338347877 0.011818797114083958 0 -0.001451329802004301 0.012011915182142594 0 -0.0017405723414959304 0.011917323232338479 0 -0.0015510987338347877 0.011818797114083958 0 -0.001451329802004301 0.012011915182142594 0 -0.0013879046350203873 0.01176710079820502 0 -0.0015510987338347877 0.011818797114083958 0 -0.0016885591027188634 0.011727746688475449 0 -0.0017405723414959304 0.011917323232338479 0 -0.001451329802004301 0.012011915182142594 0 -0.0017405723414959304 0.011917323232338479 0 -0.0018170019260834954 0.012143002966692911 0 -0.0014787453535415715 0.012311189498572505 0 -0.001451329802004301 0.012011915182142594 0 -0.0018170019260834954 0.012143002966692911 0 -0.0014565134661454488 0.012313067976131509 0 -0.0011268117504406666 0.012252118648935014 0 -0.0014787453535415715 0.012311189498572505 0 -0.001451329802004301 0.012011915182142594 0 -0.0011824678521918219 0.012176406393665433 0 -0.001451329802004301 0.012011915182142594 0 -0.0011824678521918219 0.012176406393665433 0 -0.0012159579584223074 0.01193453901404022 0 -0.00076539870197780328 0.012634132090145463 0 -0.0010250652981520451 0.012306068700172394 0 -0.0005325362636992352 0.012174093580795244 0 -0.0011824678521918219 0.012176406393665433 0 -0.0012159579584223074 0.01193453901404022 0 -0.0010495056278704321 0.011978102018832345 0 -0.0011268117504406666 0.012252118648935014 0 -0.00066549694723264704 0.012028733775876767 0 -0.0011824678521918219 0.012176406393665433 0 -0.00088848682882100246 0.01208264004820076 0 -0.0010495056278704321 0.011978102018832345 0 -0.00071398059934602368 0.011964184222047914 0 -0.00088848682882100246 0.01208264004820076 0 -0.00090092227077369835 0.011907886420366819 0 -0.00088848682882100246 0.01208264004820076 0 -0.00090092227077369835 0.011907886420366819 0 -0.0010495056278704321 0.011978102018832345 0 -0.00090092227077369835 0.011907886420366819 0 -0.0010495056278704321 0.011978102018832345 0 -0.0010680231371463099 0.011791179506258876 0 -0.0012159579584223074 0.01193453901404022 0 -0.0010495056278704321 0.011978102018832345 0 -0.0010680231371463099 0.011791179506258876 0 -0.0012159579584223074 0.01193453901404022 0 -0.0012317040783154198 0.011782880877285549 0 -0.0010680231371463099 0.011791179506258876 0 -0.0012317040783154198 0.011782880877285549 0 -0.0010680231371463099 0.011791179506258876 0 -0.0012177451795327616 0.011634788185940244 0 -0.0010680231371463099 0.011791179506258876 0 -0.001055052127935789 0.011619487589741113 0 -0.0012177451795327616 0.011634788185940244 0 -0.0008051790299806235 0.011708046147992245 0 -0.00090092227077369835 0.011907886420366819 0 -0.0010680231371463099 0.011791179506258876 0 -0.0008051790299806235 0.011708046147992245 0 -0.0010680231371463099 0.011791179506258876 0 -0.001055052127935789 0.011619487589741113 0 -0.0008051790299806235 0.011708046147992245 0 -0.001055052127935789 0.011619487589741113 0 -0.0010180652494444339 0.01148756099216865 0 -0.0013784359372358771 0.016261763101628534 0 -0.0016934124916307394 0.016769099118579597 0 -0.00094256456105799337 0.016744193244420485 0 -0.0016934124916307394 0.016769099118579597 0 -0.00094256456105799337 0.016744193244420485 0 -0.0013906149993798387 0.017169456480651997 0 -0.0011241305640466047 0.014034049363248303 0 -0.00082103297135154441 0.014133761499758687 0 -0.0010180652494444339 0.01148756099216865 0 -0.0011602536194647984 0.011484101684089204 0 -0.0012091611286704444 0.011335733775634545 0 -0.001055052127935789 0.011619487589741113 0 -0.0012177451795327616 0.011634788185940244 0 -0.0011602536194647984 0.011484101684089204 0 -0.001055052127935789 0.011619487589741113 0 -0.0010180652494444339 0.01148756099216865 0 -0.0011602536194647984 0.011484101684089204 0 -0.0011602536194647984 0.011484101684089204 0 -0.0013771481623818011 0.011516031139778671 0 -0.0013788308917412457 0.011301584036074622 0 -0.00096763492599549587 0.011595583969850835 0 -0.0022734550034104761 0.01141334490549859 0 -0.0013771481623818011 0.011516031139778671 0 -0.0015866603056129459 0.011397804230451704 0 -0.0013788308917412457 0.011301584036074622 0 -0.0012177451795327616 0.011634788185940244 0 -0.0011602536194647984 0.011484101684089204 0 -0.0013771481623818011 0.011516031139778671 0 -0.0012177451795327616 0.011634788185940244 0 -0.0013771481623818011 0.011516031139778671 0 -0.0013632512886972141 0.011657538149954561 0 -0.0012317040783154198 0.011782880877285549 0 -0.0012177451795327616 0.011634788185940244 0 -0.0013632512886972141 0.011657538149954561 0 -0.0013771481623818011 0.011516031139778671 0 -0.0013632512886972141 0.011657538149954561 0 -0.0015260956937522133 0.01163048570712716 0 -0.0013632512886972141 0.011657538149954561 0 -0.0013879046350203873 0.01176710079820502 0 -0.0015260956937522133 0.01163048570712716 0 -0.0012317040783154198 0.011782880877285549 0 -0.0013632512886972141 0.011657538149954561 0 -0.0013879046350203873 0.01176710079820502 0 -0.0016885591027188634 0.011727746688475449 0 -0.0015260956937522133 0.01163048570712716 0 -0.0016658343369081402 0.011615997406891686 0 -0.0015510987338347877 0.011818797114083958 0 -0.0016885591027188634 0.011727746688475449 0 -0.0015260956937522133 0.01163048570712716 0 -0.0015510987338347877 0.011818797114083958 0 -0.0013879046350203873 0.01176710079820502 0 -0.0015260956937522133 0.01163048570712716 0 -0.0029510802951435741 0.010840875551166678 0 -0.0040508026701404415 0.0094005306620056645 0 -0.0016658343369081402 0.011615997406891686 0 -0.0015866603056129459 0.011397804230451704 0 -0.0017673190475170112 0.011532527115344596 0 -0.0015260956937522133 0.01163048570712716 0 -0.0016658343369081402 0.011615997406891686 0 -0.0015866603056129459 0.011397804230451704 0 -0.0013771481623818011 0.011516031139778671 0 -0.0015260956937522133 0.01163048570712716 0 -0.0015866603056129459 0.011397804230451704 0 -0.0029510802951435741 0.010840875551166678 0 -0.0022734550034104761 0.01141334490549859 0 -0.0042828388179234197 0.010307247789672945 0 -0.0045153637510739779 0.010314941773022992 0 -0.0048267361642938692 0.010596772733849289 0 -0.0045153637510739779 0.010314941773022992 0 -0.0048267361642938692 0.010596772733849289 0 -0.0047421501591186901 0.0099041756937430139 0 -0.0040508026701404415 0.0094005306620056645 0 -0.006334793416114798 0.0082758131513734293 0 -0.0015866603056129459 0.011397804230451704 0 -0.0017956983814638519 0.011480760075853183 0 -0.0017673190475170112 0.011532527115344596 0 -0.0040508026701404415 0.0094005306620056645 0 -0.0032542216009735464 0.010584402811201802 0 -0.0075141367328877351 0.0061210917188069761 0 -0.0062209239347540187 0.0065808313724158305 0 -0.0069972508956815385 0.0072139419083525648 0 -0.0075141367328877351 0.0061210917188069761 0 -0.0062209239347540187 0.0065808313724158305 0 -0.0063217487128226085 0.0054314489585479643 0 -0.001800197119324425 0.011472518679668763 0 -0.0020965176007944129 0.011604733002705349 0 -0.0018932347496210394 0.011673202684721891 0 -0.0020965176007944129 0.011604733002705349 0 -0.0018932347496210394 0.011673202684721891 0 -0.0020131130761368685 0.011868593116007341 0 -0.0040508026701404415 0.0094005306620056645 0 -0.004267158129332432 0.0085290416315853147 0 -0.0017673190475170112 0.011532527115344596 0 -0.0018932347496210394 0.011673202684721891 0 -0.001764392477390611 0.011640220568461803 0 -0.0016658343369081402 0.011615997406891686 0 -0.0017673190475170112 0.011532527115344596 0 -0.001764392477390611 0.011640220568461803 0 -0.001800197119324425 0.011472518679668763 0 -0.0017673190475170112 0.011532527115344596 0 -0.0018932347496210394 0.011673202684721891 0 -0.0016885591027188634 0.011727746688475449 0 -0.0018932347496210394 0.011673202684721891 0 -0.001764392477390611 0.011640220568461803 0 -0.0016885591027188634 0.011727746688475449 0 -0.0016658343369081402 0.011615997406891686 0 -0.001764392477390611 0.011640220568461803 0 -0.0018932347496210394 0.011673202684721891 0 -0.0017405723414959304 0.011917323232338479 0 -0.0020131130761368685 0.011868593116007341 0 -0.0016885591027188634 0.011727746688475449 0 -0.0018932347496210394 0.011673202684721891 0 -0.0017405723414959304 0.011917323232338479 0 -0.0020131130761368685 0.011868593116007341 0 -0.0018170019260834954 0.012143002966692911 0 -0.0021884180512431253 0.012047368240739483 0 -0.0017405723414959304 0.011917323232338479 0 -0.0020131130761368685 0.011868593116007341 0 -0.0018170019260834954 0.012143002966692911 0 -0.0039383360726098276 0.010787368176020893 0 -0.0045287219482239112 0.010733503963668036 0 -0.003600729952101422 0.011415528620961743 0 -0.0035071758270436605 0.010495247038932993 0 -0.0039383360726098276 0.010787368176020893 0 -0.004400541202850999 0.010385679468702369 0 -0.0035071758270436605 0.010495247038932993 0 -0.0039383360726098276 0.010787368176020893 0 -0.0033299027307821969 0.011076551846992673 0 -0.0039383360726098276 0.010787368176020893 0 -0.0033299027307821969 0.011076551846992673 0 -0.003600729952101422 0.011415528620961743 0 -0.0033299027307821969 0.011076551846992673 0 -0.0025623184992672071 0.010894956745180514 0 -0.0029713738394475781 0.011668338689396717 0 -0.0035071758270436605 0.010495247038932993 0 -0.0033299027307821969 0.011076551846992673 0 -0.0025623184992672071 0.010894956745180514 0 -0.0020131130761368685 0.011868593116007341 0 -0.0021884180512431253 0.012047368240739483 0 -0.0023980442853315815 0.011741314340647549 0 -0.0035071758270436605 0.010495247038932993 0 -0.0025623184992672071 0.010894956745180514 0 -0.0033098368167716599 0.0097108736517946981 0 -0.0020594859212950409 0.012091134895949832 0 -0.0040237980969233533 0.0077279917783695399 0 -0.0020965176007944129 0.011604733002705349 0 -0.0020131130761368685 0.011868593116007341 0 -0.0023980442853315815 0.011741314340647549 0 -0.0035071758270436605 0.010495247038932993 0 -0.0033098368167716599 0.0097108736517946981 0 -0.004400541202850999 0.010385679468702369 0 -0.0055034451961256271 0.0039608213535048103 0 -0.0038073150551108268 0.0043295556393237603 0 -0.0040409537706208257 0.0031257139172803268 0 -0.0040237980969233533 0.0077279917783695399 0 -0.0043718453607212394 0.0069662496751120573 0 -0.0051337979708545424 0.004773596080754193 0 -0.0045158917047568659 0.0056892407437727933 0 -0.005375841333092349 0.0060146678497373304 0 -0.0040237980969233533 0.0077279917783695399 0 -0.0049492548910825005 0.004857798443807489 0 -0.0055034451961256271 0.0039608213535048103 0 -0.0047180400019400555 0.0051763833703840356 0 -0.0038073150551108268 0.0043295556393237603 0 -0.0063217487128226085 0.0054314489585479643 0 -0.0051337979708545424 0.004773596080754193 0 -0.005375841333092349 0.0060146678497373304 0 -0.004267158129332432 0.0085290416315853147 0 -0.0040237980969233533 0.0077279917783695399 0 -0.0062209239347540187 0.0065808313724158305 0 -0.0063217487128226085 0.0054314489585479643 0 -0.005375841333092349 0.0060146678497373304 0 -0.0062209239347540187 0.0065808313724158305 0 -0.005375841333092349 0.0060146678497373304 0 -0.0053984685668978221 0.0069712942184799506 0 -0.0045158917047568659 0.0056892407437727933 0 -0.005375841333092349 0.0060146678497373304 0 -0.0046558678536967697 0.0067033512388295817 0 -0.0045158917047568659 0.0056892407437727933 0 -0.0046558678536967697 0.0067033512388295817 0 -0.0038545366057925407 0.0065211588018298221 0 -0.005375841333092349 0.0060146678497373304 0 -0.0046558678536967697 0.0067033512388295817 0 -0.0053984685668978221 0.0069712942184799506 0 -0.0049492548910825005 0.004857798443807489 0 -0.0037930909193299302 0.0066427885893194823 0 -0.0047180400019400555 0.0051763833703840356 0 -0.0038545366057925407 0.0065211588018298221 0 -0.0034171780115725388 0.0055820341816784974 0 -0.0038545366057925407 0.0065211588018298221 0 -0.0034171780115725388 0.0055820341816784974 0 -0.0031135088387284574 0.0065808353375562522 0 -0.0034171780115725388 0.0055820341816784974 0 -0.0031135088387284574 0.0065808353375562522 0 -0.0023674306735455373 0.0062183386544942898 0 -0.0034171780115725388 0.0055820341816784974 0 -0.0023674306735455373 0.0062183386544942898 0 -0.0027024955717643994 0.0046845333867956557 0 -0.0027024955717643994 0.0046845333867956557 0 -0.0038073150551108268 0.0043295556393237603 0 -0.0024667231805392768 0.0035087449431190102 0 -0.0023674306735455373 0.0062183386544942898 0 -0.0027024955717643994 0.0046845333867956557 0 -0.0016537660119448317 0.0048435274246077182 0 -0.0034171780115725388 0.0055820341816784974 0 -0.0027024955717643994 0.0046845333867956557 0 -0.0038073150551108268 0.0043295556393237603 0 -0.0047180400019400555 0.0051763833703840356 0 -0.0034171780115725388 0.0055820341816784974 0 -0.0038073150551108268 0.0043295556393237603 0 -0.00087139003465342411 0.0045900094325383748 0 -0.00055117124666794544 0.0044029078284160269 0 -0.00050245490918121962 0.0048489741393575392 0 -2.2291551998398126e-05 0.0043863552287698292 0 -0.00055117124666794544 0.0044029078284160269 0 -0.00050245490918121962 0.0048489741393575392 0 -0.0023674306735455373 0.0062183386544942898 0 -0.00096729376750736532 0.0057672747283095136 0 -0.0016537660119448317 0.0048435274246077182 0 -0.0023674306735455373 0.0062183386544942898 0 -0.00096729376750736532 0.0057672747283095136 0 -0.001319633147808799 0.0072920864152332746 0 -0.00096729376750736532 0.0057672747283095136 0 -0.0016537660119448317 0.0048435274246077182 0 -0.00076472257656702201 0.0040468108320623648 0 -0.0027024955717643994 0.0046845333867956557 0 -0.0016537660119448317 0.0048435274246077182 0 -0.0016921006317996497 0.0039756063189344965 0 -0.0016537660119448317 0.0048435274246077182 0 -0.00076472257656702201 0.0040468108320623648 0 -0.0016921006317996497 0.0039756063189344965 0 -0.00092837779235058172 0.005080538721860854 0 -0.00076824071044769373 0.0041927297745196707 0 -0.00055117124666794544 0.0044029078284160269 0 -0.00076472257656702201 0.0040468108320623648 0 -0.00034172128533025917 0.0036641679119970389 0 -0.00087139003465342411 0.0045900094325383748 0 -0.00055117124666794544 0.0044029078284160269 0 -0.00076472257656702201 0.0040468108320623648 0 -2.2291551998398126e-05 0.0043863552287698292 0 -0.00055117124666794544 0.0044029078284160269 0 -0.00034172128533025917 0.0036641679119970389 0 -0.00043344424214404506 0.0036328727163082151 0 -0.0015967349112272669 0.0028223330486065873 0 -0.00034172128533025917 0.0036641679119970389 0 -0.0019151940709960283 0.0028025714308634055 0 -0.00067733398976725396 0.0025810151013576478 0 -0.00076472257656702201 0.0040468108320623648 0 -0.00034172128533025917 0.0036641679119970389 0 -0.0012884662466237666 0.0030964132161150431 0 8.8891028950234882e-05 0.002708620544170474 0 -0.00034172128533025917 0.0036641679119970389 0 -0.00067733398976725396 0.0025810151013576478 0 -0.0012884662466237666 0.0030964132161150431 0 -0.0016921006317996497 0.0039756063189344965 0 -0.0024667231805392768 0.0035087449431190102 0 -0.00076472257656702201 0.0040468108320623648 0 -0.0012884662466237666 0.0030964132161150431 0 -0.0016921006317996497 0.0039756063189344965 0 -0.0020460312629416865 0.0018519270320998674 0 -0.003417778404672854 0.001928347403874698 0 -0.0017058147843861599 0.00094990259003292592 0 -0.0036060332563039978 0.0038406044649885256 0 -0.0015548690204155572 -0.0013712173423267519 0 -0.0019151940709960283 0.0028025714308634055 0 -0.0020460312629416865 0.0018519270320998674 0 -0.003417778404672854 0.001928347403874698 0 -0.0015967349112272669 0.0028223330486065873 0 -0.0036060332563039978 0.0038406044649885256 0 -0.0020460312629416865 0.0018519270320998674 0 -0.0011006704418524728 0.0017132528301703779 0 -0.0017058147843861599 0.00094990259003292592 0 -0.0019151940709960283 0.0028025714308634055 0 -0.0020460312629416865 0.0018519270320998674 0 -0.0011006704418524728 0.0017132528301703779 0 -0.0019151940709960283 0.0028025714308634055 0 -0.0011006704418524728 0.0017132528301703779 0 -0.00067733398976725396 0.0025810151013576478 0 -0.00017952451718194617 0.0018270309411806843 0 -0.0011006704418524728 0.0017132528301703779 0 -0.00052870093317675961 0.0010592389881549599 0 -0.00017952451718194617 0.0018270309411806843 0 -0.0011006704418524728 0.0017132528301703779 0 -0.00067733398976725396 0.0025810151013576478 0 -0.00017952451718194617 0.0018270309411806843 0 8.8891028950234882e-05 0.002708620544170474 0 -0.00067733398976725396 0.0025810151013576478 0 -0.0038073150551108268 0.0043295556393237603 0 -0.0040409537706208257 0.0031257139172803268 0 -0.0024667231805392768 0.0035087449431190102 0 -0.0027024955717643994 0.0046845333867956557 0 -0.0016921006317996497 0.0039756063189344965 0 -0.0024667231805392768 0.0035087449431190102 0 -0.0040409537706208257 0.0031257139172803268 0 -0.0024667231805392768 0.0035087449431190102 0 -0.0025983415176099233 0.0023213322317911251 0 -0.0012884662466237666 0.0030964132161150431 0 -0.0024667231805392768 0.0035087449431190102 0 -0.0025983415176099233 0.0023213322317911251 0 -0.004400541202850999 0.010385679468702369 0 -0.004782899617558593 0.010751274827801608 0 -0.0045287219482239112 0.010733503963668036 0 -0.0043718453607212394 0.0069662496751120573 0 -0.0036060332563039978 0.0038406044649885256 0 -0.004782899617558593 0.010751274827801608 0 -0.0045287219482239112 0.010733503963668036 0 -0.0044496447450572841 0.010761046402814028 0 -0.0039383360726098276 0.010787368176020893 0 -0.004400541202850999 0.010385679468702369 0 -0.0045287219482239112 0.010733503963668036 0 -0.0037133507171261335 -0.0018269133666509519 0 -0.0057566286893904577 -0.003030748219928406 0 -0.0043856741887631093 -0.0038625209966809478 0 -0.0036060332563039978 0.0038406044649885256 0 -0.004540306324140546 0.0038535718660456931 0 -0.0045287219482239112 0.010733503963668036 0 -0.0044545220242355179 0.010744092341132301 0 -0.0044496447450572841 0.010761046402814028 0 -0.0048892814118237119 0.0057245304236109339 0 -0.004540306324140546 0.0038535718660456931 0 -0.0037133507171261335 -0.0018269133666509519 0 -0.0043856741887631093 -0.0038625209966809478 0 -0.0030039452410590417 -0.0037262457256842314 0 -0.0043856741887631093 -0.0038625209966809478 0 -0.0034267111165244952 -0.0050058392360888592 0 -0.0051236232735176815 -0.0052657328350560481 0 -0.0043856741887631093 -0.0038625209966809478 0 -0.0034267111165244952 -0.0050058392360888592 0 -0.0030039452410590417 -0.0037262457256842314 0 -0.0023851508618385532 0.0048396410380519284 0 -0.0016069466124762498 0.0020355301601611832 0 -0.0033021541307533971 0.0026301285439176651 0 -0.0057566286893904577 -0.003030748219928406 0 -0.0043856741887631093 -0.0038625209966809478 0 -0.0051236232735176815 -0.0052657328350560481 0 -0.004540306324140546 0.0038535718660456931 0 -0.0033316857602568939 -0.0022541706145733161 0 4.3937901375232053e-05 -0.0039718623019110262 0 -0.0018234025331449928 -0.0029266641918848264 0 -0.00099453352966905398 -0.0038781016776717274 0 -2.6477343075664348e-05 -4.3483765611706537e-05 0 -0.00052870093317675961 0.0010592389881549599 0 -0.0017058147843861599 0.00094990259003292592 0 -0.00030355388716522336 -0.0026998866658704047 0 -0.0015548690204155572 -0.0013712173423267519 0 -0.0011006704418524728 0.0017132528301703779 0 -0.00052870093317675961 0.0010592389881549599 0 -0.0017058147843861599 0.00094990259003292592 0 -0.0037133507171261335 -0.0018269133666509519 0 -0.0018234025331449928 -0.0029266641918848264 0 -0.0030039452410590417 -0.0037262457256842314 0 -0.0018234025331449928 -0.0029266641918848264 0 -0.0030039452410590417 -0.0037262457256842314 0 -0.00099453352966905398 -0.0038781016776717274 0 -0.0028799275894628496 -0.003784884275438119 0 -0.0010951712554370995 -0.0037988767446363808 0 -0.0030039452410590417 -0.0037262457256842314 0 -0.0022181154622792376 -0.0047266736127260477 0 -0.0011781285922255373 -0.0041037771061501948 0 -0.0034267111165244952 -0.0050058392360888592 0 -0.0030039452410590417 -0.0037262457256842314 0 -0.0022181154622792376 -0.0047266736127260477 0 -0.0034267111165244952 -0.0050058392360888592 0 -0.0022181154622792376 -0.0047266736127260477 0 -0.0022497403125518209 -0.0055598102124625017 0 -0.0022181154622792376 -0.0047266736127260477 0 -0.0013013523275745996 -0.0052473674553500755 0 -0.0022497403125518209 -0.0055598102124625017 0 -0.0022181154622792376 -0.0047266736127260477 0 -0.0011781285922255373 -0.0041037771061501948 0 -0.0013013523275745996 -0.0052473674553500755 0 -0.00045595674194514728 -0.0058498987535003013 0 -0.00038054438328250021 -0.004971897889158243 0 -0.0013013523275745996 -0.0052473674553500755 0 -0.00038054438328250021 -0.004971897889158243 0 -0.0011781285922255373 -0.0041037771061501948 0 -0.0013013523275745996 -0.0052473674553500755 0 -0.00030355388716522336 -0.0026998866658704047 0 -0.0010951712554370995 -0.0037988767446363808 0 -0.00038054438328250021 -0.004971897889158243 0 -0.00026269776811671303 -0.0042696352128920451 0 -0.0011781285922255373 -0.0041037771061501948 0 -0.000124434751480299 -0.0068904029017165195 0 -0.00045595674194514728 -0.0058498987535003013 0 -0.0014429522970271882 -0.0065462472359003815 0 -0.00045595674194514728 -0.0058498987535003013 0 -0.0013013523275745996 -0.0052473674553500755 0 -0.0014429522970271882 -0.0065462472359003815 0 -0.0013013523275745996 -0.0052473674553500755 0 -0.0014429522970271882 -0.0065462472359003815 0 -0.0022497403125518209 -0.0055598102124625017 0 -0.0014429522970271882 -0.0065462472359003815 0 -0.0022497403125518209 -0.0055598102124625017 0 -0.0024554490164300515 -0.0064827340211814936 0 -0.0034267111165244952 -0.0050058392360888592 0 -0.0022497403125518209 -0.0055598102124625017 0 -0.0035018101872423772 -0.0063057805269672064 0 -0.0022497403125518209 -0.0055598102124625017 0 -0.0024554490164300515 -0.0064827340211814936 0 -0.0035018101872423772 -0.0063057805269672064 0 -0.0024554490164300515 -0.0064827340211814936 0 -0.0026398445833296248 -0.0075119216710715269 0 -0.0035018101872423772 -0.0063057805269672064 0 -0.0014429522970271882 -0.0065462472359003815 0 -0.0024554490164300515 -0.0064827340211814936 0 -0.0026398445833296248 -0.0075119216710715269 0 -0.000124434751480299 -0.0068904029017165195 0 -0.0014429522970271882 -0.0065462472359003815 0 -0.00085403062392548277 -0.0076503343365795758 0 0.00022546314614375009 -0.0079584305643110552 0 4.9771597596686832e-05 -0.0077574443589578258 0 0.00040316805276517447 -0.0078188153126772086 0 -0.0014429522970271882 -0.0065462472359003815 0 -0.0026398445833296248 -0.0075119216710715269 0 -0.00085403062392548277 -0.0076503343365795758 0 -0.0013951135846084555 -0.0078954442979810163 0 -0.00018376619332180635 -0.007716447153848908 0 -0.0033316857602568939 -0.0022541706145733161 0 -0.0017604365944554202 -0.0037774572128073266 0 -0.0051236232735176815 -0.0052657328350560481 0 -0.0035018101872423772 -0.0063057805269672064 0 -0.0044977537793292645 -0.007381618598912656 0 -0.0034267111165244952 -0.0050058392360888592 0 -0.0051236232735176815 -0.0052657328350560481 0 -0.0035018101872423772 -0.0063057805269672064 0 -0.0026398445833296248 -0.0075119216710715269 0 -0.0035018101872423772 -0.0063057805269672064 0 -0.0044977537793292645 -0.007381618598912656 0 1.5827521884275761e-05 -0.0079351030922705391 0 4.9771597596686832e-05 -0.0077574443589578258 0 -0.00025088866416151772 -0.0076972475884891966 0 -0.0013951135846084555 -0.0078954442979810163 0 -0.0017604365944554202 -0.0037774572128073266 0 -0.0016069466124762498 0.0020355301601611832 0 -0.00083833790954367397 -0.0007745390250581541 0 -0.0026512414026245981 -0.00063863925301952274 0 -0.0012017845990557531 -0.0015610487891162177 0 -0.00085862735530613395 -0.00045749112468422532 0 -0.0018602558773483044 -0.00037629500266064022 0 -0.0017604365944554202 -0.0037774572128073266 0 -0.0017780579364871489 0.001896627969334702 0 -0.00085122720422676373 0.0058237903766806863 0 -0.0007713060425856153 0.0056770302379380603 0 -0.00079462853473244769 0.0055064997019821085 0 -0.0017780579364871489 0.001896627969334702 0 -0.0020702124714111129 0.0030226551980120715 0 -0.00083462075622493955 0.0057178897332287116 0 -0.00085122720422676373 0.0058237903766806863 0 -0.0007713060425856153 0.0056770302379380603 0 -0.00082229863548477868 0.0055830409960050051 0 -0.00083462075622493955 0.0057178897332287116 0 -0.00085122720422676373 0.0058237903766806863 0 -0.00083462075622493955 0.0057178897332287116 0 -0.0007615020919109456 0.0057301321208350492 0 -0.0007713060425856153 0.0056770302379380603 0 -0.00076085497339293054 0.0057851151115973776 0 -0.00083462075622493955 0.0057178897332287116 0 -0.0007615020919109456 0.0057301321208350492 0 -0.0016069466124762498 0.0020355301601611832 0 -0.0036670560460261622 0.0012212255964034941 0 -0.0033021541307533971 0.0026301285439176651 0 -0.0016069466124762498 0.0020355301601611832 0 -0.0026512414026245981 -0.00063863925301952274 0 -0.0036670560460261622 0.0012212255964034941 0 -0.0007713060425856153 0.0056770302379380603 0 -0.00079462853473244769 0.0055064997019821085 0 -0.00063638289480773724 0.0055639059076998234 0 -0.00063638289480773724 0.0055639059076998234 0 -0.00042990080970112834 0.0055408256464057563 0 -0.00068382132958780088 0.0053202137445238521 0 -0.00079462853473244769 0.0055064997019821085 0 -0.00063638289480773724 0.0055639059076998234 0 -0.00068382132958780088 0.0053202137445238521 0 -0.00117400478886825 0.0095485383209360994 0 -0.0021406541600432149 0.0076143149847489443 0 -0.00063638289480773724 0.0055639059076998234 0 -0.00061480179153294379 0.0057571708401420547 0 -0.00042990080970112834 0.0055408256464057563 0 -0.0007713060425856153 0.0056770302379380603 0 -0.00063638289480773724 0.0055639059076998234 0 -0.00061480179153294379 0.0057571708401420547 0 -0.0007615020919109456 0.0057301321208350492 0 -0.0007713060425856153 0.0056770302379380603 0 -0.00061480179153294379 0.0057571708401420547 0 -0.00076085497339293054 0.0057851151115973776 0 -0.0007615020919109456 0.0057301321208350492 0 -0.00061480179153294379 0.0057571708401420547 0 -0.00036743124006713337 0.0058807750533227121 0 -0.0001008344012771752 0.0057829562202699799 0 -0.00042990080970112834 0.0055408256464057563 0 -0.00095923870309908975 0.0095433740315227222 0 -0.00117400478886825 0.0095485383209360994 0 -0.00036743124006713337 0.0058807750533227121 0 -0.00061480179153294379 0.0057571708401420547 0 -0.00042990080970112834 0.0055408256464057563 0 -0.0017446128339304323 0.013404053801171725 0 -0.0017496670504117406 0.013068500642788737 0 -0.0022027491346608011 0.013058939334348344 0 -0.0013334435492170166 0.013285724004107659 0 -0.0017446128339304323 0.013404053801171725 0 -0.0017496670504117406 0.013068500642788737 0 -0.0015258578280277965 0.012790328667248647 0 -0.0017496670504117406 0.013068500642788737 0 -0.0019261363473233116 0.012725638957759447 0 -0.0022027491346608011 0.013058939334348344 0 -0.0019261363473233116 0.012725638957759447 0 -0.0024119337086942016 0.012681549238956384 0 -0.0017496670504117406 0.013068500642788737 0 -0.0022027491346608011 0.013058939334348344 0 -0.0019261363473233116 0.012725638957759447 0 -0.0019261363473233116 0.012725638957759447 0 -0.002027413766388 0.012238070325399329 0 -0.0024119337086942016 0.012681549238956384 0 -0.002027413766388 0.012238070325399329 0 -0.0025087561138086504 0.012113018944654039 0 -0.0024119337086942016 0.012681549238956384 0 -0.0015258578280277965 0.012790328667248647 0 -0.0019261363473233116 0.012725638957759447 0 -0.001753138229769656 0.012421308830627815 0 -0.0019261363473233116 0.012725638957759447 0 -0.001753138229769656 0.012421308830627815 0 -0.002027413766388 0.012238070325399329 0 -0.0018170019260834954 0.012143002966692911 0 -0.001753138229769656 0.012421308830627815 0 -0.002027413766388 0.012238070325399329 0 -0.0014787453535415715 0.012311189498572505 0 -0.0018170019260834954 0.012143002966692911 0 -0.001753138229769656 0.012421308830627815 0 -0.0020594859212950409 0.012091134895949832 0 -0.0021881954140238135 0.011917293393788149 0 -0.0025623184992672071 0.010894956745180514 0 -0.002027413766388 0.012238070325399329 0 -0.0025087561138086504 0.012113018944654039 0 -0.0018170019260834954 0.012143002966692911 0 -0.0021884180512431253 0.012047368240739483 0 -0.002027413766388 0.012238070325399329 0 -0.0025623184992672071 0.010894956745180514 0 -0.0025087561138086504 0.012113018944654039 0 -0.0029713738394475781 0.011668338689396717 0 -0.0025087561138086504 0.012113018944654039 0 -0.0027744884138580003 0.01216432849951596 0 -0.0029713738394475781 0.011668338689396717 0 -0.0027744884138580003 0.01216432849951596 0 -0.0031199166148155044 0.012039006943460395 0 -0.0029713738394475781 0.011668338689396717 0 -0.0031199166148155044 0.012039006943460395 0 -0.0035041506075281304 0.012232115786376766 0 -0.0028948597502739043 0.012403783992140229 0 -0.0027744884138580003 0.01216432849951596 0 -0.0031199166148155044 0.012039006943460395 0 -0.0028948597502739043 0.012403783992140229 0 -0.0031199166148155044 0.012039006943460395 0 -0.0029713738394475781 0.011668338689396717 0 -0.003600729952101422 0.011415528620961743 0 -0.0045287219482239112 0.010733503963668036 0 -0.003600729952101422 0.011415528620961743 0 -0.0035041506075281304 0.012232115786376766 0 -0.0045287219482239112 0.010733503963668036 0 -0.0044545220242355179 0.010744092341132301 0 -0.0043588111159278973 0.010741667382386808 0 -0.0033299027307821969 0.011076551846992673 0 -0.0029713738394475781 0.011668338689396717 0 -0.003600729952101422 0.011415528620961743 0 -0.0044753963771593094 0.011579532376913466 0 -0.003486904476801252 0.0092318752496698808 0 -0.0044545220242355179 0.010744092341132301 0 -0.0044533254045644143 0.010745411544858105 0 -0.0043588111159278973 0.010741667382386808 0 -0.004540306324140546 0.0038535718660456931 0 -0.003486904476801252 0.0092318752496698808 0 -0.0031199166148155044 0.012039006943460395 0 -0.003600729952101422 0.011415528620961743 0 -0.0035041506075281304 0.012232115786376766 0 -0.0020702124714111129 0.0030226551980120715 0 -0.0021406541600432149 0.0076143149847489443 0 -0.0023851508618385532 0.0048396410380519284 0 -0.0038543086551537844 0.0039789366383823025 0 -0.0033021541307533971 0.0026301285439176651 0 -0.003486904476801252 0.0092318752496698808 0 -0.0021406541600432149 0.0076143149847489443 0 -0.0036670560460261622 0.0012212255964034941 0 -0.0033021541307533971 0.0026301285439176651 0 -0.0046730921505809802 0.0030874511000421835 0 -0.0038543086551537844 0.0039789366383823025 0 -0.0033021541307533971 0.0026301285439176651 0 -0.0046730921505809802 0.0030874511000421835 0 -0.0022027491346608011 0.013058939334348344 0 -0.0024119337086942016 0.012681549238956384 0 -0.0027270124758211416 0.01258514343421693 0 -0.0020836943343403706 0.012288168456365933 0 -0.0028684506464490846 0.010372417252778316 0 -0.0027744884138580003 0.01216432849951596 0 -0.0024119337086942016 0.012681549238956384 0 -0.0028948597502739043 0.012403783992140229 0 -0.0025087561138086504 0.012113018944654039 0 -0.0027744884138580003 0.01216432849951596 0 -0.0024119337086942016 0.012681549238956384 0 -0.0024119337086942016 0.012681549238956384 0 -0.0028948597502739043 0.012403783992140229 0 -0.0029373776605957145 0.012481139939575871 0 -0.0024119337086942016 0.012681549238956384 0 -0.0027270124758211416 0.01258514343421693 0 -0.00268570337866232 0.012506139334086444 0 -0.0033481804958606655 0.0088416976893004352 0 -0.0023999460625419144 0.0098662171647476565 0 -0.0022026761875268471 0.0095102563336019238 0 -0.0035041506075281304 0.012232115786376766 0 -0.0028948597502739043 0.012403783992140229 0 -0.0029547199693904548 0.012509967231699094 0 -0.003486904476801252 0.0092318752496698808 0 -0.0028684506464490846 0.010372417252778316 0 -0.0029645809269600695 0.010624388942296123 0 -0.0028684506464490846 0.010372417252778316 0 -0.0021406541600432149 0.0076143149847489443 0 -0.0028684506464490846 0.010372417252778316 0 4.7887433080010261e-06 0.034968872061603533 0 1.8878239567497392e-05 0.0348932490127737 0 1.8863049253056862e-09 0.035000019566469621 0 4.7887433080010261e-06 0.034968872061603533 0 3.9979909090024225e-05 0.034947966387471482 0 1.8878239567497392e-05 0.0348932490127737 0 4.7887433080010261e-06 0.034968872061603533 0 -4.6649351559220192e-09 0.034999949118922069 0 1.8863049253056862e-09 0.035000019566469621 0 4.7887433080010261e-06 0.034968872061603533 0 -4.6649351559220192e-09 0.034999949118922069 0 7.8864967244317541e-06 0.034993539801201248 0 4.7887433080010261e-06 0.034968872061603533 0 3.9979909090024225e-05 0.034947966387471482 0 7.8864967244317541e-06 0.034993539801201248 0 3.9979909090024225e-05 0.034947966387471482 0 4.3775939005507119e-05 0.034997301918207852 0 7.8864967244317541e-06 0.034993539801201248 0 3.9979909090024225e-05 0.034947966387471482 0 0.00011481093321858731 0.034928092467585055 0 4.3775939005507119e-05 0.034997301918207852 0 0.00026562460582149275 0.034586187618383758 0 0.00022320004774058327 0.034672014804267404 0 0.00012159123711909883 0.034681311825626365 0 0.00018195089788434514 0.034761382000379412 0 8.5967044533619223e-05 0.03483972208831651 0 0.00026562460582149275 0.034586187618383758 0 0.00025982988147126219 0.034597665160991102 0 0.00022320004774058327 0.034672014804267404 0 0.00011481093321858731 0.034928092467585055 0 6.789397868182999e-05 0.034894480388829356 0 0.00010807575106845028 0.034827862310542197 0 3.9979909090024225e-05 0.034947966387471482 0 0.00011481093321858731 0.034928092467585055 0 6.789397868182999e-05 0.034894480388829356 0 3.9979909090024225e-05 0.034947966387471482 0 6.789397868182999e-05 0.034894480388829356 0 1.8878239567497392e-05 0.0348932490127737 0 6.789397868182999e-05 0.034894480388829356 0 4.5679269597066901e-05 0.034807054010816754 0 1.8878239567497392e-05 0.0348932490127737 0 0.00010807575106845028 0.034827862310542197 0 0.00013407281967015768 0.034668831781036483 0 0.00015980725961062408 0.034787385148838834 0 4.5679269597066901e-05 0.034807054010816754 0 0.00010807575106845028 0.034827862310542197 0 0.00013407281967015768 0.034668831781036483 0 6.789397868182999e-05 0.034894480388829356 0 4.5679269597066901e-05 0.034807054010816754 0 0.00010807575106845028 0.034827862310542197 0 0.00011481093321858731 0.034928092467585055 0 0.00010807575106845028 0.034827862310542197 0 0.00015980725961062408 0.034787385148838834 0 4.5679269597066901e-05 0.034807054010816754 0 -3.350156916160091e-06 0.034865157680316283 0 1.1226371681971341e-05 0.034669155829625355 0 4.5679269597066901e-05 0.034807054010816754 0 0.00013407281967015768 0.034668831781036483 0 1.1226371681971341e-05 0.034669155829625355 0 4.5679269597066901e-05 0.034807054010816754 0 -3.350156916160091e-06 0.034865157680316283 0 1.8878239567497392e-05 0.0348932490127737 0 -3.350156916160091e-06 0.034865157680316283 0 1.8878239567497392e-05 0.0348932490127737 0 1.8863049253056862e-09 0.035000019566469621 0 -3.350156916160091e-06 0.034865157680316283 0 1.8863049253056862e-09 0.035000019566469621 0 -1.3867647310730543e-07 0.034999447348589167 0 4.0632964835001123e-07 0.035000649538679811 0 -4.2272689658752503e-06 0.034846949538206849 0 -4.4133089390933253e-05 0.034756292660807937 0 -1.0859200297859772e-08 0.034999931531010907 0 1.6365525861265936e-06 0.034788160205639351 0 4.0632964835001123e-07 0.035000649538679811 0 -1.0275203399280615e-06 0.034997250122205677 0 -4.4133089390933253e-05 0.034756292660807937 0 -3.350156916160091e-06 0.034865157680316283 0 -1.3867647310730543e-07 0.034999447348589167 0 -3.6345816840400989e-06 0.03472114721341657 0 -3.350156916160091e-06 0.034865157680316283 0 -3.6345816840400989e-06 0.03472114721341657 0 1.1226371681971341e-05 0.034669155829625355 0 1.6365525861265936e-06 0.034788160205639351 0 1.8196053788060221e-05 0.034700970093101795 0 -3.6345816840400989e-06 0.03472114721341657 0 1.2461449928934362e-05 0.03470154854501268 0 1.1226371681971341e-05 0.034669155829625355 0 -3.6345816840400989e-06 0.03472114721341657 0 2.0428207569085965e-05 0.034692109367013994 0 1.2461449928934362e-05 0.03470154854501268 0 -1.0275203399280615e-06 0.034997250122205677 0 -4.4133089390933253e-05 0.034756292660807937 0 -4.0140371297320687e-05 0.033822468767193692 0 -1.0275203399280615e-06 0.034997250122205677 0 1.6145995272181585e-06 0.032115698262521031 0 -4.0140371297320687e-05 0.033822468767193692 0 -4.4133089390933253e-05 0.034756292660807937 0 2.0428207569085965e-05 0.034692109367013994 0 1.0159502027876354e-05 0.03468361062318763 0 -0.00013580852833354321 0.034674290721598978 0 -1.4783789191107401e-05 0.034286233496006853 0 -4.2272689658752503e-06 0.034846949538206849 0 -4.4133089390933253e-05 0.034756292660807937 0 2.0428207569085965e-05 0.034692109367013994 0 8.4254317657814424e-05 0.034035010481914506 0 3.4868352115214779e-05 0.034063316021784931 0 7.6343801479703213e-05 0.03417413797487244 0 8.4254317657814424e-05 0.034035010481914506 0 7.6343801479703213e-05 0.03417413797487244 0 0.00016202848356360684 0.034181587546002701 0 5.1814470572752203e-07 0.030969824056495659 0 -1.6893228562577348e-05 0.032105049129205095 0 -6.9934129020559227e-10 0.030968851907661368 0 -1.2493980408779245e-05 0.031314959091543651 0 7.5862410333757211e-10 0.031572133545893624 0 -1.6893228562577348e-05 0.032105049129205095 0 4.7485061007597225e-06 0.032068449467827519 0 -8.7666308326077767e-06 0.033431597830077979 0 4.7485061007597225e-06 0.032068449467827519 0 -1.6893228562577348e-05 0.032105049129205095 0 -8.7666308326077767e-06 0.033431597830077979 0 0.00013755400982337645 0.03255308104953443 0 0.00010437858896112351 0.032577517023043373 0 0.00011058368419760461 0.032547376673355798 0 -1.2493980408779245e-05 0.031314959091543651 0 7.5862410333757211e-10 0.031572133545893624 0 2.6625029934841935e-05 0.031497693660448987 0 3.2244922124849777e-07 0.031574196507323189 0 4.7485061007597225e-06 0.032068449467827519 0 4.7076475903896845e-05 0.034655971685418833 0 2.0428207569085965e-05 0.034692109367013994 0 1.0159502027876354e-05 0.03468361062318763 0 -8.7666308326077767e-06 0.033431597830077979 0 -1.4783789191107401e-05 0.034286233496006853 0 -1.3009666763342106e-09 0.031573175902677796 0 -8.7140798894131123e-08 0.031600390461831468 0 4.9768354672623263e-10 0.032110499923417003 0 0.000553469318674455 0.032661163485991074 0 1.6145995272181585e-06 0.032115698262521031 0 -4.0140371297320687e-05 0.033822468767193692 0 4.7485061007597225e-06 0.032068449467827519 0 3.52018188037941e-08 0.032110763913361866 0 0.000553469318674455 0.032661163485991074 0 0.00063742318063014455 0.03225735179539406 0 1.6145995272181585e-06 0.032115698262521031 0 2.0428207569085965e-05 0.034692109367013994 0 1.9586620416617564e-05 0.034704819870465947 0 1.2461449928934362e-05 0.03470154854501268 0 -8.7666308326077767e-06 0.033431597830077979 0 -9.7511777802816886e-06 0.034702811037438344 0 4.7076475903896845e-05 0.034655971685418833 0 2.0428207569085965e-05 0.034692109367013994 0 1.9586620416617564e-05 0.034704819870465947 0 -1.5550657036069925e-05 0.034292120530691993 0 7.6343801479703213e-05 0.03417413797487244 0 0.00011579458222473438 0.034320508784723404 0 3.4868352115214779e-05 0.034063316021784931 0 -1.5550657036069925e-05 0.034292120530691993 0 7.6343801479703213e-05 0.03417413797487244 0 7.6343801479703213e-05 0.03417413797487244 0 0.00011579458222473438 0.034320508784723404 0 0.00016202848356360684 0.034181587546002701 0 0.00011579458222473438 0.034320508784723404 0 1.1226371681971341e-05 0.034669155829625355 0 0.00016664698604901168 0.034440741031038079 0 -9.7511777802816886e-06 0.034702811037438344 0 1.7874252669429747e-05 0.034566295635065879 0 -1.5550657036069925e-05 0.034292120530691993 0 0.00011579458222473438 0.034320508784723404 0 1.1226371681971341e-05 0.034669155829625355 0 1.9586620416617564e-05 0.034704819870465947 0 1.2461449928934362e-05 0.03470154854501268 0 1.1226371681971341e-05 0.034669155829625355 0 0.00013407281967015768 0.034668831781036483 0 1.1226371681971341e-05 0.034669155829625355 0 0.00016664698604901168 0.034440741031038079 0 0.00013407281967015768 0.034668831781036483 0 0.00016664698604901168 0.034440741031038079 0 0.00021905725211907663 0.034500138805594674 0 0.00021905725211907663 0.034500138805594674 0 0.00027029193679712845 0.034385249702599471 0 0.00027413566793106951 0.03446672874840935 0 0.00016664698604901168 0.034440741031038079 0 0.00021905725211907663 0.034500138805594674 0 0.00027029193679712845 0.034385249702599471 0 0.00027029193679712845 0.034385249702599471 0 0.00033335981730431573 0.034364889401420365 0 0.00027413566793106951 0.03446672874840935 0 0.00027029193679712845 0.034385249702599471 0 0.00035408431950916962 0.034228727084847775 0 0.00033335981730431573 0.034364889401420365 0 0.00027029193679712845 0.034385249702599471 0 0.0002411251361487154 0.034272270400997951 0 0.00035408431950916962 0.034228727084847775 0 0.00011579458222473438 0.034320508784723404 0 0.00016664698604901168 0.034440741031038079 0 0.0002411251361487154 0.034272270400997951 0 0.00016664698604901168 0.034440741031038079 0 0.00027029193679712845 0.034385249702599471 0 0.0002411251361487154 0.034272270400997951 0 0.0002411251361487154 0.034272270400997951 0 0.00016202848356360684 0.034181587546002701 0 0.00027040748210456662 0.034094515385631727 0 0.00011579458222473438 0.034320508784723404 0 0.0002411251361487154 0.034272270400997951 0 0.00016202848356360684 0.034181587546002701 0 0.0002411251361487154 0.034272270400997951 0 0.00027040748210456662 0.034094515385631727 0 0.00035408431950916962 0.034228727084847775 0 -3.4159239159998001e-08 0.028886655826813521 0 2.4617945963258919e-05 0.02906318495541001 0 2.1984170470743317e-05 0.02701926959124322 0 -1.6893228562577348e-05 0.032105049129205095 0 6.6774105514716289e-05 0.031612563776631186 0 8.4254317657814424e-05 0.034035010481914506 0 0.00016202848356360684 0.034181587546002701 0 0.00027040748210456662 0.034094515385631727 0 4.3881232880185112e-07 0.030966714340146646 0 4.2927498597079623e-05 0.031088830865071155 0 2.4617945963258919e-05 0.02906318495541001 0 4.3881232880185112e-07 0.030966714340146646 0 -3.4159239159998001e-08 0.028886655826813521 0 2.4617945963258919e-05 0.02906318495541001 0 -2.5579604644502761e-09 0.026805027637097047 0 2.1984170470743317e-05 0.02701926959124322 0 -0.00016557966832442023 0.025339817731279971 0 6.6774105514716289e-05 0.031612563776631186 0 0.00012950388574073976 0.030549016429381105 0 -3.4159239159998001e-08 0.028886655826813521 0 -2.5579604644502761e-09 0.026805027637097047 0 2.1984170470743317e-05 0.02701926959124322 0 0.00027040748210456662 0.034094515385631727 0 0.00038016252061047446 0.034089069343676427 0 0.00035408431950916962 0.034228727084847775 0 0.00012950388574073976 0.030549016429381105 0 5.3944203773843269e-05 0.029628511096328542 0 0.00038016252061047446 0.034089069343676427 0 0.00042441431460132656 0.034170188683923096 0 0.00048600929795942615 0.034036791221102244 0 0.00038016252061047446 0.034089069343676427 0 0.00042441431460132656 0.034170188683923096 0 0.00035408431950916962 0.034228727084847775 0 0.00042441431460132656 0.034170188683923096 0 0.00035408431950916962 0.034228727084847775 0 0.0004074889175176181 0.034276296953361721 0 0.00035408431950916962 0.034228727084847775 0 0.00033335981730431573 0.034364889401420365 0 0.0004074889175176181 0.034276296953361721 0 0.00042441431460132656 0.034170188683923096 0 0.0004074889175176181 0.034276296953361721 0 0.00049841853045762838 0.034192583788149773 0 0.00037215098171160168 0.034373781429433738 0 0.00041409227451329888 0.03438507655681227 0 0.00046835006002031454 0.034310019703650177 0 0.0004074889175176181 0.034276296953361721 0 0.00037215098171160168 0.034373781429433738 0 0.00046835006002031454 0.034310019703650177 0 0.00037215098171160168 0.034373781429433738 0 0.00041409227451329888 0.03438507655681227 0 0.00035687839526702824 0.034431244448477956 0 0.00041409227451329888 0.03438507655681227 0 0.00035687839526702824 0.034431244448477956 0 0.00040798968690150089 0.034426757805858875 0 0.00037215098171160168 0.034373781429433738 0 0.00035687839526702824 0.034431244448477956 0 0.00032288448878958753 0.034428981374480777 0 0.00031803610603995351 0.034456125403010185 0 0.00035687839526702824 0.034431244448477956 0 0.00032188558999160581 0.034467178982165024 0 0.00031803610603995351 0.034456125403010185 0 0.00035687839526702824 0.034431244448477956 0 0.00032288448878958753 0.034428981374480777 0 0.00033335981730431573 0.034364889401420365 0 0.0004074889175176181 0.034276296953361721 0 0.00037215098171160168 0.034373781429433738 0 0.00033335981730431573 0.034364889401420365 0 0.00037215098171160168 0.034373781429433738 0 0.00032288448878958753 0.034428981374480777 0 0.00033335981730431573 0.034364889401420365 0 0.00032288448878958753 0.034428981374480777 0 0.00027413566793106951 0.03446672874840935 0 0.00027413566793106951 0.03446672874840935 0 0.0002649221859921382 0.03449197974689619 0 0.00029051979183210096 0.03446623623463637 0 0.00027413566793106951 0.03446672874840935 0 0.0002649221859921382 0.03449197974689619 0 0.00023280775841907377 0.034532427293503087 0 0.00032288448878958753 0.034428981374480777 0 0.00027413566793106951 0.03446672874840935 0 0.00029051979183210096 0.03446623623463637 0 0.00013407281967015768 0.034668831781036483 0 0.00021905725211907663 0.034500138805594674 0 0.00023280775841907377 0.034532427293503087 0 0.00013622717357704951 0.034644106525387124 0 0.00017303013213295924 0.034673680148980056 0 0.00013407281967015768 0.034668831781036483 0 0.00023280775841907377 0.034532427293503087 0 0.00026440112082868554 0.034496654820598376 0 0.00021905725211907663 0.034500138805594674 0 0.00027413566793106951 0.03446672874840935 0 0.00023280775841907377 0.034532427293503087 0 0.00013407281967015768 0.034668831781036483 0 0.00015556736612565126 0.034795876288229527 0 0.00015980725961062408 0.034787385148838834 0 0.0002649221859921382 0.03449197974689619 0 0.00023280775841907377 0.034532427293503087 0 0.00026440112082868554 0.034496654820598376 0 0.00015980725961062408 0.034787385148838834 0 0.00011154741432251166 0.034699935698490079 0 0.00020059291666001163 0.03469224893828729 0 0.00015556736612565126 0.034795876288229527 0 0.00011154741432251166 0.034699935698490079 0 -7.0293453634030756e-05 0.034631981589482524 0 0.00015556736612565126 0.034795876288229527 0 0.00015980725961062408 0.034787385148838834 0 0.00011154741432251166 0.034699935698490079 0 0.00026440112082868554 0.034496654820598376 0 0.00029204236793899877 0.034473958449033316 0 0.00032188558999160581 0.034467178982165024 0 0.00015556736612565126 0.034795876288229527 0 -7.0293453634030756e-05 0.034631981589482524 0 -0.00046067756656160709 0.034580062304390528 0 0.00017303013213295924 0.034673680148980056 0 4.2111637417373607e-05 0.03427384679709123 0 0.00031803610603995351 0.034456125403010185 0 0.00029051979183210096 0.03446623623463637 0 0.00029204236793899877 0.034473958449033316 0 0.00031803610603995351 0.034456125403010185 0 0.00032288448878958753 0.034428981374480777 0 0.00029051979183210096 0.03446623623463637 0 0.0002649221859921382 0.03449197974689619 0 0.00029051979183210096 0.03446623623463637 0 0.00029204236793899877 0.034473958449033316 0 0.0002649221859921382 0.03449197974689619 0 0.00026440112082868554 0.034496654820598376 0 0.00029204236793899877 0.034473958449033316 0 0.00031803610603995351 0.034456125403010185 0 0.00029204236793899877 0.034473958449033316 0 0.00032188558999160581 0.034467178982165024 0 -7.9364171601764246e-05 0.034227596469433103 0 -0.00036818273033235378 0.033923621583647104 0 -0.00059084012695704571 0.034488442535682763 0 -7.0293453634030756e-05 0.034631981589482524 0 -7.9364171601764246e-05 0.034227596469433103 0 -0.00059084012695704571 0.034488442535682763 0 -0.00024775480658985663 0.034554306497241262 0 4.2111637417373607e-05 0.03427384679709123 0 -7.0293453634030756e-05 0.034631981589482524 0 -7.9364171601764246e-05 0.034227596469433103 0 8.3152588882311085e-05 0.034472038235182904 0 0.00022366914924886375 0.034649471151599553 0 0.00026711392020596755 0.034319989560202713 0 0.00018195089788434514 0.034761382000379412 0 0.00016154503926583199 0.034788486062288723 0 0.00020059291666001163 0.03469224893828729 0 8.3152588882311085e-05 0.034472038235182904 0 0.00029720110480585581 0.034005476389985287 0 0.00026562460582149275 0.034586187618383758 0 0.00015980725961062408 0.034787385148838834 0 0.00020059291666001163 0.03469224893828729 0 0.00026562460582149275 0.034586187618383758 0 0.00020059291666001163 0.03469224893828729 0 0.00025982988147126219 0.034597665160991102 0 0.00011154741432251166 0.034699935698490079 0 0.00020059291666001163 0.03469224893828729 0 8.3152588882311085e-05 0.034472038235182904 0 0.00011154741432251166 0.034699935698490079 0 -7.0293453634030756e-05 0.034631981589482524 0 8.3152588882311085e-05 0.034472038235182904 0 -7.9364171601764246e-05 0.034227596469433103 0 8.3152588882311085e-05 0.034472038235182904 0 0.00029720110480585581 0.034005476389985287 0 -7.9364171601764246e-05 0.034227596469433103 0 0.00029720110480585581 0.034005476389985287 0 -3.3422419102110146e-05 0.033682776002466469 0 -7.9364171601764246e-05 0.034227596469433103 0 -0.00036818273033235378 0.033923621583647104 0 -3.3422419102110146e-05 0.033682776002466469 0 -0.00036818273033235378 0.033923621583647104 0 -3.3422419102110146e-05 0.033682776002466469 0 -0.00031865744485957785 0.033632398330283704 0 -0.00036818273033235378 0.033923621583647104 0 -0.00060666137980698977 0.033658532877165311 0 -0.00031865744485957785 0.033632398330283704 0 -0.00036818273033235378 0.033923621583647104 0 -0.00079996338307186448 0.03389845550923571 0 -0.00059084012695704571 0.034488442535682763 0 -0.00079996338307186448 0.03389845550923571 0 -0.001384806544625297 0.03391696284952566 0 -0.00059084012695704571 0.034488442535682763 0 -0.00036818273033235378 0.033923621583647104 0 -0.00060666137980698977 0.033658532877165311 0 -0.00079996338307186448 0.03389845550923571 0 -0.00060666137980698977 0.033658532877165311 0 -0.00079996338307186448 0.03389845550923571 0 -0.00099188042353155325 0.033480694555380275 0 -0.00079996338307186448 0.03389845550923571 0 -0.001384806544625297 0.03391696284952566 0 -0.00099188042353155325 0.033480694555380275 0 -0.0022646799699521285 0.030802472309825472 0 -0.0023096485289636958 0.030764984562749561 0 -0.0022134801468595296 0.030751432752985211 0 -0.0016377167249124142 0.031820201125377701 0 -0.0020559905926639003 0.031683565361675582 0 -0.0016377167249124142 0.031820201125377701 0 -0.0029506828765314044 0.029041689853179863 0 -0.0013904198950122262 0.031781868922677349 0 -0.00061322423438326496 0.032872782349564492 0 -0.001946895595520914 0.032414811107735204 0 -0.0016377167249124142 0.031820201125377701 0 -0.0017582621503072335 0.030404888853579209 0 -0.0013904198950122262 0.031781868922677349 0 -0.00061322423438326496 0.032872782349564492 0 0.00071869584290951355 0.033329804741750804 0 0.00021463337484378068 0.033687519856400623 0 -0.0017582621503072335 0.030404888853579209 0 0.00036685982261537163 0.034460811867663373 0 0.00040798968690150089 0.034426757805858875 0 0.00041356492124144554 0.034459880893854489 0 0.00035687839526702824 0.034431244448477956 0 0.00036685982261537163 0.034460811867663373 0 0.00040798968690150089 0.034426757805858875 0 -0.0016377167249124142 0.031820201125377701 0 4.2111637417373607e-05 0.03427384679709123 0 0.00035687839526702824 0.034431244448477956 0 0.00036685982261537163 0.034460811867663373 0 0.00032188558999160581 0.034467178982165024 0 0.00021463337484378068 0.033687519856400623 0 4.2111637417373607e-05 0.03427384679709123 0 -0.0020681686208447315 0.02655246914715359 0 -0.0017352187933935635 0.025866637701476757 0 -0.0026271990961095433 0.026009408573656658 0 -0.0020681686208447315 0.02655246914715359 0 -0.0034215036986448935 0.026965776277626845 0 -0.0026271990961095433 0.026009408573656658 0 0.00040798968690150089 0.034426757805858875 0 0.00041356492124144554 0.034459880893854489 0 0.00050356696895476213 0.034385924430208221 0 -0.0017582621503072335 0.030404888853579209 0 -0.0010516795251793042 0.030248316414803189 0 -0.0020985540686792909 0.029794252915220941 0 -0.0021984903789609351 0.029410441563739429 0 -0.0027471495483180723 0.029556696793738256 0 -0.0017582621503072335 0.030404888853579209 0 -0.0025299218030680744 0.027831385704380346 0 -0.0029506828765314044 0.029041689853179863 0 -0.0025299218030680744 0.027831385704380346 0 -0.0019325781765412832 0.029608953102386565 0 -0.0020985540686792909 0.029794252915220941 0 -0.0021984903789609351 0.029410441563739429 0 -0.0035153278006564517 0.027730502476850653 0 -0.0023603398136149362 0.027371945306777116 0 -0.0027673365460003582 0.028264188104071202 0 -0.0020681686208447315 0.02655246914715359 0 -0.0034215036986448935 0.026965776277626845 0 -0.0022359953084672641 0.027328411560226827 0 -0.0020681686208447315 0.02655246914715359 0 -0.0022359953084672641 0.027328411560226827 0 -0.0015129848886650645 0.027101840483536865 0 -0.0023211818705141012 0.027345842730442372 0 -0.0012684077195006726 0.027700181048479166 0 -0.0015129848886650645 0.027101840483536865 0 -0.0025299218030680744 0.027831385704380346 0 -0.0013290996926718828 0.027630963115588939 0 -0.0023603398136149362 0.027371945306777116 0 -0.0012684077195006726 0.027700181048479166 0 -0.0019521651124570956 0.028105758416475571 0 -0.0012684077195006726 0.027700181048479166 0 -0.0015129848886650645 0.027101840483536865 0 -0.00096997350462606018 0.027197329068196493 0 -0.0025299218030680744 0.027831385704380346 0 -0.0015034873552440733 0.027139707542300228 0 -0.00037053929202941424 0.026916662041652061 0 4.9846321330930739e-05 0.027394799616930272 0 -0.0005744857613367892 0.027883601775083183 0 -0.00096997350462606018 0.027197329068196493 0 -0.00037053929202941424 0.026916662041652061 0 -0.0005744857613367892 0.027883601775083183 0 -0.0012684077195006726 0.027700181048479166 0 -0.00096997350462606018 0.027197329068196493 0 -0.0005744857613367892 0.027883601775083183 0 -0.00037053929202941424 0.026916662041652061 0 -0.0011254309044670895 0.026414391615267031 0 -9.0178917806363451e-05 0.02602239830966915 0 -0.00096997350462606018 0.027197329068196493 0 -0.00037053929202941424 0.026916662041652061 0 -0.0011254309044670895 0.026414391615267031 0 -0.0020681686208447315 0.02655246914715359 0 -0.0011254309044670895 0.026414391615267031 0 -0.0017352187933935635 0.025866637701476757 0 -0.0020681686208447315 0.02655246914715359 0 -0.0015129848886650645 0.027101840483536865 0 -0.0011254309044670895 0.026414391615267031 0 -0.0015129848886650645 0.027101840483536865 0 -0.00096997350462606018 0.027197329068196493 0 -0.0011254309044670895 0.026414391615267031 0 -0.0011254309044670895 0.026414391615267031 0 -0.0017352187933935635 0.025866637701476757 0 -0.0010352994208614344 0.025344793693303683 0 -0.0017352187933935635 0.025866637701476757 0 -0.0010352994208614344 0.025344793693303683 0 -0.0017979802647336192 0.025031267906757717 0 -0.0011254309044670895 0.026414391615267031 0 -0.0010352994208614344 0.025344793693303683 0 -9.0178917806363451e-05 0.02602239830966915 0 -0.0010352994208614344 0.025344793693303683 0 -0.00034452469694101279 0.024892067623587876 0 -9.0178917806363451e-05 0.02602239830966915 0 -0.0010352994208614344 0.025344793693303683 0 -0.00034452469694101279 0.024892067623587876 0 -0.00094681956430735801 0.024090964878931857 0 -0.00054030617464815222 0.029554436300826496 0 -0.00029194250902377875 0.029597800875612326 0 -0.0010352994208614344 0.025344793693303683 0 -0.0017979802647336192 0.025031267906757717 0 -0.00094681956430735801 0.024090964878931857 0 0.0006087764821463645 0.034267605485257389 0 0.00046835006002031454 0.034310019703650177 0 0.00049841853045762838 0.034192583788149773 0 -0.00054030617464815222 0.029554436300826496 0 -0.0010516795251793042 0.030248316414803189 0 0.0006087764821463645 0.034267605485257389 0 0.00050356696895476213 0.034385924430208221 0 0.00046835006002031454 0.034310019703650177 0 -0.0017352187933935635 0.025866637701476757 0 -0.0017979802647336192 0.025031267906757717 0 -0.0026271990961095433 0.026009408573656658 0 0.00041409227451329888 0.03438507655681227 0 0.00050356696895476213 0.034385924430208221 0 0.00046835006002031454 0.034310019703650177 0 0.00041409227451329888 0.03438507655681227 0 0.00040798968690150089 0.034426757805858875 0 0.00050356696895476213 0.034385924430208221 0 0.0004074889175176181 0.034276296953361721 0 0.00046835006002031454 0.034310019703650177 0 0.00049841853045762838 0.034192583788149773 0 0.0006087764821463645 0.034267605485257389 0 0.00049841853045762838 0.034192583788149773 0 0.00059914201332729954 0.034109418274379584 0 0.00059914201332729954 0.034109418274379584 0 0.00048600929795942615 0.034036791221102244 0 0.00063749526840160072 0.033968471788021509 0 0.00049841853045762838 0.034192583788149773 0 0.00059914201332729954 0.034109418274379584 0 0.00048600929795942615 0.034036791221102244 0 0.00042441431460132656 0.034170188683923096 0 0.00049841853045762838 0.034192583788149773 0 0.00048600929795942615 0.034036791221102244 0 5.3944203773843269e-05 0.029628511096328542 0 0.00047700106171515399 0.029874780043860499 0 -0.00016557966832442023 0.025339817731279971 0 -9.7415614439853192e-05 0.024318767731248421 0 -9.1192293591369386e-05 0.024641794645933496 0 -0.00016557966832442023 0.025339817731279971 0 -7.8313819997171359e-07 0.024724548967854105 0 -9.7415614439853192e-05 0.024318767731248421 0 -2.5579604644502761e-09 0.026805027637097047 0 -0.00016557966832442023 0.025339817731279971 0 -7.8313819997171359e-07 0.024724548967854105 0 1.3622235333218998e-05 0.022972359274847386 0 6.4805233721198808e-05 0.02411738215958999 0 0.00073786069891421254 0.024291699911975669 0 2.9893261840754282e-05 0.022664570186773939 0 0.000290225721140589 0.023588853555501676 0 0.00079237008547335792 0.022827830824585844 0 9.8080218055275899e-05 0.023130267671858253 0 0.00044707282600675569 0.023797032041504265 0 7.2698387177183508e-07 0.022643615502379043 0 2.9893261840754282e-05 0.022664570186773939 0 -9.5382425856399175e-06 0.021450198907969283 0 2.9893261840754282e-05 0.022664570186773939 0 1.3622235333218998e-05 0.022972359274847386 0 0.000290225721140589 0.023588853555501676 0 3.7400751044421329e-06 0.022419532852685688 0 0.00035282794251488683 0.022124393653716413 0 7.2698387177183508e-07 0.022643615502379043 0 2.9893261840754282e-05 0.022664570186773939 0 1.3622235333218998e-05 0.022972359274847386 0 1.3622235333218998e-05 0.022972359274847386 0 -9.7415614439853192e-05 0.024318767731248421 0 6.4805233721198808e-05 0.02411738215958999 0 -7.8313819997171359e-07 0.024724548967854105 0 7.2698387177183508e-07 0.022643615502379043 0 1.3622235333218998e-05 0.022972359274847386 0 -7.8313819997171359e-07 0.024724548967854105 0 1.3622235333218998e-05 0.022972359274847386 0 -9.7415614439853192e-05 0.024318767731248421 0 6.4805233721198808e-05 0.02411738215958999 0 -9.1192293591369386e-05 0.024641794645933496 0 0.00073786069891421254 0.024291699911975669 0 -9.7415614439853192e-05 0.024318767731248421 0 6.4805233721198808e-05 0.02411738215958999 0 -9.1192293591369386e-05 0.024641794645933496 0 0.00044707282600675569 0.023797032041504265 0 0.00042624323031637028 0.025672653173109839 0 -9.1192293591369386e-05 0.024641794645933496 0 0.00073786069891421254 0.024291699911975669 0 0.0010789598073871821 0.024974449270277515 0 0.00063749526840160072 0.033968471788021509 0 0.00072345680714913933 0.034114153134445512 0 0.00084290943071079459 0.033912010916754137 0 0.00047700106171515399 0.029874780043860499 0 0.00042624323031637028 0.025672653173109839 0 -0.00094681956430735801 0.024090964878931857 0 -0.00023093556820209617 0.023882327246396062 0 -0.00014930502976058313 0.023241869641208602 0 -0.00029194250902377875 0.029597800875612326 0 0.00042624323031637028 0.025672653173109839 0 0.00059914201332729954 0.034109418274379584 0 0.00063749526840160072 0.033968471788021509 0 0.00072345680714913933 0.034114153134445512 0 0.0006087764821463645 0.034267605485257389 0 0.00059914201332729954 0.034109418274379584 0 0.00072345680714913933 0.034114153134445512 0 -0.00034452469694101279 0.024892067623587876 0 -0.00094681956430735801 0.024090964878931857 0 -0.00020388350232704598 0.024275006631641626 0 -0.00094681956430735801 0.024090964878931857 0 -0.00020388350232704598 0.024275006631641626 0 -0.00023093556820209617 0.023882327246396062 0 -0.00020388350232704598 0.024275006631641626 0 0.00027195196949736567 0.024080568444761263 0 0.00015215447737758182 0.024631937438998618 0 0.00026364833459487362 0.02351072362878498 0 0.00045595390478339788 0.023283353512025429 0 0.00066278608298124292 0.023838801398294401 0 0.00026364833459487362 0.02351072362878498 0 0.00045595390478339788 0.023283353512025429 0 0.0002664404944097904 0.022943156038541704 0 -0.00020388350232704598 0.024275006631641626 0 0.00027195196949736567 0.024080568444761263 0 -0.00023093556820209617 0.023882327246396062 0 0.00026364833459487362 0.02351072362878498 0 0.00066278608298124292 0.023838801398294401 0 0.00080117135262967334 0.024838911207146687 0 0.0012228411263969698 0.018738559480346764 0 0.001307440847006543 0.018615423103638121 0 0.00098389097630308055 0.023803467456155372 0 0.00071732710692313986 0.023211737176163292 0 0.0009394865629443178 0.022573004908917105 0 0.00098389097630308055 0.023803467456155372 0 0.00066278608298124292 0.023838801398294401 0 0.00071732710692313986 0.023211737176163292 0 0.00045595390478339788 0.023283353512025429 0 0.00066278608298124292 0.023838801398294401 0 0.00071732710692313986 0.023211737176163292 0 0.00045595390478339788 0.023283353512025429 0 0.00071732710692313986 0.023211737176163292 0 0.00053885841175860282 0.0230427781910463 0 0.00072201638520982781 0.022725813096906536 0 0.0009394865629443178 0.022573004908917105 0 -0.00039100292964457421 0.022479477586456454 0 0.0015213710928108682 0.014351769952470589 0 0.0016793141368254272 0.015050197434439666 0 0.0011834368383457333 0.015034650986708619 0 0.00071732710692313986 0.023211737176163292 0 0.00072201638520982781 0.022725813096906536 0 0.0009394865629443178 0.022573004908917105 0 0.00072201638520982781 0.022725813096906536 0 0.00053885841175860282 0.0230427781910463 0 0.0002664404944097904 0.022943156038541704 0 0.00071732710692313986 0.023211737176163292 0 0.00072201638520982781 0.022725813096906536 0 0.00053885841175860282 0.0230427781910463 0 0.00014981365417440098 0.022549436600311331 0 0.00042624323031637028 0.025672653173109839 0 7.2663127208354194e-05 0.023297491481530323 0 0.00042624323031637028 0.025672653173109839 0 0.00072201638520982781 0.022725813096906536 0 -0.00019763701260309136 0.022544737301626479 0 0.0002664404944097904 0.022943156038541704 0 0.00027195196949736567 0.024080568444761263 0 -0.00023093556820209617 0.023882327246396062 0 -0.00014930502976058313 0.023241869641208602 0 0.00026364833459487362 0.02351072362878498 0 -0.00019763701260309136 0.022544737301626479 0 0.0002664404944097904 0.022943156038541704 0 0.00045595390478339788 0.023283353512025429 0 0.00053885841175860282 0.0230427781910463 0 0.0002664404944097904 0.022943156038541704 0 0.00042624323031637028 0.025672653173109839 0 0.00099731218757825651 0.019817880374362693 0 0.00069387997404380774 0.024377067719687416 0 0.00092970447369910853 0.023581352369605565 0 0.0015847789729200809 0.023334656682190438 0 0.000290225721140589 0.023588853555501676 0 0.00069387997404380774 0.024377067719687416 0 0.00092970447369910853 0.023581352369605565 0 0.0016793141368254272 0.015050197434439666 0 0.0017978220604428826 0.015798719732094853 0 0.001358989559218714 0.01555112832948532 0 0.0009394865629443178 0.022573004908917105 0 -0.00039100292964457421 0.022479477586456454 0 0.00075991608963607018 0.021131885695914805 0 0.001307440847006543 0.018615423103638121 0 0.00099731218757825651 0.019817880374362693 0 0.0017978220604428826 0.015798719732094853 0 0.0016329255377251529 0.015983473577722559 0 0.001358989559218714 0.01555112832948532 0 0.00092970447369910853 0.023581352369605565 0 0.0015847789729200809 0.023334656682190438 0 0.0015366017817275599 0.022981035165179249 0 0.00099731218757825651 0.019817880374362693 0 0.0008208149996483616 0.020765367868343123 0 0.00099731218757825651 0.019817880374362693 0 0.00085430801326145782 0.019077596969497321 0 0.00074856214717788428 0.019832755331928784 0 0.00074504968062674465 0.019805878430421715 0 0.00076878466609610384 0.019809176122233655 0 0.0008208149996483616 0.020765367868343123 0 0.00085430801326145782 0.019077596969497321 0 0.00085430801326145782 0.019077596969497321 0 -4.6738490794290663e-08 0.019474419050798244 0 -3.4293863716075242e-05 0.020122119109615734 0 1.1146605352988218e-08 0.020559411485813323 0 3.6940377214239011e-10 0.019476119864290181 0 0.0008208149996483616 0.020765367868343123 0 7.1637516475614668e-07 0.020561375362039253 0 8.1534813171847453e-05 0.020214423780285339 0 -3.4293863716075242e-05 0.020122119109615734 0 1.1146605352988218e-08 0.020559411485813323 0 0.0008208149996483616 0.020765367868343123 0 0.00035282794251488683 0.022124393653716413 0 6.37484176872351e-05 0.020844911534337447 0 -2.1170781096143132e-07 0.02056213535436829 0 -9.5382425856399175e-06 0.021450198907969283 0 7.2698387177183508e-07 0.022643615502379043 0 -2.1170781096143132e-07 0.02056213535436829 0 -9.5382425856399175e-06 0.021450198907969283 0 0.000290225721140589 0.023588853555501676 0 0.00092970447369910853 0.023581352369605565 0 0.00079237008547335792 0.022827830824585844 0 0.00092970447369910853 0.023581352369605565 0 0.0015366017817275599 0.022981035165179249 0 0.00079237008547335792 0.022827830824585844 0 -1.8406437015460468e-07 0.017492352942885366 0 2.4565278337603707e-05 0.01775938219394823 0 1.5835534610854148e-06 0.019471274322541272 0 0.00014983223117123837 0.015795514882574656 0 -1.8406437015460468e-07 0.017492352942885366 0 2.4565278337603707e-05 0.01775938219394823 0 0.00085430801326145782 0.019077596969497321 0 0.00042066280383713269 0.016570807701398578 0 0.00062135015034504003 0.018781626811501143 0 2.4565278337603707e-05 0.01775938219394823 0 1.5835534610854148e-06 0.019471274322541272 0 0.0016329255377251529 0.015983473577722559 0 0.0009522837687793664 0.015814649287393432 0 0.001358989559218714 0.01555112832948532 0 0.0009522837687793664 0.015814649287393432 0 0.001358989559218714 0.01555112832948532 0 0.00072729397147974762 0.015267798290241805 0 0.001358989559218714 0.01555112832948532 0 0.00072729397147974762 0.015267798290241805 0 0.0011834368383457333 0.015034650986708619 0 0.00014983223117123837 0.015795514882574656 0 0.0009522837687793664 0.015814649287393432 0 0.00072729397147974762 0.015267798290241805 0 1.740660479201332e-05 0.016011240863109229 0 0.00042066280383713269 0.016570807701398578 0 0.00011065190746825922 0.014740101726527143 0 0.00072729397147974762 0.015267798290241805 0 0.00080646582530890121 0.014604030600201429 0 0.00072729397147974762 0.015267798290241805 0 0.0011834368383457333 0.015034650986708619 0 0.00080646582530890121 0.014604030600201429 0 0.0016793141368254272 0.015050197434439666 0 0.001358989559218714 0.01555112832948532 0 0.0011834368383457333 0.015034650986708619 0 0.0015213710928108682 0.014351769952470589 0 0.00080646582530890121 0.014604030600201429 0 0.0010029207084136093 0.014031534646577666 0 0.0015213710928108682 0.014351769952470589 0 0.0011834368383457333 0.015034650986708619 0 0.00080646582530890121 0.014604030600201429 0 0.0003540627104300017 0.014217251036038644 0 0.00011065190746825922 0.014740101726527143 0 0.00080646582530890121 0.014604030600201429 0 0.0003540627104300017 0.014217251036038644 0 0.00080646582530890121 0.014604030600201429 0 0.0010029207084136093 0.014031534646577666 0 0.0003540627104300017 0.014217251036038644 0 0.00056562834968304314 0.013716150239194222 0 0.0010029207084136093 0.014031534646577666 0 1.8673980389250016e-05 0.013949399786207864 0 9.73203671971643e-05 0.013883054838684088 0 3.7385893124673192e-05 0.013822371203717492 0 -7.7691119197042575e-05 0.013843580554729505 0 1.8673980389250016e-05 0.013949399786207864 0 3.7385893124673192e-05 0.013822371203717492 0 1.8673980389250016e-05 0.013949399786207864 0 9.73203671971643e-05 0.013883054838684088 0 0.00021459160613395922 0.013950226974882497 0 0.00056562834968304314 0.013716150239194222 0 0.001310961802208843 0.013590606785412445 0 0.0010029207084136093 0.014031534646577666 0 0.001310961802208843 0.013590606785412445 0 0.0010029207084136093 0.014031534646577666 0 0.0013927190864273576 0.013743610814911867 0 0.00033301151702787242 0.013338207838838408 0 0.0010625860325942757 0.017993445575539488 0 0.0010625860325942757 0.017993445575539488 0 0.0011558278214910862 0.020883832511917579 0 0.0015213710928108682 0.014351769952470589 0 0.0010029207084136093 0.014031534646577666 0 0.0013927190864273576 0.013743610814911867 0 0.00098389097630308055 0.023803467456155372 0 0.00066278608298124292 0.023838801398294401 0 0.0010761826174397529 0.024385884840164539 0 0.0012228411263969698 0.018738559480346764 0 0.0013712893382803763 0.02093843419525698 0 0.00066278608298124292 0.023838801398294401 0 0.00080117135262967334 0.024838911207146687 0 0.0013071544871484015 0.025393419805472849 0 0.00097480990104308475 0.025330364954761413 0 0.0013712893382803763 0.02093843419525698 0 7.2663127208354194e-05 0.023297491481530323 0 0.00085109903833904496 0.02495772984416196 0 0.00080117135262967334 0.024838911207146687 0 0.0013071544871484015 0.025393419805472849 0 0.00050048231356713548 0.02522473078785183 0 -0.00034452469694101279 0.024892067623587876 0 0.00015215447737758182 0.024631937438998618 0 0.00050048231356713548 0.02522473078785183 0 0.00027195196949736567 0.024080568444761263 0 0.00080117135262967334 0.024838911207146687 0 0.00015215447737758182 0.024631937438998618 0 -0.00034452469694101279 0.024892067623587876 0 -0.00020388350232704598 0.024275006631641626 0 0.00015215447737758182 0.024631937438998618 0 0.00080117135262967334 0.024838911207146687 0 0.00015215447737758182 0.024631937438998618 0 0.00050048231356713548 0.02522473078785183 0 -0.00034452469694101279 0.024892067623587876 0 -9.0178917806363451e-05 0.02602239830966915 0 0.00050048231356713548 0.02522473078785183 0 -9.0178917806363451e-05 0.02602239830966915 0 0.00050048231356713548 0.02522473078785183 0 0.001342759150673174 0.025705822646166242 0 -0.00013653707177861969 0.027197124728692311 0 0.0011558278214910862 0.020883832511917579 0 0.0013071544871484015 0.025393419805472849 0 0.00050048231356713548 0.02522473078785183 0 0.001342759150673174 0.025705822646166242 0 0.0010625860325942757 0.017993445575539488 0 0.0013712893382803763 0.02093843419525698 0 0.0013712893382803763 0.02093843419525698 0 0.0011558278214910862 0.020883832511917579 0 0.0014814610655661553 0.019184614025486286 0 0.0021087479301807994 0.020414611341236247 0 0.0019285461724335186 0.019080554459368779 0 -9.0178917806363451e-05 0.02602239830966915 0 0.0013231795232765656 0.025615984616113897 0 0.00088609593881656067 0.026432644310092526 0 0.0013231795232765656 0.025615984616113897 0 0.00088609593881656067 0.026432644310092526 0 0.0014620447502819813 0.026928060675191937 0 0.00088609593881656067 0.026432644310092526 0 0.00036888554404619438 0.026839028117089613 0 0.00096579574807820711 0.026968162368792896 0 0.00088609593881656067 0.026432644310092526 0 0.00096579574807820711 0.026968162368792896 0 0.0014620447502819813 0.026928060675191937 0 -9.0178917806363451e-05 0.02602239830966915 0 0.00088609593881656067 0.026432644310092526 0 0.00036888554404619438 0.026839028117089613 0 -0.00037053929202941424 0.026916662041652061 0 -9.0178917806363451e-05 0.02602239830966915 0 0.00036888554404619438 0.026839028117089613 0 -0.00037053929202941424 0.026916662041652061 0 0.00036888554404619438 0.026839028117089613 0 4.9846321330930739e-05 0.027394799616930272 0 0.00036888554404619438 0.026839028117089613 0 4.9846321330930739e-05 0.027394799616930272 0 0.00073514115086930417 0.027377727607278947 0 4.9846321330930739e-05 0.027394799616930272 0 0.00073514115086930417 0.027377727607278947 0 0.00041065199631411139 0.027964695067686299 0 0.00073514115086930417 0.027377727607278947 0 0.0013285138359400638 0.027237447495923339 0 0.0015946446249536584 0.028103747401616433 0 0.00096579574807820711 0.026968162368792896 0 0.0013285138359400638 0.027237447495923339 0 0.0014620447502819813 0.026928060675191937 0 0.00096579574807820711 0.026968162368792896 0 0.00073514115086930417 0.027377727607278947 0 0.0013285138359400638 0.027237447495923339 0 0.00036888554404619438 0.026839028117089613 0 0.00096579574807820711 0.026968162368792896 0 0.00073514115086930417 0.027377727607278947 0 0.0013285138359400638 0.027237447495923339 0 0.0014620447502819813 0.026928060675191937 0 0.001495984992987486 0.027759143001471344 0 0.0016912288823699177 0.015322005024025765 0 0.00091126166546037768 0.014430276033234744 0 0.0012412087331957406 0.013397376120608961 0 0.0017332592496560675 0.021256306491916156 0 0.00021877174109691288 0.02085464887147491 0 0.00091126166546037768 0.014430276033234744 0 0.00078855109830793782 0.015626308890740081 0 0.00012151335355600438 0.013711324577081435 0 0.0016912288823699177 0.015322005024025765 0 0.00091126166546037768 0.014430276033234744 0 0.00078855109830793782 0.015626308890740081 0 7.1872124275004518e-05 0.013745478329392177 0 0.00011707895143285009 0.013770223443700175 0 0.00012151335355600438 0.013711324577081435 0 0.00035252379542835869 0.014277472583273276 0 0.00019140562891562332 0.013960643299440058 0 2.5591529757581403e-05 0.013699563514731616 0 7.1872124275004518e-05 0.013745478329392177 0 0.00012151335355600438 0.013711324577081435 0 -0.00010363628273599545 0.013587334646089655 0 2.5591529757581403e-05 0.013699563514731616 0 0.00012151335355600438 0.013711324577081435 0 -2.6223245996792055e-05 0.013741294443886224 0 2.5591529757581403e-05 0.013699563514731616 0 7.1872124275004518e-05 0.013745478329392177 0 7.1872124275004518e-05 0.013745478329392177 0 3.7385893124673192e-05 0.013822371203717492 0 0.00011707895143285009 0.013770223443700175 0 -2.6223245996792055e-05 0.013741294443886224 0 7.1872124275004518e-05 0.013745478329392177 0 3.7385893124673192e-05 0.013822371203717492 0 9.73203671971643e-05 0.013883054838684088 0 3.7385893124673192e-05 0.013822371203717492 0 0.00011707895143285009 0.013770223443700175 0 0.0018205604250312905 0.017769153338560974 0 0.0016912288823699177 0.015322005024025765 0 0.00078855109830793782 0.015626308890740081 0 0.0011558278214910862 0.020883832511917579 0 0.0017332592496560675 0.021256306491916156 0 0.0018205604250312905 0.017769153338560974 0 0.0020207884870020953 0.017725304389981832 0 0.0016912288823699177 0.015322005024025765 0 9.73203671971643e-05 0.013883054838684088 0 0.00021459160613395922 0.013950226974882497 0 0.00011707895143285009 0.013770223443700175 0 0.0010625860325942757 0.017993445575539488 0 0.00035252379542835869 0.014277472583273276 0 0.0017248095075062227 0.028625738341333726 0 0.0012360808678142361 0.029158350555763091 0 0.001844121121010613 0.029612122890583209 0 -0.00098757228060948111 0.013484754698304824 0 -0.00099454117768911542 0.013488506905715935 0 -0.0010575762970856095 0.013561290583555784 0 0.00049468576695927921 0.021336036783092181 0 0.0015194777371074499 0.02631361000664768 0 -0.00098757228060948111 0.013484754698304824 0 -0.00099454117768911542 0.013488506905715935 0 -0.00098000023423482096 0.013456403368750543 0 -0.00099454117768911542 0.013488506905715935 0 -0.00096000971387032706 0.013445268243852018 0 -0.00098000023423482096 0.013456403368750543 0 -0.00099454117768911542 0.013488506905715935 0 -0.00096000971387032706 0.013445268243852018 0 -0.00095002905677038973 0.013476686972270098 0 -0.00089803752920020977 0.013419816533926791 0 -0.00096000971387032706 0.013445268243852018 0 -0.00095002905677038973 0.013476686972270098 0 -0.00089803752920020977 0.013419816533926791 0 -0.00096000971387032706 0.013445268243852018 0 -0.0009534869219432685 0.013398096131207442 0 -0.00096000971387032706 0.013445268243852018 0 -0.00098000023423482096 0.013456403368750543 0 -0.0009534869219432685 0.013398096131207442 0 8.1771394148908492e-06 0.013368083394108285 0 0.00053777829616381682 0.013661194715474511 0 0.0012412087331957406 0.013397376120608961 0 -0.00098000023423482096 0.013456403368750543 0 -0.0009534869219432685 0.013398096131207442 0 -0.0009871633686916396 0.013506217277185689 0 -0.00064387170761234043 0.012890226528186378 0 0.00021877174109691288 0.02085464887147491 0 -0.00010363628273599545 0.013587334646089655 0 8.1771394148908492e-06 0.013368083394108285 0 0.00012151335355600438 0.013711324577081435 0 0.00091126166546037768 0.014430276033234744 0 0.00053777829616381682 0.013661194715474511 0 0.00012151335355600438 0.013711324577081435 0 8.1771394148908492e-06 0.013368083394108285 0 0.00053777829616381682 0.013661194715474511 0 0.00012151335355600438 0.013711324577081435 0 0.0017471059289236584 0.028488127081599101 0 0.0015735187724764755 0.023866123894476569 0 0.00091126166546037768 0.014430276033234744 0 0.00053777829616381682 0.013661194715474511 0 0.0012412087331957406 0.013397376120608961 0 0.0013285138359400638 0.027237447495923339 0 0.0014511554230505644 0.027748737962312722 0 0.001495984992987486 0.027759143001471344 0 -0.00098757228060948111 0.013484754698304824 0 -0.00098000023423482096 0.013456403368750543 0 -0.0009871633686916396 0.013506217277185689 0 0.00049468576695927921 0.021336036783092181 0 0.00021877174109691288 0.02085464887147491 0 0.0017248095075062227 0.028625738341333726 0 0.0015949925809790387 0.02818335775722712 0 0.0011282869313708024 0.028533445983378262 0 0.00012486434144929647 0.021799724556264735 0 0.00014001645231329554 0.021821139050631898 0 0.00013552627418693186 0.02181980611265787 0 0.00049468576695927921 0.021336036783092181 0 0.0015735187724764755 0.023866123894476569 0 0.0015735187724764755 0.023866123894476569 0 0.00021877174109691288 0.02085464887147491 0 0.0015949925809790387 0.02818335775722712 0 0.0011282869313708024 0.028533445983378262 0 0.00041065199631411139 0.027964695067686299 0 0.0015735187724764755 0.023866123894476569 0 0.00069287717058694805 0.028677402227420216 0 0.00073514115086930417 0.027377727607278947 0 0.0015946446249536584 0.028103747401616433 0 0.00041065199631411139 0.027964695067686299 0 0.0011282869313708024 0.028533445983378262 0 0.00041065199631411139 0.027964695067686299 0 0.0006647269641453517 0.028722189870428252 0 0.00041065199631411139 0.027964695067686299 0 -6.2260686842132164e-05 0.028704731760382737 0 -0.0005744857613367892 0.027883601775083183 0 4.9846321330930739e-05 0.027394799616930272 0 0.00041065199631411139 0.027964695067686299 0 -0.0005744857613367892 0.027883601775083183 0 0.00041065199631411139 0.027964695067686299 0 -6.2260686842132164e-05 0.028704731760382737 0 0.0006647269641453517 0.028722189870428252 0 -6.2260686842132164e-05 0.028704731760382737 0 0.00038481694216410813 0.029204417129403779 0 -0.00030882217115310215 0.029581172609719993 0 -6.2260686842132164e-05 0.028704731760382737 0 0.00038481694216410813 0.029204417129403779 0 0.0006647269641453517 0.028722189870428252 0 0.00038481694216410813 0.029204417129403779 0 0.0006647269641453517 0.028722189870428252 0 0.0012360808678142361 0.029158350555763091 0 0.00038481694216410813 0.029204417129403779 0 0.0012360808678142361 0.029158350555763091 0 0.0007550323408859887 0.029789923660745725 0 0.0017248095075062227 0.028625738341333726 0 0.0011282869313708024 0.028533445983378262 0 0.0012360808678142361 0.029158350555763091 0 0.0011282869313708024 0.028533445983378262 0 0.0006647269641453517 0.028722189870428252 0 0.0012360808678142361 0.029158350555763091 0 0.0012360808678142361 0.029158350555763091 0 0.0007550323408859887 0.029789923660745725 0 0.001844121121010613 0.029612122890583209 0 0.0007550323408859887 0.029789923660745725 0 0.0010847901837592107 0.030508537486703086 0 0.001844121121010613 0.029612122890583209 0 0.0007550323408859887 0.029789923660745725 0 -1.6002015026596907e-05 0.030432695154485753 0 0.0010847901837592107 0.030508537486703086 0 0.0007550323408859887 0.029789923660745725 0 -0.00030882217115310215 0.029581172609719993 0 -1.6002015026596907e-05 0.030432695154485753 0 0.00038481694216410813 0.029204417129403779 0 0.0007550323408859887 0.029789923660745725 0 -0.00030882217115310215 0.029581172609719993 0 -1.6002015026596907e-05 0.030432695154485753 0 0.00048122618924819547 0.031026081822463553 0 0.0010847901837592107 0.030508537486703086 0 -1.6002015026596907e-05 0.030432695154485753 0 0.00048122618924819547 0.031026081822463553 0 -0.00011292594672991483 0.031400632800548486 0 -1.6002015026596907e-05 0.030432695154485753 0 -0.00011292594672991483 0.031400632800548486 0 -0.00071233805882910779 0.031052345189881026 0 0.00048122618924819547 0.031026081822463553 0 0.0010847901837592107 0.030508537486703086 0 0.0011101164810760728 0.031612909908580199 0 0.0010847901837592107 0.030508537486703086 0 0.0019608525345046193 0.030572424874340188 0 0.0011101164810760728 0.031612909908580199 0 0.00058943669212205936 0.019765820671476534 0 0.00070417755153779173 0.019629735039391253 0 0.00092574113680680666 0.021309944214870567 0 0.0010847901837592107 0.030508537486703086 0 0.0019608525345046193 0.030572424874340188 0 0.001844121121010613 0.029612122890583209 0 0.00068356698355456357 0.024276418104241235 0 0.00042017782529873673 0.024771164925042079 0 0.0011674176281762296 0.022956037262635773 0 0.00092574113680680666 0.021309944214870567 0 0.00036596419540805989 0.020414872851209114 0 0.00049468576695927921 0.021336036783092181 0 -0.0004857262042145581 0.016294745561966202 0 0.00042017782529873673 0.024771164925042079 0 0.0015194777371074499 0.02631361000664768 0 0.00058943669212205936 0.019765820671476534 0 0.00092574113680680666 0.021309944214870567 0 0.00036596419540805989 0.020414872851209114 0 -0.00099454117768911542 0.013488506905715935 0 -0.0010575762970856095 0.013561290583555784 0 -0.00099322972213995958 0.013522561001887272 0 -0.00095002905677038973 0.013476686972270098 0 -0.00099322972213995958 0.013522561001887272 0 -0.0009419964177315392 0.013525960320798157 0 -0.00099454117768911542 0.013488506905715935 0 -0.00095002905677038973 0.013476686972270098 0 -0.00099322972213995958 0.013522561001887272 0 -0.0010575762970856095 0.013561290583555784 0 -0.00099322972213995958 0.013522561001887272 0 -0.00099033186457325143 0.013573492191960404 0 -0.00092152616561692131 0.013608648106339029 0 -0.00099033186457325143 0.013573492191960404 0 -0.0009419964177315392 0.013525960320798157 0 -0.00099322972213995958 0.013522561001887272 0 -0.00099033186457325143 0.013573492191960404 0 -0.0009419964177315392 0.013525960320798157 0 0.00058943669212205936 0.019765820671476534 0 0.00070973809525292253 0.019622621282360673 0 -0.00041864614667646508 0.017724217626515493 0 0.00058943669212205936 0.019765820671476534 0 0.00036596419540805989 0.020414872851209114 0 -0.00041864614667646508 0.017724217626515493 0 -0.0004857262042145581 0.016294745561966202 0 -0.00075733526653561859 0.01600974095063961 0 -0.0010575762970856095 0.013561290583555784 0 -0.0010054817435430781 0.013689179507887247 0 -0.0011979058682991869 0.013934336688588364 0 -0.00092152616561692131 0.013608648106339029 0 -0.00099033186457325143 0.013573492191960404 0 -0.0010054817435430781 0.013689179507887247 0 -0.0010575762970856095 0.013561290583555784 0 -0.00099033186457325143 0.013573492191960404 0 -0.0010054817435430781 0.013689179507887247 0 0.00070973809525292253 0.019622621282360673 0 -0.00041864614667646508 0.017724217626515493 0 0.00046313800500636076 0.017646128117743423 0 -0.00097095064949466318 0.013820969006509323 0 -0.0010054817435430781 0.013689179507887247 0 -0.0011979058682991869 0.013934336688588364 0 -0.00084002547323405784 0.013974309280610886 0 -0.00097095064949466318 0.013820969006509323 0 -0.0011979058682991869 0.013934336688588364 0 0.00042017782529873673 0.024771164925042079 0 0.0002707397382039745 0.028845804656247701 0 -0.00030529888883488462 0.02534419197617838 0 -0.0004898079575274191 0.024035117147190251 0 0.00071053976682080428 0.024128957754330996 0 0.00042017782529873673 0.024771164925042079 0 -7.5193077007663941e-05 0.01991674260887815 0 -0.0004898079575274191 0.024035117147190251 0 -0.00067248988899495617 0.022712093296109591 0 0.00071053976682080428 0.024128957754330996 0 -0.00096368842033575707 0.021930896009662502 0 0.0002707397382039745 0.028845804656247701 0 -0.0015673725607485735 0.027562398636326372 0 -0.0011160834452746328 0.027434534494374413 0 -0.00091943100987830657 0.028238917007010193 0 -7.5193077007663941e-05 0.01991674260887815 0 -0.00096368842033575707 0.021930896009662502 0 -0.0010678920314218085 0.015041286761948542 0 -0.00075733526653561859 0.01600974095063961 0 -0.00041864614667646508 0.017724217626515493 0 0.00046313800500636076 0.017646128117743423 0 0.00021469990139748495 0.015702379450609018 0 -0.0010651944973736126 0.015066888279857447 0 -0.00041864614667646508 0.017724217626515493 0 0.00021469990139748495 0.015702379450609018 0 -0.00084002547323405784 0.013974309280610886 0 -0.0010651944973736126 0.015066888279857447 0 -0.0011979058682991869 0.013934336688588364 0 -0.0010651944973736126 0.015066888279857447 0 -0.00089244963034422703 0.014756533239918471 0 0.00021469990139748495 0.015702379450609018 0 -0.0014709346345822688 0.021604501659548563 0 -0.0012802901474276429 0.021796068410126077 0 -0.0013181973205560651 0.021554376964725456 0 -0.00096368842033575707 0.021930896009662502 0 -0.0018247923576873962 0.024310586306260932 0 -0.0017776339256780054 0.019157238311701328 0 -0.0018247923576873962 0.024310586306260932 0 -0.0017776339256780054 0.019157238311701328 0 -0.00096368842033575707 0.021930896009662502 0 -0.0011160834452746328 0.027434534494374413 0 -0.0013015835366579074 0.026985184666376564 0 -0.0016301521821568889 0.027093612776956384 0 -0.0015673725607485735 0.027562398636326372 0 -0.0011160834452746328 0.027434534494374413 0 -0.0016301521821568889 0.027093612776956384 0 -0.0011160834452746328 0.027434534494374413 0 -0.0013015835366579074 0.026985184666376564 0 -0.00087380836553030178 0.02711767269541868 0 -0.0017162981483488935 0.030326595021513969 0 -0.0020749760170080444 0.030957869953492693 0 -0.0017809350754947242 0.026367377375736648 0 -0.0018247923576873962 0.024310586306260932 0 -0.0013015835366579074 0.026985184666376564 0 -0.001624160917883165 0.027095685828686201 0 -0.0013484876894532425 0.026632325069652962 0 -0.0013015835366579074 0.026985184666376564 0 -0.00087380836553030178 0.02711767269541868 0 -0.0013484876894532425 0.026632325069652962 0 -0.0018247923576873962 0.024310586306260932 0 -0.0023518458522671691 0.025383434971443058 0 -0.001624160917883165 0.027095685828686201 0 -0.001728983446279587 0.026377005131482584 0 -0.0013484876894532425 0.026632325069652962 0 -0.0023869431995522613 0.021886000941402167 0 -0.0025725839973632578 0.021720106816004201 0 -0.0025117714733154861 0.022210166014700369 0 -0.0023826244624061371 0.021632416920274539 0 -0.0023869431995522613 0.021886000941402167 0 -0.0025725839973632578 0.021720106816004201 0 -0.0017299956770790927 0.033798024089939489 0 -0.0019718475230856279 0.0339792423171539 0 -0.0016843045793107634 0.034074841281482193 0 -0.0014326016572085004 0.033879889851893573 0 -0.0017299956770790927 0.033798024089939489 0 -0.0016843045793107634 0.034074841281482193 0 -0.0014326016572085004 0.033879889851893573 0 -0.0015368438065162338 0.033611582008514607 0 -0.0011708000225747297 0.0336381941799406 0 -0.0015368438065162338 0.033611582008514607 0 -0.0017299956770790927 0.033798024089939489 0 -0.0018482991698132393 0.033595882974240834 0 -0.0014326016572085004 0.033879889851893573 0 -0.0015368438065162338 0.033611582008514607 0 -0.0017299956770790927 0.033798024089939489 0 -0.0020977174245744219 0.033687284234400344 0 -0.0019718475230856279 0.0339792423171539 0 -0.0027582370892848132 0.03359409045496365 0 -0.0017299956770790927 0.033798024089939489 0 -0.0018482991698132393 0.033595882974240834 0 -0.0020977174245744219 0.033687284234400344 0 -0.0022545883808620707 0.034032877261012062 0 -0.0019718475230856279 0.0339792423171539 0 -0.0029650906424620242 0.033168988419421827 0 -0.0021076982979881813 0.034579134004048974 0 -0.0020749760170080444 0.030957869953492693 0 -0.0017299956770790927 0.033798024089939489 0 -0.0020977174245744219 0.033687284234400344 0 -0.0019718475230856279 0.0339792423171539 0 -0.0022545883808620707 0.034032877261012062 0 -0.0019718475230856279 0.0339792423171539 0 -0.001598907431386992 0.034693160691771079 0 -0.0011160834452746328 0.027434534494374413 0 -0.00087380836553030178 0.02711767269541868 0 -0.0003981826585403431 0.027623318262845378 0 -0.0017162981483488935 0.030326595021513969 0 -0.00061972003507097166 0.031651668665733934 0 -0.0019718475230856279 0.0339792423171539 0 -0.001598907431386992 0.034693160691771079 0 -0.0016843045793107634 0.034074841281482193 0 -0.0014326016572085004 0.033879889851893573 0 -0.001598907431386992 0.034693160691771079 0 -0.0016843045793107634 0.034074841281482193 0 -0.0014326016572085004 0.033879889851893573 0 -0.001598907431386992 0.034693160691771079 0 -0.0009124474416865705 0.033827196037958369 0 -0.00061972003507097166 0.031651668665733934 0 -0.001157867177955805 0.034574286354538061 0 -0.00061972003507097166 0.031651668665733934 0 -0.00019317510458804368 0.032622333520455085 0 2.1606171956105387e-05 0.03301543828287392 0 -0.0005748829322661114 0.0321778967608174 0 -0.0007776803802177285 0.033301619569298516 0 0.00015026129263096227 0.032896756318527898 0 0.00022004715271785774 0.031850171736054742 0 -0.0005748829322661114 0.0321778967608174 0 0.00015026129263096227 0.032896756318527898 0 0.0011422280844610852 0.031688942475763635 0 0.00022004715271785774 0.031850171736054742 0 -0.0011160834452746328 0.027434534494374413 0 -0.0003981826585403431 0.027623318262845378 0 -0.00091943100987830657 0.028238917007010193 0 -0.00061972003507097166 0.031651668665733934 0 0.0002707397382039745 0.028845804656247701 0 0.00048122618924819547 0.031026081822463553 0 0.0011422280844610852 0.031688942475763635 0 0.00022004715271785774 0.031850171736054742 0 0.0011702732646351034 0.03166782702805155 0 0.0002707397382039745 0.028845804656247701 0 0.00022004715271785774 0.031850171736054742 0 -0.00011292594672991483 0.031400632800548486 0 -0.0005748829322661114 0.0321778967608174 0 0.00048122618924819547 0.031026081822463553 0 0.00022004715271785774 0.031850171736054742 0 -0.00011292594672991483 0.031400632800548486 0 -0.0014031296959939317 0.031472910703192795 0 -0.0005748829322661114 0.0321778967608174 0 -0.00071233805882910779 0.031052345189881026 0 -0.00011292594672991483 0.031400632800548486 0 -0.0005748829322661114 0.0321778967608174 0 -0.00071233805882910779 0.031052345189881026 0 -0.0014031296959939317 0.031472910703192795 0 -0.0013218413463081048 0.032267014876981019 0 -0.0005748829322661114 0.0321778967608174 0 -0.0014031296959939317 0.031472910703192795 0 -0.0020031685110657067 0.03220948808886924 0 -0.0020556444937884629 0.031402162555470625 0 -0.0014031296959939317 0.031472910703192795 0 -0.0013218413463081048 0.032267014876981019 0 -0.0020031685110657067 0.03220948808886924 0 -0.0013218413463081048 0.032267014876981019 0 -0.0010636248742173914 0.032676119681060371 0 -0.0015552646825661423 0.032859424840237017 0 -0.0013218413463081048 0.032267014876981019 0 -0.0015552646825661423 0.032859424840237017 0 -0.0020031685110657067 0.03220948808886924 0 -0.0015552646825661423 0.032859424840237017 0 -0.0020023719136368213 0.032916193987543016 0 -0.0020031685110657067 0.03220948808886924 0 -0.0005748829322661114 0.0321778967608174 0 -0.0010636248742173914 0.032676119681060371 0 -0.0007776803802177285 0.033301619569298516 0 -0.0013218413463081048 0.032267014876981019 0 -0.0005748829322661114 0.0321778967608174 0 -0.0010636248742173914 0.032676119681060371 0 2.1606171956105387e-05 0.03301543828287392 0 -0.0007776803802177285 0.033301619569298516 0 -0.0009124474416865705 0.033827196037958369 0 -0.0010636248742173914 0.032676119681060371 0 -0.0007776803802177285 0.033301619569298516 0 -0.0015552646825661423 0.032859424840237017 0 -0.0007776803802177285 0.033301619569298516 0 -0.00081089594869622895 0.033770859148242828 0 -0.0009124474416865705 0.033827196037958369 0 -0.0007776803802177285 0.033301619569298516 0 -0.00081089594869622895 0.033770859148242828 0 -0.00068741693582615251 0.033929311909965107 0 -0.0007776803802177285 0.033301619569298516 0 -0.0015552646825661423 0.032859424840237017 0 -0.0021087341154932809 0.033334881172012894 0 -0.00076273412772585587 0.0333228684002475 0 -0.0013511748935441839 0.03361192691860878 0 -0.0015552646825661423 0.032859424840237017 0 -0.0021087341154932809 0.033334881172012894 0 -0.0020023719136368213 0.032916193987543016 0 -0.00070478986926625559 0.033771524015203294 0 -0.00058718365210616282 0.033735915289894648 0 -0.00068741693582615251 0.033929311909965107 0 -0.00081089594869622895 0.033770859148242828 0 -0.00070478986926625559 0.033771524015203294 0 -0.00068741693582615251 0.033929311909965107 0 -0.00081089594869622895 0.033770859148242828 0 -0.00070478986926625559 0.033771524015203294 0 -0.00071926761658430347 0.03364622985461839 0 -0.00070478986926625559 0.033771524015203294 0 -0.00071926761658430347 0.03364622985461839 0 -0.00058718365210616282 0.033735915289894648 0 -0.00081089594869622895 0.033770859148242828 0 -0.00071926761658430347 0.03364622985461839 0 -0.00091220575254950679 0.03364159554912291 0 -0.00091220575254950679 0.03364159554912291 0 -0.0011708000225747297 0.0336381941799406 0 -0.0009124474416865705 0.033827196037958369 0 -0.0014326016572085004 0.033879889851893573 0 -0.0011708000225747297 0.0336381941799406 0 -0.0009124474416865705 0.033827196037958369 0 -0.00081089594869622895 0.033770859148242828 0 -0.00091220575254950679 0.03364159554912291 0 -0.0009124474416865705 0.033827196037958369 0 -0.0023910493173219748 0.033359355372711737 0 -0.0029397375476633587 0.033440632730431276 0 0.00016439755881798648 0.033880284992599617 0 -3.2303606131118332e-05 0.033666198769845432 0 -0.00030853256845351558 0.033722837938554927 0 -0.0026132429862110234 0.033466568113415252 0 -0.002314820162622553 0.03334483280495585 0 -0.0026310129607708095 0.033452745669951073 0 0.00016439755881798648 0.033880284992599617 0 0.00013092063742771039 0.033693052777794268 0 0.00028437910029082862 0.033627589085678547 0 0.00016439755881798648 0.033880284992599617 0 0.00013092063742771039 0.033693052777794268 0 -3.2303606131118332e-05 0.033666198769845432 0 -3.2303606131118332e-05 0.033666198769845432 0 -0.00030853256845351558 0.033722837938554927 0 -0.0002007235440666899 0.03350626862106923 0 -0.0012121930779393319 0.033658831879757115 0 -0.0013511748935441839 0.03361192691860878 0 0.00016439755881798648 0.033880284992599617 0 -0.00030853256845351558 0.033722837938554927 0 -0.00068741693582615251 0.033929311909965107 0 -0.0026132429862110234 0.033466568113415252 0 -0.002314820162622553 0.03334483280495585 0 -0.0021087341154932809 0.033334881172012894 0 -0.00071926761658430347 0.03364622985461839 0 -0.00058718365210616282 0.033735915289894648 0 -0.00047447953944401553 0.033564440502315315 0 -0.00030853256845351558 0.033722837938554927 0 -0.00058718365210616282 0.033735915289894648 0 -0.00047447953944401553 0.033564440502315315 0 -0.00030853256845351558 0.033722837938554927 0 -0.00058718365210616282 0.033735915289894648 0 -0.00068741693582615251 0.033929311909965107 0 -0.002314820162622553 0.03334483280495585 0 -0.0022601128123386372 0.033052735705744025 0 -0.0026513656800989747 0.032853513269643336 0 -0.002314820162622553 0.03334483280495585 0 -0.0021087341154932809 0.033334881172012894 0 -0.0022601128123386372 0.033052735705744025 0 -0.0021087341154932809 0.033334881172012894 0 -0.0022601128123386372 0.033052735705744025 0 -0.0020023719136368213 0.032916193987543016 0 -0.0022601128123386372 0.033052735705744025 0 -0.0020023719136368213 0.032916193987543016 0 -0.002287909752379671 0.032715995113098924 0 -0.0022601128123386372 0.033052735705744025 0 -0.0026513656800989747 0.032853513269643336 0 -0.002287909752379671 0.032715995113098924 0 -0.002314820162622553 0.03334483280495585 0 -0.0029806778321907275 0.033092535017063898 0 -0.0034291875298976524 0.033458032119015393 0 -0.0026513656800989747 0.032853513269643336 0 -0.0030349894473456437 0.032835614430490281 0 -0.0030407350724114606 0.032518436501981385 0 -0.0026513656800989747 0.032853513269643336 0 -0.0029806778321907275 0.033092535017063898 0 -0.0030349894473456437 0.032835614430490281 0 -0.002314820162622553 0.03334483280495585 0 -0.0026513656800989747 0.032853513269643336 0 -0.0029806778321907275 0.033092535017063898 0 -0.0030349894473456437 0.032835614430490281 0 -0.0030407350724114606 0.032518436501981385 0 -0.0034700078069186181 0.032877923103718044 0 -0.0029806778321907275 0.033092535017063898 0 -0.0030349894473456437 0.032835614430490281 0 -0.0034700078069186181 0.032877923103718044 0 -0.0026513656800989747 0.032853513269643336 0 -0.0030407350724114606 0.032518436501981385 0 -0.002615796899698891 0.032338192661041792 0 -0.0030407350724114606 0.032518436501981385 0 -0.0031571602525139516 0.032049607031857982 0 -0.002615796899698891 0.032338192661041792 0 -0.0031571602525139516 0.032049607031857982 0 -0.002615796899698891 0.032338192661041792 0 -0.002595069405125312 0.031714283116680148 0 -0.0030407350724114606 0.032518436501981385 0 -0.0031571602525139516 0.032049607031857982 0 -0.0035895188120273324 0.032380355472275656 0 -0.0020023719136368213 0.032916193987543016 0 -0.002287909752379671 0.032715995113098924 0 -0.0020031685110657067 0.03220948808886924 0 -0.002287909752379671 0.032715995113098924 0 -0.002615796899698891 0.032338192661041792 0 -0.0020031685110657067 0.03220948808886924 0 -0.0026513656800989747 0.032853513269643336 0 -0.002287909752379671 0.032715995113098924 0 -0.002615796899698891 0.032338192661041792 0 -0.002615796899698891 0.032338192661041792 0 -0.0020031685110657067 0.03220948808886924 0 -0.002595069405125312 0.031714283116680148 0 -0.002595069405125312 0.031714283116680148 0 -0.0020556444937884629 0.031402162555470625 0 -0.0025002673354965629 0.030827349578309595 0 -0.0020031685110657067 0.03220948808886924 0 -0.002595069405125312 0.031714283116680148 0 -0.0020556444937884629 0.031402162555470625 0 -0.002595069405125312 0.031714283116680148 0 -0.0031555973622350167 0.031432907709824959 0 -0.0025002673354965629 0.030827349578309595 0 -0.0031571602525139516 0.032049607031857982 0 -0.0031555973622350167 0.031432907709824959 0 -0.0035874506475286425 0.031788994859523551 0 -0.0031571602525139516 0.032049607031857982 0 -0.002595069405125312 0.031714283116680148 0 -0.0031555973622350167 0.031432907709824959 0 -0.0031555973622350167 0.031432907709824959 0 -0.0032673209272046522 0.030918097672238066 0 -0.0025002673354965629 0.030827349578309595 0 -0.0032673209272046522 0.030918097672238066 0 -0.0029472377851720117 0.030315257169006727 0 -0.0025002673354965629 0.030827349578309595 0 -0.0032673209272046522 0.030918097672238066 0 -0.0029472377851720117 0.030315257169006727 0 -0.0034568713452532429 0.030220545388119902 0 -0.0029472377851720117 0.030315257169006727 0 -0.0032282410164313439 0.029617204162433425 0 -0.0034568713452532429 0.030220545388119902 0 -0.0029472377851720117 0.030315257169006727 0 -0.0024607204809470691 0.029919088042333303 0 -0.0032282410164313439 0.029617204162433425 0 -0.0024607204809470691 0.029919088042333303 0 -0.0025002673354965629 0.030827349578309595 0 -0.0019202392901982905 0.030115417968572682 0 -0.0029472377851720117 0.030315257169006727 0 -0.0024607204809470691 0.029919088042333303 0 -0.0025002673354965629 0.030827349578309595 0 -0.0024607204809470691 0.029919088042333303 0 -0.0019202392901982905 0.030115417968572682 0 -0.0020817240298304437 0.029544775207689718 0 -0.0025002673354965629 0.030827349578309595 0 -0.0015998197448063639 0.030666246209723021 0 -0.0019202392901982905 0.030115417968572682 0 -0.0020556444937884629 0.031402162555470625 0 -0.0025002673354965629 0.030827349578309595 0 -0.0015998197448063639 0.030666246209723021 0 -0.0014031296959939317 0.031472910703192795 0 -0.0020556444937884629 0.031402162555470625 0 -0.0015998197448063639 0.030666246209723021 0 -0.0014031296959939317 0.031472910703192795 0 -0.0015998197448063639 0.030666246209723021 0 -0.00071233805882910779 0.031052345189881026 0 -0.0015998197448063639 0.030666246209723021 0 -0.00071233805882910779 0.031052345189881026 0 -0.00087063486057155034 0.03025571755200613 0 -1.6002015026596907e-05 0.030432695154485753 0 -0.00071233805882910779 0.031052345189881026 0 -0.00087063486057155034 0.03025571755200613 0 -0.00030882217115310215 0.029581172609719993 0 -1.6002015026596907e-05 0.030432695154485753 0 -0.00087063486057155034 0.03025571755200613 0 -0.00030882217115310215 0.029581172609719993 0 -0.00087063486057155034 0.03025571755200613 0 -0.0014391752592478918 0.029665215325830434 0 -0.0015998197448063639 0.030666246209723021 0 -0.00087063486057155034 0.03025571755200613 0 -0.0014391752592478918 0.029665215325830434 0 -0.0015998197448063639 0.030666246209723021 0 -0.0019202392901982905 0.030115417968572682 0 -0.0014391752592478918 0.029665215325830434 0 -0.0019202392901982905 0.030115417968572682 0 -0.0014391752592478918 0.029665215325830434 0 -0.0020817240298304437 0.029544775207689718 0 -0.0014391752592478918 0.029665215325830434 0 -0.00094252384643438733 0.028853133244755826 0 -0.0019777360475033011 0.028850783415122497 0 -0.0014391752592478918 0.029665215325830434 0 -0.0020817240298304437 0.029544775207689718 0 -0.0019777360475033011 0.028850783415122497 0 -6.2260686842132164e-05 0.028704731760382737 0 -0.00030882217115310215 0.029581172609719993 0 -0.00094252384643438733 0.028853133244755826 0 -0.00030882217115310215 0.029581172609719993 0 -0.0014391752592478918 0.029665215325830434 0 -0.00094252384643438733 0.028853133244755826 0 -0.00094252384643438733 0.028853133244755826 0 -0.0005744857613367892 0.027883601775083183 0 -0.0013693583057636292 0.028323286346954059 0 -6.2260686842132164e-05 0.028704731760382737 0 -0.00094252384643438733 0.028853133244755826 0 -0.0005744857613367892 0.027883601775083183 0 -0.0012684077195006726 0.027700181048479166 0 -0.0005744857613367892 0.027883601775083183 0 -0.0013693583057636292 0.028323286346954059 0 -0.00094252384643438733 0.028853133244755826 0 -0.0013693583057636292 0.028323286346954059 0 -0.0019777360475033011 0.028850783415122497 0 -0.0013693583057636292 0.028323286346954059 0 -0.0019521651124570956 0.028105758416475571 0 -0.0019777360475033011 0.028850783415122497 0 -0.0012684077195006726 0.027700181048479166 0 -0.0013693583057636292 0.028323286346954059 0 -0.0019521651124570956 0.028105758416475571 0 -0.0023603398136149362 0.027371945306777116 0 -0.0019521651124570956 0.028105758416475571 0 -0.0027673365460003582 0.028264188104071202 0 -0.0019521651124570956 0.028105758416475571 0 -0.0027673365460003582 0.028264188104071202 0 -0.0019777360475033011 0.028850783415122497 0 -0.0027839407661997642 0.028339324023137158 0 -0.0020266327383276681 0.02883647955185285 0 -0.0025748383912843203 0.028553383770652769 0 -0.0032672770182099273 0.028872207292707387 0 -0.0025999744944507877 0.029190840154403798 0 -0.0031538827913337548 0.028178158286297588 0 -0.0025748383912843203 0.028553383770652769 0 -0.0032672770182099273 0.028872207292707387 0 -0.0029506828765314044 0.029041689853179863 0 -0.0027839407661997642 0.028339324023137158 0 -0.0024607204809470691 0.029919088042333303 0 -0.0032282410164313439 0.029617204162433425 0 -0.0025999744944507877 0.029190840154403798 0 -0.0032672770182099273 0.028872207292707387 0 -0.0032282410164313439 0.029617204162433425 0 -0.0025999744944507877 0.029190840154403798 0 -0.0024607204809470691 0.029919088042333303 0 -0.0020817240298304437 0.029544775207689718 0 -0.0025999744944507877 0.029190840154403798 0 -0.0020817240298304437 0.029544775207689718 0 -0.0019777360475033011 0.028850783415122497 0 -0.0025999744944507877 0.029190840154403798 0 -0.0025748383912843203 0.028553383770652769 0 -0.0019777360475033011 0.028850783415122497 0 -0.0025999744944507877 0.029190840154403798 0 -0.0046742418347874163 0.029219704606973994 0 -0.0044717928016168489 0.029393643831430762 0 -0.003961228348692912 0.029224968673940834 0 -0.0046742418347874163 0.029219704606973994 0 -0.0044717928016168489 0.029393643831430762 0 -0.0047648837132201029 0.029679564773110952 0 -0.0044717928016168489 0.029393643831430762 0 -0.003961228348692912 0.029224968673940834 0 -0.0039588586070263259 0.029832772275574609 0 -0.0032282410164313439 0.029617204162433425 0 -0.003961228348692912 0.029224968673940834 0 -0.0039588586070263259 0.029832772275574609 0 -0.0032672770182099273 0.028872207292707387 0 -0.0032282410164313439 0.029617204162433425 0 -0.003961228348692912 0.029224968673940834 0 -0.0032672770182099273 0.028872207292707387 0 -0.003961228348692912 0.029224968673940834 0 -0.0040877765958536594 0.028493492261623461 0 -0.0029506828765314044 0.029041689853179863 0 -0.0020559905926639003 0.031683565361675582 0 -0.0031538827913337548 0.028178158286297588 0 -0.0032672770182099273 0.028872207292707387 0 -0.0040877765958536594 0.028493492261623461 0 -0.0046742418347874163 0.029219704606973994 0 -0.003961228348692912 0.029224968673940834 0 -0.0040877765958536594 0.028493492261623461 0 -0.0027359885598058306 0.030971119723152932 0 -0.0020559905926639003 0.031683565361675582 0 -0.00060666137980698977 0.033658532877165311 0 -0.00099188042353155325 0.033480694555380275 0 -0.0002649582009978505 0.033263191688845034 0 -0.0020559905926639003 0.031683565361675582 0 -4.0195895449555417e-05 0.033559605560108278 0 -0.00058475203171510495 0.032923413078701398 0 -0.0011092787596145269 0.033482713424806652 0 -0.0002649582009978505 0.033263191688845034 0 -0.00060666137980698977 0.033658532877165311 0 -0.00031865744485957785 0.033632398330283704 0 -0.0002649582009978505 0.033263191688845034 0 -3.3422419102110146e-05 0.033682776002466469 0 -0.00031865744485957785 0.033632398330283704 0 -0.0002649582009978505 0.033263191688845034 0 -3.3422419102110146e-05 0.033682776002466469 0 -0.0002649582009978505 0.033263191688845034 0 0.00027931273692153653 0.033270881461119103 0 -0.0002649582009978505 0.033263191688845034 0 0.00027931273692153653 0.033270881461119103 0 -8.0222381530351656e-05 0.03287217741927316 0 0.00029720110480585581 0.034005476389985287 0 -3.3422419102110146e-05 0.033682776002466469 0 0.00027931273692153653 0.033270881461119103 0 0.00028288347286304559 0.034707649236900021 0 0.00024435847590690109 0.034767502033424651 0 0.00022320004774058327 0.034672014804267404 0 0.00025982988147126219 0.034597665160991102 0 0.00028288347286304559 0.034707649236900021 0 0.00022320004774058327 0.034672014804267404 0 0.00026711392020596755 0.034319989560202713 0 0.00029058825892139462 0.033942745894065741 0 0.00028288347286304559 0.034707649236900021 0 0.00024435847590690109 0.034767502033424651 0 0.00028759370233864302 0.034827864940293038 0 0.00027931273692153653 0.033270881461119103 0 -8.0222381530351656e-05 0.03287217741927316 0 0.0002490375363854923 0.032526840262001762 0 0.00029058825892139462 0.033942745894065741 0 7.0109532015698859e-05 0.033911740948849391 0 -8.0222381530351656e-05 0.03287217741927316 0 -9.0195509480270255e-05 0.032376860934409189 0 0.0002490375363854923 0.032526840262001762 0 -0.0046742418347874163 0.029219704606973994 0 -0.0047648837132201029 0.029679564773110952 0 -0.0051660993208833576 0.029875568659065439 0 -0.00058475203171510495 0.032923413078701398 0 -8.0222381530351656e-05 0.03287217741927316 0 -9.0195509480270255e-05 0.032376860934409189 0 -0.0027359885598058306 0.030971119723152932 0 -0.0013113176286068185 0.032066737000733439 0 -0.00058475203171510495 0.032923413078701398 0 -0.0002649582009978505 0.033263191688845034 0 -8.0222381530351656e-05 0.03287217741927316 0 -0.00034459538429194452 0.033604030742833621 0 -0.00029767254176251258 0.033843531591646971 0 -0.00015510821277146597 0.033686181052085692 0 -0.0047648837132201029 0.029679564773110952 0 -0.0051660993208833576 0.029875568659065439 0 -0.0046155152996217828 0.030112802210944922 0 -0.00034459538429194452 0.033604030742833621 0 -0.00045940039382508664 0.033757361805380269 0 -0.00029767254176251258 0.033843531591646971 0 -0.0013113176286068185 0.032066737000733439 0 -0.0035962168767824827 0.031412895375568801 0 0.00024225867431411596 0.034835604159588938 0 0.00023905670547245045 0.034902977905429976 0 0.0001636119457072873 0.034891686804447541 0 -0.0013113176286068185 0.032066737000733439 0 7.0109532015698859e-05 0.033911740948849391 0 -0.00036898492143157106 0.03334986466874925 0 -0.00057840079911522188 0.033261624510171402 0 -0.00056917602508399761 0.033586364628911916 0 -0.0013113176286068185 0.032066737000733439 0 -0.00031262037402944728 0.034338897842121692 0 7.0109532015698859e-05 0.033911740948849391 0 -0.00031262037402944728 0.034338897842121692 0 -0.00031262037402944728 0.034338897842121692 0 0.00013551839740730121 0.034963689711917836 0 -0.00019132584327506162 0.03503762404541718 0 -0.00020454332477187816 0.034709585542216689 0 7.4597520453311705e-05 0.0347501168887163 0 -0.00045940039382508664 0.033757361805380269 0 -0.00029767254176251258 0.033843531591646971 0 -0.00039958594065562581 0.034094217598501383 0 -0.00031262037402944728 0.034338897842121692 0 -0.00029926624957998745 0.034404763674416562 0 -0.0035962168767824827 0.031412895375568801 0 -0.0023944877777983507 0.032871831643251095 0 -0.00029767254176251258 0.033843531591646971 0 -0.00015510821277146597 0.033686181052085692 0 -0.00021858127590857252 0.034045718445066479 0 -0.004276533807305331 0.031104891085745448 0 -0.0045848428489014131 0.030442708313335454 0 -0.0048503924659204119 0.03150396942236381 0 -0.004276533807305331 0.031104891085745448 0 -0.0045848428489014131 0.030442708313335454 0 -0.0039270915578302678 0.030717644957239942 0 -0.0046930591601739655 0.030185545960822711 0 -0.0039588586070263259 0.029832772275574609 0 -0.0040084700473795387 0.0305102546776851 0 -0.0035962168767824827 0.031412895375568801 0 -0.0041720963896783583 0.030523247727207391 0 -0.0044717928016168489 0.029393643831430762 0 -0.0046930591601739655 0.030185545960822711 0 -0.0039588586070263259 0.029832772275574609 0 -0.0044533670448110635 0.029136094741351346 0 -0.0035962168767824827 0.031412895375568801 0 -0.0044717928016168489 0.029393643831430762 0 -0.0047648837132201029 0.029679564773110952 0 -0.0046155152996217828 0.030112802210944922 0 -0.0032282410164313439 0.029617204162433425 0 -0.0039588586070263259 0.029832772275574609 0 -0.0034568713452532429 0.030220545388119902 0 -0.0039588586070263259 0.029832772275574609 0 -0.0034568713452532429 0.030220545388119902 0 -0.0040084700473795387 0.0305102546776851 0 -0.0032673209272046522 0.030918097672238066 0 -0.0039270915578302678 0.030717644957239942 0 -0.0037559557271534785 0.031263008974809839 0 -0.0032613633845567295 0.030919848940690799 0 -0.0041720963896783583 0.030523247727207391 0 -0.0032673209272046522 0.030918097672238066 0 -0.0034568713452532429 0.030220545388119902 0 -0.0040084700473795387 0.0305102546776851 0 -0.004276533807305331 0.031104891085745448 0 -0.0039270915578302678 0.030717644957239942 0 -0.0037559557271534785 0.031263008974809839 0 -0.0031555973622350167 0.031432907709824959 0 -0.0032673209272046522 0.030918097672238066 0 -0.0037559557271534785 0.031263008974809839 0 -0.0031555973622350167 0.031432907709824959 0 -0.0037559557271534785 0.031263008974809839 0 -0.0035874506475286425 0.031788994859523551 0 -0.0037559557271534785 0.031263008974809839 0 -0.0035874506475286425 0.031788994859523551 0 -0.0042175041045500773 0.03162613637051296 0 -0.0035874506475286425 0.031788994859523551 0 -0.0042175041045500773 0.03162613637051296 0 -0.0040868629247396496 0.032143420175775379 0 -0.004276533807305331 0.031104891085745448 0 -0.0042175041045500773 0.03162613637051296 0 -0.0048503924659204119 0.03150396942236381 0 -0.004276533807305331 0.031104891085745448 0 -0.0037559557271534785 0.031263008974809839 0 -0.0042175041045500773 0.03162613637051296 0 -0.0042175041045500773 0.03162613637051296 0 -0.0040868629247396496 0.032143420175775379 0 -0.0046636233981566192 0.032130642585006523 0 -0.0042175041045500773 0.03162613637051296 0 -0.0046636233981566192 0.032130642585006523 0 -0.0048503924659204119 0.03150396942236381 0 -0.0040868629247396496 0.032143420175775379 0 -0.004388294574080541 0.032484853096978475 0 -0.0046636233981566192 0.032130642585006523 0 -0.0040437171640191017 0.032522798681011891 0 -0.004388294574080541 0.032484853096978475 0 -0.0041695912226581621 0.032850589008833871 0 -0.0040868629247396496 0.032143420175775379 0 -0.0040437171640191017 0.032522798681011891 0 -0.004388294574080541 0.032484853096978475 0 -0.004388294574080541 0.032484853096978475 0 -0.0045352391274674003 0.032857569811196662 0 -0.004692660640747197 0.032597351125257551 0 -0.004388294574080541 0.032484853096978475 0 -0.004692660640747197 0.032597351125257551 0 -0.0046636233981566192 0.032130642585006523 0 -0.0031571602525139516 0.032049607031857982 0 -0.0035874506475286425 0.031788994859523551 0 -0.0035895188120273324 0.032380355472275656 0 -0.0035874506475286425 0.031788994859523551 0 -0.0040868629247396496 0.032143420175775379 0 -0.0035895188120273324 0.032380355472275656 0 -0.0040868629247396496 0.032143420175775379 0 -0.0040437171640191017 0.032522798681011891 0 -0.0035895188120273324 0.032380355472275656 0 -0.0040437171640191017 0.032522798681011891 0 -0.0035895188120273324 0.032380355472275656 0 -0.0038306635711705824 0.032775762935692655 0 -0.0030407350724114606 0.032518436501981385 0 -0.0035895188120273324 0.032380355472275656 0 -0.0034700078069186181 0.032877923103718044 0 -0.0035895188120273324 0.032380355472275656 0 -0.0034700078069186181 0.032877923103718044 0 -0.0038306635711705824 0.032775762935692655 0 -0.0029806778321907275 0.033092535017063898 0 -0.0034700078069186181 0.032877923103718044 0 -0.0034291875298976524 0.033458032119015393 0 -0.0034700078069186181 0.032877923103718044 0 -0.0039061012245510092 0.033080195152338204 0 -0.0034291875298976524 0.033458032119015393 0 -0.0039061012245510092 0.033080195152338204 0 -0.0040246112296865285 0.033296137692765425 0 -0.0034291875298976524 0.033458032119015393 0 -0.0034700078069186181 0.032877923103718044 0 -0.0039061012245510092 0.033080195152338204 0 -0.0038306635711705824 0.032775762935692655 0 -0.0039061012245510092 0.033080195152338204 0 -0.0038306635711705824 0.032775762935692655 0 -0.0041695912226581621 0.032850589008833871 0 -0.0040437171640191017 0.032522798681011891 0 -0.0038306635711705824 0.032775762935692655 0 -0.0041695912226581621 0.032850589008833871 0 -0.0041695912226581621 0.032850589008833871 0 -0.0045352391274674003 0.032857569811196662 0 -0.0043626423757985068 0.033131107712588218 0 -0.004388294574080541 0.032484853096978475 0 -0.0041695912226581621 0.032850589008833871 0 -0.0045352391274674003 0.032857569811196662 0 -0.0043626423757985068 0.033131107712588218 0 -0.0043937979022207292 0.033521318671100128 0 -0.0046521261798606692 0.033267635249608511 0 -0.0045352391274674003 0.032857569811196662 0 -0.0043626423757985068 0.033131107712588218 0 -0.0046521261798606692 0.033267635249608511 0 -0.0039061012245510092 0.033080195152338204 0 -0.0043626423757985068 0.033131107712588218 0 -0.0040246112296865285 0.033296137692765425 0 -0.0039061012245510092 0.033080195152338204 0 -0.0041695912226581621 0.032850589008833871 0 -0.0043626423757985068 0.033131107712588218 0 -0.0043626423757985068 0.033131107712588218 0 -0.0040246112296865285 0.033296137692765425 0 -0.0043937979022207292 0.033521318671100128 0 -0.0024538384379450256 0.033449913461765714 0 -0.0024681559217302183 0.033349027441862626 0 -0.0026310129607708095 0.033452745669951073 0 -0.0024538384379450256 0.033449913461765714 0 -0.0024681559217302183 0.033349027441862626 0 -0.0022725346572848677 0.033383276823085735 0 -0.0040246112296865285 0.033296137692765425 0 -0.0043937979022207292 0.033521318671100128 0 -0.0034291875298976524 0.033458032119015393 0 -0.0012121930779393319 0.033658831879757115 0 -0.000931130572006731 0.033502219258008122 0 0.00016439755881798648 0.033880284992599617 0 0.0007438084582974435 0.033635678095848907 0 0.00050080918531511098 0.033579959822642419 0 -0.0037155206037640335 0.033504380294984835 0 -0.0029397375476633587 0.033440632730431276 0 -0.0026132429862110234 0.033466568113415252 0 -0.0024681559217302183 0.033349027441862626 0 -0.0026310129607708095 0.033452745669951073 0 0.00016439755881798648 0.033880284992599617 0 0.00028437910029082862 0.033627589085678547 0 0.00050080918531511098 0.033579959822642419 0 -0.00028870829551883151 0.034071817245044073 0 -0.00019501005383884472 0.034118544778048307 0 -0.00019169990700443045 0.034027547970661098 0 -0.00028870829551883151 0.034071817245044073 0 -0.00019501005383884472 0.034118544778048307 0 -0.00021151198149476236 0.034212913753411497 0 -0.00019501005383884472 0.034118544778048307 0 -0.00019169990700443045 0.034027547970661098 0 -6.0323658793537516e-05 0.034166074812046379 0 -0.00019169990700443045 0.034027547970661098 0 1.3338951296208145e-05 0.03400492190667307 0 -6.0323658793537516e-05 0.034166074812046379 0 -0.00017781531310862551 0.033882121650029906 0 -0.00019169990700443045 0.034027547970661098 0 1.3338951296208145e-05 0.03400492190667307 0 -0.0022482416665726263 0.033622184232165876 0 -0.00039815627086471584 0.033684407073586005 0 -0.00039050866695581699 0.034051835926882455 0 -0.00017781531310862551 0.033882121650029906 0 -0.00032196611489846669 0.033724777392593025 0 -0.0022482416665726263 0.033622184232165876 0 -0.00024607728193015292 0.033321947250281848 0 -0.00039050866695581699 0.034051835926882455 0 -0.00017781531310862551 0.033882121650029906 0 -0.00019169990700443045 0.034027547970661098 0 -0.0020714131311136172 0.033436286621154672 0 -0.0022725346572848677 0.033383276823085735 0 -0.0020035102545415623 0.033191038279236702 0 -0.0037155206037640335 0.033504380294984835 0 -0.0022482416665726263 0.033622184232165876 0 -0.0043937979022207292 0.033521318671100128 0 -0.0052932295510639774 0.033631215543782303 0 -0.0046521261798606692 0.033267635249608511 0 -0.0052932295510639774 0.033631215543782303 0 -0.0049247938155549112 0.033160881654065451 0 -0.0046521261798606692 0.033267635249608511 0 -0.0024681559217302183 0.033349027441862626 0 -0.0022725346572848677 0.033383276823085735 0 -0.0020035102545415623 0.033191038279236702 0 -0.0024538384379450256 0.033449913461765714 0 -0.0020714131311136172 0.033436286621154672 0 -0.0022725346572848677 0.033383276823085735 0 -0.0052932295510639774 0.033631215543782303 0 -0.0049247938155549112 0.033160881654065451 0 -0.0050855518526696231 0.032604988969461388 0 -0.0022482416665726263 0.033622184232165876 0 -0.0027599710393296432 0.03349747297286565 0 -0.0045352391274674003 0.032857569811196662 0 -0.0046521261798606692 0.033267635249608511 0 -0.0047887401069217654 0.032899455430742471 0 -0.0049247938155549112 0.033160881654065451 0 -0.0046521261798606692 0.033267635249608511 0 -0.0047887401069217654 0.032899455430742471 0 -0.0047887401069217654 0.032899455430742471 0 -0.004692660640747197 0.032597351125257551 0 -0.0050855518526696231 0.032604988969461388 0 -0.0049247938155549112 0.033160881654065451 0 -0.0047887401069217654 0.032899455430742471 0 -0.0050855518526696231 0.032604988969461388 0 -0.0045352391274674003 0.032857569811196662 0 -0.0047887401069217654 0.032899455430742471 0 -0.004692660640747197 0.032597351125257551 0 -0.00028870829551883151 0.034071817245044073 0 -0.00021151198149476236 0.034212913753411497 0 -0.00026672513193896837 0.034332477926467521 0 -0.00021151198149476236 0.034212913753411497 0 -0.00025330718831834983 0.034332049161263985 0 -0.00026672513193896837 0.034332477926467521 0 -0.00019501005383884472 0.034118544778048307 0 -0.00021151198149476236 0.034212913753411497 0 -6.0323658793537516e-05 0.034166074812046379 0 -0.00021151198149476236 0.034212913753411497 0 -4.4650924680293375e-05 0.034323673938538087 0 -6.0323658793537516e-05 0.034166074812046379 0 -0.00021151198149476236 0.034212913753411497 0 -0.00025330718831834983 0.034332049161263985 0 -4.4650924680293375e-05 0.034323673938538087 0 -9.1081786321537482e-05 0.034427630762991136 0 -0.00025330718831834983 0.034332049161263985 0 -4.4650924680293375e-05 0.034323673938538087 0 -0.00025330718831834983 0.034332049161263985 0 -0.00026672513193896837 0.034332477926467521 0 -0.00039958594065562581 0.034094217598501383 0 -0.00025330718831834983 0.034332049161263985 0 -9.5087379360752101e-05 0.034562410969225729 0 -0.00020454332477187816 0.034709585542216689 0 -9.1081786321537482e-05 0.034427630762991136 0 -0.00025330718831834983 0.034332049161263985 0 -9.5087379360752101e-05 0.034562410969225729 0 -0.00026505497915282753 0.034322513673804331 0 -0.00029926624957998745 0.034404763674416562 0 -0.0050855518526696231 0.032604988969461388 0 -0.0046636233981566192 0.032130642585006523 0 -0.0048503924659204119 0.03150396942236381 0 -0.0027599710393296432 0.03349747297286565 0 -0.0023944877777983507 0.032871831643251095 0 -0.004692660640747197 0.032597351125257551 0 -0.0050855518526696231 0.032604988969461388 0 -0.0046636233981566192 0.032130642585006523 0 -0.00029767254176251258 0.033843531591646971 0 -0.00021858127590857252 0.034045718445066479 0 -0.00039958594065562581 0.034094217598501383 0 -0.00026672513193896837 0.034332477926467521 0 -0.00021858127590857252 0.034045718445066479 0 -0.00039958594065562581 0.034094217598501383 0 -9.5087379360752101e-05 0.034562410969225729 0 -0.00020454332477187816 0.034709585542216689 0 7.4597520453311705e-05 0.0347501168887163 0 -9.5087379360752101e-05 0.034562410969225729 0 7.4597520453311705e-05 0.0347501168887163 0 3.0214389428599725e-05 0.034483114469937112 0 0.00013551839740730121 0.034963689711917836 0 0.0001896605999700122 0.034700010480452431 0 0.00014249131822504385 0.03498985474897312 0 7.4868961073468966e-05 0.034989031573730504 0 5.7461830379600378e-05 0.03501943041777536 0 7.4597520453311705e-05 0.0347501168887163 0 0.00033881054226800268 0.034408599593479271 0 3.0214389428599725e-05 0.034483114469937112 0 0.00033881054226800268 0.034408599593479271 0 3.0214389428599725e-05 0.034483114469937112 0 0.00018750413440070333 0.034340800511359793 0 -9.1081786321537482e-05 0.034427630762991136 0 -9.5087379360752101e-05 0.034562410969225729 0 3.0214389428599725e-05 0.034483114469937112 0 3.0214389428599725e-05 0.034483114469937112 0 -4.4650924680293375e-05 0.034323673938538087 0 0.00018750413440070333 0.034340800511359793 0 -9.1081786321537482e-05 0.034427630762991136 0 3.0214389428599725e-05 0.034483114469937112 0 -4.4650924680293375e-05 0.034323673938538087 0 -4.4650924680293375e-05 0.034323673938538087 0 7.9883847652896747e-05 0.034263948373623003 0 0.00018750413440070333 0.034340800511359793 0 -4.4650924680293375e-05 0.034323673938538087 0 7.9883847652896747e-05 0.034263948373623003 0 -6.0323658793537516e-05 0.034166074812046379 0 7.9883847652896747e-05 0.034263948373623003 0 -6.0323658793537516e-05 0.034166074812046379 0 0.00018551540236175551 0.034191122868482922 0 7.9883847652896747e-05 0.034263948373623003 0 0.00018750413440070333 0.034340800511359793 0 0.00018551540236175551 0.034191122868482922 0 0.00033881054226800268 0.034408599593479271 0 0.00018750413440070333 0.034340800511359793 0 0.00039126753849161745 0.034295022209680122 0 0.00018750413440070333 0.034340800511359793 0 0.00039126753849161745 0.034295022209680122 0 0.00018551540236175551 0.034191122868482922 0 0.00039126753849161745 0.034295022209680122 0 0.0002270509927599046 0.033938034117637135 0 0.00018551540236175551 0.034191122868482922 0 0.00039126753849161745 0.034295022209680122 0 0.0002270509927599046 0.033938034117637135 0 0.00053083809481008952 0.033685536309530362 0 0.0002270509927599046 0.033938034117637135 0 1.3338951296208145e-05 0.03400492190667307 0 2.7060672502330975e-05 0.033820369880559094 0 -0.00017781531310862551 0.033882121650029906 0 1.3338951296208145e-05 0.03400492190667307 0 2.7060672502330975e-05 0.033820369880559094 0 1.3338951296208145e-05 0.03400492190667307 0 -6.0323658793537516e-05 0.034166074812046379 0 0.00018551540236175551 0.034191122868482922 0 0.0002270509927599046 0.033938034117637135 0 1.3338951296208145e-05 0.03400492190667307 0 0.00018551540236175551 0.034191122868482922 0 1.349870653082654e-05 0.035009260255454658 0 1.74958595794903e-08 0.035000019657654056 0 -4.6641039888371493e-09 0.035000003351166611 0 0.00022861230674171064 0.034369989810131694 0 0.00029268955640282025 0.034846189831960757 0 -2.4734958245333978e-07 0.03499926518745209 0 0.00013327880005672941 0.034702422016347774 0 4.3627633679608088e-08 0.034999871747647349 0 0.00039367071385159702 0.034304032019682601 0 0.00038391016618784664 0.034273177684205548 0 0.00039126753849161745 0.034295022209680122 0 0.00022861230674171064 0.034369989810131694 0 0.00029268955640282025 0.034846189831960757 0 0.00033881054226800268 0.034408599593479271 0 0.00039126753849161745 0.034295022209680122 0 0.00022861230674171064 0.034369989810131694 0 5.7461830379600378e-05 0.03501943041777536 0 1.349870653082654e-05 0.035009260255454658 0 1.6089677973640229e-05 0.03500676456432867 0 0.0001896605999700122 0.034700010480452431 0 0.00013327880005672941 0.034702422016347774 0 1.349870653082654e-05 0.035009260255454658 0 1.74958595794903e-08 0.035000019657654056 0 1.6089677973640229e-05 0.03500676456432867 0 1.74958595794903e-08 0.035000019657654056 0 1.6089677973640229e-05 0.03500676456432867 0 5.768519295444838e-09 0.035000005393658863 0 5.7461830379600378e-05 0.03501943041777536 0 1.6089677973640229e-05 0.03500676456432867 0 2.4461223231787844e-05 0.034989985121946093 0 7.4868961073468966e-05 0.034989031573730504 0 5.7461830379600378e-05 0.03501943041777536 0 2.4461223231787844e-05 0.034989985121946093 0 2.4461223231787844e-05 0.034989985121946093 0 5.768519295444838e-09 0.035000005393658863 0 -4.1552549866915082e-06 0.034984053478903383 0 1.6089677973640229e-05 0.03500676456432867 0 2.4461223231787844e-05 0.034989985121946093 0 5.768519295444838e-09 0.035000005393658863 0 5.768519295444838e-09 0.035000005393658863 0 -3.0072479217222378e-09 0.034999926147829298 0 -4.1552549866915082e-06 0.034984053478903383 0 -4.1552549866915082e-06 0.034984053478903383 0 2.5462930452790111e-06 0.034999501095682332 0 7.4174797760493897e-06 0.035007135255201813 0 -3.0072479217222378e-09 0.034999926147829298 0 -4.1552549866915082e-06 0.034984053478903383 0 2.5462930452790111e-06 0.034999501095682332 0 -3.0072479217222378e-09 0.034999926147829298 0 2.5462930452790111e-06 0.034999501095682332 0 4.3063339964483391e-09 0.035000032770038353 0 -2.9392273692143614e-06 0.034975861024649557 0 2.1242361644149059e-05 0.034918386782535227 0 -4.1552549866915082e-06 0.034984053478903383 0 3.1200139206058247e-05 0.034947654072047779 0 2.8054220456185262e-05 0.034831861116653554 0 3.1200139206058247e-05 0.034947654072047779 0 8.0143573278356218e-05 0.034941725162966786 0 2.8054220456185262e-05 0.034831861116653554 0 2.4461223231787844e-05 0.034989985121946093 0 -4.1552549866915082e-06 0.034984053478903383 0 3.1200139206058247e-05 0.034947654072047779 0 2.4461223231787844e-05 0.034989985121946093 0 3.1200139206058247e-05 0.034947654072047779 0 8.0143573278356218e-05 0.034941725162966786 0 7.4868961073468966e-05 0.034989031573730504 0 2.4461223231787844e-05 0.034989985121946093 0 8.0143573278356218e-05 0.034941725162966786 0 0.00014249131822504385 0.03498985474897312 0 7.4868961073468966e-05 0.034989031573730504 0 8.0143573278356218e-05 0.034941725162966786 0 0.00014249131822504385 0.03498985474897312 0 8.0143573278356218e-05 0.034941725162966786 0 0.0001636119457072873 0.034891686804447541 0 0.00023905670547245045 0.034902977905429976 0 0.00014249131822504385 0.03498985474897312 0 0.0001636119457072873 0.034891686804447541 0 0.0001636119457072873 0.034891686804447541 0 0.00010641878299944317 0.034865991907619825 0 0.00016947664937719609 0.034794451884760443 0 0.00024225867431411596 0.034835604159588938 0 0.0001636119457072873 0.034891686804447541 0 0.00016947664937719609 0.034794451884760443 0 8.0143573278356218e-05 0.034941725162966786 0 0.0001636119457072873 0.034891686804447541 0 0.00010641878299944317 0.034865991907619825 0 8.0143573278356218e-05 0.034941725162966786 0 0.00010641878299944317 0.034865991907619825 0 2.8054220456185262e-05 0.034831861116653554 0 0.00010641878299944317 0.034865991907619825 0 0.00016947664937719609 0.034794451884760443 0 2.8054220456185262e-05 0.034831861116653554 0 0.00016947664937719609 0.034794451884760443 0 0.00012159123711909883 0.034681311825626365 0 2.8054220456185262e-05 0.034831861116653554 0 8.5967044533619223e-05 0.03483972208831651 0 2.1242361644149059e-05 0.034918386782535227 0 0.00024435847590690109 0.034767502033424651 0 0.00028759370233864302 0.034827864940293038 0 0.00016947664937719609 0.034794451884760443 0 0.00024435847590690109 0.034767502033424651 0 0.00016947664937719609 0.034794451884760443 0 0.00022320004774058327 0.034672014804267404 0 7.0109532015698859e-05 0.033911740948849391 0 0.00032815710956523707 0.034971282163744441 0 0.00016947664937719609 0.034794451884760443 0 0.00022320004774058327 0.034672014804267404 0 0.00012159123711909883 0.034681311825626365 0 4.3775939005507119e-05 0.034997301918207852 0 7.8864967244317541e-06 0.034993539801201248 0 7.4174797760493897e-06 0.035007135255201813 0 -4.6649351559220192e-09 0.034999949118922069 0 7.8864967244317541e-06 0.034993539801201248 0 4.3063339964483391e-09 0.035000032770038353 0 2.5462930452790111e-06 0.034999501095682332 0 4.3063339964483391e-09 0.035000032770038353 0 7.4174797760493897e-06 0.035007135255201813 0 7.8864967244317541e-06 0.034993539801201248 0 4.3063339964483391e-09 0.035000032770038353 0 7.4174797760493897e-06 0.035007135255201813 0 0.0001262963759685202 0.034838133204078213 0 0.00016804871802758123 0.034962364038729564 0 0.00038822311200481963 0.034722536671845702 0 0.0001262963759685202 0.034838133204078213 0 5.7477230719986396e-08 0.035000159456257 0 0.00016804871802758123 0.034962364038729564 0 0.0001262963759685202 0.034838133204078213 0 5.7477230719986396e-08 0.035000159456257 0 -9.9840183313842292e-08 0.034999097787827137 0 5.7477230719986396e-08 0.035000159456257 0 0.00016804871802758123 0.034962364038729564 0 4.3660837937806454e-05 0.035014128292043957 0 0.00016804871802758123 0.034962364038729564 0 0.00048970380506959657 0.0349242031792154 0 0.00033432961252169685 0.035110427647095148 0 0.0002973580421822719 0.035302718454373404 0 0.00023531433783624938 0.034955810079127035 0 0.00048970380506959657 0.0349242031792154 0 0.00077357915089458593 0.035060533363858337 0 0.00033432961252169685 0.035110427647095148 0 0.00048970380506959657 0.0349242031792154 0 0.00038822311200481963 0.034722536671845702 0 0.00078456393044883826 0.034610169701160737 0 0.00048970380506959657 0.0349242031792154 0 0.00078456393044883826 0.034610169701160737 0 0.00077357915089458593 0.035060533363858337 0 0.00016804871802758123 0.034962364038729564 0 0.00048970380506959657 0.0349242031792154 0 0.00038822311200481963 0.034722536671845702 0 0.0001262963759685202 0.034838133204078213 0 0.00038822311200481963 0.034722536671845702 0 0.00035652823118104875 0.034470835686990844 0 0.00038822311200481963 0.034722536671845702 0 0.0005503752597808794 0.034442266099380468 0 0.00035652823118104875 0.034470835686990844 0 0.00038822311200481963 0.034722536671845702 0 0.0005503752597808794 0.034442266099380468 0 0.00078456393044883826 0.034610169701160737 0 0.0005503752597808794 0.034442266099380468 0 0.00071265710943420346 0.034150707441880951 0 0.00078456393044883826 0.034610169701160737 0 0.0005503752597808794 0.034442266099380468 0 0.00053923519885502392 0.034157633639508529 0 0.00071265710943420346 0.034150707441880951 0 0.00053923519885502392 0.034157633639508529 0 0.00071265710943420346 0.034150707441880951 0 0.00071491933681345869 0.033850564534262564 0 0.0005503752597808794 0.034442266099380468 0 0.00053923519885502392 0.034157633639508529 0 0.00035652823118104875 0.034470835686990844 0 0.00053923519885502392 0.034157633639508529 0 0.00035652823118104875 0.034470835686990844 0 0.00041089199214543539 0.034190933043918091 0 0.00018387887288501156 0.034839960347699241 0 0.00010080372332434536 0.03458467277941215 0 0.00022572167234568283 0.03432350584551027 0 0.00035652823118104875 0.034470835686990844 0 0.00010813154489899482 0.034517351512116747 0 0.00041089199214543539 0.034190933043918091 0 0.00018387887288501156 0.034839960347699241 0 0.00022572167234568283 0.03432350584551027 0 0.00041089199214543539 0.034190933043918091 0 0.00015569784123058413 0.034657703032728637 0 0.00038989084417480151 0.034275364136253435 0 0.0001262963759685202 0.034838133204078213 0 0.00035652823118104875 0.034470835686990844 0 0.00010813154489899482 0.034517351512116747 0 0.00015569784123058413 0.034657703032728637 0 5.0960164253037772e-08 0.034999869056881031 0 0.0001262963759685202 0.034838133204078213 0 0.00010813154489899482 0.034517351512116747 0 -9.9840183313842292e-08 0.034999097787827137 0 0.00018387887288501156 0.034839960347699241 0 -4.612770452819547e-07 0.034998715568766076 0 0.00010080372332434536 0.03458467277941215 0 0.00018387887288501156 0.034839960347699241 0 2.5215238094726336e-07 0.035000738032449775 0 -4.612770452819547e-07 0.034998715568766076 0 3.624285409999802e-09 0.035000012510417879 0 4.8799288949133891e-06 0.035003700724657617 0 -6.8472766681170542e-09 0.034999979170306686 0 -1.7299762929915336e-08 0.034999814012123577 0 2.0662397961965075e-05 0.034560180575847539 0 -4.612770452819547e-07 0.034998715568766076 0 0.00010080372332434536 0.03458467277941215 0 -2.4515991682830233e-05 0.034115242581998287 0 0.00010080372332434536 0.03458467277941215 0 -2.4515991682830233e-05 0.034115242581998287 0 0.00022572167234568283 0.03432350584551027 0 -2.4515991682830233e-05 0.034115242581998287 0 0.00022572167234568283 0.03432350584551027 0 0.00032718601995221553 0.033947652741096464 0 0.00022572167234568283 0.03432350584551027 0 0.00032718601995221553 0.033947652741096464 0 0.00041089199214543539 0.034190933043918091 0 0.00032718601995221553 0.033947652741096464 0 0.0002606783536969518 0.033659125438232629 0 0.00045964530550706957 0.033707816420907477 0 -2.4515991682830233e-05 0.034115242581998287 0 0.00032718601995221553 0.033947652741096464 0 0.0002606783536969518 0.033659125438232629 0 2.0662397961965075e-05 0.034560180575847539 0 0.00018228311998317128 0.034356708829500676 0 4.8799288949133891e-06 0.035003700724657617 0 2.9597301060087797e-05 0.035014451095439894 0 9.0612596637242655e-05 0.035032270024158242 0 -6.8472766681170542e-09 0.034999979170306686 0 2.9597301060087797e-05 0.035014451095439894 0 1.3849254665854246e-07 0.035000214920355745 0 4.8799288949133891e-06 0.035003700724657617 0 -6.8472766681170542e-09 0.034999979170306686 0 2.9597301060087797e-05 0.035014451095439894 0 1.3849254665854246e-07 0.035000214920355745 0 9.0612596637242655e-05 0.035032270024158242 0 7.6392924983398181e-05 0.034978302771306848 0 2.9597301060087797e-05 0.035014451095439894 0 1.3849254665854246e-07 0.035000214920355745 0 9.0612596637242655e-05 0.035032270024158242 0 0.0002606783536969518 0.033659125438232629 0 0.00053083809481008952 0.033685536309530362 0 0.00042218464420733037 0.033621848140657121 0 9.0612596637242655e-05 0.035032270024158242 0 0.00029268955640282025 0.034846189831960757 0 7.6392924983398181e-05 0.034978302771306848 0 0.0002606783536969518 0.033659125438232629 0 0.00042218464420733037 0.033621848140657121 0 0.00045964530550706957 0.033707816420907477 0 0.00018228311998317128 0.034356708829500676 0 0.00038391016618784664 0.034273177684205548 0 1.3849254665854246e-07 0.035000214920355745 0 7.6392924983398181e-05 0.034978302771306848 0 -2.4734958245333978e-07 0.03499926518745209 0 0.00029268955640282025 0.034846189831960757 0 7.6392924983398181e-05 0.034978302771306848 0 -2.4734958245333978e-07 0.03499926518745209 0 0.00061360807513671995 0.033547601516467636 0 -0.00024607728193015292 0.033321947250281848 0 2.7060672502330975e-05 0.033820369880559094 0 0.00039064958181429631 0.033542404132068125 0 -0.00032196611489846669 0.033724777392593025 0 0.00039064958181429631 0.033542404132068125 0 0.0006774522707376447 0.033486818541586111 0 0.00091246842813620188 0.033228107792639003 0 0.0002270509927599046 0.033938034117637135 0 2.7060672502330975e-05 0.033820369880559094 0 0.00039064958181429631 0.033542404132068125 0 0.00053083809481008952 0.033685536309530362 0 0.00039064958181429631 0.033542404132068125 0 0.00042218464420733037 0.033621848140657121 0 0.0002270509927599046 0.033938034117637135 0 0.00053083809481008952 0.033685536309530362 0 0.00039064958181429631 0.033542404132068125 0 0.00039064958181429631 0.033542404132068125 0 0.00042218464420733037 0.033621848140657121 0 0.00045964530550706957 0.033707816420907477 0 0.00039064958181429631 0.033542404132068125 0 0.00057285507608157771 0.03362024342998244 0 0.00045964530550706957 0.033707816420907477 0 0.00039064958181429631 0.033542404132068125 0 0.00057285507608157771 0.03362024342998244 0 0.0006774522707376447 0.033486818541586111 0 0.00057285507608157771 0.03362024342998244 0 0.0006774522707376447 0.033486818541586111 0 0.00075070795945250516 0.033521237071619477 0 0.00057285507608157771 0.03362024342998244 0 0.00070620447843610355 0.033657953541440522 0 0.00075070795945250516 0.033521237071619477 0 0.00057285507608157771 0.03362024342998244 0 0.00070620447843610355 0.033657953541440522 0 0.00054212551498348887 0.033850581137311396 0 0.00032718601995221553 0.033947652741096464 0 0.00045964530550706957 0.033707816420907477 0 0.00054212551498348887 0.033850581137311396 0 0.00057285507608157771 0.03362024342998244 0 0.00045964530550706957 0.033707816420907477 0 0.00054212551498348887 0.033850581137311396 0 0.00032718601995221553 0.033947652741096464 0 0.00054212551498348887 0.033850581137311396 0 0.00041089199214543539 0.034190933043918091 0 0.00053923519885502392 0.034157633639508529 0 0.00054212551498348887 0.033850581137311396 0 0.00041089199214543539 0.034190933043918091 0 0.00053923519885502392 0.034157633639508529 0 0.00054212551498348887 0.033850581137311396 0 0.00071491933681345869 0.033850564534262564 0 0.00070620447843610355 0.033657953541440522 0 0.00054212551498348887 0.033850581137311396 0 0.00071491933681345869 0.033850564534262564 0 0.00071265710943420346 0.034150707441880951 0 0.00071491933681345869 0.033850564534262564 0 0.00091987205078858034 0.033701759090394551 0 0.00091987205078858034 0.033701759090394551 0 0.00098044882734182903 0.03347138448413909 0 0.00084508617915308895 0.03359608961298919 0 0.00070620447843610355 0.033657953541440522 0 0.00071491933681345869 0.033850564534262564 0 0.00084508617915308895 0.03359608961298919 0 0.00071491933681345869 0.033850564534262564 0 0.00091987205078858034 0.033701759090394551 0 0.00084508617915308895 0.03359608961298919 0 0.0013961171483993411 0.033633993879728562 0 0.0011196999005624673 0.033404447072343579 0 0.0011453834559812244 0.033892469265714369 0 0.001431967511099215 0.032412714837103833 0 0.0013619616430954741 0.03288199312010831 0 0.00091987205078858034 0.033701759090394551 0 0.0011196999005624673 0.033404447072343579 0 0.0011453834559812244 0.033892469265714369 0 0.00091987205078858034 0.033701759090394551 0 0.00098044882734182903 0.03347138448413909 0 0.0011196999005624673 0.033404447072343579 0 0.00098044882734182903 0.03347138448413909 0 0.0010543649630801776 0.033312442536461047 0 0.0011196999005624673 0.033404447072343579 0 0.0010543649630801776 0.033312442536461047 0 0.0011196999005624673 0.033404447072343579 0 0.0010777625819870388 0.033191831308825241 0 0.0010624450978843607 0.032861131373218798 0 0.0011196999005624673 0.033404447072343579 0 0.0010777625819870388 0.033191831308825241 0 0.0010543649630801776 0.033312442536461047 0 0.0010777625819870388 0.033191831308825241 0 0.0010110225914595711 0.033155890186579398 0 0.0010624450978843607 0.032861131373218798 0 0.0010027718873854838 0.03304457421606876 0 0.00096323021354074122 0.032900384488958698 0 0.0010777625819870388 0.033191831308825241 0 0.0010110225914595711 0.033155890186579398 0 0.0010027718873854838 0.03304457421606876 0 0.0010624450978843607 0.032861131373218798 0 0.0010777625819870388 0.033191831308825241 0 0.0010027718873854838 0.03304457421606876 0 0.00096059970419739985 0.033208262786366211 0 0.00098681954908587974 0.033352617988607711 0 0.00093644311371767635 0.033316955374412628 0 0.0010543649630801776 0.033312442536461047 0 0.00096059970419739985 0.033208262786366211 0 0.00098681954908587974 0.033352617988607711 0 0.0010543649630801776 0.033312442536461047 0 0.0010110225914595711 0.033155890186579398 0 0.00096059970419739985 0.033208262786366211 0 0.00098044882734182903 0.03347138448413909 0 0.0010543649630801776 0.033312442536461047 0 0.00098681954908587974 0.033352617988607711 0 0.00098044882734182903 0.03347138448413909 0 0.00098681954908587974 0.033352617988607711 0 0.00092093342967713781 0.033462832400437875 0 0.00092484220868511362 0.033410295403699004 0 0.00093644311371767635 0.033316955374412628 0 0.00091581662376845807 0.033379841367983269 0 0.00098681954908587974 0.033352617988607711 0 0.00092484220868511362 0.033410295403699004 0 0.00093644311371767635 0.033316955374412628 0 0.00098681954908587974 0.033352617988607711 0 0.00092484220868511362 0.033410295403699004 0 0.00092093342967713781 0.033462832400437875 0 0.00096059970419739985 0.033208262786366211 0 0.00093644311371767635 0.033316955374412628 0 0.00081734961863091948 0.033238172671620866 0 0.00070620447843610355 0.033657953541440522 0 0.00084508617915308895 0.03359608961298919 0 0.00083590327474274476 0.033518328035420368 0 0.00084508617915308895 0.03359608961298919 0 0.00092093342967713781 0.033462832400437875 0 0.00083590327474274476 0.033518328035420368 0 0.00098044882734182903 0.03347138448413909 0 0.00084508617915308895 0.03359608961298919 0 0.00092093342967713781 0.033462832400437875 0 0.00092484220868511362 0.033410295403699004 0 0.00092093342967713781 0.033462832400437875 0 0.00083590327474274476 0.033518328035420368 0 0.00092484220868511362 0.033410295403699004 0 0.00083590327474274476 0.033518328035420368 0 0.00087894838796135255 0.033439987604592797 0 0.00070620447843610355 0.033657953541440522 0 0.00083590327474274476 0.033518328035420368 0 0.00075070795945250516 0.033521237071619477 0 0.00083590327474274476 0.033518328035420368 0 0.00075070795945250516 0.033521237071619477 0 0.00087894838796135255 0.033439987604592797 0 0.0006774522707376447 0.033486818541586111 0 0.00075070795945250516 0.033521237071619477 0 0.00087647405646328655 0.033408724215726292 0 0.00075070795945250516 0.033521237071619477 0 0.00087894838796135255 0.033439987604592797 0 0.00087647405646328655 0.033408724215726292 0 0.00087894838796135255 0.033439987604592797 0 0.00089929109938948512 0.033402097662120524 0 0.00087647405646328655 0.033408724215726292 0 0.00091581662376845807 0.033379841367983269 0 0.00088087386659197906 0.033351077751858874 0 0.00089929109938948512 0.033402097662120524 0 0.00092484220868511362 0.033410295403699004 0 0.00087894838796135255 0.033439987604592797 0 0.00091581662376845807 0.033379841367983269 0 0.00087894838796135255 0.033439987604592797 0 0.00091581662376845807 0.033379841367983269 0 0.00089929109938948512 0.033402097662120524 0 0.00093644311371767635 0.033316955374412628 0 0.00091581662376845807 0.033379841367983269 0 0.00088087386659197906 0.033351077751858874 0 0.00093644311371767635 0.033316955374412628 0 0.00088087386659197906 0.033351077751858874 0 0.00081734961863091948 0.033238172671620866 0 0.00088087386659197906 0.033351077751858874 0 0.00085936737405148877 0.033406562250239524 0 0.00089929109938948512 0.033402097662120524 0 0.00088087386659197906 0.033351077751858874 0 0.00085936737405148877 0.033406562250239524 0 0.00078348319196954862 0.03336148002635618 0 0.00085936737405148877 0.033406562250239524 0 0.00089929109938948512 0.033402097662120524 0 0.00088267209802313316 0.033425604471473538 0 0.00089929109938948512 0.033402097662120524 0 0.00088267209802313316 0.033425604471473538 0 0.00087647405646328655 0.033408724215726292 0 0.0007438084582974435 0.033635678095848907 0 0.00081128634317195367 0.033474920966963986 0 0.00092163647919128538 0.033450751625323606 0 -0.000931130572006731 0.033502219258008122 0 -0.00024607728193015292 0.033321947250281848 0 0.00088267209802313316 0.033425604471473538 0 0.00081128634317195367 0.033474920966963986 0 0.00092163647919128538 0.033450751625323606 0 0.00085936737405148877 0.033406562250239524 0 0.00088267209802313316 0.033425604471473538 0 0.00081128634317195367 0.033474920966963986 0 0.00085936737405148877 0.033406562250239524 0 0.00081128634317195367 0.033474920966963986 0 0.00078348319196954862 0.03336148002635618 0 -0.00017781531310862551 0.033882121650029906 0 2.7060672502330975e-05 0.033820369880559094 0 -0.00032196611489846669 0.033724777392593025 0 0.0006774522707376447 0.033486818541586111 0 0.00091246842813620188 0.033228107792639003 0 0.00087647405646328655 0.033408724215726292 0 -0.00024607728193015292 0.033321947250281848 0 0.00035785615614028683 0.033260441714946819 0 0.00088267209802313316 0.033425604471473538 0 0.00092163647919128538 0.033450751625323606 0 0.00087647405646328655 0.033408724215726292 0 0.00044427396498547664 0.033421207265133063 0 0.00050080918531511098 0.033579959822642419 0 0.00065411614958490365 0.033444570977061008 0 0.00044427396498547664 0.033421207265133063 0 0.00028437910029082862 0.033627589085678547 0 0.00022781681060181743 0.033416228212119453 0 0.00044427396498547664 0.033421207265133063 0 0.00033170052610754705 0.033254415151011955 0 0.00022781681060181743 0.033416228212119453 0 0.00044427396498547664 0.033421207265133063 0 0.00028437910029082862 0.033627589085678547 0 0.00050080918531511098 0.033579959822642419 0 0.00050080918531511098 0.033579959822642419 0 0.0006811181977472001 0.033539067408127191 0 0.00065411614958490365 0.033444570977061008 0 0.0007438084582974435 0.033635678095848907 0 0.00050080918531511098 0.033579959822642419 0 0.0006811181977472001 0.033539067408127191 0 0.0007438084582974435 0.033635678095848907 0 0.00081128634317195367 0.033474920966963986 0 0.0006811181977472001 0.033539067408127191 0 0.00081128634317195367 0.033474920966963986 0 0.0006811181977472001 0.033539067408127191 0 0.00065411614958490365 0.033444570977061008 0 0.00081128634317195367 0.033474920966963986 0 0.00065411614958490365 0.033444570977061008 0 0.00078348319196954862 0.03336148002635618 0 0.00065411614958490365 0.033444570977061008 0 0.00078348319196954862 0.03336148002635618 0 0.00057644810380471886 0.033242540194059388 0 0.00088087386659197906 0.033351077751858874 0 0.00078348319196954862 0.03336148002635618 0 0.00081734961863091948 0.033238172671620866 0 0.00078348319196954862 0.03336148002635618 0 0.00081734961863091948 0.033238172671620866 0 0.00057644810380471886 0.033242540194059388 0 0.00081734961863091948 0.033238172671620866 0 0.00057644810380471886 0.033242540194059388 0 0.00058464912321315649 0.033029963031495822 0 0.00057644810380471886 0.033242540194059388 0 0.00031364572992417236 0.032999677346764844 0 0.00058464912321315649 0.033029963031495822 0 0.00044427396498547664 0.033421207265133063 0 0.00065411614958490365 0.033444570977061008 0 0.00057644810380471886 0.033242540194059388 0 0.00044427396498547664 0.033421207265133063 0 0.00057644810380471886 0.033242540194059388 0 0.00033170052610754705 0.033254415151011955 0 0.00057644810380471886 0.033242540194059388 0 0.00033170052610754705 0.033254415151011955 0 0.00031364572992417236 0.032999677346764844 0 0.00031364572992417236 0.032999677346764844 0 0.00058464912321315649 0.033029963031495822 0 0.00045890390202123384 0.032774601158242718 0 0.00058464912321315649 0.033029963031495822 0 0.00045890390202123384 0.032774601158242718 0 0.00067354091807575553 0.032826257267347357 0 0.00096059970419739985 0.033208262786366211 0 0.00081734961863091948 0.033238172671620866 0 0.00078892349197680778 0.033057879405330393 0 0.00081734961863091948 0.033238172671620866 0 0.00058464912321315649 0.033029963031495822 0 0.00078892349197680778 0.033057879405330393 0 0.00058464912321315649 0.033029963031495822 0 0.00078892349197680778 0.033057879405330393 0 0.00067354091807575553 0.032826257267347357 0 0.00078892349197680778 0.033057879405330393 0 0.00090864895189544698 0.032984447527758289 0 0.00067354091807575553 0.032826257267347357 0 0.00096059970419739985 0.033208262786366211 0 0.00078892349197680778 0.033057879405330393 0 0.00090864895189544698 0.032984447527758289 0 0.00096323021354074122 0.032900384488958698 0 0.00090864895189544698 0.032984447527758289 0 0.00080115454207790166 0.032651978486689839 0 0.0010027718873854838 0.03304457421606876 0 0.00096323021354074122 0.032900384488958698 0 0.00090864895189544698 0.032984447527758289 0 0.0010110225914595711 0.033155890186579398 0 0.0010027718873854838 0.03304457421606876 0 0.00090864895189544698 0.032984447527758289 0 0.0010110225914595711 0.033155890186579398 0 0.00096059970419739985 0.033208262786366211 0 0.00090864895189544698 0.032984447527758289 0 0.00090864895189544698 0.032984447527758289 0 0.00080115454207790166 0.032651978486689839 0 0.00067354091807575553 0.032826257267347357 0 0.0010624450978843607 0.032861131373218798 0 0.00096323021354074122 0.032900384488958698 0 0.00080115454207790166 0.032651978486689839 0 0.00045890390202123384 0.032774601158242718 0 0.00050845710365039277 0.032433454086217187 0 0.00019561723382942821 0.032535808016128626 0 0.00080115454207790166 0.032651978486689839 0 0.00067354091807575553 0.032826257267347357 0 0.00050845710365039277 0.032433454086217187 0 0.00045890390202123384 0.032774601158242718 0 0.00067354091807575553 0.032826257267347357 0 0.00050845710365039277 0.032433454086217187 0 0.00084516801689055263 0.030545925999692684 0 0.0011050877315331828 0.029570889762091858 0 0.0005749550430694376 0.02971525852521309 0 0.00080115454207790166 0.032651978486689839 0 0.00050845710365039277 0.032433454086217187 0 0.00062055609763786565 0.031898784212727752 0 0.00084516801689055263 0.030545925999692684 0 0.0016245025108209521 0.030231981307577514 0 0.0011050877315331828 0.029570889762091858 0 0.00050845710365039277 0.032433454086217187 0 0.00062055609763786565 0.031898784212727752 0 0.00015912567775284577 0.031926211491797814 0 0.0016203534773971092 0.031084361601525352 0 0.00084516801689055263 0.030545925999692684 0 0.0016245025108209521 0.030231981307577514 0 0.0010624450978843607 0.032861131373218798 0 0.00080115454207790166 0.032651978486689839 0 0.00062055609763786565 0.031898784212727752 0 0.001431967511099215 0.032412714837103833 0 0.00067857716870559515 0.031136124726047744 0 0.0011453834559812244 0.033892469265714369 0 0.00096606544224559746 0.034159448294672407 0 0.0013135845576976368 0.034403848965117452 0 0.001431967511099215 0.032412714837103833 0 0.0015457739724206209 0.032298682985464684 0 0.0013961171483993411 0.033633993879728562 0 0.0011453834559812244 0.033892469265714369 0 0.0013135845576976368 0.034403848965117452 0 0.00071265710943420346 0.034150707441880951 0 0.00091987205078858034 0.033701759090394551 0 0.00096606544224559746 0.034159448294672407 0 0.00091987205078858034 0.033701759090394551 0 0.0011453834559812244 0.033892469265714369 0 0.00096606544224559746 0.034159448294672407 0 0.00096606544224559746 0.034159448294672407 0 0.00078456393044883826 0.034610169701160737 0 0.0013135845576976368 0.034403848965117452 0 0.00071265710943420346 0.034150707441880951 0 0.00096606544224559746 0.034159448294672407 0 0.00078456393044883826 0.034610169701160737 0 0.0015457739724206209 0.032298682985464684 0 0.00089980261476929624 0.032171149302930066 0 0.00078456393044883826 0.034610169701160737 0 0.0013135845576976368 0.034403848965117452 0 0.0012671466577085873 0.034906650005558912 0 0.00078456393044883826 0.034610169701160737 0 0.00077357915089458593 0.035060533363858337 0 0.0012671466577085873 0.034906650005558912 0 6.5521745290496335e-05 0.034839628922260411 0 0.00012033353844409656 0.034779072688037267 0 6.9513369299093906e-05 0.034872402076854027 0 0.0002973580421822719 0.035302718454373404 0 0.00089980261476929624 0.032171149302930066 0 0.00093972013048225077 0.029243854802781157 0 0.00072908049421193917 0.029032667717801174 0 0.00067635618292144993 0.028787135168602047 0 0.00093972013048225077 0.029243854802781157 0 0.00072908049421193917 0.029032667717801174 0 0.00077252504070370032 0.029398051556589203 0 0.00072908049421193917 0.029032667717801174 0 0.00077252504070370032 0.029398051556589203 0 0.00056472321692678182 0.029172854236783105 0 0.0011275375903525033 0.029386819030190477 0 0.00051241427560280305 0.029703992281626554 0 0.00077252504070370032 0.029398051556589203 0 0.0005749550430694376 0.02971525852521309 0 0.00056472321692678182 0.029172854236783105 0 0.0016245025108209521 0.030231981307577514 0 0.001620383564051629 0.029423495040683881 0 0.0011050877315331828 0.029570889762091858 0 0.00089980261476929624 0.032171149302930066 0 0.0011275375903525033 0.029386819030190477 0 0.00022704441626389095 0.029608769889678383 0 -0.00055130662774751369 0.029954822744430228 0 0.00017285550049316132 0.030047340969040853 0 -0.00056733698027026491 0.029961826352516142 0 0.00011123230090520475 0.030544114229689084 0 0.00022704441626389095 0.029608769889678383 0 0.0005749550430694376 0.02971525852521309 0 0.00056472321692678182 0.029172854236783105 0 0.00022704441626389095 0.029608769889678383 0 0.0005749550430694376 0.02971525852521309 0 0.00017285550049316132 0.030047340969040853 0 0.00022704441626389095 0.029608769889678383 0 0.00056472321692678182 0.029172854236783105 0 0.00014354895293807691 0.029227077846562016 0 0.00022704441626389095 0.029608769889678383 0 0.00014354895293807691 0.029227077846562016 0 -0.00055130662774751369 0.029954822744430228 0 0.00014354895293807691 0.029227077846562016 0 -0.00055130662774751369 0.029954822744430228 0 -0.00031511367852069726 0.029050074107019149 0 -0.00055130662774751369 0.029954822744430228 0 -0.0010452273356442794 0.029101406509361522 0 -0.00031511367852069726 0.029050074107019149 0 -0.0013551447665047962 0.030066372380355401 0 -0.00055130662774751369 0.029954822744430228 0 -0.0010452273356442794 0.029101406509361522 0 -0.0013551447665047962 0.030066372380355401 0 -0.00055130662774751369 0.029954822744430228 0 -0.00064091267507184423 0.03086187150788415 0 -0.00055130662774751369 0.029954822744430228 0 -0.00064091267507184423 0.03086187150788415 0 9.0698451291555007e-05 0.031036413407699137 0 -0.00064091267507184423 0.03086187150788415 0 -0.001082699286651377 0.031437607448615068 0 -0.00038392550394325786 0.031546250111524704 0 -0.001082699286651377 0.031437607448615068 0 -0.0017688911213650331 0.031351040520492798 0 -0.0015231261119743108 0.030841539697537491 0 -0.00064091267507184423 0.03086187150788415 0 -0.001082699286651377 0.031437607448615068 0 -0.0015231261119743108 0.030841539697537491 0 -0.0013551447665047962 0.030066372380355401 0 -0.00064091267507184423 0.03086187150788415 0 -0.0015231261119743108 0.030841539697537491 0 -0.001082699286651377 0.031437607448615068 0 -0.0016148691510382714 0.031815196846241726 0 -0.0017688911213650331 0.031351040520492798 0 -0.001082699286651377 0.031437607448615068 0 -0.001163270770375281 0.032130181904784928 0 -0.0016148691510382714 0.031815196846241726 0 -0.001082699286651377 0.031437607448615068 0 -0.00038392550394325786 0.031546250111524704 0 -0.00068585106096164525 0.032048708281591953 0 -0.00038392550394325786 0.031546250111524704 0 9.0698451291555007e-05 0.031036413407699137 0 0.00015912567775284577 0.031926211491797814 0 -0.00038392550394325786 0.031546250111524704 0 -0.00021470990960335227 0.032092993636755711 0 -0.00068585106096164525 0.032048708281591953 0 -0.00038392550394325786 0.031546250111524704 0 0.00015912567775284577 0.031926211491797814 0 -0.00021470990960335227 0.032092993636755711 0 -0.00064091267507184423 0.03086187150788415 0 -0.00038392550394325786 0.031546250111524704 0 9.0698451291555007e-05 0.031036413407699137 0 0.00067857716870559515 0.031136124726047744 0 0.00011123230090520475 0.030544114229689084 0 0.00084516801689055263 0.030545925999692684 0 0.0005749550430694376 0.02971525852521309 0 0.00017285550049316132 0.030047340969040853 0 0.00062055609763786565 0.031898784212727752 0 9.0698451291555007e-05 0.031036413407699137 0 0.00015912567775284577 0.031926211491797814 0 0.00015912567775284577 0.031926211491797814 0 0.00019561723382942821 0.032535808016128626 0 -0.00021470990960335227 0.032092993636755711 0 0.00050845710365039277 0.032433454086217187 0 0.00015912567775284577 0.031926211491797814 0 0.00019561723382942821 0.032535808016128626 0 0.00019561723382942821 0.032535808016128626 0 -0.00021470990960335227 0.032092993636755711 0 -0.00030099578832641985 0.032534711223331979 0 -0.00021470990960335227 0.032092993636755711 0 -0.00030099578832641985 0.032534711223331979 0 -0.00068585106096164525 0.032048708281591953 0 -0.00030099578832641985 0.032534711223331979 0 -0.000489357713742484 0.032814489817651282 0 -8.1994737615814702e-05 0.032874170847883404 0 0.00019561723382942821 0.032535808016128626 0 -0.00030099578832641985 0.032534711223331979 0 -8.1994737615814702e-05 0.032874170847883404 0 0.00031364572992417236 0.032999677346764844 0 0.00019561723382942821 0.032535808016128626 0 -8.1994737615814702e-05 0.032874170847883404 0 0.00031364572992417236 0.032999677346764844 0 0.00045890390202123384 0.032774601158242718 0 0.00019561723382942821 0.032535808016128626 0 0.00031364572992417236 0.032999677346764844 0 -8.1994737615814702e-05 0.032874170847883404 0 7.2315100837552201e-06 0.033236974688953438 0 0.00033170052610754705 0.033254415151011955 0 0.00031364572992417236 0.032999677346764844 0 7.2315100837552201e-06 0.033236974688953438 0 0.00033170052610754705 0.033254415151011955 0 7.2315100837552201e-06 0.033236974688953438 0 0.00022781681060181743 0.033416228212119453 0 -0.000489357713742484 0.032814489817651282 0 -8.1994737615814702e-05 0.032874170847883404 0 -0.0002919234443009576 0.033069478281181876 0 -8.1994737615814702e-05 0.032874170847883404 0 7.2315100837552201e-06 0.033236974688953438 0 -0.0002919234443009576 0.033069478281181876 0 -0.000489357713742484 0.032814489817651282 0 -0.0002919234443009576 0.033069478281181876 0 -0.00066249739832840982 0.033138830113650861 0 -0.0002919234443009576 0.033069478281181876 0 -0.00036731616382837325 0.033321633042336769 0 -0.00066249739832840982 0.033138830113650861 0 7.2315100837552201e-06 0.033236974688953438 0 -0.0002919234443009576 0.033069478281181876 0 -0.00036731616382837325 0.033321633042336769 0 7.2315100837552201e-06 0.033236974688953438 0 -0.00036731616382837325 0.033321633042336769 0 -0.0002007235440666899 0.03350626862106923 0 -0.00036731616382837325 0.033321633042336769 0 -0.00047447953944401553 0.033564440502315315 0 -0.00063521153247666389 0.03340119254562722 0 -0.00030853256845351558 0.033722837938554927 0 -0.00047447953944401553 0.033564440502315315 0 -0.0002007235440666899 0.03350626862106923 0 -0.00036731616382837325 0.033321633042336769 0 -0.00047447953944401553 0.033564440502315315 0 -0.0002007235440666899 0.03350626862106923 0 -3.2303606131118332e-05 0.033666198769845432 0 -0.0002007235440666899 0.03350626862106923 0 5.6141926582811973e-05 0.033548159458596148 0 0.00013092063742771039 0.033693052777794268 0 -3.2303606131118332e-05 0.033666198769845432 0 5.6141926582811973e-05 0.033548159458596148 0 0.00013092063742771039 0.033693052777794268 0 0.00028437910029082862 0.033627589085678547 0 5.6141926582811973e-05 0.033548159458596148 0 0.00028437910029082862 0.033627589085678547 0 5.6141926582811973e-05 0.033548159458596148 0 0.00022781681060181743 0.033416228212119453 0 7.2315100837552201e-06 0.033236974688953438 0 5.6141926582811973e-05 0.033548159458596148 0 0.00022781681060181743 0.033416228212119453 0 7.2315100837552201e-06 0.033236974688953438 0 -0.0002007235440666899 0.03350626862106923 0 5.6141926582811973e-05 0.033548159458596148 0 -0.00092893349666816781 0.033368941901110873 0 -0.0012701822792253788 0.033389489232263675 0 -0.0012199711975298328 0.033030754894930729 0 -0.00091220575254950679 0.03364159554912291 0 -0.0011708000225747297 0.0336381941799406 0 -0.0012701822792253788 0.033389489232263675 0 -0.00091220575254950679 0.03364159554912291 0 -0.00092893349666816781 0.033368941901110873 0 -0.0012701822792253788 0.033389489232263675 0 -0.00071926761658430347 0.03364622985461839 0 -0.00091220575254950679 0.03364159554912291 0 -0.00092893349666816781 0.033368941901110873 0 -0.00071926761658430347 0.03364622985461839 0 -0.00092893349666816781 0.033368941901110873 0 -0.00063521153247666389 0.03340119254562722 0 -0.00071926761658430347 0.03364622985461839 0 -0.00047447953944401553 0.033564440502315315 0 -0.00063521153247666389 0.03340119254562722 0 -0.00036731616382837325 0.033321633042336769 0 -0.00063521153247666389 0.03340119254562722 0 -0.00066249739832840982 0.033138830113650861 0 -0.00092893349666816781 0.033368941901110873 0 -0.00063521153247666389 0.03340119254562722 0 -0.00066249739832840982 0.033138830113650861 0 -0.00092893349666816781 0.033368941901110873 0 -0.00092571751873663248 0.033108727975408897 0 -0.00066249739832840982 0.033138830113650861 0 -0.000489357713742484 0.032814489817651282 0 -0.00066249739832840982 0.033138830113650861 0 -0.00088382255858730514 0.032863012876380431 0 -0.00092571751873663248 0.033108727975408897 0 -0.00066249739832840982 0.033138830113650861 0 -0.00088382255858730514 0.032863012876380431 0 -0.00088382255858730514 0.032863012876380431 0 -0.0012199711975298328 0.033030754894930729 0 -0.0012246673475074304 0.032582254021081898 0 -0.00092571751873663248 0.033108727975408897 0 -0.00088382255858730514 0.032863012876380431 0 -0.0012199711975298328 0.033030754894930729 0 -0.00092893349666816781 0.033368941901110873 0 -0.00092571751873663248 0.033108727975408897 0 -0.0012199711975298328 0.033030754894930729 0 -0.0012701822792253788 0.033389489232263675 0 -0.0012199711975298328 0.033030754894930729 0 -0.0016521258582540791 0.033150479760002322 0 -0.0012199711975298328 0.033030754894930729 0 -0.0012246673475074304 0.032582254021081898 0 -0.0016809577587500667 0.032701489792359741 0 -0.0012246673475074304 0.032582254021081898 0 -0.00076417394778421433 0.032520917509086616 0 -0.001163270770375281 0.032130181904784928 0 -0.0012246673475074304 0.032582254021081898 0 -0.001163270770375281 0.032130181904784928 0 -0.0016358064097496986 0.032279072701925114 0 -0.00030099578832641985 0.032534711223331979 0 -0.000489357713742484 0.032814489817651282 0 -0.00076417394778421433 0.032520917509086616 0 -0.000489357713742484 0.032814489817651282 0 -0.00088382255858730514 0.032863012876380431 0 -0.00076417394778421433 0.032520917509086616 0 -0.00088382255858730514 0.032863012876380431 0 -0.0012246673475074304 0.032582254021081898 0 -0.00076417394778421433 0.032520917509086616 0 -0.00030099578832641985 0.032534711223331979 0 -0.00076417394778421433 0.032520917509086616 0 -0.00068585106096164525 0.032048708281591953 0 -0.00076417394778421433 0.032520917509086616 0 -0.00068585106096164525 0.032048708281591953 0 -0.001163270770375281 0.032130181904784928 0 -0.001082699286651377 0.031437607448615068 0 -0.00068585106096164525 0.032048708281591953 0 -0.001163270770375281 0.032130181904784928 0 -0.001163270770375281 0.032130181904784928 0 -0.0016148691510382714 0.031815196846241726 0 -0.0016358064097496986 0.032279072701925114 0 -0.0016148691510382714 0.031815196846241726 0 -0.0019408071103931004 0.031985108421235336 0 -0.0016358064097496986 0.032279072701925114 0 -0.0016148691510382714 0.031815196846241726 0 -0.0019408071103931004 0.031985108421235336 0 -0.0019993173130204438 0.031676778729936086 0 -0.0019408071103931004 0.031985108421235336 0 -0.0016358064097496986 0.032279072701925114 0 -0.0021140347152072431 0.032301885111007643 0 -0.0023446873360584122 0.031836128263437929 0 -0.0025964794854125136 0.032107399851783923 0 -0.0028599203972206667 0.031783556315558098 0 -0.0019408071103931004 0.031985108421235336 0 -0.0023446873360584122 0.031836128263437929 0 -0.0019993173130204438 0.031676778729936086 0 -0.0019408071103931004 0.031985108421235336 0 -0.0023446873360584122 0.031836128263437929 0 -0.0021140347152072431 0.032301885111007643 0 -0.0023446873360584122 0.031836128263437929 0 -0.0025964794854125136 0.032107399851783923 0 -0.0021140347152072431 0.032301885111007643 0 -0.0025964794854125136 0.032107399851783923 0 -0.0021140347152072431 0.032301885111007643 0 -0.0025813658746636358 0.032476752226362343 0 -0.0021140347152072431 0.032301885111007643 0 -0.0021460060344672262 0.032642012847620208 0 -0.0025813658746636358 0.032476752226362343 0 -0.0021460060344672262 0.032642012847620208 0 -0.0023749498451675847 0.032867023543693565 0 -0.0025813658746636358 0.032476752226362343 0 -0.0012246673475074304 0.032582254021081898 0 -0.0016358064097496986 0.032279072701925114 0 -0.0016809577587500667 0.032701489792359741 0 -0.0016358064097496986 0.032279072701925114 0 -0.0021140347152072431 0.032301885111007643 0 -0.0016809577587500667 0.032701489792359741 0 -0.0021140347152072431 0.032301885111007643 0 -0.0021460060344672262 0.032642012847620208 0 -0.0016809577587500667 0.032701489792359741 0 -0.0012199711975298328 0.033030754894930729 0 -0.0016809577587500667 0.032701489792359741 0 -0.0016521258582540791 0.033150479760002322 0 -0.0016809577587500667 0.032701489792359741 0 -0.0016521258582540791 0.033150479760002322 0 -0.0019840338180868665 0.032902297881331283 0 -0.0016521258582540791 0.033150479760002322 0 -0.0019840338180868665 0.032902297881331283 0 -0.0020728866368015806 0.033171577192835359 0 -0.0021460060344672262 0.032642012847620208 0 -0.0016809577587500667 0.032701489792359741 0 -0.0019840338180868665 0.032902297881331283 0 -0.0021460060344672262 0.032642012847620208 0 -0.0019840338180868665 0.032902297881331283 0 -0.0023749498451675847 0.032867023543693565 0 -0.0023749498451675847 0.032867023543693565 0 -0.0020728866368015806 0.033171577192835359 0 -0.0024768984156275848 0.033232762285451994 0 -0.0019840338180868665 0.032902297881331283 0 -0.0023749498451675847 0.032867023543693565 0 -0.0020728866368015806 0.033171577192835359 0 -0.0020977174245744219 0.033687284234400344 0 -0.0021744619168241829 0.033460674948475211 0 -0.0027582370892848132 0.03359409045496365 0 -0.0020728866368015806 0.033171577192835359 0 -0.0021744619168241829 0.033460674948475211 0 -0.0018154656605386952 0.033399526506896288 0 -0.0020728866368015806 0.033171577192835359 0 -0.0021744619168241829 0.033460674948475211 0 -0.0024768984156275848 0.033232762285451994 0 -0.0018482991698132393 0.033595882974240834 0 -0.0021744619168241829 0.033460674948475211 0 -0.0018154656605386952 0.033399526506896288 0 -0.0018482991698132393 0.033595882974240834 0 -0.0020977174245744219 0.033687284234400344 0 -0.0021744619168241829 0.033460674948475211 0 -0.0015368438065162338 0.033611582008514607 0 -0.0018482991698132393 0.033595882974240834 0 -0.0018154656605386952 0.033399526506896288 0 -0.0012701822792253788 0.033389489232263675 0 -0.0016521258582540791 0.033150479760002322 0 -0.0018154656605386952 0.033399526506896288 0 -0.0015368438065162338 0.033611582008514607 0 -0.0012701822792253788 0.033389489232263675 0 -0.0018154656605386952 0.033399526506896288 0 -0.0015368438065162338 0.033611582008514607 0 -0.0011708000225747297 0.0336381941799406 0 -0.0012701822792253788 0.033389489232263675 0 -0.0016521258582540791 0.033150479760002322 0 -0.0020728866368015806 0.033171577192835359 0 -0.0018154656605386952 0.033399526506896288 0 -0.0023869431995522613 0.021886000941402167 0 -0.0025117714733154861 0.022210166014700369 0 -0.0022352681007723313 0.022084222427598433 0 -0.0031994890497853428 0.028324478715606609 0 -0.0033076392819768306 0.027512779301167328 0 -0.0013025187766435684 0.029590049067733583 0 -0.0023479881801865034 0.028220108087337811 0 -0.0020749760170080444 0.030957869953492693 0 -0.0023518458522671691 0.025383434971443058 0 -0.0023479881801865034 0.028220108087337811 0 -0.0018958136484591094 0.025737158264980398 0 -0.0019704685824735021 0.025186494717609025 0 -0.003339295150045332 0.024777597112955831 0 -0.0023518458522671691 0.025383434971443058 0 -0.0029926483840603869 0.021803387210046467 0 -0.0023518458522671691 0.025383434971443058 0 -0.0020749760170080444 0.030957869953492693 0 -0.0032434930472218229 0.033151190406106062 0 -0.0027582370892848132 0.03359409045496365 0 -0.0028549635679519869 0.032952717850209319 0 -0.0027582370892848132 0.03359409045496365 0 -0.0024768984156275848 0.033232762285451994 0 -0.0028549635679519869 0.032952717850209319 0 -0.0021744619168241829 0.033460674948475211 0 -0.0027582370892848132 0.03359409045496365 0 -0.0024768984156275848 0.033232762285451994 0 -0.0023749498451675847 0.032867023543693565 0 -0.0024768984156275848 0.033232762285451994 0 -0.0028549635679519869 0.032952717850209319 0 -0.0023749498451675847 0.032867023543693565 0 -0.0028549635679519869 0.032952717850209319 0 -0.0027028921723931672 0.032706697570834532 0 -0.0028549635679519869 0.032952717850209319 0 -0.0027028921723931672 0.032706697570834532 0 -0.0030094787033683569 0.032531266110334689 0 -0.0028549635679519869 0.032952717850209319 0 -0.0033605007303194909 0.032609826431860917 0 -0.0030094787033683569 0.032531266110334689 0 -0.0032434930472218229 0.033151190406106062 0 -0.0028549635679519869 0.032952717850209319 0 -0.0033605007303194909 0.032609826431860917 0 -0.0018668466334149912 0.026035329971079567 0 -0.0020506108758515515 0.024704228751331599 0 -0.002835822485247462 0.024985813006422209 0 -0.0023479881801865034 0.028220108087337811 0 -0.0027028534354419979 0.028624248479357683 0 -0.0023479881801865034 0.028220108087337811 0 -0.0030188388182617733 0.02413919894138454 0 -0.0027028534354419979 0.028624248479357683 0 -0.0037524929263978431 0.029453883483090925 0 -0.0033605007303194909 0.032609826431860917 0 -0.0030094787033683569 0.032531266110334689 0 -0.0034490572908213797 0.032034728059105497 0 -0.0020506108758515515 0.024704228751331599 0 -0.0023032311763092309 0.023519681443098787 0 -0.0027582235395764232 0.023585460713309865 0 -0.0030094787033683569 0.032531266110334689 0 -0.0030897022470068873 0.032119163431848285 0 -0.003712036649989489 0.032097489389523684 0 -0.0026810244871381499 0.033129706708079194 0 -0.0037524929263978431 0.029453883483090925 0 -0.0027028921723931672 0.032706697570834532 0 -0.0030094787033683569 0.032531266110334689 0 -0.0025813658746636358 0.032476752226362343 0 -0.0023749498451675847 0.032867023543693565 0 -0.0027028921723931672 0.032706697570834532 0 -0.0025813658746636358 0.032476752226362343 0 -0.0030094787033683569 0.032531266110334689 0 -0.0025813658746636358 0.032476752226362343 0 -0.0030897022470068873 0.032119163431848285 0 -0.0030897022470068873 0.032119163431848285 0 -0.0028599203972206667 0.031783556315558098 0 -0.0033416229329802432 0.031481603868095565 0 -0.0025964794854125136 0.032107399851783923 0 -0.0025813658746636358 0.032476752226362343 0 -0.0030897022470068873 0.032119163431848285 0 -0.0025964794854125136 0.032107399851783923 0 -0.0030897022470068873 0.032119163431848285 0 -0.0028599203972206667 0.031783556315558098 0 -0.0030897022470068873 0.032119163431848285 0 -0.003712036649989489 0.032097489389523684 0 -0.0033416229329802432 0.031481603868095565 0 -0.0033416229329802432 0.031481603868095565 0 -0.0035715127204447332 0.030998675664295178 0 -0.0040420695249042682 0.031073889429301893 0 -0.003712036649989489 0.032097489389523684 0 -0.0033416229329802432 0.031481603868095565 0 -0.0040420695249042682 0.031073889429301893 0 -0.0037524929263978431 0.029453883483090925 0 -0.0042294265277806314 0.030897548765038474 0 -0.0035715127204447332 0.030998675664295178 0 -0.0037135466512158086 0.030569054381919949 0 -0.0040420695249042682 0.031073889429301893 0 -0.0037135466512158086 0.030569054381919949 0 -0.0040420695249042682 0.031073889429301893 0 -0.0042876090720819666 0.029884454350087738 0 -0.0035715127204447332 0.030998675664295178 0 -0.0037135466512158086 0.030569054381919949 0 -0.0031720850757580828 0.030874397807445379 0 -0.0033416229329802432 0.031481603868095565 0 -0.0035715127204447332 0.030998675664295178 0 -0.0031720850757580828 0.030874397807445379 0 -0.0031720850757580828 0.030874397807445379 0 -0.002585330833292274 0.030830035731106632 0 -0.0029521904174719077 0.030334137834850856 0 -0.0031720850757580828 0.030874397807445379 0 -0.0034112694642887196 0.030405456296433084 0 -0.0029521904174719077 0.030334137834850856 0 -0.0037135466512158086 0.030569054381919949 0 -0.0031720850757580828 0.030874397807445379 0 -0.0034112694642887196 0.030405456296433084 0 -0.0031720850757580828 0.030874397807445379 0 -0.0027874589070405044 0.031366339689819091 0 -0.002585330833292274 0.030830035731106632 0 -0.0033416229329802432 0.031481603868095565 0 -0.0031720850757580828 0.030874397807445379 0 -0.0027874589070405044 0.031366339689819091 0 -0.0028599203972206667 0.031783556315558098 0 -0.0033416229329802432 0.031481603868095565 0 -0.0027874589070405044 0.031366339689819091 0 -0.0023446873360584122 0.031836128263437929 0 -0.0027874589070405044 0.031366339689819091 0 -0.0022926253264203451 0.031342044950854103 0 -0.0023446873360584122 0.031836128263437929 0 -0.0028599203972206667 0.031783556315558098 0 -0.0027874589070405044 0.031366339689819091 0 -0.0023446873360584122 0.031836128263437929 0 -0.0022926253264203451 0.031342044950854103 0 -0.0019993173130204438 0.031676778729936086 0 -0.0027874589070405044 0.031366339689819091 0 -0.0022926253264203451 0.031342044950854103 0 -0.002585330833292274 0.030830035731106632 0 -0.0016148691510382714 0.031815196846241726 0 -0.0019993173130204438 0.031676778729936086 0 -0.0017688911213650331 0.031351040520492798 0 -0.0022926253264203451 0.031342044950854103 0 -0.0017688911213650331 0.031351040520492798 0 -0.002108841028757602 0.030955510656157845 0 -0.0022926253264203451 0.031342044950854103 0 -0.0019993173130204438 0.031676778729936086 0 -0.0017688911213650331 0.031351040520492798 0 -0.002108841028757602 0.030955510656157845 0 -0.0015231261119743108 0.030841539697537491 0 -0.0022584891119213847 0.030332569771183659 0 -0.0017688911213650331 0.031351040520492798 0 -0.002108841028757602 0.030955510656157845 0 -0.0015231261119743108 0.030841539697537491 0 -0.0022926253264203451 0.031342044950854103 0 -0.002108841028757602 0.030955510656157845 0 -0.002585330833292274 0.030830035731106632 0 -0.002108841028757602 0.030955510656157845 0 -0.002585330833292274 0.030830035731106632 0 -0.0022584891119213847 0.030332569771183659 0 -0.002585330833292274 0.030830035731106632 0 -0.0022584891119213847 0.030332569771183659 0 -0.0029521904174719077 0.030334137834850856 0 -0.0022584891119213847 0.030332569771183659 0 -0.0029411482632348005 0.029835913318364844 0 -0.0029521904174719077 0.030334137834850856 0 -0.0013551447665047962 0.030066372380355401 0 -0.0015231261119743108 0.030841539697537491 0 -0.0022584891119213847 0.030332569771183659 0 -0.0013551447665047962 0.030066372380355401 0 -0.0022584891119213847 0.030332569771183659 0 -0.0022023200577934955 0.029407084994798788 0 -0.0013551447665047962 0.030066372380355401 0 -0.0022023200577934955 0.029407084994798788 0 -0.0010452273356442794 0.029101406509361522 0 -0.0022584891119213847 0.030332569771183659 0 -0.0022023200577934955 0.029407084994798788 0 -0.0029411482632348005 0.029835913318364844 0 -0.0022023200577934955 0.029407084994798788 0 -0.003018765342855965 0.029233355783417441 0 -0.0025430823435507346 0.028841597464565581 0 -0.0022023200577934955 0.029407084994798788 0 -0.003018765342855965 0.029233355783417441 0 -0.0029411482632348005 0.029835913318364844 0 -0.003018765342855965 0.029233355783417441 0 -0.0029411482632348005 0.029835913318364844 0 -0.0035350224654389392 0.029561208234967103 0 -0.0029411482632348005 0.029835913318364844 0 -0.0035350224654389392 0.029561208234967103 0 -0.0036830440959835565 0.030037771949664543 0 -0.003018765342855965 0.029233355783417441 0 -0.0035350224654389392 0.029561208234967103 0 -0.0038470569172603052 0.028904597587132794 0 -0.0042205155215101877 0.029652065319788663 0 -0.0046672868617226399 0.029132370795789467 0 -0.0038470569172603052 0.028904597587132794 0 -0.0035350224654389392 0.029561208234967103 0 -0.0042205155215101877 0.029652065319788663 0 -0.0038470569172603052 0.028904597587132794 0 -0.0042205155215101877 0.029652065319788663 0 -0.0046672868617226399 0.029132370795789467 0 -0.005020678968706704 0.029790260263889791 0 -0.0044498849083567998 0.029081336145413007 0 -0.0042648852110416585 0.028425120719123165 0 -0.0046672868617226399 0.029132370795789467 0 -0.005020678968706704 0.029790260263889791 0 -0.0054485193751743705 0.028863517866774487 0 -0.0036758959766911396 0.03013683888141314 0 -0.0042648852110416585 0.028425120719123165 0 -0.0036830440959835565 0.030037771949664543 0 -0.0039649797283911525 0.029926148551285843 0 -0.0041433459888928961 0.029567771488078654 0 -0.0035350224654389392 0.029561208234967103 0 -0.0042205155215101877 0.029652065319788663 0 -0.0036830440959835565 0.030037771949664543 0 -0.0042205155215101877 0.029652065319788663 0 -0.0036830440959835565 0.030037771949664543 0 -0.0047547373324007044 0.029690360066148433 0 -0.0038120652300218821 0.030159960803161183 0 -0.0036830440959835565 0.030037771949664543 0 -0.0039649797283911525 0.029926148551285843 0 -0.0038120652300218821 0.030159960803161183 0 -0.0036830440959835565 0.030037771949664543 0 -0.0034112694642887196 0.030405456296433084 0 -0.0038120652300218821 0.030159960803161183 0 -0.0039649797283911525 0.029926148551285843 0 -0.0042876090720819666 0.029884454350087738 0 -0.0037135466512158086 0.030569054381919949 0 -0.0038120652300218821 0.030159960803161183 0 -0.0042876090720819666 0.029884454350087738 0 -0.0037135466512158086 0.030569054381919949 0 -0.0038120652300218821 0.030159960803161183 0 -0.0034112694642887196 0.030405456296433084 0 -0.0036830440959835565 0.030037771949664543 0 -0.0034112694642887196 0.030405456296433084 0 -0.0029521904174719077 0.030334137834850856 0 -0.0029411482632348005 0.029835913318364844 0 -0.0036830440959835565 0.030037771949664543 0 -0.0029521904174719077 0.030334137834850856 0 -0.0035638413102135626 0.028052422103153701 0 -0.0033544572676589856 0.027356755756150871 0 -0.0027327189841291699 0.028080676440168161 0 -0.0035638413102135626 0.028052422103153701 0 -0.0043825777023609224 0.027765749045020664 0 -0.004082245898743485 0.02704810475070973 0 -0.0035638413102135626 0.028052422103153701 0 -0.0033544572676589856 0.027356755756150871 0 -0.004082245898743485 0.02704810475070973 0 -0.0043825777023609224 0.027765749045020664 0 -0.004082245898743485 0.02704810475070973 0 -0.0052861045596248662 0.026859907580955005 0 -0.0043825777023609224 0.027765749045020664 0 -0.0059000580100116986 0.027901944790858231 0 -0.0052861045596248662 0.026859907580955005 0 -0.0043825777023609224 0.027765749045020664 0 -0.0047954632239027538 0.028513958131281113 0 -0.0059000580100116986 0.027901944790858231 0 -0.0043825777023609224 0.027765749045020664 0 -0.0047954632239027538 0.028513958131281113 0 -0.0038470569172603052 0.028904597587132794 0 -0.0047954632239027538 0.028513958131281113 0 -0.0046672868617226399 0.029132370795789467 0 -0.0054485193751743705 0.028863517866774487 0 -0.0047954632239027538 0.028513958131281113 0 -0.0046672868617226399 0.029132370795789467 0 -0.0038470569172603052 0.028904597587132794 0 -0.0035638413102135626 0.028052422103153701 0 -0.0043825777023609224 0.027765749045020664 0 -0.0038470569172603052 0.028904597587132794 0 -0.0035638413102135626 0.028052422103153701 0 -0.0038470569172603052 0.028904597587132794 0 -0.0031307495365860325 0.028629683559586814 0 -0.0035638413102135626 0.028052422103153701 0 -0.0031307495365860325 0.028629683559586814 0 -0.0027327189841291699 0.028080676440168161 0 -0.003018765342855965 0.029233355783417441 0 -0.0038470569172603052 0.028904597587132794 0 -0.0031307495365860325 0.028629683559586814 0 -0.0022023200577934955 0.029407084994798788 0 -0.0025430823435507346 0.028841597464565581 0 -0.0018980404551966294 0.028578007879284949 0 -0.003018765342855965 0.029233355783417441 0 -0.0031307495365860325 0.028629683559586814 0 -0.0025430823435507346 0.028841597464565581 0 -0.0025430823435507346 0.028841597464565581 0 -0.0018980404551966294 0.028578007879284949 0 -0.0027327189841291699 0.028080676440168161 0 -0.0031307495365860325 0.028629683559586814 0 -0.0025430823435507346 0.028841597464565581 0 -0.0027327189841291699 0.028080676440168161 0 -0.0018980404551966294 0.028578007879284949 0 -0.0012565756473615732 0.028014862604535999 0 -0.0010452273356442794 0.029101406509361522 0 -0.0022023200577934955 0.029407084994798788 0 -0.0018980404551966294 0.028578007879284949 0 -0.0010452273356442794 0.029101406509361522 0 -0.0020563086606782059 0.027755147485544394 0 -0.0012565756473615732 0.028014862604535999 0 -0.0017895927228572159 0.026897985354056766 0 -0.0018980404551966294 0.028578007879284949 0 -0.0020563086606782059 0.027755147485544394 0 -0.0012565756473615732 0.028014862604535999 0 -0.0018980404551966294 0.028578007879284949 0 -0.0020563086606782059 0.027755147485544394 0 -0.0027327189841291699 0.028080676440168161 0 -0.0020563086606782059 0.027755147485544394 0 -0.0027327189841291699 0.028080676440168161 0 -0.0026618332665532679 0.027139700682953009 0 -0.0033544572676589856 0.027356755756150871 0 -0.0027327189841291699 0.028080676440168161 0 -0.0026618332665532679 0.027139700682953009 0 -0.0020563086606782059 0.027755147485544394 0 -0.0026618332665532679 0.027139700682953009 0 -0.0017895927228572159 0.026897985354056766 0 -0.0026618332665532679 0.027139700682953009 0 -0.0017895927228572159 0.026897985354056766 0 -0.0027390676066507765 0.026136226807507615 0 -0.0026618332665532679 0.027139700682953009 0 -0.0027390676066507765 0.026136226807507615 0 -0.0035794618823893833 0.026229761624709538 0 -0.0017895927228572159 0.026897985354056766 0 -0.0011595797995929851 0.026179531260359976 0 -0.00068107480220427517 0.027299666371220738 0 -0.0012565756473615732 0.028014862604535999 0 -0.0017895927228572159 0.026897985354056766 0 -0.00068107480220427517 0.027299666371220738 0 -0.0017895927228572159 0.026897985354056766 0 -0.0011595797995929851 0.026179531260359976 0 -0.0023201954048003332 0.025233944814262763 0 -0.0011595797995929851 0.026179531260359976 0 -0.0023201954048003332 0.025233944814262763 0 -0.0012065156552205146 0.025114032235093144 0 -0.0017895927228572159 0.026897985354056766 0 -0.0023201954048003332 0.025233944814262763 0 -0.0027390676066507765 0.026136226807507615 0 -0.0023201954048003332 0.025233944814262763 0 -0.0027390676066507765 0.026136226807507615 0 -0.0035256039563396507 0.024851479702988854 0 -0.0027390676066507765 0.026136226807507615 0 -0.0035794618823893833 0.026229761624709538 0 -0.0035256039563396507 0.024851479702988854 0 -0.0035794618823893833 0.026229761624709538 0 -0.0042083356661789979 0.025234578274867994 0 -0.0035256039563396507 0.024851479702988854 0 -0.0035794618823893833 0.026229761624709538 0 -0.004349531681091829 0.026181733465013651 0 -0.0042083356661789979 0.025234578274867994 0 -0.0035794618823893833 0.026229761624709538 0 -0.004082245898743485 0.02704810475070973 0 -0.004349531681091829 0.026181733465013651 0 -0.0033544572676589856 0.027356755756150871 0 -0.0035794618823893833 0.026229761624709538 0 -0.004082245898743485 0.02704810475070973 0 -0.0033544572676589856 0.027356755756150871 0 -0.0026618332665532679 0.027139700682953009 0 -0.0035794618823893833 0.026229761624709538 0 -0.004349531681091829 0.026181733465013651 0 -0.0050520424294686287 0.025412102405214233 0 -0.0052861045596248662 0.026859907580955005 0 -0.004082245898743485 0.02704810475070973 0 -0.004349531681091829 0.026181733465013651 0 -0.0052861045596248662 0.026859907580955005 0 -0.0050520424294686287 0.025412102405214233 0 -0.0042083356661789979 0.025234578274867994 0 -0.0047098052757762899 0.02404256118327263 0 -0.0050520424294686287 0.025412102405214233 0 -0.0047098052757762899 0.02404256118327263 0 -0.005582939738963206 0.024172697024258196 0 -0.004349531681091829 0.026181733465013651 0 -0.0050520424294686287 0.025412102405214233 0 -0.0042083356661789979 0.025234578274867994 0 -0.0047098052757762899 0.02404256118327263 0 -0.0039825390208360354 0.023754358719083185 0 -0.0044517637154172646 0.022740543482152528 0 -0.0047098052757762899 0.02404256118327263 0 -0.0039825390208360354 0.023754358719083185 0 -0.0035256039563396507 0.024851479702988854 0 -0.0042083356661789979 0.025234578274867994 0 -0.0047098052757762899 0.02404256118327263 0 -0.0035256039563396507 0.024851479702988854 0 -0.0039825390208360354 0.023754358719083185 0 -0.0035256039563396507 0.024851479702988854 0 -0.0032412380960044084 0.023393742164433105 0 -0.0032412380960044084 0.023393742164433105 0 -0.0044517637154172646 0.022740543482152528 0 -0.0035533995171848176 0.022202341014847481 0 -0.0039825390208360354 0.023754358719083185 0 -0.0032412380960044084 0.023393742164433105 0 -0.0044517637154172646 0.022740543482152528 0 -0.0047098052757762899 0.02404256118327263 0 -0.0044517637154172646 0.022740543482152528 0 -0.0054291193534190081 0.022530608136211109 0 -0.0044517637154172646 0.022740543482152528 0 -0.0054291193534190081 0.022530608136211109 0 -0.0053395123759567894 0.021580807557377242 0 -0.0044267695936918428 0.021202668569553183 0 -0.0053821245383726922 0.020797953379309099 0 -0.0053395123759567894 0.021580807557377242 0 -0.0044517637154172646 0.022740543482152528 0 -0.0044267695936918428 0.021202668569553183 0 -0.0053395123759567894 0.021580807557377242 0 -0.0044517637154172646 0.022740543482152528 0 -0.0044267695936918428 0.021202668569553183 0 -0.0035533995171848176 0.022202341014847481 0 -0.0044267695936918428 0.021202668569553183 0 -0.0035533995171848176 0.022202341014847481 0 -0.0031455451639353744 0.021148492750498314 0 -0.0044267695936918428 0.021202668569553183 0 -0.0031455451639353744 0.021148492750498314 0 -0.0038999832656271866 0.019863629087933921 0 -0.0044267695936918428 0.021202668569553183 0 -0.0049343190857879561 0.02004836863084487 0 -0.0038999832656271866 0.019863629087933921 0 -0.0044267695936918428 0.021202668569553183 0 -0.0053821245383726922 0.020797953379309099 0 -0.0049343190857879561 0.02004836863084487 0 -0.0011172204040303694 0.023181563880243023 0 -0.0018799539367725375 0.021915072035360243 0 -0.0031455451639353744 0.021148492750498314 0 -0.0015909916719718997 0.02138913888223383 0 -0.0026313609639282425 0.019689493802224251 0 -0.0031455451639353744 0.021148492750498314 0 -0.0026313609639282425 0.019689493802224251 0 -0.0038999832656271866 0.019863629087933921 0 -0.0035533995171848176 0.022202341014847481 0 -0.0031455451639353744 0.021148492750498314 0 -0.0024149044123863875 0.022570895827218086 0 -0.0031455451639353744 0.021148492750498314 0 -0.0015909916719718997 0.02138913888223383 0 -0.0024149044123863875 0.022570895827218086 0 -0.0015909916719718997 0.02138913888223383 0 -0.0024149044123863875 0.022570895827218086 0 -0.00054424498647284562 0.023565469222504586 0 -0.0011172204040303694 0.023181563880243023 0 -0.00047062635952146363 0.02458258887173425 0 -0.0024149044123863875 0.022570895827218086 0 -0.0019719167281758063 0.023949005927002203 0 -0.00054424498647284562 0.023565469222504586 0 -0.0032412380960044084 0.023393742164433105 0 -0.0024149044123863875 0.022570895827218086 0 -0.0019719167281758063 0.023949005927002203 0 -0.0032412380960044084 0.023393742164433105 0 -0.0035533995171848176 0.022202341014847481 0 -0.0024149044123863875 0.022570895827218086 0 -0.0023201954048003332 0.025233944814262763 0 -0.0032412380960044084 0.023393742164433105 0 -0.0019719167281758063 0.023949005927002203 0 -0.0023201954048003332 0.025233944814262763 0 -0.0035256039563396507 0.024851479702988854 0 -0.0032412380960044084 0.023393742164433105 0 -0.0012065156552205146 0.025114032235093144 0 -0.0019719167281758063 0.023949005927002203 0 -0.00054424498647284562 0.023565469222504586 0 -0.0023201954048003332 0.025233944814262763 0 -0.0012065156552205146 0.025114032235093144 0 -0.0019719167281758063 0.023949005927002203 0 0.00026812589984653883 0.025640714478791446 0 -0.00031761704861922141 0.02553620510246293 0 1.6170648855411901e-05 0.026502198287828585 0 -0.0012065156552205146 0.025114032235093144 0 -0.00054424498647284562 0.023565469222504586 0 1.6170648855411901e-05 0.026502198287828585 0 -0.00047062635952146363 0.02458258887173425 0 3.5593089296704352e-05 0.026336170928762084 0 0.0018321152819810846 0.029195022466990225 0 0.00061066333526173754 0.028451437032795727 0 0.00059298428102374416 0.027445243914712047 0 0.00026812589984653883 0.025640714478791446 0 1.6170648855411901e-05 0.026502198287828585 0 0.00059298428102374416 0.027445243914712047 0 0.001011232884449071 0.027461232677874581 0 0.00067327725434538114 0.027439995165079091 0 0.0018321152819810846 0.029195022466990225 0 0.0020649867321088371 0.032386227225568054 0 0.0005352795976877676 0.030130065082280673 0 0.001011232884449071 0.027461232677874581 0 0.0012577780709266872 0.028578658757812545 0 0.00026812589984653883 0.025640714478791446 0 -0.00031761704861922141 0.02553620510246293 0 -4.3808519531641399e-05 0.02495081713430717 0 -0.00064959649658569499 0.02494196039614191 0 -0.00031761704861922141 0.02553620510246293 0 -4.3808519531641399e-05 0.02495081713430717 0 0.0018321152819810846 0.029195022466990225 0 0.0025924516257573192 0.032202769215471598 0 0.0020649867321088371 0.032386227225568054 0 0.0020429041481242766 0.032267963307356838 0 0.0014182070659816922 0.030997650223690887 0 0.0019985758023939862 0.032652547370986044 0 0.0019539273124586517 0.032946096030776362 0 0.0020853491805724014 0.032759188455831 0 0.0025924516257573192 0.032202769215471598 0 0.0020649867321088371 0.032386227225568054 0 0.0020853491805724014 0.032759188455831 0 0.0020649867321088371 0.032386227225568054 0 0.0019985758023939862 0.032652547370986044 0 0.0020142653707565985 0.032382610240988138 0 0.0020649867321088371 0.032386227225568054 0 0.0019985758023939862 0.032652547370986044 0 0.0020853491805724014 0.032759188455831 0 0.0025924516257573192 0.032202769215471598 0 0.0019395144710579412 0.032938350994722344 0 0.0020853491805724014 0.032759188455831 0 0.0012577780709266872 0.028578658757812545 0 0.00078851984751200351 0.028308210671904293 0 -0.00064959649658569499 0.02494196039614191 0 -4.3808519531641399e-05 0.02495081713430717 0 -0.00024998018860095621 0.024193993740664225 0 0.0012834871859375412 0.032948778310964315 0 0.0018306004801794823 0.032776483137926624 0 0.0016993427330141194 0.032172996452622372 0 0.0012834871859375412 0.032948778310964315 0 0.0018306004801794823 0.032776483137926624 0 0.0017239960042959035 0.033334584496541926 0 0.0019985758023939862 0.032652547370986044 0 0.0018306004801794823 0.032776483137926624 0 0.0019539273124586517 0.032946096030776362 0 0.0019985758023939862 0.032652547370986044 0 0.0018306004801794823 0.032776483137926624 0 0.0020142653707565985 0.032382610240988138 0 0.0018306004801794823 0.032776483137926624 0 0.0020142653707565985 0.032382610240988138 0 0.0016993427330141194 0.032172996452622372 0 0.0020142653707565985 0.032382610240988138 0 0.0016993427330141194 0.032172996452622372 0 0.0022317649638005348 0.03186791123978628 0 0.0020649867321088371 0.032386227225568054 0 0.0020142653707565985 0.032382610240988138 0 0.0022317649638005348 0.03186791123978628 0 0.0012834871859375412 0.032948778310964315 0 0.0016993427330141194 0.032172996452622372 0 0.0010825115875644363 0.032382864351181616 0 0.0016993427330141194 0.032172996452622372 0 0.0022317649638005348 0.03186791123978628 0 0.0018758505233793851 0.030509173448774941 0 0.0016993427330141194 0.032172996452622372 0 0.0018758505233793851 0.030509173448774941 0 0.0011446837527859949 0.031236746444027564 0 0.0016993427330141194 0.032172996452622372 0 0.0011446837527859949 0.031236746444027564 0 0.0010825115875644363 0.032382864351181616 0 0.0014182070659816922 0.030997650223690887 0 0.0009947564290896699 0.029526562251698602 0 0.0018321152819810846 0.029195022466990225 0 0.0005352795976877676 0.030130065082280673 0 0.00061066333526173754 0.028451437032795727 0 0.0005352795976877676 0.030130065082280673 0 0.00061066333526173754 0.028451437032795727 0 0.00016136117138457277 0.028477462865416428 0 0.00061066333526173754 0.028451437032795727 0 0.00016136117138457277 0.028477462865416428 0 0.00042918318398918286 0.028158679986281479 0 0.0009947564290896699 0.029526562251698602 0 0.00069589992075313729 0.028781781657459142 0 0.00016136117138457277 0.028477462865416428 0 0.00042918318398918286 0.028158679986281479 0 0.00069548807065903892 0.028727330053768582 0 0.00042918318398918286 0.028158679986281479 0 0.00055580710500572597 0.028451640590980758 0 0.00035829002210034454 0.028138897587101589 0 0.00042918318398918286 0.028158679986281479 0 0.00055580710500572597 0.028451640590980758 0 0.00069548807065903892 0.028727330053768582 0 0.00042918318398918286 0.028158679986281479 0 0.00059298428102374416 0.027445243914712047 0 0.00035829002210034454 0.028138897587101589 0 0.00061066333526173754 0.028451437032795727 0 0.00042918318398918286 0.028158679986281479 0 0.00059298428102374416 0.027445243914712047 0 1.6170648855411901e-05 0.026502198287828585 0 0.00059298428102374416 0.027445243914712047 0 9.3652681817486629e-05 0.027691549420007833 0 -0.0011595797995929851 0.026179531260359976 0 -0.0012065156552205146 0.025114032235093144 0 1.6170648855411901e-05 0.026502198287828585 0 -0.0011595797995929851 0.026179531260359976 0 1.6170648855411901e-05 0.026502198287828585 0 -0.00068107480220427517 0.027299666371220738 0 1.6170648855411901e-05 0.026502198287828585 0 -0.00068107480220427517 0.027299666371220738 0 9.3652681817486629e-05 0.027691549420007833 0 -0.00068107480220427517 0.027299666371220738 0 9.3652681817486629e-05 0.027691549420007833 0 -0.00033642934782721561 0.028295962299627019 0 0.00059298428102374416 0.027445243914712047 0 9.3652681817486629e-05 0.027691549420007833 0 0.00035829002210034454 0.028138897587101589 0 9.3652681817486629e-05 0.027691549420007833 0 -0.00033642934782721561 0.028295962299627019 0 0.00035829002210034454 0.028138897587101589 0 -0.00033642934782721561 0.028295962299627019 0 9.0649320861147729e-05 0.028710690291482325 0 0.00035829002210034454 0.028138897587101589 0 -0.0012565756473615732 0.028014862604535999 0 -0.00068107480220427517 0.027299666371220738 0 -0.00033642934782721561 0.028295962299627019 0 -0.0012565756473615732 0.028014862604535999 0 -0.00033642934782721561 0.028295962299627019 0 -0.0010452273356442794 0.029101406509361522 0 -0.00033642934782721561 0.028295962299627019 0 -0.00031511367852069726 0.029050074107019149 0 9.0649320861147729e-05 0.028710690291482325 0 -0.00033642934782721561 0.028295962299627019 0 -0.0010452273356442794 0.029101406509361522 0 -0.00031511367852069726 0.029050074107019149 0 0.00014354895293807691 0.029227077846562016 0 9.0649320861147729e-05 0.028710690291482325 0 0.00044505420062032809 0.028692449815025639 0 0.00014354895293807691 0.029227077846562016 0 -0.00031511367852069726 0.029050074107019149 0 9.0649320861147729e-05 0.028710690291482325 0 0.00056472321692678182 0.029172854236783105 0 0.00044505420062032809 0.028692449815025639 0 0.00062615746274647874 0.028637826238009291 0 0.00056472321692678182 0.029172854236783105 0 0.00014354895293807691 0.029227077846562016 0 0.00044505420062032809 0.028692449815025639 0 0.00055580710500572597 0.028451640590980758 0 0.00044505420062032809 0.028692449815025639 0 0.00035829002210034454 0.028138897587101589 0 0.00055580710500572597 0.028451640590980758 0 0.00044505420062032809 0.028692449815025639 0 0.00062615746274647874 0.028637826238009291 0 9.0649320861147729e-05 0.028710690291482325 0 0.00044505420062032809 0.028692449815025639 0 0.00035829002210034454 0.028138897587101589 0 0.00062615746274647874 0.028637826238009291 0 0.00067635618292144993 0.028787135168602047 0 0.00013646502083268928 0.028801047056690735 0 0.00072908049421193917 0.029032667717801174 0 0.00056472321692678182 0.029172854236783105 0 0.00062615746274647874 0.028637826238009291 0 0.00072908049421193917 0.029032667717801174 0 0.00062615746274647874 0.028637826238009291 0 0.00067635618292144993 0.028787135168602047 0 0.00012033353844409656 0.034779072688037267 0 0.00010075785820010019 0.03484662557346032 0 6.9513369299093906e-05 0.034872402076854027 0 0.00089980261476929624 0.032171149302930066 0 0.00032636520050276848 0.031804309371619564 0 6.9513369299093906e-05 0.034872402076854027 0 7.3904596753878994e-05 0.034875948499520047 0 5.4728711799095734e-05 0.034904386781959326 0 0.00010075785820010019 0.03484662557346032 0 6.9513369299093906e-05 0.034872402076854027 0 7.3904596753878994e-05 0.034875948499520047 0 0.00032636520050276848 0.031804309371619564 0 0.0001243330393442253 0.031872725181491555 0 7.3904596753878994e-05 0.034875948499520047 0 5.3688392562726695e-05 0.034910874865254495 0 5.4728711799095734e-05 0.034904386781959326 0 7.3904596753878994e-05 0.034875948499520047 0 5.8108583862768632e-05 0.034898546717571845 0 5.3688392562726695e-05 0.034910874865254495 0 7.3904596753878994e-05 0.034875948499520047 0 5.8889313076265336e-05 0.034866406220162294 0 5.8108583862768632e-05 0.034898546717571845 0 0.0001243330393442253 0.031872725181491555 0 -0.00031556548250774916 0.032567999444748676 0 0.00013646502083268928 0.028801047056690735 0 0.00017656911530505474 0.029362861129310507 0 0.00069548807065903892 0.028727330053768582 0 0.00017656911530505474 0.029362861129310507 0 0.00069548807065903892 0.028727330053768582 0 0.00025778074210729157 0.030605391230455997 0 0.00013646502083268928 0.028801047056690735 0 0.00017656911530505474 0.029362861129310507 0 -0.0004827285527155068 0.030108855174743453 0 0.00062615746274647874 0.028637826238009291 0 0.00013646502083268928 0.028801047056690735 0 0.00069548807065903892 0.028727330053768582 0 0.00055580710500572597 0.028451640590980758 0 0.00062615746274647874 0.028637826238009291 0 0.00069548807065903892 0.028727330053768582 0 0.00069548807065903892 0.028727330053768582 0 0.00025778074210729157 0.030605391230455997 0 0.0011446837527859949 0.031236746444027564 0 0.0018758505233793851 0.030509173448774941 0 0.00069548807065903892 0.028727330053768582 0 0.0011446837527859949 0.031236746444027564 0 0.00017656911530505474 0.029362861129310507 0 0.00025778074210729157 0.030605391230455997 0 -0.0004827285527155068 0.030108855174743453 0 -0.00012633661531833064 0.030626472729905162 0 -0.00031556548250774916 0.032567999444748676 0 0.00025778074210729157 0.030605391230455997 0 -0.00070608152414012291 0.031768633622895587 0 -0.0007642384108274686 0.030383291751242682 0 0.00025778074210729157 0.030605391230455997 0 0.00045448110540885527 0.031967064647447647 0 -0.00070608152414012291 0.031768633622895587 0 0.00025778074210729157 0.030605391230455997 0 0.00045448110540885527 0.031967064647447647 0 0.0011446837527859949 0.031236746444027564 0 0.00045448110540885527 0.031967064647447647 0 0.0011446837527859949 0.031236746444027564 0 0.0010825115875644363 0.032382864351181616 0 0.00045448110540885527 0.031967064647447647 0 0.0010825115875644363 0.032382864351181616 0 0.00050113804564836512 0.033133157907685493 0 0.00045448110540885527 0.031967064647447647 0 -0.00030580752472898526 0.033426254419288703 0 -0.00070608152414012291 0.031768633622895587 0 0.00045448110540885527 0.031967064647447647 0 0.00050113804564836512 0.033133157907685493 0 -0.00030580752472898526 0.033426254419288703 0 0.00050113804564836512 0.033133157907685493 0 -0.00030580752472898526 0.033426254419288703 0 -2.1225005988012438e-05 0.033764035629780136 0 0.00050113804564836512 0.033133157907685493 0 -2.1225005988012438e-05 0.033764035629780136 0 0.00071664838294445931 0.033558674476161676 0 0.0012834871859375412 0.032948778310964315 0 0.00050113804564836512 0.033133157907685493 0 0.00071664838294445931 0.033558674476161676 0 0.0012834871859375412 0.032948778310964315 0 0.0010825115875644363 0.032382864351181616 0 0.00050113804564836512 0.033133157907685493 0 -0.00012566061970788626 0.034025387137866854 0 -2.1225005988012438e-05 0.033764035629780136 0 -8.7002190347195706e-05 0.034153569347533989 0 -0.00012566061970788626 0.034025387137866854 0 -0.00030580752472898526 0.033426254419288703 0 -2.1225005988012438e-05 0.033764035629780136 0 -0.00030580752472898526 0.033426254419288703 0 -0.00011843498396251213 0.034179651986985651 0 -0.0004828367297320827 0.0342224046134375 0 -0.00039859521607426239 0.03336583968504523 0 -0.00055593799936482229 0.032972469255198887 0 -0.00012566061970788626 0.034025387137866854 0 -0.00030580752472898526 0.033426254419288703 0 -0.00011843498396251213 0.034179651986985651 0 -0.00011843498396251213 0.034179651986985651 0 -0.00023300430357662264 0.034460628963203607 0 -4.2911214481120381e-05 0.034558967260889563 0 -0.00055593799936482229 0.032972469255198887 0 -0.00031556548250774916 0.032567999444748676 0 -0.00011843498396251213 0.034179651986985651 0 -0.00023300430357662264 0.034460628963203607 0 -0.0004828367297320827 0.0342224046134375 0 -0.00023300430357662264 0.034460628963203607 0 -0.0004828367297320827 0.0342224046134375 0 -0.00047627897760691177 0.034586006529852012 0 -0.00031556548250774916 0.032567999444748676 0 4.2285712098344903e-05 0.035007612376957348 0 -0.00023300430357662264 0.034460628963203607 0 -0.00014376477845137937 0.03468607327697238 0 -4.2911214481120381e-05 0.034558967260889563 0 -0.00023300430357662264 0.034460628963203607 0 -0.00047627897760691177 0.034586006529852012 0 -0.00014376477845137937 0.03468607327697238 0 -0.00014376477845137937 0.03468607327697238 0 -4.2911214481120381e-05 0.034558967260889563 0 -7.7770698083118735e-06 0.034790735860842345 0 -4.2911214481120381e-05 0.034558967260889563 0 1.8513800210902468e-05 0.03476041284108107 0 -7.7770698083118735e-06 0.034790735860842345 0 1.8513800210902468e-05 0.03476041284108107 0 2.2613725522975541e-05 0.034902595920914069 0 -7.7770698083118735e-06 0.034790735860842345 0 -4.2911214481120381e-05 0.034558967260889563 0 -1.8388228639028731e-05 0.034475186896200917 0 1.8513800210902468e-05 0.03476041284108107 0 -0.00011843498396251213 0.034179651986985651 0 -4.2911214481120381e-05 0.034558967260889563 0 -1.8388228639028731e-05 0.034475186896200917 0 -0.00012566061970788626 0.034025387137866854 0 -0.00011843498396251213 0.034179651986985651 0 -1.8388228639028731e-05 0.034475186896200917 0 -1.8388228639028731e-05 0.034475186896200917 0 8.0199353910468361e-06 0.034761149453972191 0 1.8513800210902468e-05 0.03476041284108107 0 -1.8388228639028731e-05 0.034475186896200917 0 -6.6918178487625164e-05 0.034380444112187991 0 -1.7115296005259625e-05 0.034674178904565124 0 -1.8388228639028731e-05 0.034475186896200917 0 8.0199353910468361e-06 0.034761149453972191 0 -1.7115296005259625e-05 0.034674178904565124 0 -0.00012566061970788626 0.034025387137866854 0 -1.8388228639028731e-05 0.034475186896200917 0 -6.6918178487625164e-05 0.034380444112187991 0 -0.00012566061970788626 0.034025387137866854 0 -6.6918178487625164e-05 0.034380444112187991 0 -8.7002190347195706e-05 0.034153569347533989 0 1.1088220515161546e-08 0.034999665353443885 0 -1.7115296005259625e-05 0.034674178904565124 0 -4.6115116017698704e-08 0.034999649472597483 0 8.0199353910468361e-06 0.034761149453972191 0 1.1088220515161546e-08 0.034999665353443885 0 -1.7115296005259625e-05 0.034674178904565124 0 8.0199353910468361e-06 0.034761149453972191 0 1.1088220515161546e-08 0.034999665353443885 0 7.052924390409944e-08 0.034999776222477769 0 8.0199353910468361e-06 0.034761149453972191 0 1.8513800210902468e-05 0.03476041284108107 0 7.052924390409944e-08 0.034999776222477769 0 1.8513800210902468e-05 0.03476041284108107 0 7.052924390409944e-08 0.034999776222477769 0 2.2613725522975541e-05 0.034902595920914069 0 1.2195498787928483e-08 0.034999971507050268 0 3.4531324258400958e-05 0.034938073508698209 0 7.052924390409944e-08 0.034999776222477769 0 -1.7039108308642397e-08 0.034999940370731571 0 2.2613725522975541e-05 0.034902595920914069 0 2.9522525201694086e-08 0.034999972032920948 0 2.741015834000004e-05 0.034982657395710826 0 2.9674271552658856e-05 0.034965804715219602 0 2.9522525201694086e-08 0.034999972032920948 0 2.741015834000004e-05 0.034982657395710826 0 4.2283903303628174e-08 0.034999980607784136 0 2.741015834000004e-05 0.034982657395710826 0 2.9674271552658856e-05 0.034965804715219602 0 3.3617003964594075e-05 0.034944542095832684 0 2.9674271552658856e-05 0.034965804715219602 0 4.3480266912062463e-05 0.034931521065889551 0 3.3617003964594075e-05 0.034944542095832684 0 3.4531324258400958e-05 0.034938073508698209 0 -5.3784109209257569e-06 0.034839745913768976 0 5.8108583862768632e-05 0.034898546717571845 0 4.3480266912062463e-05 0.034931521065889551 0 5.3688392562726695e-05 0.034910874865254495 0 4.2285712098344903e-05 0.035007612376957348 0 -5.3784109209257569e-06 0.034839745913768976 0 5.3688392562726695e-05 0.034910874865254495 0 3.3617003964594075e-05 0.034944542095832684 0 5.4728711799095734e-05 0.034904386781959326 0 4.3480266912062463e-05 0.034931521065889551 0 5.3688392562726695e-05 0.034910874865254495 0 3.3617003964594075e-05 0.034944542095832684 0 3.3617003964594075e-05 0.034944542095832684 0 5.4728711799095734e-05 0.034904386781959326 0 3.5873391358967532e-05 0.034919423838076093 0 6.9513369299093906e-05 0.034872402076854027 0 5.4728711799095734e-05 0.034904386781959326 0 3.5873391358967532e-05 0.034919423838076093 0 6.5521745290496335e-05 0.034839628922260411 0 6.9513369299093906e-05 0.034872402076854027 0 3.5873391358967532e-05 0.034919423838076093 0 0.00023531433783624938 0.034955810079127035 0 4.6461891098787276e-05 0.035031693475858688 0 0.00016804871802758123 0.034962364038729564 0 0.00033432961252169685 0.035110427647095148 0 4.3660837937806454e-05 0.035014128292043957 0 5.7477230719986396e-08 0.035000159456257 0 4.3660837937806454e-05 0.035014128292043957 0 4.2283903303628174e-08 0.034999980607784136 0 2.741015834000004e-05 0.034982657395710826 0 4.3660837937806454e-05 0.035014128292043957 0 4.2283903303628174e-08 0.034999980607784136 0 2.741015834000004e-05 0.034982657395710826 0 3.3617003964594075e-05 0.034944542095832684 0 4.3660837937806454e-05 0.035014128292043957 0 3.3617003964594075e-05 0.034944542095832684 0 3.5873391358967532e-05 0.034919423838076093 0 4.3660837937806454e-05 0.035014128292043957 0 -0.0056975445845109862 0.011958152881222041 0 -0.0048646540960032526 0.012305232807784216 0 -0.0047921896892739431 0.011265368915394614 0 -0.0056975445845109862 0.011958152881222041 0 -0.0058696038576471826 0.012713148477739029 0 -0.0053887424026197658 0.012847545252296816 0 -0.0056975445845109862 0.011958152881222041 0 -0.0048646540960032526 0.012305232807784216 0 -0.0053887424026197658 0.012847545252296816 0 -0.0048646540960032526 0.012305232807784216 0 -0.0047921896892739431 0.011265368915394614 0 -0.0040412585551344062 0.01217613801229467 0 -0.0048646540960032526 0.012305232807784216 0 -0.0042536544132559832 0.013317449404540903 0 -0.0040412585551344062 0.01217613801229467 0 -0.0047921896892739431 0.011265368915394614 0 -0.0040412585551344062 0.01217613801229467 0 -0.0037719208208960272 0.011059122088565005 0 -0.0047921896892739431 0.011265368915394614 0 -0.0037719208208960272 0.011059122088565005 0 -0.004850491046383144 0.010597352710785775 0 -0.0056256314286164694 0.011536635751069595 0 -0.0047921896892739431 0.011265368915394614 0 -0.0056198176998630599 0.010939581082383323 0 -0.0047921896892739431 0.011265368915394614 0 -0.0056198176998630599 0.010939581082383323 0 -0.004850491046383144 0.010597352710785775 0 -0.0056278161357744619 0.011740915787537892 0 -0.0048482127604008397 0.011302523546958727 0 -0.0056198176998630599 0.010939581082383323 0 -0.0060486976648120739 0.01129971944236958 0 -0.006165874419458219 0.010827855639798911 0 -0.0056256314286164694 0.011536635751069595 0 -0.0056198176998630599 0.010939581082383323 0 -0.0060486976648120739 0.01129971944236958 0 -0.0065884911524279558 0.011369132219598958 0 -0.0066013550962258265 0.010831043151851129 0 -0.006165874419458219 0.010827855639798911 0 -0.0060486976648120739 0.01129971944236958 0 -0.0065884911524279558 0.011369132219598958 0 -0.006165874419458219 0.010827855639798911 0 -0.0065884911524279558 0.011369132219598958 0 -0.0061984787650657411 0.011801015815745606 0 -0.0067509612445686238 0.01211639345597218 0 -0.0060486976648120739 0.01129971944236958 0 -0.0065884911524279558 0.011369132219598958 0 -0.0061984787650657411 0.011801015815745606 0 -0.0061693042468067213 0.012057168141169044 0 -0.0067717473135331715 0.013389548046758347 0 -0.0056256314286164694 0.011536635751069595 0 -0.0060486976648120739 0.01129971944236958 0 -0.0061984787650657411 0.011801015815745606 0 -0.0056975445845109862 0.011958152881222041 0 -0.0062590404816144952 0.012477820742335053 0 -0.0058696038576471826 0.012713148477739029 0 -0.0056278161357744619 0.011740915787537892 0 -0.0061693042468067213 0.012057168141169044 0 -0.0062590404816144952 0.012477820742335053 0 -0.0058696038576471826 0.012713148477739029 0 -0.0064009377821290609 0.013009036796901349 0 -0.0058696038576471826 0.012713148477739029 0 -0.0059049159814047059 0.013150884264302319 0 -0.0064009377821290609 0.013009036796901349 0 -0.0062590404816144952 0.012477820742335053 0 -0.0064009377821290609 0.013009036796901349 0 -0.0067575175305671 0.012810910276054121 0 -0.0064009377821290609 0.013009036796901349 0 -0.0067575175305671 0.012810910276054121 0 -0.0068405207462698455 0.01326314059948175 0 -0.0064009377821290609 0.013009036796901349 0 -0.0065141071825623488 0.013408772363063723 0 -0.0068405207462698455 0.01326314059948175 0 -0.0064009377821290609 0.013009036796901349 0 -0.0065141071825623488 0.013408772363063723 0 -0.0061502763488528959 0.013437296994227375 0 -0.0065141071825623488 0.013408772363063723 0 -0.0061502763488528959 0.013437296994227375 0 -0.0063356894062995446 0.013738350954395953 0 -0.0061502763488528959 0.013437296994227375 0 -0.0059917210789217816 0.013762614927249055 0 -0.0063356894062995446 0.013738350954395953 0 -0.0065141071825623488 0.013408772363063723 0 -0.0067643574662276601 0.013693541489356168 0 -0.0063356894062995446 0.013738350954395953 0 -0.0059049159814047059 0.013150884264302319 0 -0.0064009377821290609 0.013009036796901349 0 -0.0061502763488528959 0.013437296994227375 0 -0.0059049159814047059 0.013150884264302319 0 -0.0058340383305952185 0.013503983674981075 0 -0.0055610900922919331 0.013386951080619314 0 -0.0059049159814047059 0.013150884264302319 0 -0.0061502763488528959 0.013437296994227375 0 -0.0058340383305952185 0.013503983674981075 0 -0.0061502763488528959 0.013437296994227375 0 -0.0058340383305952185 0.013503983674981075 0 -0.0059917210789217816 0.013762614927249055 0 -0.0058340383305952185 0.013503983674981075 0 -0.0055610900922919331 0.013386951080619314 0 -0.0056469656912158826 0.013786021383227199 0 -0.0055610900922919331 0.013386951080619314 0 -0.0053811116883039521 0.013582193134499604 0 -0.0056469656912158826 0.013786021383227199 0 -0.0055610900922919331 0.013386951080619314 0 -0.0052768320117648976 0.013328403363395722 0 -0.0053811116883039521 0.013582193134499604 0 -0.0059049159814047059 0.013150884264302319 0 -0.0055610900922919331 0.013386951080619314 0 -0.0053887424026197658 0.012847545252296816 0 -0.0055610900922919331 0.013386951080619314 0 -0.0053887424026197658 0.012847545252296816 0 -0.0052768320117648976 0.013328403363395722 0 -0.0058696038576471826 0.012713148477739029 0 -0.0059049159814047059 0.013150884264302319 0 -0.0053887424026197658 0.012847545252296816 0 -0.0048646540960032526 0.012305232807784216 0 -0.0053887424026197658 0.012847545252296816 0 -0.0042536544132559832 0.013317449404540903 0 -0.0054261953214700199 0.01284897926997992 0 -0.0044921568477030334 0.013372388190380497 0 -0.0053887424026197658 0.012847545252296816 0 -0.0050877121729883713 0.013159362042628063 0 -0.0052768320117648976 0.013328403363395722 0 -0.0050877121729883713 0.013159362042628063 0 -0.0052768320117648976 0.013328403363395722 0 -0.005131997737367216 0.013532144295063532 0 -0.0052768320117648976 0.013328403363395722 0 -0.005131997737367216 0.013532144295063532 0 -0.0053811116883039521 0.013582193134499604 0 -0.0050877121729883713 0.013159362042628063 0 -0.005131997737367216 0.013532144295063532 0 -0.0047974758960311198 0.013327141896609941 0 -0.005131997737367216 0.013532144295063532 0 -0.0047974758960311198 0.013327141896609941 0 -0.0049329322175361186 0.013681736416682399 0 -0.004613304564896786 0.012114346404597067 0 -0.0044277574618854388 0.011388026288010682 0 -0.0059605387649703861 0.010335860238851469 0 -0.0047550856412114876 0.010818844572094834 0 -0.0047739333561378512 0.0095282750411013369 0 -0.004613304564896786 0.012114346404597067 0 -0.0049422954806408953 0.013242836099227762 0 -0.0047138548919591064 0.011728061676466473 0 -0.0039582860934321024 0.012038485055118177 0 -0.0042854680494008078 0.012513582494095727 0 -0.0059605387649703861 0.010335860238851469 0 -0.0047739333561378512 0.0095282750411013369 0 -0.0056163463240711479 0.0087059734060337506 0 -0.004613304564896786 0.012114346404597067 0 -0.0041895353133690342 0.010460484769333969 0 -0.0042536544132559832 0.013317449404540903 0 -0.00312200568824767 0.013763524417108488 0 -0.002796587660317644 0.012423398192957331 0 -0.0044921568477030334 0.013372388190380497 0 -0.004613304564896786 0.012114346404597067 0 -0.004722994888350979 0.0086359322425914129 0 -0.0038398054310833864 0.011270928204589041 0 -0.0053677514896011257 0.0098273928739378968 0 -0.0056127030154233381 0.0078191693668140088 0 -0.0054146339844227467 0.010630314821714927 0 -0.0039258893757575649 0.0089107309294940949 0 -0.0044219566587974301 0.0099176700500285611 0 -0.0053677514896011257 0.0098273928739378968 0 -0.0044219566587974301 0.0099176700500285611 0 -0.0053677514896011257 0.0098273928739378968 0 -0.0054146339844227467 0.010630314821714927 0 -0.0047550856412114876 0.010818844572094834 0 -0.0036928694613029204 0.0096967566106202392 0 -0.0035513088297361574 0.011307837594676171 0 -0.0044277574618854388 0.011388026288010682 0 -0.0038398054310833864 0.011270928204589041 0 -0.0047739333561378512 0.0095282750411013369 0 -0.0036928694613029204 0.0096967566106202392 0 -0.0038330533593965085 0.0080609910362401498 0 -0.0047550856412114876 0.010818844572094834 0 -0.0047739333561378512 0.0095282750411013369 0 -0.0036928694613029204 0.0096967566106202392 0 -0.0041870991612310187 0.0073402053647056249 0 -0.0039258893757575649 0.0089107309294940949 0 -0.0053677514896011257 0.0098273928739378968 0 -0.0040075955971956949 0.0070608170882956395 0 -0.0052928037576655575 0.0096963414035060123 0 -0.0038025161944804944 0.0068101304661480266 0 -0.0053677514896011257 0.0098273928739378968 0 -0.0056127030154233381 0.0078191693668140088 0 -0.0038025161944804944 0.0068101304661480266 0 -0.0056127030154233381 0.0078191693668140088 0 -0.0046235497326542136 0.0056021315542919385 0 -0.004722994888350979 0.0086359322425914129 0 -0.0047704297666611812 0.0067467173751694165 0 -0.0056127030154233381 0.0078191693668140088 0 -0.0058412285027467942 0.0048863543508550749 0 -0.0046235497326542136 0.0056021315542919385 0 -0.0032586400465806028 0.0050900103082592634 0 -0.0046235497326542136 0.0056021315542919385 0 -0.0046977276230065557 0.003582986052866458 0 -0.0058412285027467942 0.0048863543508550749 0 -0.0046235497326542136 0.0056021315542919385 0 -0.0046977276230065557 0.003582986052866458 0 -0.0047739333561378512 0.0095282750411013369 0 -0.0038330533593965085 0.0080609910362401498 0 -0.0056163463240711479 0.0087059734060337506 0 -0.0038330533593965085 0.0080609910362401498 0 -0.0056163463240711479 0.0087059734060337506 0 -0.0052637928803457926 0.0070487375691080318 0 -0.0038330533593965085 0.0080609910362401498 0 -0.0052637928803457926 0.0070487375691080318 0 -0.0039788974853428088 0.0064022877743911332 0 -0.0047704297666611812 0.0067467173751694165 0 -0.0055561495825599142 0.0030437358855287255 0 -0.0058412285027467942 0.0048863543508550749 0 -0.0046977276230065557 0.003582986052866458 0 -0.0060709698121099052 0.0020641935366437353 0 -0.004764518899058795 0.0033880759138044296 0 -0.0055561495825599142 0.0030437358855287255 0 -0.0040412585551344062 0.01217613801229467 0 -0.002796587660317644 0.012423398192957331 0 -0.0037719208208960272 0.011059122088565005 0 -0.0042536544132559832 0.013317449404540903 0 -0.0040412585551344062 0.01217613801229467 0 -0.002796587660317644 0.012423398192957331 0 -0.0041895353133690342 0.010460484769333969 0 -0.0038160472773281036 0.0094699901995050472 0 -0.002796587660317644 0.012423398192957331 0 -0.0024435795781242967 0.011028134906982725 0 -0.0037719208208960272 0.011059122088565005 0 -0.0037719208208960272 0.011059122088565005 0 -0.0032701775425298639 0.0098774232634046173 0 -0.0041730400349500492 0.0099293173571209977 0 -0.0024435795781242967 0.011028134906982725 0 -0.0032701775425298639 0.0098774232634046173 0 -0.002115921107922612 0.0095976438199855858 0 -0.0024435795781242967 0.011028134906982725 0 -0.0037719208208960272 0.011059122088565005 0 -0.0032701775425298639 0.0098774232634046173 0 -0.0038160472773281036 0.0094699901995050472 0 -0.0044430873218521908 0.0052958415567922286 0 -0.0032701775425298639 0.0098774232634046173 0 -0.0023127700454273837 0.0091801931139142545 0 -0.0030672196429319763 0.0091082023585258038 0 -0.0032701775425298639 0.0098774232634046173 0 -0.0024512982544063269 0.0092244336452352929 0 -0.002115921107922612 0.0095976438199855858 0 -0.0032857119624730628 0.0098932091474989436 0 -0.002620493609102719 0.0081482434569705182 0 -0.002620493609102719 0.0081482434569705182 0 -0.0044430873218521908 0.0052958415567922286 0 -0.0022591507109286403 0.0091265702917372286 0 -0.0016659482584963077 0.0086841398826369102 0 -0.0022958800018717373 0.0085042263286244472 0 -0.0023127700454273837 0.0091801931139142545 0 -0.0030672196429319763 0.0091082023585258038 0 -0.0030579338694191847 0.0083354327066350598 0 -0.0030672196429319763 0.0091082023585258038 0 -0.0036765701332027857 0.0091004344488878185 0 -0.0030579338694191847 0.0083354327066350598 0 -0.0036765701332027857 0.0091004344488878185 0 -0.0045504261463039045 0.0089959479128426962 0 -0.0041730400349500492 0.0099293173571209977 0 -0.0032701775425298639 0.0098774232634046173 0 -0.0036765701332027857 0.0091004344488878185 0 -0.0041730400349500492 0.0099293173571209977 0 -0.0032701775425298639 0.0098774232634046173 0 -0.0030672196429319763 0.0091082023585258038 0 -0.0036765701332027857 0.0091004344488878185 0 -0.0035261040888834448 0.0016850579851998995 0 -0.0046519753916942031 0.0034018988808035447 0 -0.0059510560834066034 0.001807259546096998 0 -0.0035261040888834448 0.0016850579851998995 0 -0.0059510560834066034 0.001807259546096998 0 -0.0048702456092469025 0.00022499198183975261 0 -0.0052637928803457926 0.0070487375691080318 0 -0.0039788974853428088 0.0064022877743911332 0 -0.0048983327880105223 0.0053790521859185952 0 -0.0055561495825599142 0.0030437358855287255 0 -0.0044430873218521908 0.0052958415567922286 0 -0.005713988501474857 0.0021049853405332936 0 -0.0073287404913994752 0.00029071765473470429 0 -0.0060311757333483393 -0.00086547216487317669 0 -0.0055561495825599142 0.0030437358855287255 0 -0.0060993335060223301 -0.0011206341164368421 0 -0.0037244382781715492 0.0061589519440772133 0 -0.0034427091979589599 0.0064717358131582414 0 -0.003294130219640725 0.0058312208681531143 0 -0.0044430873218521908 0.0052958415567922286 0 -0.0029484016103647069 0.0048546595688196371 0 -0.002620493609102719 0.0081482434569705182 0 -0.0029484016103647069 0.0048546595688196371 0 -0.0073287404913994752 0.00029071765473470429 0 -0.0060311757333483393 -0.00086547216487317669 0 -0.0069340792615748435 -0.0012336552532572224 0 -0.0059510560834066034 0.001807259546096998 0 -0.0060311757333483393 -0.00086547216487317669 0 -0.0048702456092469025 0.00022499198183975261 0 -0.0060311757333483393 -0.00086547216487317669 0 -0.0048702456092469025 0.00022499198183975261 0 -0.0045559042784514923 -0.0012474829188248325 0 -0.0036418022911455078 -0.00030502579322196137 0 -0.0048702456092469025 0.00022499198183975261 0 -0.0045559042784514923 -0.0012474829188248325 0 -0.0060311757333483393 -0.00086547216487317669 0 -0.0069340792615748435 -0.0012336552532572224 0 -0.0043774085506528507 -0.0030564659669091382 0 -0.0035470311030077815 -0.0020199252263917657 0 -0.0045559042784514923 -0.0012474829188248325 0 -0.0043774085506528507 -0.0030564659669091382 0 -0.0060311757333483393 -0.00086547216487317669 0 -0.0045559042784514923 -0.0012474829188248325 0 -0.0043774085506528507 -0.0030564659669091382 0 -0.0029484016103647069 0.0048546595688196371 0 -0.0023758364333593186 0.0011306094160714053 0 -0.0029484016103647069 0.0048546595688196371 0 -0.0012409189524473557 0.006748449252137456 0 -0.0016659482584963077 0.0086841398826369102 0 -0.001319633147808799 0.0072920864152332746 0 -0.0021986673754438597 0.0079460270449606824 0 -0.0013872976310724558 0.006118615130922888 0 -0.0011846378651475325 0.0053185541637448212 0 -0.00040553758633092232 0.0055034033144488884 0 -0.00092837779235058172 0.005080538721860854 0 -0.0012409189524473557 0.006748449252137456 0 -0.0011846378651475325 0.0053185541637448212 0 -0.00040553758633092232 0.0055034033144488884 0 -0.00050245490918121962 0.0048489741393575392 0 -0.00087139003465342411 0.0045900094325383748 0 -0.0011846378651475325 0.0053185541637448212 0 -0.00050245490918121962 0.0048489741393575392 0 0.00028428732501722259 0.0042410239943133496 0 -0.00040553758633092232 0.0055034033144488884 0 -0.00050245490918121962 0.0048489741393575392 0 -0.0029645624906077563 0.0084019901800943177 0 -0.0037938087750774194 0.0074932174806492287 0 -0.0039593519326853819 0.0083561044817327713 0 -0.0030579338694191847 0.0083354327066350598 0 -0.0038511940392683703 0.0074342969519265679 0 -0.0036765701332027857 0.0091004344488878185 0 -0.0039593519326853819 0.0083561044817327713 0 -0.0045504261463039045 0.0089959479128426962 0 -0.0036765701332027857 0.0091004344488878185 0 -0.0039593519326853819 0.0083561044817327713 0 -0.0030579338694191847 0.0083354327066350598 0 -0.002620493609102719 0.0081482434569705182 0 -0.0029645624906077563 0.0084019901800943177 0 -0.0030617272441285969 0.0082593619167202204 0 -0.0022958800018717373 0.0085042263286244472 0 -0.0021986673754438597 0.0079460270449606824 0 -0.0022591507109286403 0.0091265702917372286 0 -0.0030617272441285969 0.0082593619167202204 0 -0.0022958800018717373 0.0085042263286244472 0 -0.0016659482584963077 0.0086841398826369102 0 -0.0022958800018717373 0.0085042263286244472 0 -0.0021986673754438597 0.0079460270449606824 0 -0.0030617272441285969 0.0082593619167202204 0 -0.0021986673754438597 0.0079460270449606824 0 -0.0028617661874083869 0.0072750170639922403 0 -0.0023674306735455373 0.0062183386544942898 0 -0.001319633147808799 0.0072920864152332746 0 -0.0028617661874083869 0.0072750170639922403 0 -0.001319633147808799 0.0072920864152332746 0 -0.0021986673754438597 0.0079460270449606824 0 -0.0028617661874083869 0.0072750170639922403 0 -0.0031135088387284574 0.0065808353375562522 0 -0.0023674306735455373 0.0062183386544942898 0 -0.0028617661874083869 0.0072750170639922403 0 -0.0038545366057925407 0.0065211588018298221 0 -0.0031135088387284574 0.0065808353375562522 0 -0.0038511940392683703 0.0074342969519265679 0 -0.0031135088387284574 0.0065808353375562522 0 -0.0028617661874083869 0.0072750170639922403 0 -0.0038511940392683703 0.0074342969519265679 0 -0.0030617272441285969 0.0082593619167202204 0 -0.0028617661874083869 0.0072750170639922403 0 -0.0038511940392683703 0.0074342969519265679 0 -0.0046558678536967697 0.0067033512388295817 0 -0.0038545366057925407 0.0065211588018298221 0 -0.0038511940392683703 0.0074342969519265679 0 -0.0046558678536967697 0.0067033512388295817 0 -0.0053984685668978221 0.0069712942184799506 0 -0.0047844261337567015 0.0078825092541531701 0 -0.0046558678536967697 0.0067033512388295817 0 -0.0038511940392683703 0.0074342969519265679 0 -0.0047844261337567015 0.0078825092541531701 0 -0.005841160891890399 0.0076644265483087207 0 -0.0053984685668978221 0.0069712942184799506 0 -0.0047844261337567015 0.0078825092541531701 0 -0.0062209239347540187 0.0065808313724158305 0 -0.005841160891890399 0.0076644265483087207 0 -0.0053984685668978221 0.0069712942184799506 0 -0.005841160891890399 0.0076644265483087207 0 -0.0054744123299622378 0.0087055861915371312 0 -0.0064852818579198427 0.0083949658812703352 0 -0.005841160891890399 0.0076644265483087207 0 -0.0054744123299622378 0.0087055861915371312 0 -0.0047844261337567015 0.0078825092541531701 0 -0.0054744123299622378 0.0087055861915371312 0 -0.0047844261337567015 0.0078825092541531701 0 -0.0045504261463039045 0.0089959479128426962 0 -0.0039593519326853819 0.0083561044817327713 0 -0.0047844261337567015 0.0078825092541531701 0 -0.0045504261463039045 0.0089959479128426962 0 -0.0039593519326853819 0.0083561044817327713 0 -0.0038511940392683703 0.0074342969519265679 0 -0.0047844261337567015 0.0078825092541531701 0 -0.0045504261463039045 0.0089959479128426962 0 -0.0050339124843787868 0.009722162643871303 0 -0.0041730400349500492 0.0099293173571209977 0 -0.0054744123299622378 0.0087055861915371312 0 -0.0045504261463039045 0.0089959479128426962 0 -0.0050339124843787868 0.009722162643871303 0 -0.0054744123299622378 0.0087055861915371312 0 -0.0058805636978864206 0.0096935485447975662 0 -0.0064852818579198427 0.0083949658812703352 0 -0.0054744123299622378 0.0087055861915371312 0 -0.0050339124843787868 0.009722162643871303 0 -0.0058805636978864206 0.0096935485447975662 0 -0.0056198176998630599 0.010939581082383323 0 -0.0054485943268444206 0.010463894833302777 0 -0.004850491046383144 0.010597352710785775 0 -0.0050339124843787868 0.009722162643871303 0 -0.0058805636978864206 0.0096935485447975662 0 -0.0054485943268444206 0.010463894833302777 0 -0.0050339124843787868 0.009722162643871303 0 -0.0054485943268444206 0.010463894833302777 0 -0.004850491046383144 0.010597352710785775 0 -0.0056245229032475513 0.01029988665761743 0 -0.0054485943268444206 0.010463894833302777 0 -0.005830760449762544 0.010594055973580317 0 -0.0056919856072926434 0.0095165534530531112 0 -0.0054293780380133359 0.010387881764495531 0 -0.0056198176998630599 0.010939581082383323 0 -0.0054485943268444206 0.010463894833302777 0 -0.005830760449762544 0.010594055973580317 0 -0.0037719208208960272 0.011059122088565005 0 -0.004850491046383144 0.010597352710785775 0 -0.0041730400349500492 0.0099293173571209977 0 -0.0050339124843787868 0.009722162643871303 0 -0.004850491046383144 0.010597352710785775 0 -0.0041730400349500492 0.0099293173571209977 0 -0.0066013550962258265 0.010831043151851129 0 -0.006165874419458219 0.010827855639798911 0 -0.0062408746789439111 0.010417245871885068 0 -0.0066013550962258265 0.010831043151851129 0 -0.0062408746789439111 0.010417245871885068 0 -0.0066785864811011036 0.01039002309424906 0 -0.0056245229032475513 0.01029988665761743 0 -0.005830760449762544 0.010594055973580317 0 -0.0062408746789439111 0.010417245871885068 0 -0.0056198176998630599 0.010939581082383323 0 -0.006165874419458219 0.010827855639798911 0 -0.005830760449762544 0.010594055973580317 0 -0.006165874419458219 0.010827855639798911 0 -0.005830760449762544 0.010594055973580317 0 -0.0062408746789439111 0.010417245871885068 0 -0.005872303939364147 0.0085821279863069859 0 -0.0051603020465922494 0.0090526071478572185 0 -0.0055398027535131008 0.0092113963814886343 0 -0.0056919856072926434 0.0095165534530531112 0 -0.006008775518895065 0.0087970238590039888 0 -0.0056919856072926434 0.0095165534530531112 0 -0.0058393223754212072 0.0093641264062497582 0 -0.0056245229032475513 0.01029988665761743 0 -0.0062408746789439111 0.010417245871885068 0 -0.0062262326147070612 0.0099816801355441902 0 -0.0062408746789439111 0.010417245871885068 0 -0.0065603623747295175 0.010112162107452289 0 -0.0062262326147070612 0.0099816801355441902 0 -0.0062408746789439111 0.010417245871885068 0 -0.0065603623747295175 0.010112162107452289 0 -0.0066785864811011036 0.01039002309424906 0 -0.0058393223754212072 0.0093641264062497582 0 -0.0050059792540010778 0.010434651836507861 0 -0.0065603623747295175 0.010112162107452289 0 -0.0062262326147070612 0.0099816801355441902 0 -0.0067606138271473276 0.0096416758233490475 0 -0.0051603020465922494 0.0090526071478572185 0 -0.0050112671222211323 0.0095219296174049329 0 -0.0043958858381963296 0.0095616863581376148 0 -0.0050112671222211323 0.0095219296174049329 0 -0.0055398027535131008 0.0092113963814886343 0 -0.0051986682986140849 0.0098894263632418062 0 -0.006008775518895065 0.0087970238590039888 0 -0.006334793416114798 0.0082758131513734293 0 -0.0051603020465922494 0.0090526071478572185 0 -0.0050112671222211323 0.0095219296174049329 0 -0.0055398027535131008 0.0092113963814886343 0 -0.005841160891890399 0.0076644265483087207 0 -0.0064852818579198427 0.0083949658812703352 0 -0.0069972508956815385 0.0072139419083525648 0 -0.0062209239347540187 0.0065808313724158305 0 -0.005841160891890399 0.0076644265483087207 0 -0.0069972508956815385 0.0072139419083525648 0 -0.0050112671222211323 0.0095219296174049329 0 -0.0047421501591186901 0.0099041756937430139 0 -0.0043958858381963296 0.0095616863581376148 0 -0.0048267361642938692 0.010596772733849289 0 -0.0051986682986140849 0.0098894263632418062 0 -0.0047421501591186901 0.0099041756937430139 0 -0.0050112671222211323 0.0095219296174049329 0 -0.0051986682986140849 0.0098894263632418062 0 -0.0047421501591186901 0.0099041756937430139 0 -0.0042828388179234197 0.010307247789672945 0 -0.0043655693489301215 0.0096094791260704707 0 -0.0037540267894675349 0.010029645349152207 0 -0.0043938313946922259 0.0099153045866171453 0 -0.0050059792540010778 0.010434651836507861 0 -0.0042828388179234197 0.010307247789672945 0 -0.0045153637510739779 0.010314941773022992 0 -0.0043655693489301215 0.0096094791260704707 0 -0.0045153637510739779 0.010314941773022992 0 -0.0047421501591186901 0.0099041756937430139 0 -0.0043958858381963296 0.0095616863581376148 0 -0.0050059792540010778 0.010434651836507861 0 -0.0022734550034104761 0.01141334490549859 0 -0.0065603623747295175 0.010112162107452289 0 -0.0067606138271473276 0.0096416758233490475 0 -0.0068738892970615032 0.01015590552256785 0 -0.0042244726578384425 0.012824939846145808 0 -0.0034509139823503902 0.012489041234706262 0 -0.0040474766439864028 0.011884402321889047 0 -0.0050059792540010778 0.010434651836507861 0 -0.0052067161867932251 0.012667010553116248 0 -0.0033990229494115522 0.014666927710076712 0 -0.0052067161867932251 0.012667010553116248 0 -0.0036707903902569732 0.016511203495927194 0 -0.0035784494817242747 0.016597363797011083 0 -0.0035595631092985355 0.016483098879070641 0 -0.0036707903902569732 0.016511203495927194 0 -0.0035595631092985355 0.016483098879070641 0 -0.003655788098343991 0.016405671233904285 0 -0.0033990229494115522 0.014666927710076712 0 -0.0022561914405336979 0.014727932799539161 0 -0.0034509139823503902 0.012489041234706262 0 -0.0034004293991377037 0.01339599844599584 0 -0.0028519722098275303 0.013100661519950412 0 -0.0042244726578384425 0.012824939846145808 0 -0.0034509139823503902 0.012489041234706262 0 -0.0034004293991377037 0.01339599844599584 0 -0.0011602536194647984 0.011484101684089204 0 -0.0013212365273850208 0.011394840130938574 0 -0.0012091611286704444 0.011335733775634545 0 -0.0022734550034104761 0.01141334490549859 0 -0.0022561914405336979 0.014727932799539161 0 -0.00082103297135154441 0.014133761499758687 0 -0.0022561914405336979 0.014727932799539161 0 -0.0022561914405336979 0.014727932799539161 0 -0.0023963622705906839 0.017258604888970939 0 -0.00094256456105799337 0.016744193244420485 0 -0.00051712172810779481 0.017199391589815028 0 -0.0010276676699553242 0.017519679028314954 0 -0.00094256456105799337 0.016744193244420485 0 -0.0010276676699553242 0.017519679028314954 0 -0.0013906149993798387 0.017169456480651997 0 -0.0023963622705906839 0.017258604888970939 0 -0.0021738714804647287 0.016863553522383733 0 -0.0010276676699553242 0.017519679028314954 0 -0.0013906149993798387 0.017169456480651997 0 -0.0015522335787437574 0.017846158591718779 0 -0.0034601735441792364 0.016550388561166866 0 -0.0034504182166883793 0.01645357508040747 0 -0.0033393651969307069 0.016514362044845837 0 -0.0034601735441792364 0.016550388561166866 0 -0.0035595631092985355 0.016483098879070641 0 -0.0034504182166883793 0.01645357508040747 0 -0.0035784494817242747 0.016597363797011083 0 -0.0034601735441792364 0.016550388561166866 0 -0.0035595631092985355 0.016483098879070641 0 -0.0035595631092985355 0.016483098879070641 0 -0.0034504182166883793 0.01645357508040747 0 -0.0035534207154960381 0.016368929642562736 0 -0.0035595631092985355 0.016483098879070641 0 -0.0035534207154960381 0.016368929642562736 0 -0.003655788098343991 0.016405671233904285 0 -0.0034504182166883793 0.01645357508040747 0 -0.0033393651969307069 0.016514362044845837 0 -0.0033743328319833566 0.016349966784782025 0 -0.0034504182166883793 0.01645357508040747 0 -0.0035534207154960381 0.016368929642562736 0 -0.0033743328319833566 0.016349966784782025 0 -0.0035534207154960381 0.016368929642562736 0 -0.0033743328319833566 0.016349966784782025 0 -0.0035428842800839782 0.016225350394466698 0 -0.0035534207154960381 0.016368929642562736 0 -0.0037337231726995599 0.016261912968640845 0 -0.0035428842800839782 0.016225350394466698 0 -0.0035534207154960381 0.016368929642562736 0 -0.0037337231726995599 0.016261912968640845 0 -0.003655788098343991 0.016405671233904285 0 -0.0054044159154720273 0.013171739428691123 0 -0.0052067161867932251 0.012667010553116248 0 -0.0066013550962258265 0.010831043151851129 0 -0.0071164178434162629 0.010935933883422587 0 -0.0066785864811011036 0.01039002309424906 0 -0.0071164178434162629 0.010935933883422587 0 -0.0066785864811011036 0.01039002309424906 0 -0.006928369885592393 0.010134819633925332 0 -0.0072133234161977523 0.010036003990505658 0 -0.0052067161867932251 0.012667010553116248 0 -0.0065603623747295175 0.010112162107452289 0 -0.0066785864811011036 0.01039002309424906 0 -0.0068738892970615032 0.01015590552256785 0 -0.0036707903902569732 0.016511203495927194 0 -0.0037614644164149554 0.016411338973454117 0 -0.003655788098343991 0.016405671233904285 0 -0.0037337231726995599 0.016261912968640845 0 -0.0037614644164149554 0.016411338973454117 0 -0.003655788098343991 0.016405671233904285 0 -0.0029926483840603869 0.021803387210046467 0 -0.0027720389193884036 0.020845063111566229 0 -0.0029783414738884439 0.017577944694755473 0 -0.0026129136129990549 0.017354791254124986 0 -0.0025329375550050695 0.017862396707179609 0 -0.0028499560986964853 0.02384659584391325 0 -0.0028508557401213433 0.02395707096711705 0 -0.0030632073068754847 0.023846209161017887 0 -0.0030188388182617733 0.02413919894138454 0 -0.0029926483840603869 0.021803387210046467 0 -0.0019704685824735021 0.025186494717609025 0 -0.0033408305804158525 0.023775034869703001 0 -0.003339295150045332 0.024777597112955831 0 -0.0029926483840603869 0.021803387210046467 0 -0.0026075211970596648 0.019458167903598264 0 -0.0025117714733154861 0.022210166014700369 0 -0.0022417162330158722 0.02237986879447379 0 -0.0022352681007723313 0.022084222427598433 0 -0.0026700917212988061 0.016973385212388947 0 -0.0029725058805841241 0.017130042235380748 0 -0.0026129136129990549 0.017354791254124986 0 -0.0029783414738884439 0.017577944694755473 0 -0.0029725058805841241 0.017130042235380748 0 -0.0026129136129990549 0.017354791254124986 0 -0.0023269681478519651 0.01658257567565757 0 -0.0026129136129990549 0.017354791254124986 0 -0.0021773420533809634 0.017099671986210912 0 -0.0023686555786218079 0.016878286052286168 0 -0.0025383278048312086 0.017187320991596051 0 -0.0026129136129990549 0.017354791254124986 0 -0.0021563141541944839 0.017590187975934903 0 -0.0021773420533809634 0.017099671986210912 0 -0.0026129136129990549 0.017354791254124986 0 -0.0025329375550050695 0.017862396707179609 0 -0.0021563141541944839 0.017590187975934903 0 -0.0021563141541944839 0.017590187975934903 0 -0.0018331654140515193 0.017264708923401484 0 -0.0015522335787437574 0.017846158591718779 0 -0.0025329375550050695 0.017862396707179609 0 -0.0021563141541944839 0.017590187975934903 0 -0.0020808844385941118 0.018164055876817842 0 -0.0021563141541944839 0.017590187975934903 0 -0.0015522335787437574 0.017846158591718779 0 -0.0020808844385941118 0.018164055876817842 0 -0.0021563141541944839 0.017590187975934903 0 -0.0021773420533809634 0.017099671986210912 0 -0.0018331654140515193 0.017264708923401484 0 -0.0016934124916307394 0.016769099118579597 0 -0.0021773420533809634 0.017099671986210912 0 -0.0018331654140515193 0.017264708923401484 0 -0.0016934124916307394 0.016769099118579597 0 -0.0018331654140515193 0.017264708923401484 0 -0.0013906149993798387 0.017169456480651997 0 -0.0018331654140515193 0.017264708923401484 0 -0.0013906149993798387 0.017169456480651997 0 -0.0015522335787437574 0.017846158591718779 0 -0.0033393651969307069 0.016514362044845837 0 -0.0033743328319833566 0.016349966784782025 0 -0.0032167537075345714 0.016480479082273031 0 -0.0040976223869481788 0.019644434394324825 0 -0.0030496469079869188 0.020330755862667388 0 -0.0044933929931593617 0.023206279755552933 0 -0.0037962920139869012 0.023695071800874198 0 -0.0037770459738961982 0.02302409302879338 0 -0.0037962920139869012 0.023695071800874198 0 -0.0033189413048604335 0.023472242436370718 0 -0.0037770459738961982 0.02302409302879338 0 -0.0021738714804647287 0.016863553522383733 0 -0.0030496469079869188 0.020330755862667388 0 -0.0027720389193884036 0.020845063111566229 0 -0.0030496469079869188 0.020330755862667388 0 -0.0033251986751821425 0.023672182040433951 0 -0.0030707898649638852 0.023705034663945697 0 -0.0031011948812192697 0.023548529054651497 0 -0.0030496469079869188 0.020330755862667388 0 -0.0035037852409085728 0.023719346973258091 0 -0.0030632073068754847 0.023846209161017887 0 -0.0033251986751821425 0.023672182040433951 0 -0.0030707898649638852 0.023705034663945697 0 -0.0030632073068754847 0.023846209161017887 0 -0.0030707898649638852 0.023705034663945697 0 -0.0029237308559416516 0.023776929925059861 0 -0.0030707898649638852 0.023705034663945697 0 -0.0031011948812192697 0.023548529054651497 0 -0.0029368681810810196 0.02364284308719233 0 -0.0033189413048604335 0.023472242436370718 0 -0.0030831684280018044 0.022894413371625646 0 -0.0037770459738961982 0.02302409302879338 0 -0.0027377102515304904 0.02327191946323463 0 -0.0027582235395764232 0.023585460713309865 0 -0.0029368681810810196 0.02364284308719233 0 -0.0031011948812192697 0.023548529054651497 0 -0.0027377102515304904 0.02327191946323463 0 -0.0029368681810810196 0.02364284308719233 0 -0.0023032311763092309 0.023519681443098787 0 -0.0027377102515304904 0.02327191946323463 0 -0.0030831684280018044 0.022894413371625646 0 -0.0033189413048604335 0.023472242436370718 0 -0.0027377102515304904 0.02327191946323463 0 -0.0030831684280018044 0.022894413371625646 0 -0.0035037852409085728 0.023719346973258091 0 -0.0026670277557384898 0.023222820675041549 0 -0.0037524929263978431 0.029453883483090925 0 -0.0038473477969687814 0.026084410911565315 0 -0.0023032311763092309 0.023519681443098787 0 -0.0027377102515304904 0.02327191946323463 0 -0.0027582235395764232 0.023585460713309865 0 -0.0030188388182617733 0.02413919894138454 0 -0.0027610200137853352 0.023769727448585274 0 -0.0028249871886009774 0.023886639581329576 0 -0.0027582235395764232 0.023585460713309865 0 -0.0029237308559416516 0.023776929925059861 0 -0.0028499560986964853 0.02384659584391325 0 -0.0030632073068754847 0.023846209161017887 0 -0.0029237308559416516 0.023776929925059861 0 -0.0020506108758515515 0.024704228751331599 0 -0.002835822485247462 0.024985813006422209 0 -0.0027582235395764232 0.023585460713309865 0 -0.0030707898649638852 0.023705034663945697 0 -0.0029368681810810196 0.02364284308719233 0 -0.0029237308559416516 0.023776929925059861 0 -0.0027582235395764232 0.023585460713309865 0 -0.0029368681810810196 0.02364284308719233 0 -0.0029237308559416516 0.023776929925059861 0 -0.0030188388182617733 0.02413919894138454 0 -0.0030003609836472809 0.02389795319110256 0 -0.0042294265277806314 0.030897548765038474 0 -0.0042936704971637905 0.029746986769924145 0 -0.0043955693929341602 0.0300002917142317 0 -0.0042876090720819666 0.029884454350087738 0 -0.0044105831118275611 0.029924742402276019 0 -0.0044637828827735447 0.029974823504371542 0 -0.0045204921909887631 0.02987721453836301 0 -0.0044105831118275611 0.029924742402276019 0 -0.0044637828827735447 0.029974823504371542 0 -0.0043955693929341602 0.0300002917142317 0 -0.0044105831118275611 0.029924742402276019 0 -0.0043816476200914138 0.030075975193671785 0 -0.0043955693929341602 0.0300002917142317 0 -0.0044503608019547261 0.030038066665605111 0 -0.0044637828827735447 0.029974823504371542 0 -0.0043955693929341602 0.0300002917142317 0 -0.0044503608019547261 0.030038066665605111 0 -0.0030831684280018044 0.022894413371625646 0 -0.0036115748362581554 0.022362754315752815 0 -0.0037770459738961982 0.02302409302879338 0 -0.0038473477969687814 0.026084410911565315 0 -0.0041188792519767188 0.026209633342781088 0 -0.0044637828827735447 0.029974823504371542 0 -0.0044503608019547261 0.030038066665605111 0 -0.0046377844683011052 0.029979280055192663 0 -0.0044637828827735447 0.029974823504371542 0 -0.0046377844683011052 0.029979280055192663 0 -0.0045204921909887631 0.02987721453836301 0 -0.0036115748362581554 0.022362754315752815 0 -0.0043481453213412551 0.022529303031045538 0 -0.0041437153764457054 0.021831169080897127 0 -0.0041188792519767188 0.026209633342781088 0 -0.0044304531600881285 0.025851677834171839 0 -0.0036115748362581554 0.022362754315752815 0 -0.0037770459738961982 0.02302409302879338 0 -0.0043481453213412551 0.022529303031045538 0 -0.0044933929931593617 0.023206279755552933 0 -0.0037770459738961982 0.02302409302879338 0 -0.0043481453213412551 0.022529303031045538 0 -0.0043481453213412551 0.022529303031045538 0 -0.0041437153764457054 0.021831169080897127 0 -0.0048704096548196343 0.022094085538001632 0 -0.0041437153764457054 0.021831169080897127 0 -0.0048039743918430536 0.021649642289895663 0 -0.0046786823948027642 0.021307255357888785 0 -0.0056453407428620024 0.026094623716253099 0 -0.0066300620370556103 0.026046211409331374 0 -0.0063633840263392699 0.025545404879664144 0 -0.0049532525775434931 0.029753645674578288 0 -0.0049121065846118826 0.029466973390627534 0 -0.0053006846763235822 0.029403678090030569 0 -0.005283731877670666 0.027915459073982431 0 -0.005710130572571857 0.025144171259943771 0 -0.0056453407428620024 0.026094623716253099 0 -0.0055097611227097809 0.025841101952103908 0 -0.0063633840263392699 0.025545404879664144 0 -0.0044304531600881285 0.025851677834171839 0 -0.005710130572571857 0.025144171259943771 0 -0.005283731877670666 0.027915459073982431 0 -0.0048384767097369424 0.027679338766924362 0 -0.0062293315854390005 0.025428547374032599 0 -0.0051204561499195904 0.025793948400918823 0 -0.0052478678219383072 0.025276835750758519 0 -0.0056453407428620024 0.026094623716253099 0 -0.0055097611227097809 0.025841101952103908 0 -0.0046487098542702743 0.026153948509833238 0 -0.0049121065846118826 0.029466973390627534 0 -0.0046904767185091175 0.029739514623733997 0 -0.0046026101475585409 0.029557405058651141 0 -0.0059122770378058544 0.025599062294418447 0 -0.0048384767097369424 0.027679338766924362 0 -0.0046377844683011052 0.029979280055192663 0 -0.0049532525775434931 0.029753645674578288 0 -0.0046904767185091175 0.029739514623733997 0 -0.0049532525775434931 0.029753645674578288 0 -0.0049121065846118826 0.029466973390627534 0 -0.0046904767185091175 0.029739514623733997 0 -0.0046377844683011052 0.029979280055192663 0 -0.0046904767185091175 0.029739514623733997 0 -0.0045204921909887631 0.02987721453836301 0 -0.0045204921909887631 0.02987721453836301 0 -0.0045432108157274316 0.029737442661290702 0 -0.0044379837976941689 0.029838172674677556 0 -0.0046904767185091175 0.029739514623733997 0 -0.0045204921909887631 0.02987721453836301 0 -0.0045432108157274316 0.029737442661290702 0 -0.0045432108157274316 0.029737442661290702 0 -0.0046026101475585409 0.029557405058651141 0 -0.0044298574318912395 0.029687524535720693 0 -0.0048384767097369424 0.027679338766924362 0 -0.0043528536992167195 0.029710085367481254 0 -0.0046904767185091175 0.029739514623733997 0 -0.0045432108157274316 0.029737442661290702 0 -0.0046026101475585409 0.029557405058651141 0 -0.0051204561499195904 0.025793948400918823 0 -0.0046585435374816549 0.025061438599675991 0 -0.0052478678219383072 0.025276835750758519 0 -0.0051204561499195904 0.025793948400918823 0 -0.0035736479134560475 0.025864419868344174 0 -0.0046585435374816549 0.025061438599675991 0 -0.0050636461304618486 0.029500981619246809 0 -0.0045052732105417747 0.029713105585516247 0 -0.0041433459888928961 0.029567771488078654 0 -0.0040594828785020208 0.02987202882914116 0 -0.0043528536992167195 0.029710085367481254 0 -0.0039649797283911525 0.029926148551285843 0 -0.0045052732105417747 0.029713105585516247 0 -0.0041433459888928961 0.029567771488078654 0 -0.0042648852110416585 0.028425120719123165 0 -0.0057134220982334978 0.027014966246620246 0 -0.0048384767097369424 0.027679338766924362 0 -0.0042648852110416585 0.028425120719123165 0 -0.0039649797283911525 0.029926148551285843 0 -0.0044298574318912395 0.029687524535720693 0 -0.0042876090720819666 0.029884454350087738 0 -0.0045432108157274316 0.029737442661290702 0 -0.0044298574318912395 0.029687524535720693 0 -0.0044379837976941689 0.029838172674677556 0 -0.0044298574318912395 0.029687524535720693 0 -0.0042876090720819666 0.029884454350087738 0 -0.0044379837976941689 0.029838172674677556 0 -0.0045204921909887631 0.02987721453836301 0 -0.0044379837976941689 0.029838172674677556 0 -0.0044105831118275611 0.029924742402276019 0 -0.0042876090720819666 0.029884454350087738 0 -0.0044379837976941689 0.029838172674677556 0 -0.0044105831118275611 0.029924742402276019 0 -0.0054812076431372458 0.016636373873338613 0 -0.0040924130713903438 0.019908352939399267 0 -0.0065884911524279558 0.011369132219598958 0 -0.0072765605334896358 0.011778068141870261 0 -0.0067509612445686238 0.01211639345597218 0 -0.0054812076431372458 0.016636373873338613 0 -0.0067717473135331715 0.013389548046758347 0 -0.0065884911524279558 0.011369132219598958 0 -0.0071164178434162629 0.010935933883422587 0 -0.0072765605334896358 0.011778068141870261 0 -0.0065884911524279558 0.011369132219598958 0 -0.0066013550962258265 0.010831043151851129 0 -0.0071164178434162629 0.010935933883422587 0 -0.0054044159154720273 0.013171739428691123 0 -0.0054812076431372458 0.016636373873338613 0 -0.0037337231726995599 0.016261912968640845 0 -0.0037147719966130759 0.016111646641070256 0 -0.0035428842800839782 0.016225350394466698 0 -0.0040976223869481788 0.019644434394324825 0 -0.0040924130713903438 0.019908352939399267 0 -0.0044933929931593617 0.023206279755552933 0 -0.0043481453213412551 0.022529303031045538 0 -0.0051839290031493587 0.02270916531672823 0 -0.0043481453213412551 0.022529303031045538 0 -0.0051839290031493587 0.02270916531672823 0 -0.0048704096548196343 0.022094085538001632 0 -0.0058642082710845481 0.022205201594277777 0 -0.0051839290031493587 0.02270916531672823 0 -0.0053726450697739016 0.022098460892489916 0 -0.0051839290031493587 0.02270916531672823 0 -0.0048704096548196343 0.022094085538001632 0 -0.0053726450697739016 0.022098460892489916 0 -0.0048704096548196343 0.022094085538001632 0 -0.0053726450697739016 0.022098460892489916 0 -0.0052182099362870589 0.021737741371272084 0 -0.0053726450697739016 0.022098460892489916 0 -0.0052182099362870589 0.021737741371272084 0 -0.0057367121012917152 0.021569975409267209 0 -0.0041437153764457054 0.021831169080897127 0 -0.0048704096548196343 0.022094085538001632 0 -0.0048039743918430536 0.021649642289895663 0 -0.0048704096548196343 0.022094085538001632 0 -0.0052182099362870589 0.021737741371272084 0 -0.0048039743918430536 0.021649642289895663 0 -0.0048039743918430536 0.021649642289895663 0 -0.0046786823948027642 0.021307255357888785 0 -0.0051014514579298346 0.021281518403037231 0 -0.0070657881306190494 0.023056843816314856 0 -0.0061524061103366201 0.02095192136004824 0 -0.0063202896832345312 0.022998443264972062 0 -0.0063394290822594299 0.022985909816042236 0 -0.0062828161333105025 0.022967042839561028 0 -0.005710130572571857 0.025144171259943771 0 -0.0061524061103366201 0.02095192136004824 0 -0.0068777008290479957 0.025800696433818333 0 -0.0066300620370556103 0.026046211409331374 0 -0.0063633840263392699 0.025545404879664144 0 -0.0070657881306190494 0.023056843816314856 0 -0.005710130572571857 0.025144171259943771 0 -0.0061524061103366201 0.02095192136004824 0 -0.0063679715850115106 0.017859059942657133 0 -0.0061524061103366201 0.02095192136004824 0 -0.0070911110151687272 0.016330904355320964 0 -0.0052182099362870589 0.021737741371272084 0 -0.0051014514579298346 0.021281518403037231 0 -0.0057367121012917152 0.021569975409267209 0 -0.0071244844133038976 0.019576934233440878 0 -0.007197662238028632 0.019601031579998249 0 -0.007261797928984964 0.01951492743523699 0 -0.0052182099362870589 0.021737741371272084 0 -0.0048039743918430536 0.021649642289895663 0 -0.0051014514579298346 0.021281518403037231 0 -0.007197662238028632 0.019601031579998249 0 -0.007346980401207976 0.019566932459903142 0 -0.007261797928984964 0.01951492743523699 0 -0.0066721119257889391 0.018714172529501503 0 -0.006253608390536714 0.018701950354098461 0 -0.0062054179932759064 0.01845015388511069 0 -0.0070911110151687272 0.016330904355320964 0 -0.0073641299019101304 0.014638936416903498 0 -0.0076118703048814306 0.013501750723280312 0 -0.0071910373327395884 0.013525329785969618 0 -0.0074094188746291166 0.013890591880175822 0 -0.0075009876665635663 0.013535746234240061 0 -0.0074307285567396519 0.013174954302802112 0 -0.0071910373327395884 0.013525329785969618 0 -0.0070911110151687272 0.016330904355320964 0 -0.0063679715850115106 0.017859059942657133 0 -0.0054812076431372458 0.016636373873338613 0 -0.0063679715850115106 0.017859059942657133 0 -0.0058642082710845481 0.022205201594277777 0 -0.0053726450697739016 0.022098460892489916 0 -0.0057367121012917152 0.021569975409267209 0 -0.0074307285567396519 0.013174954302802112 0 -0.0067575175305671 0.012810910276054121 0 -0.0068405207462698455 0.01326314059948175 0 -0.0063679715850115106 0.017859059942657133 0 -0.0067717473135331715 0.013389548046758347 0 -0.0063189708643038986 0.015867468665181489 0 -0.0063808833132881857 0.01617847031416109 0 -0.0060909465494402319 0.016009317036297158 0 -0.0074307285567396519 0.013174954302802112 0 -0.0068405207462698455 0.01326314059948175 0 -0.0071910373327395884 0.013525329785969618 0 -0.0068405207462698455 0.01326314059948175 0 -0.0071910373327395884 0.013525329785969618 0 -0.0067643574662276601 0.013693541489356168 0 -0.0071910373327395884 0.013525329785969618 0 -0.0067643574662276601 0.013693541489356168 0 -0.0070911794953598803 0.013909895782254765 0 -0.0065141071825623488 0.013408772363063723 0 -0.0068405207462698455 0.01326314059948175 0 -0.0067643574662276601 0.013693541489356168 0 -0.0067643574662276601 0.013693541489356168 0 -0.006829786894132453 0.014124054400693354 0 -0.0064955583970407538 0.014025613119977711 0 -0.0067643574662276601 0.013693541489356168 0 -0.0070911794953598803 0.013909895782254765 0 -0.006829786894132453 0.014124054400693354 0 -0.0070911794953598803 0.013909895782254765 0 -0.006829786894132453 0.014124054400693354 0 -0.0073471462659930181 0.014318368442591722 0 -0.006829786894132453 0.014124054400693354 0 -0.0068951243644731798 0.014462189669016103 0 -0.0073471462659930181 0.014318368442591722 0 -0.006829786894132453 0.014124054400693354 0 -0.0064955583970407538 0.014025613119977711 0 -0.0064764292306364081 0.014387332681274772 0 -0.006829786894132453 0.014124054400693354 0 -0.0068951243644731798 0.014462189669016103 0 -0.0064764292306364081 0.014387332681274772 0 -0.0068951243644731798 0.014462189669016103 0 -0.0066647469029953886 0.014687467502389239 0 -0.0064764292306364081 0.014387332681274772 0 -0.0068951243644731798 0.014462189669016103 0 -0.0069479372975469311 0.01477915228662597 0 -0.0066647469029953886 0.014687467502389239 0 -0.0068951243644731798 0.014462189669016103 0 -0.0071390269913164236 0.014614236197938991 0 -0.0073471462659930181 0.014318368442591722 0 -0.0068951243644731798 0.014462189669016103 0 -0.0071390269913164236 0.014614236197938991 0 -0.0069479372975469311 0.01477915228662597 0 -0.0071390269913164236 0.014614236197938991 0 -0.0069479372975469311 0.01477915228662597 0 -0.0073632664929341261 0.014910399860334966 0 -0.0069479372975469311 0.01477915228662597 0 -0.0068742232724635713 0.015009694190079564 0 -0.0073632664929341261 0.014910399860334966 0 -0.0068742232724635713 0.015009694190079564 0 -0.0073632664929341261 0.014910399860334966 0 -0.0066737120013877771 0.015351063515216815 0 -0.0069479372975469311 0.01477915228662597 0 -0.0068742232724635713 0.015009694190079564 0 -0.0067542353944976393 0.01490490981625568 0 -0.0065932767844229445 0.015089870470142319 0 -0.0066647469029953886 0.014687467502389239 0 -0.0063215351445910723 0.014713816159269338 0 -0.0068742232724635713 0.015009694190079564 0 -0.0065932767844229445 0.015089870470142319 0 -0.0067542353944976393 0.01490490981625568 0 -0.0068742232724635713 0.015009694190079564 0 -0.0065932767844229445 0.015089870470142319 0 -0.0066737120013877771 0.015351063515216815 0 -0.0065932767844229445 0.015089870470142319 0 -0.0066647469029953886 0.014687467502389239 0 -0.0067542353944976393 0.01490490981625568 0 -0.0069479372975469311 0.01477915228662597 0 -0.0066647469029953886 0.014687467502389239 0 -0.0067542353944976393 0.01490490981625568 0 -0.0073632664929341261 0.014910399860334966 0 -0.0078269286888780296 0.014240251726372199 0 -0.0080746396906092536 0.015106294369388774 0 -0.0073286657438671795 0.01943917821342182 0 -0.0073108923271128206 0.019402309291277699 0 -0.0073199745466981615 0.019332604428232505 0 -0.0075946349512777556 0.01692446148455317 0 -0.0080221846071465326 0.016993939960234641 0 -0.0073632664929341261 0.014910399860334966 0 -0.0080746396906092536 0.015106294369388774 0 -0.0066737120013877771 0.015351063515216815 0 -0.0071390269913164236 0.014614236197938991 0 -0.0073632664929341261 0.014910399860334966 0 -0.0073471462659930181 0.014318368442591722 0 -0.0073632664929341261 0.014910399860334966 0 -0.0078269286888780296 0.014240251726372199 0 -0.0073471462659930181 0.014318368442591722 0 -0.007346980401207976 0.019566932459903142 0 -0.0073286657438671795 0.01943917821342182 0 -0.007261797928984964 0.01951492743523699 0 -0.0070911110151687272 0.016330904355320964 0 -0.0075946349512777556 0.01692446148455317 0 -0.0076118703048814306 0.013501750723280312 0 -0.0078269286888780296 0.014240251726372199 0 -0.0074094188746291166 0.013890591880175822 0 -0.0078269286888780296 0.014240251726372199 0 -0.0073471462659930181 0.014318368442591722 0 -0.0074094188746291166 0.013890591880175822 0 -0.0070911794953598803 0.013909895782254765 0 -0.0073471462659930181 0.014318368442591722 0 -0.0074094188746291166 0.013890591880175822 0 -0.0071910373327395884 0.013525329785969618 0 -0.0070911794953598803 0.013909895782254765 0 -0.0074094188746291166 0.013890591880175822 0 -0.0071244844133038976 0.019576934233440878 0 -0.007261797928984964 0.01951492743523699 0 -0.007255476110417239 0.019445195287193476 0 -0.0076830447222465828 0.02497420145815548 0 -0.0081833874861601801 0.024425039812118583 0 -0.0083956962248334811 0.024311216263398848 0 -0.0070657881306190494 0.023056843816314856 0 -0.0076675620648855693 0.021592629939372866 0 -0.0081833874861601801 0.024425039812118583 0 -0.0083956962248334811 0.024311216263398848 0 -0.0079532879628513367 0.024139509587398814 0 -0.0073286657438671795 0.01943917821342182 0 -0.007261797928984964 0.01951492743523699 0 -0.0073108923271128206 0.019402309291277699 0 -0.007261797928984964 0.01951492743523699 0 -0.007255476110417239 0.019445195287193476 0 -0.0073108923271128206 0.019402309291277699 0 -0.0081833874861601801 0.024425039812118583 0 -0.0076760207205824648 0.0243743238583236 0 -0.0071359508376388136 0.024823298609684446 0 -0.0076830447222465828 0.02497420145815548 0 -0.0081833874861601801 0.024425039812118583 0 -0.0071939705383891892 0.024723327690598033 0 -0.008155500007347119 0.024423000313072693 0 -0.0070622028699049971 0.024912346657880037 0 -0.0070657881306190494 0.023056843816314856 0 -0.0070622028699049971 0.024912346657880037 0 -0.0081833874861601801 0.024425039812118583 0 -0.0076760207205824648 0.0243743238583236 0 -0.0079532879628513367 0.024139509587398814 0 -0.0076760207205824648 0.0243743238583236 0 -0.0074279900376222471 0.024111111499563229 0 -0.0071359508376388136 0.024823298609684446 0 -0.007944234832827057 0.020871001883660315 0 -0.0069970132352560029 0.023388585186730683 0 -0.0074279900376222471 0.024111111499563229 0 -0.0079568376337837889 0.023511981573045359 0 -0.0065787235088634764 0.023632282202866641 0 -0.0074279900376222471 0.024111111499563229 0 -0.0079532879628513367 0.024139509587398814 0 -0.0079568376337837889 0.023511981573045359 0 -0.0076760207205824648 0.0243743238583236 0 -0.0074279900376222471 0.024111111499563229 0 -0.0079532879628513367 0.024139509587398814 0 -0.0076675620648855693 0.021592629939372866 0 -0.007944234832827057 0.020871001883660315 0 -0.007285439100587111 0.019436959442585992 0 -0.0072461205787507721 0.0193559795046198 0 -0.0073108923271128206 0.019402309291277699 0 -0.0083956962248334811 0.024311216263398848 0 -0.0079532879628513367 0.024139509587398814 0 -0.0079568376337837889 0.023511981573045359 0 -0.0076675620648855693 0.021592629939372866 0 -0.007943984212623564 0.020172399376576364 0 -0.007944234832827057 0.020871001883660315 0 -0.0080221846071465326 0.016993939960234641 0 -0.0072461205787507721 0.0193559795046198 0 -0.0073108923271128206 0.019402309291277699 0 -0.0073199745466981615 0.019332604428232505 0 -0.0080221846071465326 0.016993939960234641 0 -0.008370642491849923 0.017676492810067005 0 -0.0083243781209638591 0.01847602046880422 0 -0.0083355989354493235 0.018493982009905725 0 -0.0083211993691679562 0.018513746438036414 0 -0.0083453899171868663 0.018490786299663772 0 -0.0083243781209638591 0.01847602046880422 0 -0.0083355989354493235 0.018493982009905725 0 -0.0083355989354493235 0.018493982009905725 0 -0.0083381819441428126 0.018502346795871517 0 -0.0083535861713506521 0.018507665672551177 0 -0.0083381819441428126 0.018502346795871517 0 -0.0083535861713506521 0.018507665672551177 0 -0.0083454167033800535 0.018503432594492795 0 -0.0083355989354493235 0.018493982009905725 0 -0.0083381819441428126 0.018502346795871517 0 -0.0083211993691679562 0.018513746438036414 0 -0.0083606284613509697 0.021750768271923876 0 -0.0079757114965553905 0.021065567869086824 0 -0.0068121630220268677 0.021896883429230598 0 -0.0083453899171868663 0.018490786299663772 0 -0.0083355989354493235 0.018493982009905725 0 -0.0083535861713506521 0.018507665672551177 0 -0.007944234832827057 0.020871001883660315 0 -0.0082982310954421972 0.020132153976047899 0 -0.0082982310954421972 0.020132153976047899 0 -0.0087079317154836033 0.018361505104043219 0 -0.0085922274736949973 0.018216183031518667 0 -0.0086252593143575033 0.018585014085528397 0 -0.0090216873896904141 0.018817860259054284 0 -0.0082982310954421972 0.020132153976047899 0 -0.0090734374438245415 0.020972754060061854 0 -0.0085922274736949973 0.018216183031518667 0 -0.0084541830153505981 0.018526053730201483 0 -0.0083454167033800535 0.018503432594492795 0 -0.0085922274736949973 0.018216183031518667 0 -0.0084541830153505981 0.018526053730201483 0 -0.0086252593143575033 0.018585014085528397 0 -0.0084541830153505981 0.018526053730201483 0 -0.0086252593143575033 0.018585014085528397 0 -0.0083838658447285518 0.018586812976953172 0 -0.0086252593143575033 0.018585014085528397 0 -0.0083838658447285518 0.018586812976953172 0 -0.008554264713551904 0.018872580909439052 0 -0.0086252593143575033 0.018585014085528397 0 -0.0090216873896904141 0.018817860259054284 0 -0.008554264713551904 0.018872580909439052 0 -0.008370642491849923 0.017676492810067005 0 -0.0083460265350176217 0.018441263151224751 0 -0.0084589263392870484 0.01679423394125356 0 -0.0080189086055609572 0.017444489733913455 0 -0.0082952421443230669 0.018576349426556907 0 -0.0083211993691679562 0.018513746438036414 0 -0.0083838658447285518 0.018586812976953172 0 -0.0082952421443230669 0.018576349426556907 0 -0.0083211993691679562 0.018513746438036414 0 -0.0083454167033800535 0.018503432594492795 0 -0.0083838658447285518 0.018586812976953172 0 -0.0083381819441428126 0.018502346795871517 0 -0.0083211993691679562 0.018513746438036414 0 -0.0083454167033800535 0.018503432594492795 0 -0.0084541830153505981 0.018526053730201483 0 -0.0083454167033800535 0.018503432594492795 0 -0.0083838658447285518 0.018586812976953172 0 -0.0080189086055609572 0.017444489733913455 0 -0.0077152888164114955 0.016780051830732945 0 -0.0076228326734669805 0.017651430797687957 0 -0.0084589263392870484 0.01679423394125356 0 -0.0080189086055609572 0.017444489733913455 0 -0.0077152888164114955 0.016780051830732945 0 -0.0077152888164114955 0.016780051830732945 0 -0.0072420769319425093 0.01648747793363246 0 -0.0070447864709684352 0.017037112972614434 0 -0.0070447864709684352 0.017037112972614434 0 -0.0069937494492835735 0.017774408828519266 0 -0.0076228326734669805 0.017651430797687957 0 -0.0077152888164114955 0.016780051830732945 0 -0.0070447864709684352 0.017037112972614434 0 -0.0076228326734669805 0.017651430797687957 0 -0.0070447864709684352 0.017037112972614434 0 -0.0064916017798720329 0.017380732565091688 0 -0.0069937494492835735 0.017774408828519266 0 -0.0070447864709684352 0.017037112972614434 0 -0.0064642706901145101 0.016847473704673203 0 -0.0064916017798720329 0.017380732565091688 0 -0.0064642706901145101 0.016847473704673203 0 -0.0067669492695478133 0.016369296545059919 0 -0.0061576913661057766 0.016186064096240793 0 -0.0070447864709684352 0.017037112972614434 0 -0.0064642706901145101 0.016847473704673203 0 -0.0067669492695478133 0.016369296545059919 0 -0.0072420769319425093 0.01648747793363246 0 -0.0070447864709684352 0.017037112972614434 0 -0.0067669492695478133 0.016369296545059919 0 -0.006702281999689687 0.015923160981183848 0 -0.0067669492695478133 0.016369296545059919 0 -0.0071724317165123537 0.015897615477120656 0 -0.0072420769319425093 0.01648747793363246 0 -0.0067669492695478133 0.016369296545059919 0 -0.0071724317165123537 0.015897615477120656 0 -0.006702281999689687 0.015923160981183848 0 -0.0067669492695478133 0.016369296545059919 0 -0.0061576913661057766 0.016186064096240793 0 -0.0065932767844229445 0.015089870470142319 0 -0.0066737120013877771 0.015351063515216815 0 -0.0061576913661057766 0.016186064096240793 0 -0.006702281999689687 0.015923160981183848 0 -0.0066737120013877771 0.015351063515216815 0 -0.0061576913661057766 0.016186064096240793 0 -0.006702281999689687 0.015923160981183848 0 -0.0066737120013877771 0.015351063515216815 0 -0.0071724317165123537 0.015897615477120656 0 -0.0080221846071465326 0.016993939960234641 0 -0.0068092257947966551 0.014937335023678319 0 -0.0082697348193255891 0.015496423746060762 0 -0.0066737120013877771 0.015351063515216815 0 -0.0071724317165123537 0.015897615477120656 0 -0.0082697348193255891 0.015496423746060762 0 -0.0071724317165123537 0.015897615477120656 0 -0.0075742084187693653 0.016140886689974033 0 -0.0082697348193255891 0.015496423746060762 0 -0.0077152888164114955 0.016780051830732945 0 -0.0075742084187693653 0.016140886689974033 0 -0.0082697348193255891 0.015496423746060762 0 -0.0084589263392870484 0.01679423394125356 0 -0.0077152888164114955 0.016780051830732945 0 -0.0072420769319425093 0.01648747793363246 0 -0.0071724317165123537 0.015897615477120656 0 -0.0075742084187693653 0.016140886689974033 0 -0.0077152888164114955 0.016780051830732945 0 -0.0072420769319425093 0.01648747793363246 0 -0.0075742084187693653 0.016140886689974033 0 -0.0059000580100116986 0.027901944790858231 0 -0.0069792322593637147 0.026674766869763691 0 -0.0052861045596248662 0.026859907580955005 0 -0.0047954632239027538 0.028513958131281113 0 -0.0059000580100116986 0.027901944790858231 0 -0.0054485193751743705 0.028863517866774487 0 -0.005020678968706704 0.029790260263889791 0 -0.0054485193751743705 0.028863517866774487 0 -0.0065977953235483869 0.028990191675398593 0 -0.0059000580100116986 0.027901944790858231 0 -0.0054485193751743705 0.028863517866774487 0 -0.0065977953235483869 0.028990191675398593 0 -0.0046585435374816549 0.025061438599675991 0 -0.0052478678219383072 0.025276835750758519 0 -0.0057269156709141757 0.024334322684837328 0 -0.0057134220982334978 0.027014966246620246 0 -0.0064336938316773484 0.025298638143471146 0 -0.0059000580100116986 0.027901944790858231 0 -0.0065977953235483869 0.028990191675398593 0 -0.0082154121732514775 0.028053049034832734 0 -0.0059000580100116986 0.027901944790858231 0 -0.0082154121732514775 0.028053049034832734 0 -0.0069792322593637147 0.026674766869763691 0 -0.0082154121732514775 0.028053049034832734 0 -0.0093545867425152383 0.026169624218977391 0 -0.0069792322593637147 0.026674766869763691 0 -0.0064336938316773484 0.025298638143471146 0 -0.008404167148086469 0.024832810005394671 0 -0.0070122125141650372 0.023853675911213984 0 -0.0063564461471455535 0.024617829664018841 0 -0.0072910413022417428 0.022712811311528042 0 -0.0070122125141650372 0.023853675911213984 0 -0.0063564461471455535 0.024617829664018841 0 -0.0075027597848621478 0.023811569771821021 0 -0.0064336938316773484 0.025298638143471146 0 -0.0069970132352560029 0.023388585186730683 0 -0.0057857120163680009 0.024155123822082115 0 -0.0062407547180235601 0.024445985702100295 0 -0.0065787235088634764 0.023632282202866641 0 -0.0053593690689585039 0.02494772791648641 0 -0.0064336938316773484 0.025298638143471146 0 -0.0052478678219383072 0.025276835750758519 0 -0.0057857120163680009 0.024155123822082115 0 -0.0058547482123748875 0.024857930610782793 0 -0.0062293315854390005 0.025428547374032599 0 -0.0052478678219383072 0.025276835750758519 0 -0.0058547482123748875 0.024857930610782793 0 -0.0062293315854390005 0.025428547374032599 0 -0.0058547482123748875 0.024857930610782793 0 -0.0062407547180235601 0.024445985702100295 0 -0.0057857120163680009 0.024155123822082115 0 -0.0058547482123748875 0.024857930610782793 0 -0.0062407547180235601 0.024445985702100295 0 -0.0063979199695050545 0.02450943703116092 0 -0.0070622028699049971 0.024912346657880037 0 -0.0059122770378058544 0.025599062294418447 0 -0.0070622028699049971 0.024912346657880037 0 -0.0062407547180235601 0.024445985702100295 0 -0.0071359508376388136 0.024823298609684446 0 -0.0068501149543102385 0.024257447888140795 0 -0.0062293315854390005 0.025428547374032599 0 -0.0062407547180235601 0.024445985702100295 0 -0.0074056706847427552 0.025047460135382397 0 -0.0074279900376222471 0.024111111499563229 0 -0.0071359508376388136 0.024823298609684446 0 -0.0068501149543102385 0.024257447888140795 0 -0.0074279900376222471 0.024111111499563229 0 -0.0068501149543102385 0.024257447888140795 0 -0.0065787235088634764 0.023632282202866641 0 -0.0062407547180235601 0.024445985702100295 0 -0.0068501149543102385 0.024257447888140795 0 -0.0065787235088634764 0.023632282202866641 0 -0.0071079742149042623 0.023509828173427255 0 -0.0069970132352560029 0.023388585186730683 0 -0.0082982310954421972 0.020132153976047899 0 -0.0069970132352560029 0.023388585186730683 0 -0.0092063916724319586 0.02259170882941566 0 -0.0075020883265325324 0.023806744861364245 0 -0.0072910413022417428 0.022712811311528042 0 -0.0070122125141650372 0.023853675911213984 0 -0.0075020883265325324 0.023806744861364245 0 -0.0072910413022417428 0.022712811311528042 0 -0.0093545867425152383 0.026169624218977391 0 -0.0091113645219204255 0.024433669196961803 0 -0.010805495411077745 0.023938438951756652 0 -0.0092063916724319586 0.02259170882941566 0 -0.0072910413022417428 0.022712811311528042 0 -0.0082157070784479955 0.020827704723719982 0 -0.008404167148086469 0.024832810005394671 0 -0.0090734374438245415 0.020972754060061854 0 -0.0091113645219204255 0.024433669196961803 0 -0.0075220365693100351 0.025033217049941506 0 -0.0082669741085435837 0.023774078002848597 0 -0.0093545867425152383 0.026169624218977391 0 -0.0091113645219204255 0.024433669196961803 0 -0.0075220365693100351 0.025033217049941506 0 -0.0093545867425152383 0.026169624218977391 0 -0.0069792322593637147 0.026674766869763691 0 -0.0075220365693100351 0.025033217049941506 0 -0.0069792322593637147 0.026674766869763691 0 -0.0075220365693100351 0.025033217049941506 0 -0.006116687206771599 0.025776198297559564 0 -0.0075220365693100351 0.025033217049941506 0 -0.0063625054277801317 0.024728226660287064 0 -0.0070589763553683058 0.023499443475378651 0 -0.0075220365693100351 0.025033217049941506 0 -0.0063625054277801317 0.024728226660287064 0 -0.006116687206771599 0.025776198297559564 0 -0.0075220365693100351 0.025033217049941506 0 -0.0070589763553683058 0.023499443475378651 0 -0.0082669741085435837 0.023774078002848597 0 -0.0050520424294686287 0.025412102405214233 0 -0.0063625054277801317 0.024728226660287064 0 -0.006116687206771599 0.025776198297559564 0 -0.0050520424294686287 0.025412102405214233 0 -0.0063625054277801317 0.024728226660287064 0 -0.005582939738963206 0.024172697024258196 0 -0.0069792322593637147 0.026674766869763691 0 -0.0052861045596248662 0.026859907580955005 0 -0.006116687206771599 0.025776198297559564 0 -0.0050520424294686287 0.025412102405214233 0 -0.0052861045596248662 0.026859907580955005 0 -0.006116687206771599 0.025776198297559564 0 -0.0054291193534190081 0.022530608136211109 0 -0.0067376004440766971 0.022305309385462477 0 -0.0065757934566809499 0.02143704932594467 0 -0.0054291193534190081 0.022530608136211109 0 -0.0065757934566809499 0.02143704932594467 0 -0.0053395123759567894 0.021580807557377242 0 -0.0054291193534190081 0.022530608136211109 0 -0.0060191011675951806 0.023150727455327952 0 -0.0067376004440766971 0.022305309385462477 0 -0.0047098052757762899 0.02404256118327263 0 -0.0054291193534190081 0.022530608136211109 0 -0.0060191011675951806 0.023150727455327952 0 -0.0047098052757762899 0.02404256118327263 0 -0.005582939738963206 0.024172697024258196 0 -0.0060191011675951806 0.023150727455327952 0 -0.0063625054277801317 0.024728226660287064 0 -0.005582939738963206 0.024172697024258196 0 -0.0070589763553683058 0.023499443475378651 0 -0.005582939738963206 0.024172697024258196 0 -0.0060191011675951806 0.023150727455327952 0 -0.0070589763553683058 0.023499443475378651 0 -0.0060191011675951806 0.023150727455327952 0 -0.0070589763553683058 0.023499443475378651 0 -0.0067376004440766971 0.022305309385462477 0 -0.0070589763553683058 0.023499443475378651 0 -0.0076812749346826916 0.022112880628565968 0 -0.0085109313862523853 0.022262096232290095 0 -0.0070589763553683058 0.023499443475378651 0 -0.0076812749346826916 0.022112880628565968 0 -0.0067376004440766971 0.022305309385462477 0 -0.0067376004440766971 0.022305309385462477 0 -0.0079351024914216736 0.021142465497836271 0 -0.0065757934566809499 0.02143704932594467 0 -0.0076812749346826916 0.022112880628565968 0 -0.0067376004440766971 0.022305309385462477 0 -0.0079351024914216736 0.021142465497836271 0 -0.0076812749346826916 0.022112880628565968 0 -0.0079351024914216736 0.021142465497836271 0 -0.0084838506944453617 0.021385898647274994 0 -0.0079351024914216736 0.021142465497836271 0 -0.0084838506944453617 0.021385898647274994 0 -0.0089418933988574534 0.020772695924254382 0 -0.0084838506944453617 0.021385898647274994 0 -0.0092377820328429349 0.020886640485771532 0 -0.0089418933988574534 0.020772695924254382 0 -0.0084838506944453617 0.021385898647274994 0 -0.0092377820328429349 0.020886640485771532 0 -0.0085109313862523853 0.022262096232290095 0 -0.0076812749346826916 0.022112880628565968 0 -0.0084838506944453617 0.021385898647274994 0 -0.0085109313862523853 0.022262096232290095 0 -0.0070589763553683058 0.023499443475378651 0 -0.0085109313862523853 0.022262096232290095 0 -0.0082669741085435837 0.023774078002848597 0 -0.0091113645219204255 0.024433669196961803 0 -0.0082669741085435837 0.023774078002848597 0 -0.0091966077216160316 0.023085736846916265 0 -0.0092377820328429349 0.020886640485771532 0 -0.0085109313862523853 0.022262096232290095 0 -0.0091966077216160316 0.023085736846916265 0 -0.0085109313862523853 0.022262096232290095 0 -0.0082669741085435837 0.023774078002848597 0 -0.0091966077216160316 0.023085736846916265 0 -0.0095631178501149623 0.021035328516798905 0 -0.0090734374438245415 0.020972754060061854 0 -0.0092377820328429349 0.020886640485771532 0 -0.0091966077216160316 0.023085736846916265 0 -0.010805495411077745 0.023938438951756652 0 -0.0092377820328429349 0.020886640485771532 0 -0.0091610132112690239 0.018765492534715471 0 -0.0088443269065383388 0.019375114425219369 0 -0.0091113645219204255 0.024433669196961803 0 -0.0091966077216160316 0.023085736846916265 0 -0.010805495411077745 0.023938438951756652 0 -0.0090734374438245415 0.020972754060061854 0 -0.0092935638318694599 0.019132037197057312 0 -0.0092377820328429349 0.020886640485771532 0 -0.0089860789845613818 0.020205551948270461 0 -0.0089418933988574534 0.020772695924254382 0 -0.0092377820328429349 0.020886640485771532 0 -0.0089860789845613818 0.020205551948270461 0 -0.0088443269065383388 0.019375114425219369 0 -0.0089508519648127342 0.020666324454043788 0 -0.0093847790667682274 0.020419212161577778 0 -0.0092940629739664601 0.020466912419913615 0 -0.0089418933988574534 0.020772695924254382 0 -0.0096986639806139092 0.020371671658904772 0 -0.0089860789845613818 0.020205551948270461 0 -0.0089418933988574534 0.020772695924254382 0 -0.008931523480478416 0.020219495278245618 0 -0.0092654272537107587 0.020377278177813603 0 -0.0084335633788839206 0.020087503698065813 0 -0.0092940629739664601 0.020466912419913615 0 -0.0094220151864602697 0.020183741671057277 0 -0.0092057789407024773 0.019955237316762638 0 -0.0092940629739664601 0.020466912419913615 0 -0.0092057789407024773 0.019955237316762638 0 -0.0088759394640106331 0.019962145636359722 0 -0.0094220151864602697 0.020183741671057277 0 -0.0096986639806139092 0.020371671658904772 0 -0.0096112539214504855 0.020101586821994779 0 -0.0092940629739664601 0.020466912419913615 0 -0.0094220151864602697 0.020183741671057277 0 -0.0096986639806139092 0.020371671658904772 0 -0.0084335633788839206 0.020087503698065813 0 -0.0092707360919290598 0.019582305001425229 0 -0.0094494298391178105 0.019973173466971913 0 -0.0095100500956257564 0.019688163351737047 0 -0.0096498251463793972 0.019878736127417581 0 -0.0094220151864602697 0.020183741671057277 0 -0.0094494298391178105 0.019973173466971913 0 -0.0096112539214504855 0.020101586821994779 0 -0.0094494298391178105 0.019973173466971913 0 -0.0095100500956257564 0.019688163351737047 0 -0.0092057789407024773 0.019955237316762638 0 -0.0092057789407024773 0.019955237316762638 0 -0.0088759394640106331 0.019962145636359722 0 -0.0095597734391331263 0.019436460663492514 0 -0.0094220151864602697 0.020183741671057277 0 -0.0094494298391178105 0.019973173466971913 0 -0.0092057789407024773 0.019955237316762638 0 -0.0095100500956257564 0.019688163351737047 0 -0.0092057789407024773 0.019955237316762638 0 -0.0095597734391331263 0.019436460663492514 0 -0.0080179426252423702 0.020415128363882529 0 -0.0077636004757362636 0.020100561026674579 0 -0.0085467703555657804 0.019614666846669116 0 -0.0082895700344315735 0.020175238446687872 0 -0.0079049579897702785 0.019699390222475324 0 -0.0074374427282039935 0.020796118731204596 0 -0.0084335633788839206 0.020087503698065813 0 -0.0075683072439255315 0.020163700154904884 0 -0.0084335633788839206 0.020087503698065813 0 -0.0076530820496772973 0.020530617221566561 0 -0.0088384796865389002 0.019632885226065398 0 -0.0086755491445990006 0.020280937314512817 0 -0.0078481230870866576 0.020182055857837729 0 -0.0092940629739664601 0.020466912419913615 0 -0.0088384796865389002 0.019632885226065398 0 -0.0086755491445990006 0.020280937314512817 0 -0.0092940629739664601 0.020466912419913615 0 -0.0086755491445990006 0.020280937314512817 0 -0.0089418933988574534 0.020772695924254382 0 -0.0079351024914216736 0.021142465497836271 0 -0.0086755491445990006 0.020280937314512817 0 -0.0089418933988574534 0.020772695924254382 0 -0.0079351024914216736 0.021142465497836271 0 -0.0086755491445990006 0.020280937314512817 0 -0.0078481230870866576 0.020182055857837729 0 -0.0079351024914216736 0.021142465497836271 0 -0.0065757934566809499 0.02143704932594467 0 -0.0078481230870866576 0.020182055857837729 0 -0.0067216023294055568 0.021269538715590959 0 -0.0076530820496772973 0.020530617221566561 0 -0.0065757934566809499 0.02143704932594467 0 -0.0074374427282039935 0.020796118731204596 0 -0.0067102191514833622 0.020431368208469455 0 -0.0079049579897702785 0.019699390222475324 0 -0.0074374427282039935 0.020796118731204596 0 -0.0067102191514833622 0.020431368208469455 0 -0.0075683072439255315 0.020163700154904884 0 -0.0064837623139148365 0.020743891122556469 0 -0.0072843909811969336 0.020399268052137678 0 -0.0064257817971125593 0.02022493766440921 0 -0.0062483363428950606 0.021029861512825647 0 -0.0064257817971125593 0.02022493766440921 0 -0.0062483363428950606 0.021029861512825647 0 -0.0057034598351692082 0.020082206036062731 0 -0.0062483363428950606 0.021029861512825647 0 -0.0053821245383726922 0.020797953379309099 0 -0.0057034598351692082 0.020082206036062731 0 -0.0053821245383726922 0.020797953379309099 0 -0.0057034598351692082 0.020082206036062731 0 -0.0049343190857879561 0.02004836863084487 0 -0.0064837623139148365 0.020743891122556469 0 -0.0054366568282155298 0.021482179636919962 0 -0.0065757934566809499 0.02143704932594467 0 -0.0067102191514833622 0.020431368208469455 0 -0.0053395123759567894 0.021580807557377242 0 -0.0062483363428950606 0.021029861512825647 0 -0.0053821245383726922 0.020797953379309099 0 -0.0053395123759567894 0.021580807557377242 0 -0.0074520896194778963 0.018847065764773054 0 -0.0075393479127432205 0.018463782544048922 0 -0.008046368048896262 0.019226311839240954 0 -0.0074789596856027745 0.018375712426244004 0 -0.0064679111690655539 0.018087925682836948 0 -0.0074520896194778963 0.018847065764773054 0 -0.0070615786348701016 0.018698869339106475 0 -0.006761044395006994 0.01812474047404726 0 -0.0074520896194778963 0.018847065764773054 0 -0.0075393479127432205 0.018463782544048922 0 -0.006761044395006994 0.01812474047404726 0 -0.0064916017798720329 0.017380732565091688 0 -0.0069937494492835735 0.017774408828519266 0 -0.0061201239976127787 0.018018077955444287 0 -0.0069937494492835735 0.017774408828519266 0 -0.0075393479127432205 0.018463782544048922 0 -0.0061201239976127787 0.018018077955444287 0 -0.0075393479127432205 0.018463782544048922 0 -0.0076228326734669805 0.017651430797687957 0 -0.0082952421443230669 0.018576349426556907 0 -0.0069937494492835735 0.017774408828519266 0 -0.0075393479127432205 0.018463782544048922 0 -0.0076228326734669805 0.017651430797687957 0 -0.0075393479127432205 0.018463782544048922 0 -0.0082952421443230669 0.018576349426556907 0 -0.008046368048896262 0.019226311839240954 0 -0.0080189086055609572 0.017444489733913455 0 -0.0076228326734669805 0.017651430797687957 0 -0.0082952421443230669 0.018576349426556907 0 -0.0083838658447285518 0.018586812976953172 0 -0.0082952421443230669 0.018576349426556907 0 -0.008554264713551904 0.018872580909439052 0 -0.0090216873896904141 0.018817860259054284 0 -0.008554264713551904 0.018872580909439052 0 -0.0088443269065383388 0.019375114425219369 0 -0.0082952421443230669 0.018576349426556907 0 -0.008554264713551904 0.018872580909439052 0 -0.0085370980438783228 0.019318813663265513 0 -0.008554264713551904 0.018872580909439052 0 -0.0088443269065383388 0.019375114425219369 0 -0.0085370980438783228 0.019318813663265513 0 -0.0089860789845613818 0.020205551948270461 0 -0.0088443269065383388 0.019375114425219369 0 -0.0085370980438783228 0.019318813663265513 0 -0.0089860789845613818 0.020205551948270461 0 -0.0085501630293463478 0.019811631783542394 0 -0.008931523480478416 0.020219495278245618 0 -0.0089860789845613818 0.020205551948270461 0 -0.0085370980438783228 0.019318813663265513 0 -0.0085501630293463478 0.019811631783542394 0 -0.0082952421443230669 0.018576349426556907 0 -0.0085370980438783228 0.019318813663265513 0 -0.008046368048896262 0.019226311839240954 0 -0.0085370980438783228 0.019318813663265513 0 -0.0085501630293463478 0.019811631783542394 0 -0.008046368048896262 0.019226311839240954 0 -0.0085501630293463478 0.019811631783542394 0 -0.008046368048896262 0.019226311839240954 0 -0.0077994240491301029 0.020468816236587268 0 -0.0079015952020618403 0.019404252128837948 0 -0.0086457502248177172 0.01954180478610721 0 -0.010399927036152902 0.020179992293569683 0 -0.0096986639806139092 0.020371671658904772 0 -0.0099326211769299975 0.019991976071063729 0 -0.0085501630293463478 0.019811631783542394 0 -0.0077994240491301029 0.020468816236587268 0 -0.008931523480478416 0.020219495278245618 0 -0.0086457502248177172 0.01954180478610721 0 -0.0093847790667682274 0.020419212161577778 0 -0.0096986639806139092 0.020371671658904772 0 -0.0096112539214504855 0.020101586821994779 0 -0.0099326211769299975 0.019991976071063729 0 -0.0098357830189041914 0.019718825576342344 0 -0.010548410965113025 0.019628902734098612 0 -0.0096226505853205455 0.019462881431754713 0 -0.0096112539214504855 0.020101586821994779 0 -0.0096498251463793972 0.019878736127417581 0 -0.0099326211769299975 0.019991976071063729 0 -0.0094494298391178105 0.019973173466971913 0 -0.0096112539214504855 0.020101586821994779 0 -0.0096498251463793972 0.019878736127417581 0 -0.0096498251463793972 0.019878736127417581 0 -0.0099326211769299975 0.019991976071063729 0 -0.0098357830189041914 0.019718825576342344 0 -0.0096498251463793972 0.019878736127417581 0 -0.0098357830189041914 0.019718825576342344 0 -0.0096314075099918593 0.019738828913352033 0 -0.0098357830189041914 0.019718825576342344 0 -0.0096712366792152029 0.0196262374404211 0 -0.0096226505853205455 0.019462881431754713 0 -0.0098357830189041914 0.019718825576342344 0 -0.0096712366792152029 0.0196262374404211 0 -0.0096314075099918593 0.019738828913352033 0 -0.0096712366792152029 0.0196262374404211 0 -0.0095970291849902141 0.019584012640593274 0 -0.0096314075099918593 0.019738828913352033 0 -0.0095100500956257564 0.019688163351737047 0 -0.0095970291849902141 0.019584012640593274 0 -0.0096314075099918593 0.019738828913352033 0 -0.0095100500956257564 0.019688163351737047 0 -0.0096498251463793972 0.019878736127417581 0 -0.0096314075099918593 0.019738828913352033 0 -0.010399927036152902 0.020179992293569683 0 -0.0099326211769299975 0.019991976071063729 0 -0.010548410965113025 0.019628902734098612 0 -0.0099326211769299975 0.019991976071063729 0 -0.0098357830189041914 0.019718825576342344 0 -0.010548410965113025 0.019628902734098612 0 -0.0086457502248177172 0.01954180478610721 0 -0.0090465512778041511 0.019584161829556669 0 -0.0090465512778041511 0.019584161829556669 0 -0.0064560011700161082 0.019086451423848284 0 -0.0086001525052741487 0.018814157493360247 0 -0.0083925524108061245 0.019683793147925916 0 -0.0074746060141624984 0.019076421979526647 0 -0.0086457502248177172 0.01954180478610721 0 -0.0072849792667294142 0.019061012728185465 0 -0.0074520896194778963 0.018847065764773054 0 -0.008046368048896262 0.019226311839240954 0 -0.0078037798980558088 0.019188273564455436 0 -0.0074520896194778963 0.018847065764773054 0 -0.0078037798980558088 0.019188273564455436 0 -0.0072410175189244587 0.019111200909343845 0 -0.0074520896194778963 0.018847065764773054 0 -0.0070615786348701016 0.018698869339106475 0 -0.0072410175189244587 0.019111200909343845 0 -0.0070615786348701016 0.018698869339106475 0 -0.0072410175189244587 0.019111200909343845 0 -0.0067755849987413512 0.018649532139904522 0 -0.0074746060141624984 0.019076421979526647 0 -0.0070044956259893649 0.019480827801677082 0 -0.0063411431542680979 0.019382620301526678 0 -0.0083925524108061245 0.019683793147925916 0 -0.0074746060141624984 0.019076421979526647 0 -0.0070044956259893649 0.019480827801677082 0 -0.0072849792667294142 0.019061012728185465 0 -0.0064696027790733784 0.019093777635221548 0 -0.0072410175189244587 0.019111200909343845 0 -0.0065053556672199737 0.019047765487327402 0 -0.0067755849987413512 0.018649532139904522 0 -0.0064560011700161082 0.019086451423848284 0 -0.0064696027790733784 0.019093777635221548 0 -0.0066211707833006041 0.018831529601633513 0 -0.0063209345554194269 0.01880713528496223 0 -0.0062796693089222236 0.018974087175133419 0 -0.0065053556672199737 0.019047765487327402 0 -0.0059963568121586888 0.01878105753158003 0 -0.0063079956221038591 0.018472603962241027 0 -0.0059963568121586888 0.01878105753158003 0 -0.0059431888332063575 0.019102017358895485 0 -0.0062796693089222236 0.018974087175133419 0 -0.0063209345554194269 0.01880713528496223 0 -0.0059963568121586888 0.01878105753158003 0 -0.0062796693089222236 0.018974087175133419 0 -0.0064696027790733784 0.019093777635221548 0 -0.0060509856245746004 0.018839893731917957 0 -0.0063079956221038591 0.018472603962241027 0 -0.0058619126784922159 0.01839687404713761 0 -0.0058788713017790583 0.017809358512491727 0 -0.0059963568121586888 0.01878105753158003 0 -0.0063079956221038591 0.018472603962241027 0 -0.0058619126784922159 0.01839687404713761 0 -0.0065053556672199737 0.019047765487327402 0 -0.0063079956221038591 0.018472603962241027 0 -0.0067755849987413512 0.018649532139904522 0 -0.0050569230117623095 0.018749430322696346 0 -0.0055484853513939857 0.018570022184720137 0 -0.0048757447083108956 0.018102642007404392 0 -0.0050569230117623095 0.018749430322696346 0 -0.0055484853513939857 0.018570022184720137 0 -0.0059431888332063575 0.019102017358895485 0 -0.0059963568121586888 0.01878105753158003 0 -0.0055484853513939857 0.018570022184720137 0 -0.0059431888332063575 0.019102017358895485 0 -0.0059963568121586888 0.01878105753158003 0 -0.0058619126784922159 0.01839687404713761 0 -0.0055484853513939857 0.018570022184720137 0 -0.0058619126784922159 0.01839687404713761 0 -0.0054086359586219407 0.018123229945683984 0 -0.0058788713017790583 0.017809358512491727 0 -0.0058619126784922159 0.01839687404713761 0 -0.0055484853513939857 0.018570022184720137 0 -0.0054086359586219407 0.018123229945683984 0 -0.0055484853513939857 0.018570022184720137 0 -0.0054086359586219407 0.018123229945683984 0 -0.0048757447083108956 0.018102642007404392 0 -0.0054086359586219407 0.018123229945683984 0 -0.0048757447083108956 0.018102642007404392 0 -0.004838809612798642 0.017536463433121544 0 -0.0048713578806074253 0.017584237637588256 0 -0.0055487179269024496 0.01775422252578332 0 -0.004838809612798642 0.017536463433121544 0 -0.0049106482284307917 0.017252236596330527 0 -0.0052453785382055142 0.017691823561919062 0 -0.0054086359586219407 0.018123229945683984 0 -0.004838809612798642 0.017536463433121544 0 -0.0058788713017790583 0.017809358512491727 0 -0.0049106482284307917 0.017252236596330527 0 -0.0053354138933583324 0.017203484777217896 0 -0.0049497950204442469 0.016898283749292212 0 -0.0049106482284307917 0.017252236596330527 0 -0.0052453785382055142 0.017691823561919062 0 -0.0053354138933583324 0.017203484777217896 0 -0.0049106482284307917 0.017252236596330527 0 -0.0049497950204442469 0.016898283749292212 0 -0.0045689768979530572 0.017007814975198449 0 -0.004838809612798642 0.017536463433121544 0 -0.0049106482284307917 0.017252236596330527 0 -0.0045689768979530572 0.017007814975198449 0 -0.0063079956221038591 0.018472603962241027 0 -0.0067755849987413512 0.018649532139904522 0 -0.006761044395006994 0.01812474047404726 0 -0.0070615786348701016 0.018698869339106475 0 -0.0067755849987413512 0.018649532139904522 0 -0.006761044395006994 0.01812474047404726 0 -0.0064679111690655539 0.018087925682836948 0 -0.0055487179269024496 0.01775422252578332 0 -0.0063079956221038591 0.018472603962241027 0 -0.006761044395006994 0.01812474047404726 0 -0.0058788713017790583 0.017809358512491727 0 -0.0061201239976127787 0.018018077955444287 0 -0.0052453785382055142 0.017691823561919062 0 -0.0053354138933583324 0.017203484777217896 0 -0.0064916017798720329 0.017380732565091688 0 -0.0061201239976127787 0.018018077955444287 0 -0.0059536416684053354 0.017057512007875659 0 -0.0061201239976127787 0.018018077955444287 0 -0.0053354138933583324 0.017203484777217896 0 -0.0059536416684053354 0.017057512007875659 0 -0.0059536416684053354 0.017057512007875659 0 -0.0061576913661057766 0.016186064096240793 0 -0.0054128889399371136 0.016370806077560529 0 -0.0064642706901145101 0.016847473704673203 0 -0.0064916017798720329 0.017380732565091688 0 -0.0059536416684053354 0.017057512007875659 0 -0.0064642706901145101 0.016847473704673203 0 -0.0059536416684053354 0.017057512007875659 0 -0.0061576913661057766 0.016186064096240793 0 -0.0059583191900128389 0.014614890682376126 0 -0.0063215351445910723 0.014713816159269338 0 -0.0060868257646981196 0.014460350322693339 0 -0.0065932767844229445 0.015089870470142319 0 -0.0059583191900128389 0.014614890682376126 0 -0.0063215351445910723 0.014713816159269338 0 -0.0065932767844229445 0.015089870470142319 0 -0.0061576913661057766 0.016186064096240793 0 -0.0054128889399371136 0.016370806077560529 0 -0.0065987141140203933 0.015079112169518016 0 -0.0057532397730334275 0.015468153676173865 0 -0.0059583191900128389 0.014614890682376126 0 -0.0056641577379868023 0.014347920366102248 0 -0.0058091470473934084 0.014225835188128021 0 -0.0053354138933583324 0.017203484777217896 0 -0.0054128889399371136 0.016370806077560529 0 -0.0049497950204442469 0.016898283749292212 0 -0.0053354138933583324 0.017203484777217896 0 -0.0059536416684053354 0.017057512007875659 0 -0.0054128889399371136 0.016370806077560529 0 -0.0057532397730334275 0.015468153676173865 0 -0.0052632360104108971 0.01573272665047833 0 -0.0052632360104108971 0.01573272665047833 0 -0.004837121179258076 0.015941859118017938 0 -0.0055792978116771946 0.01457339509981046 0 -0.0051359946190373141 0.014286580757490256 0 -0.005137195749185388 0.014867334785353415 0 -0.0055792978116771946 0.01457339509981046 0 -0.005364967447271397 0.014109180210207541 0 -0.0051359946190373141 0.014286580757490256 0 -0.0055792978116771946 0.01457339509981046 0 -0.005364967447271397 0.014109180210207541 0 -0.0056641577379868023 0.014347920366102248 0 -0.0059583191900128389 0.014614890682376126 0 -0.0055792978116771946 0.01457339509981046 0 -0.0056641577379868023 0.014347920366102248 0 -0.005364967447271397 0.014109180210207541 0 -0.0056641577379868023 0.014347920366102248 0 -0.0055464834541110453 0.014104731895196492 0 -0.0056641577379868023 0.014347920366102248 0 -0.0055464834541110453 0.014104731895196492 0 -0.0058091470473934084 0.014225835188128021 0 -0.0055464834541110453 0.014104731895196492 0 -0.0056469656912158826 0.013786021383227199 0 -0.0058091470473934084 0.014225835188128021 0 -0.005364967447271397 0.014109180210207541 0 -0.0053638508806442874 0.013834974559417994 0 -0.0051246014629794607 0.013786977824469289 0 -0.005364967447271397 0.014109180210207541 0 -0.0055464834541110453 0.014104731895196492 0 -0.0053638508806442874 0.013834974559417994 0 -0.005364967447271397 0.014109180210207541 0 -0.0051246014629794607 0.013786977824469289 0 -0.005041253649160523 0.013780482695725134 0 -0.005131997737367216 0.013532144295063532 0 -0.0053638508806442874 0.013834974559417994 0 -0.0051246014629794607 0.013786977824469289 0 -0.005131997737367216 0.013532144295063532 0 -0.0053638508806442874 0.013834974559417994 0 -0.0053811116883039521 0.013582193134499604 0 -0.0055464834541110453 0.014104731895196492 0 -0.0053638508806442874 0.013834974559417994 0 -0.0056469656912158826 0.013786021383227199 0 -0.0053638508806442874 0.013834974559417994 0 -0.0053811116883039521 0.013582193134499604 0 -0.0056469656912158826 0.013786021383227199 0 -0.0059917210789217816 0.013762614927249055 0 -0.0061698206810597575 0.014111603922552885 0 -0.0058091470473934084 0.014225835188128021 0 -0.0058340383305952185 0.013503983674981075 0 -0.0056469656912158826 0.013786021383227199 0 -0.0059917210789217816 0.013762614927249055 0 -0.0056469656912158826 0.013786021383227199 0 -0.0059917210789217816 0.013762614927249055 0 -0.0058091470473934084 0.014225835188128021 0 -0.0059917210789217816 0.013762614927249055 0 -0.0063356894062995446 0.013738350954395953 0 -0.0061698206810597575 0.014111603922552885 0 -0.0067643574662276601 0.013693541489356168 0 -0.0063356894062995446 0.013738350954395953 0 -0.0064955583970407538 0.014025613119977711 0 -0.0064955583970407538 0.014025613119977711 0 -0.0061698206810597575 0.014111603922552885 0 -0.0064764292306364081 0.014387332681274772 0 -0.0063356894062995446 0.013738350954395953 0 -0.0064955583970407538 0.014025613119977711 0 -0.0061698206810597575 0.014111603922552885 0 -0.0061698206810597575 0.014111603922552885 0 -0.0064764292306364081 0.014387332681274772 0 -0.0060868257646981196 0.014460350322693339 0 -0.0066647469029953886 0.014687467502389239 0 -0.0064764292306364081 0.014387332681274772 0 -0.0063215351445910723 0.014713816159269338 0 -0.0064764292306364081 0.014387332681274772 0 -0.0063215351445910723 0.014713816159269338 0 -0.0060868257646981196 0.014460350322693339 0 -0.0059583191900128389 0.014614890682376126 0 -0.0060868257646981196 0.014460350322693339 0 -0.0058091470473934084 0.014225835188128021 0 -0.0061698206810597575 0.014111603922552885 0 -0.0060868257646981196 0.014460350322693339 0 -0.0058091470473934084 0.014225835188128021 0 -0.0039642445120642413 0.013134663660573784 0 -0.0042240379322985031 0.013627938175837967 0 -0.003503521537837818 0.013356766278848159 0 -0.0039642445120642413 0.013134663660573784 0 -0.0038614684436093683 0.012557003277482982 0 -0.0045146143650483979 0.013151147333667028 0 -0.0034410276792501441 0.012849047466840185 0 -0.0031003716695088162 0.012403859932673024 0 -0.0038614684436093683 0.012557003277482982 0 -0.0039642445120642413 0.013134663660573784 0 -0.0034410276792501441 0.012849047466840185 0 -0.0038614684436093683 0.012557003277482982 0 -0.0039642445120642413 0.013134663660573784 0 -0.0034410276792501441 0.012849047466840185 0 -0.003503521537837818 0.013356766278848159 0 -0.0030839235632902917 0.012924540676034168 0 -0.003503521537837818 0.013356766278848159 0 -0.0029114858964713586 0.013237747901618696 0 -0.0030839235632902917 0.012924540676034168 0 -0.0034410276792501441 0.012849047466840185 0 -0.003503521537837818 0.013356766278848159 0 -0.0026827449894799823 0.012838382765165095 0 -0.0030839235632902917 0.012924540676034168 0 -0.0028647841391004282 0.012597926127489284 0 -0.0026827449894799823 0.012838382765165095 0 -0.0030839235632902917 0.012924540676034168 0 -0.0029114858964713586 0.013237747901618696 0 -0.0030839235632902917 0.012924540676034168 0 -0.0028647841391004282 0.012597926127489284 0 -0.0031363845117945558 0.012703367745573643 0 -0.0028647841391004282 0.012597926127489284 0 -0.0031363845117945558 0.012703367745573643 0 -0.0031003716695088162 0.012403859932673024 0 -0.0028647841391004282 0.012597926127489284 0 -0.0031003716695088162 0.012403859932673024 0 -0.002728070642904438 0.012245162100078998 0 -0.0030839235632902917 0.012924540676034168 0 -0.0034410276792501441 0.012849047466840185 0 -0.0031363845117945558 0.012703367745573643 0 -0.0034410276792501441 0.012849047466840185 0 -0.0031363845117945558 0.012703367745573643 0 -0.0031003716695088162 0.012403859932673024 0 -0.0031003716695088162 0.012403859932673024 0 -0.0031287605145455832 0.012108670524106661 0 -0.0038614684436093683 0.012557003277482982 0 -0.0033523787803233702 0.012240085763466354 0 -0.0034956861911373772 0.011955329162521395 0 -0.0031003716695088162 0.012403859932673024 0 -0.0031293533163415516 0.01203410622474547 0 -0.002728070642904438 0.012245162100078998 0 -0.0031293533163415516 0.01203410622474547 0 -0.002728070642904438 0.012245162100078998 0 -0.0027819371925739116 0.011889382459065186 0 -0.0044219566587974301 0.0099176700500285611 0 -0.0046263499806181814 0.010898303875265329 0 -0.0054146339844227467 0.010630314821714927 0 -0.0036195205301547653 0.011467428431851827 0 -0.0036911453807279126 0.011494517293433959 0 -0.003614478748710018 0.011525712605200225 0 -0.0034956861911373772 0.011955329162521395 0 -0.0037873758345309755 0.011291689261128177 0 -0.0037873758345309755 0.011291689261128177 0 -0.0038398054310833864 0.011270928204589041 0 -0.00319387831858663 0.012588544831934204 0 -0.0032166135034684623 0.012342152410171375 0 -0.0036346719374392767 0.012500827466428102 0 -0.0034956861911373772 0.011955329162521395 0 -0.0038398054310833864 0.011270928204589041 0 -0.0039582860934321024 0.012038485055118177 0 -0.0032166135034684623 0.012342152410171375 0 -0.0036346719374392767 0.012500827466428102 0 -0.0034956861911373772 0.011955329162521395 0 -0.0038244039138032324 0.012707014587922526 0 -0.00319387831858663 0.012588544831934204 0 -0.0036346719374392767 0.012500827466428102 0 -0.0038514231440733961 0.012861173019848562 0 -0.0036346719374392767 0.012500827466428102 0 -0.0038514231440733961 0.012861173019848562 0 -0.0042854680494008078 0.012513582494095727 0 -0.0039582860934321024 0.012038485055118177 0 -0.0036346719374392767 0.012500827466428102 0 -0.0042854680494008078 0.012513582494095727 0 -0.0047138548919591064 0.011728061676466473 0 -0.0042854680494008078 0.012513582494095727 0 -0.0049201407887259517 0.012622526900567482 0 -0.0038514231440733961 0.012861173019848562 0 -0.0042854680494008078 0.012513582494095727 0 -0.0045146143650483979 0.013151147333667028 0 -0.0042854680494008078 0.012513582494095727 0 -0.0049201407887259517 0.012622526900567482 0 -0.0045146143650483979 0.013151147333667028 0 -0.005131997737367216 0.013532144295063532 0 -0.0049329322175361186 0.013681736416682399 0 -0.0051246014629794607 0.013786977824469289 0 -0.0049201407887259517 0.012622526900567482 0 -0.005041253649160523 0.013780482695725134 0 -0.0045146143650483979 0.013151147333667028 0 -0.0049329322175361186 0.013681736416682399 0 -0.0051246014629794607 0.013786977824469289 0 -0.005041253649160523 0.013780482695725134 0 -0.0049422954806408953 0.013242836099227762 0 -0.0050255463385914601 0.013679166390259163 0 -0.0045146143650483979 0.013151147333667028 0 -0.0042240379322985031 0.013627938175837967 0 -0.0047142010338431335 0.013965973097045076 0 -0.005041253649160523 0.013780482695725134 0 -0.0045146143650483979 0.013151147333667028 0 -0.0047142010338431335 0.013965973097045076 0 -0.0038244039138032324 0.012707014587922526 0 -0.0044345154090764879 0.013056035899443118 0 -0.0039642445120642413 0.013134663660573784 0 -0.0045146143650483979 0.013151147333667028 0 -0.0042240379322985031 0.013627938175837967 0 -0.0042240379322985031 0.013627938175837967 0 -0.0047142010338431335 0.013965973097045076 0 -0.0044581383326216875 0.014412350123371019 0 -0.0047142010338431335 0.013965973097045076 0 -0.0051359946190373141 0.014286580757490256 0 -0.0044581383326216875 0.014412350123371019 0 -0.005364967447271397 0.014109180210207541 0 -0.005041253649160523 0.013780482695725134 0 -0.0051359946190373141 0.014286580757490256 0 -0.005041253649160523 0.013780482695725134 0 -0.0047142010338431335 0.013965973097045076 0 -0.0051359946190373141 0.014286580757490256 0 -0.0051359946190373141 0.014286580757490256 0 -0.0044581383326216875 0.014412350123371019 0 -0.005137195749185388 0.014867334785353415 0 -0.0044581383326216875 0.014412350123371019 0 -0.0036349469225584333 0.014266653949601525 0 -0.0038684082531383014 0.013859220849819227 0 -0.0044581383326216875 0.014412350123371019 0 -0.0036349469225584333 0.014266653949601525 0 -0.0039219101519215541 0.014885982012361946 0 -0.0036349469225584333 0.014266653949601525 0 -0.0031842621147880274 0.014509008883665058 0 -0.0039219101519215541 0.014885982012361946 0 -0.0042240379322985031 0.013627938175837967 0 -0.0038684082531383014 0.013859220849819227 0 -0.003503521537837818 0.013356766278848159 0 -0.0042240379322985031 0.013627938175837967 0 -0.0044581383326216875 0.014412350123371019 0 -0.0038684082531383014 0.013859220849819227 0 -0.0036349469225584333 0.014266653949601525 0 -0.0038684082531383014 0.013859220849819227 0 -0.0031401883209068236 0.013759613067712588 0 -0.0038684082531383014 0.013859220849819227 0 -0.003503521537837818 0.013356766278848159 0 -0.0031401883209068236 0.013759613067712588 0 -0.0025915504230759781 0.013491202451374133 0 -0.0029114858964713586 0.013237747901618696 0 -0.0031401883209068236 0.013759613067712588 0 -0.003503521537837818 0.013356766278848159 0 -0.0029114858964713586 0.013237747901618696 0 -0.0031401883209068236 0.013759613067712588 0 -0.0025915504230759781 0.013491202451374133 0 -0.0026720803016162644 0.01408116739344481 0 -0.0031401883209068236 0.013759613067712588 0 -0.0026720803016162644 0.01408116739344481 0 -0.0031401883209068236 0.013759613067712588 0 -0.0031842621147880274 0.014509008883665058 0 -0.0036349469225584333 0.014266653949601525 0 -0.0031401883209068236 0.013759613067712588 0 -0.0031842621147880274 0.014509008883665058 0 -0.0026720803016162644 0.01408116739344481 0 -0.0024202777087305996 0.014682003286924266 0 -0.0031842621147880274 0.014509008883665058 0 -0.0024202777087305996 0.014682003286924266 0 -0.0027248003072711437 0.015630029554878393 0 -0.003298941561615725 0.015196660076373034 0 -0.0024202777087305996 0.014682003286924266 0 -0.0031842621147880274 0.014509008883665058 0 -0.003298941561615725 0.015196660076373034 0 -0.0031842621147880274 0.014509008883665058 0 -0.003298941561615725 0.015196660076373034 0 -0.0039219101519215541 0.014885982012361946 0 -0.003298941561615725 0.015196660076373034 0 -0.0039219101519215541 0.014885982012361946 0 -0.0043896827206527708 0.015475795987300343 0 -0.0031882784095309579 0.016552418024324025 0 -0.0041287607435648768 0.016216823523768444 0 -0.0031721480297590763 0.016528755287203812 0 -0.0039901267920412703 0.016923709016481516 0 -0.0035311702433099361 0.017296098919505374 0 -0.003298941561615725 0.015196660076373034 0 -0.0031721480297590763 0.016528755287203812 0 -0.0043896827206527708 0.015475795987300343 0 -0.0027248003072711437 0.015630029554878393 0 -0.003298941561615725 0.015196660076373034 0 -0.0031721480297590763 0.016528755287203812 0 -0.0023360384731874418 0.016047544829877993 0 -0.0027248003072711437 0.015630029554878393 0 -0.0031721480297590763 0.016528755287203812 0 -0.004838809612798642 0.017536463433121544 0 -0.0039901267920412703 0.016923709016481516 0 -0.0042076306289083763 0.017540061947218216 0 -0.004838809612798642 0.017536463433121544 0 -0.0045689768979530572 0.017007814975198449 0 -0.0039901267920412703 0.016923709016481516 0 -0.004837121179258076 0.015941859118017938 0 -0.0041287607435648768 0.016216823523768444 0 -0.0044581383326216875 0.014412350123371019 0 -0.005137195749185388 0.014867334785353415 0 -0.0043896827206527708 0.015475795987300343 0 -0.0044581383326216875 0.014412350123371019 0 -0.0039219101519215541 0.014885982012361946 0 -0.0043896827206527708 0.015475795987300343 0 -0.0039901267920412703 0.016923709016481516 0 -0.0042076306289083763 0.017540061947218216 0 -0.0035311702433099361 0.017296098919505374 0 -0.0048757447083108956 0.018102642007404392 0 -0.0042076306289083763 0.017540061947218216 0 -0.00421279597853265 0.018122249069238906 0 -0.0048757447083108956 0.018102642007404392 0 -0.004838809612798642 0.017536463433121544 0 -0.0042076306289083763 0.017540061947218216 0 -0.0042076306289083763 0.017540061947218216 0 -0.00421279597853265 0.018122249069238906 0 -0.0035311702433099361 0.017296098919505374 0 -0.0042164832758025154 0.012121905890085268 0 -0.0039303928427252546 0.012154244131735317 0 -0.0041836760843579433 0.012325563068327387 0 -0.0039303928427252546 0.012154244131735317 0 -0.0039593017229714467 0.012342546642426538 0 -0.0041836760843579433 0.012325563068327387 0 -0.0042164832758025154 0.012121905890085268 0 -0.0044223461738182148 0.012414441069364726 0 -0.0041836760843579433 0.012325563068327387 0 -0.0050569230117623095 0.018749430322696346 0 -0.0048757447083108956 0.018102642007404392 0 -0.00421279597853265 0.018122249069238906 0 -0.0045943083076128719 0.012317951454667764 0 -0.0042164832758025154 0.012121905890085268 0 -0.0044223461738182148 0.012414441069364726 0 -0.0047734485111292054 0.015457414919029643 0 -0.004416186262376263 0.015532583963801801 0 -0.0031721480297590763 0.016528755287203812 0 -0.0035311702433099361 0.017296098919505374 0 -0.0034776329270780728 0.017461720443998675 0 -0.0022195666232424534 0.016792562785273992 0 -0.0031721480297590763 0.016528755287203812 0 -0.0034776329270780728 0.017461720443998675 0 -0.0026215813781874956 0.010408138412136459 0 -0.0031328679544593333 0.011851756249787373 0 -0.0026647931240475911 0.0035560769666979253 0 -0.0029644276633352825 0.0038365546944272924 0 -0.0032790500417354328 0.0038350662921335437 0 -0.00421279597853265 0.018122249069238906 0 -0.0035311702433099361 0.017296098919505374 0 -0.0034771985676541901 0.017422749142859451 0 -0.004416186262376263 0.015532583963801801 0 -0.0031328679544593333 0.011851756249787373 0 -0.0026198165430152721 0.014103961109458952 0 -0.0031328679544593333 0.011851756249787373 0 -0.0042164832758025154 0.012121905890085268 0 -0.0037322990912024867 0.011913354123297627 0 -0.0039303928427252546 0.012154244131735317 0 -0.0037322990912024867 0.011913354123297627 0 -0.0039303928427252546 0.012154244131735317 0 -0.0036409701988980988 0.012129402779862688 0 -0.0039303928427252546 0.012154244131735317 0 -0.0036409701988980988 0.012129402779862688 0 -0.0039593017229714467 0.012342546642426538 0 -0.0037295810865053099 0.0065202945844418147 0 -0.0041500256990587752 0.01002405903953632 0 -0.0023997305861649249 0.0033122157521827634 0 -0.0024513127321700288 0.0031102135135243477 0 -0.0021888189213339309 0.0031841859897530174 0 -0.0031328679544593333 0.011851756249787373 0 -0.0037295810865053099 0.0065202945844418147 0 -0.0029644276633352825 0.0038365546944272924 0 -0.0032790500417354328 0.0038350662921335437 0 -0.0031650677939758639 0.0041525201301429249 0 -0.0027661696036907668 0.003837362909391199 0 -0.0029644276633352825 0.0038365546944272924 0 -0.0031650677939758639 0.0041525201301429249 0 -0.0022480014980075682 0.003342481239513348 0 -0.0037295810865053099 0.0065202945844418147 0 -0.0037295810865053099 0.0065202945844418147 0 -0.0033657659479289612 0.0047289416493623785 0 -0.0042662458848945492 0.0073556430744150551 0 -0.0044169148707957837 0.0069719663778187784 0 -0.0039709728621681135 0.0071892994170816215 0 -0.0024513127321700288 0.0031102135135243477 0 -0.0021888189213339309 0.0031841859897530174 0 -0.0023274267155474139 0.0028453449890535028 0 -0.0044169148707957837 0.0069719663778187784 0 -0.0039709728621681135 0.0071892994170816215 0 -0.0040153818351661742 0.0067425944568649879 0 -0.0044169148707957837 0.0069719663778187784 0 -0.0040153818351661742 0.0067425944568649879 0 -0.0043462263432371235 0.006710355514713098 0 -0.0044169148707957837 0.0069719663778187784 0 -0.0043462263432371235 0.006710355514713098 0 -0.004571178260040722 0.0065767654800827679 0 -0.0044223461738182148 0.012414441069364726 0 -0.0042553983224053026 0.012520976692537187 0 -0.0041836760843579433 0.012325563068327387 0 -0.003857516750875414 0.012272930918806609 0 -0.0042353415350060699 0.0098872209955244705 0 -0.0039709728621681135 0.0071892994170816215 0 -0.0040153818351661742 0.0067425944568649879 0 -0.003675401382446865 0.0070245440535319711 0 -0.0039593017229714467 0.012342546642426538 0 -0.0042553983224053026 0.012520976692537187 0 -0.0041836760843579433 0.012325563068327387 0 -0.0041500256990587752 0.01002405903953632 0 -0.0042353415350060699 0.0098872209955244705 0 -0.0043751109679744295 0.0072976627719601511 0 -0.0042353415350060699 0.0098872209955244705 0 -0.0045915788380493242 0.008457844486175807 0 -0.0043467088503924001 0.0086455196505355776 0 -0.0043107222940145873 0.0083853257782280921 0 -0.0042353415350060699 0.0098872209955244705 0 -0.0044237816316803954 0.010713655631601293 0 -0.0043467088503924001 0.0086455196505355776 0 -0.0043107222940145873 0.0083853257782280921 0 -0.0040606417183825854 0.0084621998783399113 0 -0.0044223461738182148 0.012414441069364726 0 -0.0042927409475905344 0.012493952927175884 0 -0.0046270390872509871 0.0126739359302631 0 -0.0043107222940145873 0.0083853257782280921 0 -0.0041547940813305359 0.00828651306932684 0 -0.0040606417183825854 0.0084621998783399113 0 -0.0043107222940145873 0.0083853257782280921 0 -0.0043172064373343932 0.0082212307663679096 0 -0.0041547940813305359 0.00828651306932684 0 -0.0043107222940145873 0.0083853257782280921 0 -0.00450009307790684 0.0082382448644545796 0 -0.0043172064373343932 0.0082212307663679096 0 -0.0045915788380493242 0.008457844486175807 0 -0.0043107222940145873 0.0083853257782280921 0 -0.00450009307790684 0.0082382448644545796 0 -0.00450009307790684 0.0082382448644545796 0 -0.0044196247443095407 0.0080858780212661654 0 -0.0046608590035158359 0.0080686836338531489 0 -0.00450009307790684 0.0082382448644545796 0 -0.0044196247443095407 0.0080858780212661654 0 -0.0043172064373343932 0.0082212307663679096 0 -0.0044196247443095407 0.0080858780212661654 0 -0.0043172064373343932 0.0082212307663679096 0 -0.0042087975913516909 0.0081098349155005085 0 -0.0044196247443095407 0.0080858780212661654 0 -0.0042087975913516909 0.0081098349155005085 0 -0.0043206954940533844 0.007962933688494581 0 -0.0043172064373343932 0.0082212307663679096 0 -0.0042087975913516909 0.0081098349155005085 0 -0.0041547940813305359 0.00828651306932684 0 -0.0040153818351661742 0.0067425944568649879 0 -0.0043462263432371235 0.006710355514713098 0 -0.0043630535125446616 0.0064569086772465287 0 -0.0043462263432371235 0.006710355514713098 0 -0.0043630535125446616 0.0064569086772465287 0 -0.004571178260040722 0.0065767654800827679 0 -0.0043751109679744295 0.0072976627719601511 0 -0.0046395217846615672 0.0075933947432651463 0 -0.0045915788380493242 0.008457844486175807 0 -0.0048499661985096174 0.0082662342706726413 0 -0.004650287873956549 0.0082580307551989793 0 -0.0045915788380493242 0.008457844486175807 0 -0.00450009307790684 0.0082382448644545796 0 -0.004650287873956549 0.0082580307551989793 0 -0.0048499661985096174 0.0082662342706726413 0 -0.004650287873956549 0.0082580307551989793 0 -0.0046608590035158359 0.0080686836338531489 0 -0.00450009307790684 0.0082382448644545796 0 -0.004650287873956549 0.0082580307551989793 0 -0.0046608590035158359 0.0080686836338531489 0 -0.0048499661985096174 0.0082662342706726413 0 -0.0046608590035158359 0.0080686836338531489 0 -0.0048910683162160812 0.0080396654883897432 0 -0.0046608590035158359 0.0080686836338531489 0 -0.0048910683162160812 0.0080396654883897432 0 -0.0048159852814809844 0.0078842705241227665 0 -0.0048910683162160812 0.0080396654883897432 0 -0.0048159852814809844 0.0078842705241227665 0 -0.005011243690648007 0.0079245019956323895 0 -0.0048159852814809844 0.0078842705241227665 0 -0.0048245782388649568 0.0077247581275733859 0 -0.0049551288684528422 0.0077822622992688118 0 -0.0048159852814809844 0.0078842705241227665 0 -0.0049551288684528422 0.0077822622992688118 0 -0.005011243690648007 0.0079245019956323895 0 -0.0048245782388649568 0.0077247581275733859 0 -0.0049551288684528422 0.0077822622992688118 0 -0.005037097347736475 0.0075525177664118835 0 -0.0048245782388649568 0.0077247581275733859 0 -0.0047797753440362578 0.007574404954252126 0 -0.005037097347736475 0.0075525177664118835 0 -0.0048159852814809844 0.0078842705241227665 0 -0.0048245782388649568 0.0077247581275733859 0 -0.0046754887508017942 0.0077568193574300377 0 -0.0048245782388649568 0.0077247581275733859 0 -0.0046754887508017942 0.0077568193574300377 0 -0.0047797753440362578 0.007574404954252126 0 -0.0045373753132341979 0.0077087804143742148 0 -0.0044715783531042988 0.0076029205565125678 0 -0.0045936004291512221 0.0075719393219737773 0 -0.0045373753132341979 0.0077087804143742148 0 -0.0046754887508017942 0.0077568193574300377 0 -0.0045936004291512221 0.0075719393219737773 0 -0.0046754887508017942 0.0077568193574300377 0 -0.0047797753440362578 0.007574404954252126 0 -0.0045936004291512221 0.0075719393219737773 0 -0.0045373753132341979 0.0077087804143742148 0 -0.0046754887508017942 0.0077568193574300377 0 -0.0045100340919436849 0.0079023631560593485 0 -0.0046754887508017942 0.0077568193574300377 0 -0.0046598439387469642 0.007913112212199468 0 -0.0045100340919436849 0.0079023631560593485 0 -0.0044196247443095407 0.0080858780212661654 0 -0.0046608590035158359 0.0080686836338531489 0 -0.0045100340919436849 0.0079023631560593485 0 -0.0048159852814809844 0.0078842705241227665 0 -0.0046754887508017942 0.0077568193574300377 0 -0.0046598439387469642 0.007913112212199468 0 -0.0046608590035158359 0.0080686836338531489 0 -0.0048159852814809844 0.0078842705241227665 0 -0.0046598439387469642 0.007913112212199468 0 -0.0046608590035158359 0.0080686836338531489 0 -0.0046598439387469642 0.007913112212199468 0 -0.0045100340919436849 0.0079023631560593485 0 -0.0044196247443095407 0.0080858780212661654 0 -0.0045100340919436849 0.0079023631560593485 0 -0.0043206954940533844 0.007962933688494581 0 -0.0043344234348340702 0.0078402190415989038 0 -0.0045100340919436849 0.0079023631560593485 0 -0.0043206954940533844 0.007962933688494581 0 -0.0042087975913516909 0.0081098349155005085 0 -0.0043206954940533844 0.007962933688494581 0 -0.0041990571992668877 0.0079089991601797478 0 -0.0042087975913516909 0.0081098349155005085 0 -0.0041990571992668877 0.0079089991601797478 0 -0.0040588376376916382 0.0080275664783798564 0 -0.0043344234348340702 0.0078402190415989038 0 -0.0043206954940533844 0.007962933688494581 0 -0.0041990571992668877 0.0079089991601797478 0 -0.0041990571992668877 0.0079089991601797478 0 -0.0042555169948849158 0.0077809658556757784 0 -0.0041197376014981708 0.0077557702826258311 0 -0.0043344234348340702 0.0078402190415989038 0 -0.0041990571992668877 0.0079089991601797478 0 -0.0042555169948849158 0.0077809658556757784 0 -0.0042555169948849158 0.0077809658556757784 0 -0.0042562558661645962 0.0076646708340233818 0 -0.0044057555581899378 0.0077328446967154787 0 -0.0042562558661645962 0.0076646708340233818 0 -0.0041748543416721164 0.0075983748001195901 0 -0.0041197376014981708 0.0077557702826258311 0 -0.0042555169948849158 0.0077809658556757784 0 -0.0042562558661645962 0.0076646708340233818 0 -0.0041197376014981708 0.0077557702826258311 0 -0.0045373753132341979 0.0077087804143742148 0 -0.0045100340919436849 0.0079023631560593485 0 -0.0044057555581899378 0.0077328446967154787 0 -0.0043344234348340702 0.0078402190415989038 0 -0.0045100340919436849 0.0079023631560593485 0 -0.0044057555581899378 0.0077328446967154787 0 -0.0043344234348340702 0.0078402190415989038 0 -0.0042555169948849158 0.0077809658556757784 0 -0.0044057555581899378 0.0077328446967154787 0 -0.0044057555581899378 0.0077328446967154787 0 -0.0044715783531042988 0.0076029205565125678 0 -0.0043429076280006107 0.0075521255910098476 0 -0.0042562558661645962 0.0076646708340233818 0 -0.0044057555581899378 0.0077328446967154787 0 -0.0043429076280006107 0.0075521255910098476 0 -0.0045373753132341979 0.0077087804143742148 0 -0.0044057555581899378 0.0077328446967154787 0 -0.0044715783531042988 0.0076029205565125678 0 -0.0044715783531042988 0.0076029205565125678 0 -0.0043429076280006107 0.0075521255910098476 0 -0.0044887741703802959 0.0074452978319771226 0 -0.0043429076280006107 0.0075521255910098476 0 -0.0044887741703802959 0.0074452978319771226 0 -0.0043866511703931485 0.0073615339223218265 0 -0.0042562558661645962 0.0076646708340233818 0 -0.0043429076280006107 0.0075521255910098476 0 -0.0041748543416721164 0.0075983748001195901 0 -0.0043429076280006107 0.0075521255910098476 0 -0.0041748543416721164 0.0075983748001195901 0 -0.0042611121725290683 0.0073923146758280668 0 -0.0041748543416721164 0.0075983748001195901 0 -0.0042611121725290683 0.0073923146758280668 0 -0.0041152804050616585 0.0074852877485793229 0 -0.0042611121725290683 0.0073923146758280668 0 -0.0043741834383984463 0.0071995044457971785 0 -0.0041257989395048281 0.0073308978584740924 0 -0.0042611121725290683 0.0073923146758280668 0 -0.0041152804050616585 0.0074852877485793229 0 -0.0041257989395048281 0.0073308978584740924 0 -0.0045131199019377601 0.0072597740629147629 0 -0.0045767595744167031 0.00710370997512433 0 -0.0043741834383984463 0.0071995044457971785 0 -0.0044887741703802959 0.0074452978319771226 0 -0.0043866511703931485 0.0073615339223218265 0 -0.0045131199019377601 0.0072597740629147629 0 -0.0043429076280006107 0.0075521255910098476 0 -0.0042611121725290683 0.0073923146758280668 0 -0.0043866511703931485 0.0073615339223218265 0 -0.0042611121725290683 0.0073923146758280668 0 -0.0043866511703931485 0.0073615339223218265 0 -0.0043741834383984463 0.0071995044457971785 0 -0.0043866511703931485 0.0073615339223218265 0 -0.0045131199019377601 0.0072597740629147629 0 -0.0043741834383984463 0.0071995044457971785 0 -0.0045131199019377601 0.0072597740629147629 0 -0.0046461221124280659 0.007160488366509384 0 -0.0045767595744167031 0.00710370997512433 0 -0.0044887741703802959 0.0074452978319771226 0 -0.0045131199019377601 0.0072597740629147629 0 -0.0046742253155847681 0.0073247773404429188 0 -0.0045131199019377601 0.0072597740629147629 0 -0.0046461221124280659 0.007160488366509384 0 -0.0046742253155847681 0.0073247773404429188 0 -0.0046461221124280659 0.007160488366509384 0 -0.0048044087762655905 0.0069885886128414707 0 -0.0045767595744167031 0.00710370997512433 0 -0.0046461221124280659 0.007160488366509384 0 -0.0048044087762655905 0.0069885886128414707 0 -0.0046742253155847681 0.0073247773404429188 0 -0.0047508252111001584 0.0068507710318680822 0 -0.0048330205968390534 0.0066752470868878117 0 -0.0048044087762655905 0.0069885886128414707 0 -0.0046742253155847681 0.0073247773404429188 0 -0.005037097347736475 0.0075525177664118835 0 -0.0047797753440362578 0.007574404954252126 0 -0.0046742253155847681 0.0073247773404429188 0 -0.005037097347736475 0.0075525177664118835 0 -0.0047797753440362578 0.007574404954252126 0 -0.0045936004291512221 0.0075719393219737773 0 -0.0046742253155847681 0.0073247773404429188 0 -0.0044715783531042988 0.0076029205565125678 0 -0.0044887741703802959 0.0074452978319771226 0 -0.0045936004291512221 0.0075719393219737773 0 -0.0044887741703802959 0.0074452978319771226 0 -0.0045936004291512221 0.0075719393219737773 0 -0.0046742253155847681 0.0073247773404429188 0 -0.0036916686542766189 0.0076486952910702196 0 -0.0037811624781621143 0.0077171591789268789 0 -0.0036485444985731195 0.0077869011484972567 0 -0.0036916686542766189 0.0076486952910702196 0 -0.0037811624781621143 0.0077171591789268789 0 -0.0038320024441920366 0.0075736332232132176 0 -0.0036916686542766189 0.0076486952910702196 0 -0.0035816409435822445 0.007695999327869134 0 -0.0036485444985731195 0.0077869011484972567 0 -0.0035816409435822445 0.007695999327869134 0 -0.0036485444985731195 0.0077869011484972567 0 -0.0035303724631070114 0.0077961355211818668 0 -0.0035816409435822445 0.007695999327869134 0 -0.0035673148596074298 0.0076148714632729483 0 -0.0034854096567527781 0.0076944270732139247 0 -0.0036916686542766189 0.0076486952910702196 0 -0.0035816409435822445 0.007695999327869134 0 -0.0035673148596074298 0.0076148714632729483 0 -0.0036916686542766189 0.0076486952910702196 0 -0.0035673148596074298 0.0076148714632729483 0 -0.0037430529232103291 0.0075244983190288278 0 -0.0036916686542766189 0.0076486952910702196 0 -0.0037430529232103291 0.0075244983190288278 0 -0.0038320024441920366 0.0075736332232132176 0 -0.0037430529232103291 0.0075244983190288278 0 -0.0038320024441920366 0.0075736332232132176 0 -0.003905583934423181 0.0073892719227331176 0 -0.0038320024441920366 0.0075736332232132176 0 -0.0039797852227102318 0.0074905399086745601 0 -0.003905583934423181 0.0073892719227331176 0 -0.0038320024441920366 0.0075736332232132176 0 -0.0039797852227102318 0.0074905399086745601 0 -0.0039140673603434949 0.0076634282729362057 0 -0.0039797852227102318 0.0074905399086745601 0 -0.0041257989395048281 0.0073308978584740924 0 -0.003905583934423181 0.0073892719227331176 0 -0.0039797852227102318 0.0074905399086745601 0 -0.0041152804050616585 0.0074852877485793229 0 -0.0041257989395048281 0.0073308978584740924 0 -0.0039797852227102318 0.0074905399086745601 0 -0.0041152804050616585 0.0074852877485793229 0 -0.0040496533081293322 0.0076198804230790578 0 -0.0041748543416721164 0.0075983748001195901 0 -0.0041152804050616585 0.0074852877485793229 0 -0.0040496533081293322 0.0076198804230790578 0 -0.0039797852227102318 0.0074905399086745601 0 -0.0040496533081293322 0.0076198804230790578 0 -0.0039140673603434949 0.0076634282729362057 0 -0.0040496533081293322 0.0076198804230790578 0 -0.0039140673603434949 0.0076634282729362057 0 -0.0040064099152363657 0.0077401259839037567 0 -0.0041748543416721164 0.0075983748001195901 0 -0.0040496533081293322 0.0076198804230790578 0 -0.0041197376014981708 0.0077557702826258311 0 -0.0037811624781621143 0.0077171591789268789 0 -0.0039140673603434949 0.0076634282729362057 0 -0.003864282082722431 0.0078349652659977509 0 -0.0037811624781621143 0.0077171591789268789 0 -0.0038320024441920366 0.0075736332232132176 0 -0.0039140673603434949 0.0076634282729362057 0 -0.0039140673603434949 0.0076634282729362057 0 -0.003864282082722431 0.0078349652659977509 0 -0.0040064099152363657 0.0077401259839037567 0 -0.003864282082722431 0.0078349652659977509 0 -0.0039716946064812051 0.0078571970684826169 0 -0.0039310703642732609 0.0079637898968602724 0 -0.003864282082722431 0.0078349652659977509 0 -0.0040064099152363657 0.0077401259839037567 0 -0.0039716946064812051 0.0078571970684826169 0 -0.0040496533081293322 0.0076198804230790578 0 -0.0041197376014981708 0.0077557702826258311 0 -0.0040064099152363657 0.0077401259839037567 0 -0.0041197376014981708 0.0077557702826258311 0 -0.0040064099152363657 0.0077401259839037567 0 -0.0039716946064812051 0.0078571970684826169 0 -0.0041197376014981708 0.0077557702826258311 0 -0.0039716946064812051 0.0078571970684826169 0 -0.0040762734726462434 0.0078886204448099552 0 -0.0041990571992668877 0.0079089991601797478 0 -0.0041197376014981708 0.0077557702826258311 0 -0.0040762734726462434 0.0078886204448099552 0 -0.0041990571992668877 0.0079089991601797478 0 -0.0040762734726462434 0.0078886204448099552 0 -0.0040588376376916382 0.0080275664783798564 0 -0.0039716946064812051 0.0078571970684826169 0 -0.0040762734726462434 0.0078886204448099552 0 -0.0039310703642732609 0.0079637898968602724 0 -0.0040762734726462434 0.0078886204448099552 0 -0.0040588376376916382 0.0080275664783798564 0 -0.0039310703642732609 0.0079637898968602724 0 -0.0040588376376916382 0.0080275664783798564 0 -0.0039310703642732609 0.0079637898968602724 0 -0.0039409601482929338 0.0080872541786560833 0 -0.003864282082722431 0.0078349652659977509 0 -0.0038181283013934393 0.0079448951620121073 0 -0.0039310703642732609 0.0079637898968602724 0 -0.0039310703642732609 0.0079637898968602724 0 -0.0038121480940312351 0.0080713785739448454 0 -0.0039409601482929338 0.0080872541786560833 0 -0.0038181283013934393 0.0079448951620121073 0 -0.0039310703642732609 0.0079637898968602724 0 -0.0038121480940312351 0.0080713785739448454 0 -0.0038121480940312351 0.0080713785739448454 0 -0.0037015536294067444 0.008068448064017391 0 -0.003710484141274189 0.0079315520818949714 0 -0.0038181283013934393 0.0079448951620121073 0 -0.0038121480940312351 0.0080713785739448454 0 -0.003710484141274189 0.0079315520818949714 0 -0.0038181283013934393 0.0079448951620121073 0 -0.003710484141274189 0.0079315520818949714 0 -0.0037516932676747677 0.0078224575671529337 0 -0.003864282082722431 0.0078349652659977509 0 -0.0038181283013934393 0.0079448951620121073 0 -0.0037516932676747677 0.0078224575671529337 0 -0.003710484141274189 0.0079315520818949714 0 -0.0037516932676747677 0.0078224575671529337 0 -0.0036485444985731195 0.0077869011484972567 0 -0.0037811624781621143 0.0077171591789268789 0 -0.0037516932676747677 0.0078224575671529337 0 -0.0036485444985731195 0.0077869011484972567 0 -0.0037811624781621143 0.0077171591789268789 0 -0.003864282082722431 0.0078349652659977509 0 -0.0037516932676747677 0.0078224575671529337 0 -0.003710484141274189 0.0079315520818949714 0 -0.0036485444985731195 0.0077869011484972567 0 -0.0036043258211532212 0.0079353844075460943 0 -0.0036485444985731195 0.0077869011484972567 0 -0.0036043258211532212 0.0079353844075460943 0 -0.0035303724631070114 0.0077961355211818668 0 -0.0036043258211532212 0.0079353844075460943 0 -0.0035828243536394312 0.0081318852197369805 0 -0.0034828520323986335 0.0079438729188860274 0 -0.0037015536294067444 0.008068448064017391 0 -0.0036043258211532212 0.0079353844075460943 0 -0.0035828243536394312 0.0081318852197369805 0 -0.0037015536294067444 0.008068448064017391 0 -0.003710484141274189 0.0079315520818949714 0 -0.0036043258211532212 0.0079353844075460943 0 -0.0046417923011337504 0.011507232809424109 0 -0.0051313345290168949 0.013315623831324971 0 -0.0046417923011337504 0.011507232809424109 0 -0.0041228423001319426 0.010236323641361676 0 -0.0037015536294067444 0.008068448064017391 0 -0.0035828243536394312 0.0081318852197369805 0 -0.0038024871034420221 0.0082843437068681209 0 -0.0038121480940312351 0.0080713785739448454 0 -0.0037015536294067444 0.008068448064017391 0 -0.0038024871034420221 0.0082843437068681209 0 -0.0046932245296985049 0.012541337769246316 0 -0.0047800637920393562 0.012644572592512874 0 -0.0047566374505304083 0.012657557479368187 0 -0.0047800637920393562 0.012644572592512874 0 -0.0047566374505304083 0.012657557479368187 0 -0.0047546573608699301 0.012643333014327055 0 -0.0055673621140318891 0.013861334989389578 0 -0.0051706443552811156 0.013281955035985131 0 -0.0057825919979680529 0.013309698812223951 0 -0.0051706443552811156 0.013281955035985131 0 -0.0054599303862546654 0.013016294915035084 0 -0.0057825919979680529 0.013309698812223951 0 -0.0042087975913516909 0.0081098349155005085 0 -0.0040085381055468532 0.0082085015499326341 0 -0.0041547940813305359 0.00828651306932684 0 -0.0042087975913516909 0.0081098349155005085 0 -0.0040588376376916382 0.0080275664783798564 0 -0.0040085381055468532 0.0082085015499326341 0 -0.0040588376376916382 0.0080275664783798564 0 -0.0040085381055468532 0.0082085015499326341 0 -0.0039409601482929338 0.0080872541786560833 0 -0.0038024871034420221 0.0082843437068681209 0 -0.0040085381055468532 0.0082085015499326341 0 -0.0038814831658027294 0.0081698201088008515 0 -0.0038121480940312351 0.0080713785739448454 0 -0.0038024871034420221 0.0082843437068681209 0 -0.0038814831658027294 0.0081698201088008515 0 -0.0040085381055468532 0.0082085015499326341 0 -0.0039409601482929338 0.0080872541786560833 0 -0.0038814831658027294 0.0081698201088008515 0 -0.0038121480940312351 0.0080713785739448454 0 -0.0039409601482929338 0.0080872541786560833 0 -0.0038814831658027294 0.0081698201088008515 0 -0.0038024871034420221 0.0082843437068681209 0 -0.0040085381055468532 0.0082085015499326341 0 -0.0040606417183825854 0.0084621998783399113 0 -0.0041228423001319426 0.010236323641361676 0 -0.0044237816316803954 0.010713655631601293 0 -0.0047800637920393562 0.012644572592512874 0 -0.0046270390872509871 0.0126739359302631 0 -0.0047546573608699301 0.012643333014327055 0 -0.0040085381055468532 0.0082085015499326341 0 -0.0041547940813305359 0.00828651306932684 0 -0.0040606417183825854 0.0084621998783399113 0 -0.0046270390872509871 0.0126739359302631 0 -0.0047214165018664876 0.012618267236746278 0 -0.0046770700792670757 0.012530691768819428 0 -0.0046270390872509871 0.0126739359302631 0 -0.0047214165018664876 0.012618267236746278 0 -0.0047546573608699301 0.012643333014327055 0 -0.0047214165018664876 0.012618267236746278 0 -0.0048078737167391965 0.012612721996416583 0 -0.0046770700792670757 0.012530691768819428 0 -0.0047214165018664876 0.012618267236746278 0 -0.0047546573608699301 0.012643333014327055 0 -0.0048078737167391965 0.012612721996416583 0 -0.0045943083076128719 0.012317951454667764 0 -0.0046770700792670757 0.012530691768819428 0 -0.004931968245009047 0.012442243509136594 0 -0.0048078737167391965 0.012612721996416583 0 -0.0046770700792670757 0.012530691768819428 0 -0.004931968245009047 0.012442243509136594 0 -0.0047734485111292054 0.015457414919029643 0 -0.0054969344078505435 0.015800281460684563 0 -0.0045943083076128719 0.012317951454667764 0 -0.0044223461738182148 0.012414441069364726 0 -0.0046770700792670757 0.012530691768819428 0 -0.0044223461738182148 0.012414441069364726 0 -0.0046270390872509871 0.0126739359302631 0 -0.0046770700792670757 0.012530691768819428 0 -0.0054599303862546654 0.013016294915035084 0 -0.0056701521342007689 0.012670694564146351 0 -0.0057825919979680529 0.013309698812223951 0 -0.0054599303862546654 0.013016294915035084 0 -0.0052056630989224858 0.012808232616851094 0 -0.0056701521342007689 0.012670694564146351 0 -0.0051706443552811156 0.013281955035985131 0 -0.0048078737167391965 0.012612721996416583 0 -0.0052056630989224858 0.012808232616851094 0 -0.0051706443552811156 0.013281955035985131 0 -0.0054599303862546654 0.013016294915035084 0 -0.0052056630989224858 0.012808232616851094 0 -0.0047566374505304083 0.012657557479368187 0 -0.0047546573608699301 0.012643333014327055 0 -0.0048078737167391965 0.012612721996416583 0 -0.0051313345290168949 0.013315623831324971 0 -0.0047293867683645963 0.012497202022212547 0 -0.0048078737167391965 0.012612721996416583 0 -0.0052056630989224858 0.012808232616851094 0 -0.004931968245009047 0.012442243509136594 0 -0.0052056630989224858 0.012808232616851094 0 -0.004931968245009047 0.012442243509136594 0 -0.0056701521342007689 0.012670694564146351 0 -0.0059431888332063575 0.019102017358895485 0 -0.0062796693089222236 0.018974087175133419 0 -0.0065413387037117241 0.019212225052493995 0 -0.0066211707833006041 0.018831529601633513 0 -0.0062796693089222236 0.018974087175133419 0 -0.0065413387037117241 0.019212225052493995 0 -0.0054969344078505435 0.015800281460684563 0 -0.005907490074306178 0.015810320717128089 0 -0.0065413387037117241 0.019212225052493995 0 -0.0069001731254220346 0.019073400445077299 0 -0.0071215388275342262 0.019365899330931309 0 -0.0066211707833006041 0.018831529601633513 0 -0.0065413387037117241 0.019212225052493995 0 -0.0069001731254220346 0.019073400445077299 0 -0.005907490074306178 0.015810320717128089 0 -0.0075293051546190433 0.016947592479940252 0 -0.0056701521342007689 0.012670694564146351 0 -0.0063936316086221938 0.012934570488000076 0 -0.0057825919979680529 0.013309698812223951 0 -0.0090465512778041511 0.019584161829556669 0 -0.0075293051546190433 0.016947592479940252 0 -0.0072439496855211402 0.018902191694832125 0 -0.0069001731254220346 0.019073400445077299 0 -0.0071215388275342262 0.019365899330931309 0 -0.0072439496855211402 0.018902191694832125 0 -0.0066211707833006041 0.018831529601633513 0 -0.0069001731254220346 0.019073400445077299 0 -0.0090465512778041511 0.019584161829556669 0 -0.010241131542744045 0.019498560666431162 0 -0.01026266401162473 0.019535116768710739 0 -0.0096226505853205455 0.019462881431754713 0 -0.0099771222547436686 0.018958820537295931 0 -0.01026266401162473 0.019535116768710739 0 -0.010476849481470563 0.018911418213402451 0 -0.0099771222547436686 0.018958820537295931 0 -0.0092707360919290598 0.019582305001425229 0 -0.0099533074592193533 0.018994186529201953 0 -0.0095597734391331263 0.019436460663492514 0 -0.0096226505853205455 0.019462881431754713 0 -0.0099771222547436686 0.018958820537295931 0 -0.0089780819251516712 0.019725548562644368 0 -0.0093516302998320651 0.019092987374819254 0 -0.0099771222547436686 0.018958820537295931 0 -0.0089780819251516712 0.019725548562644368 0 -0.0093516302998320651 0.019092987374819254 0 -0.0085467703555657804 0.019614666846669116 0 -0.0095100500956257564 0.019688163351737047 0 -0.0095970291849902141 0.019584012640593274 0 -0.0095597734391331263 0.019436460663492514 0 -0.0096712366792152029 0.0196262374404211 0 -0.0095970291849902141 0.019584012640593274 0 -0.0096226505853205455 0.019462881431754713 0 -0.0095970291849902141 0.019584012640593274 0 -0.0095597734391331263 0.019436460663492514 0 -0.0096226505853205455 0.019462881431754713 0 -0.0093516302998320651 0.019092987374819254 0 -0.0096731321237123677 0.018551035023817577 0 -0.0085744185005263412 0.018872225096423396 0 -0.0096731321237123677 0.018551035023817577 0 -0.0085744185005263412 0.018872225096423396 0 -0.008355331520949064 0.018051192385588933 0 -0.0093516302998320651 0.019092987374819254 0 -0.0096731321237123677 0.018551035023817577 0 -0.0099771222547436686 0.018958820537295931 0 -0.0073904777506621422 0.016826273242995553 0 -0.006799419476331202 0.016648969554091893 0 -0.0070800898883250744 0.016284963102046596 0 -0.0075293051546190433 0.016947592479940252 0 -0.0085373460571388487 0.017742340218596036 0 -0.010476849481470563 0.018911418213402451 0 -0.0096731321237123677 0.018551035023817577 0 -0.0099771222547436686 0.018958820537295931 0 -0.006799419476331202 0.016648969554091893 0 -0.0070800898883250744 0.016284963102046596 0 -0.0067090929491136287 0.016185350758166892 0 -0.0085373460571388487 0.017742340218596036 0 -0.007204981628246749 0.017242242448952717 0 -0.006799419476331202 0.016648969554091893 0 -0.0067090929491136287 0.016185350758166892 0 -0.0062002958514270172 0.016483413417360173 0 -0.0067090929491136287 0.016185350758166892 0 -0.0062002958514270172 0.016483413417360173 0 -0.0064416867437130923 0.015726894784225551 0 -0.0067090929491136287 0.016185350758166892 0 -0.0070192965917209573 0.015779170867645263 0 -0.0064416867437130923 0.015726894784225551 0 -0.0070800898883250744 0.016284963102046596 0 -0.0070192965917209573 0.015779170867645263 0 -0.0073958284458776674 0.015841977225488059 0 -0.0070800898883250744 0.016284963102046596 0 -0.0067090929491136287 0.016185350758166892 0 -0.0070192965917209573 0.015779170867645263 0 -0.0069235112094066424 0.01459177373795759 0 -0.006185534775057476 0.014214019452736884 0 -0.0073958284458776674 0.015841977225488059 0 -0.0075292415950429297 0.016202119963903753 0 -0.0076697520474552187 0.015563024319642018 0 -0.0070800898883250744 0.016284963102046596 0 -0.0073958284458776674 0.015841977225488059 0 -0.0075292415950429297 0.016202119963903753 0 -0.0055673621140318891 0.013861334989389578 0 -0.0059144840599877659 0.013716341467399671 0 -0.0060681255490631541 0.014163737795094541 0 -0.0055673621140318891 0.013861334989389578 0 -0.0059144840599877659 0.013716341467399671 0 -0.0057825919979680529 0.013309698812223951 0 -0.0059144840599877659 0.013716341467399671 0 -0.006230107327501711 0.013539518729563271 0 -0.0060681255490631541 0.014163737795094541 0 -0.0059144840599877659 0.013716341467399671 0 -0.0057825919979680529 0.013309698812223951 0 -0.006230107327501711 0.013539518729563271 0 -0.0073904777506621422 0.016826273242995553 0 -0.0070800898883250744 0.016284963102046596 0 -0.0075292415950429297 0.016202119963903753 0 -0.0063936316086221938 0.012934570488000076 0 -0.0057825919979680529 0.013309698812223951 0 -0.006230107327501711 0.013539518729563271 0 -0.0075293051546190433 0.016947592479940252 0 -0.0069235112094066424 0.01459177373795759 0 -0.0056254804338789115 0.018326924698234447 0 -0.0055116114630265637 0.01929523998851931 0 -0.0046948473278606564 0.019009314563222423 0 -0.0055953851819212277 0.018310719915308679 0 -0.00643098646852418 0.019395758171616231 0 -0.0056254804338789115 0.018326924698234447 0 -0.0055116114630265637 0.01929523998851931 0 -0.0064719683315990553 0.019381589860168743 0 -0.0055116114630265637 0.01929523998851931 0 -0.0057034598351692082 0.020082206036062731 0 -0.0064719683315990553 0.019381589860168743 0 -0.0055116114630265637 0.01929523998851931 0 -0.0057034598351692082 0.020082206036062731 0 -0.0049343190857879561 0.02004836863084487 0 -0.0075683072439255315 0.020163700154904884 0 -0.00643098646852418 0.019395758171616231 0 -0.0072843909811969336 0.020399268052137678 0 -0.0064257817971125593 0.02022493766440921 0 -0.0064719683315990553 0.019381589860168743 0 -0.0064257817971125593 0.02022493766440921 0 -0.0057034598351692082 0.020082206036062731 0 -0.0064719683315990553 0.019381589860168743 0 -0.0064324545920964168 0.019368047533079941 0 -0.0065291018192480286 0.01842939186770734 0 -0.0074031237269599681 0.019444377116653404 0 -0.0055889824583874705 0.018326856256912768 0 -0.0064324545920964168 0.019368047533079941 0 -0.0065291018192480286 0.01842939186770734 0 -0.0065291018192480286 0.01842939186770734 0 -0.0076416313534820044 0.018606899084999323 0 -0.0074031237269599681 0.019444377116653404 0 -0.0076416313534820044 0.018606899084999323 0 -0.0074031237269599681 0.019444377116653404 0 -0.0079857507759872742 0.019169179949593978 0 -0.007275068841373529 0.020402722406749032 0 -0.0074031237269599681 0.019444377116653404 0 -0.0083224675191930792 0.019751119854341543 0 -0.0075683072439255315 0.020163700154904884 0 -0.008434986318707113 0.019683129500520907 0 -0.007275068841373529 0.020402722406749032 0 -0.0064324545920964168 0.019368047533079941 0 -0.0074031237269599681 0.019444377116653404 0 -0.0074031237269599681 0.019444377116653404 0 -0.0083224675191930792 0.019751119854341543 0 -0.0079857507759872742 0.019169179949593978 0 -0.0083224675191930792 0.019751119854341543 0 -0.0085744185005263412 0.018872225096423396 0 -0.0079857507759872742 0.019169179949593978 0 -0.0092807927636863272 0.019142279817291101 0 -0.008434986318707113 0.019683129500520907 0 -0.0080179426252423702 0.020415128363882529 0 -0.0089780819251516712 0.019725548562644368 0 -0.0085467703555657804 0.019614666846669116 0 -0.0093516302998320651 0.019092987374819254 0 -0.0083224675191930792 0.019751119854341543 0 -0.0085744185005263412 0.018872225096423396 0 -0.0076416313534820044 0.018606899084999323 0 -0.0085744185005263412 0.018872225096423396 0 -0.0079857507759872742 0.019169179949593978 0 -0.0076416313534820044 0.018606899084999323 0 -0.0085744185005263412 0.018872225096423396 0 -0.008355331520949064 0.018051192385588933 0 -0.0062002958514270172 0.016483413417360173 0 -0.0058779107034312083 0.015742203342671915 0 -0.0064416867437130923 0.015726894784225551 0 -0.0062002958514270172 0.016483413417360173 0 -0.0055842500634962003 0.016328114461568156 0 -0.0058779107034312083 0.015742203342671915 0 -0.0055842500634962003 0.016328114461568156 0 -0.0053723315389647792 0.015887030602513192 0 -0.0058779107034312083 0.015742203342671915 0 -0.007204981628246749 0.017242242448952717 0 -0.0062979326525245596 0.016993280618162854 0 -0.0065291018192480286 0.01842939186770734 0 -0.0076416313534820044 0.018606899084999323 0 -0.006993543376293509 0.017608507625152633 0 -0.0076416313534820044 0.018606899084999323 0 -0.008355331520949064 0.018051192385588933 0 -0.006993543376293509 0.017608507625152633 0 -0.0062979326525245596 0.016993280618162854 0 -0.0053039193381862791 0.016487513097091275 0 -0.0065291018192480286 0.01842939186770734 0 -0.006993543376293509 0.017608507625152633 0 -0.0056333446940353251 0.017181153448942457 0 -0.0055842500634962003 0.016328114461568156 0 -0.0053723315389647792 0.015887030602513192 0 -0.0049077461277658718 0.016183486614584446 0 -0.0049077461277658718 0.016183486614584446 0 -0.0049584328228427059 0.015671736450851757 0 -0.0041908388762458343 0.015997026494695626 0 -0.0053723315389647792 0.015887030602513192 0 -0.0049077461277658718 0.016183486614584446 0 -0.0049584328228427059 0.015671736450851757 0 -0.0055953851819212277 0.018310719915308679 0 -0.004820655065539887 0.017365161565324649 0 -0.0055889824583874705 0.018326856256912768 0 -0.0056333446940353251 0.017181153448942457 0 -0.0047545932197608281 0.017286808601636536 0 -0.0055889824583874705 0.018326856256912768 0 -0.0065291018192480286 0.01842939186770734 0 -0.0056333446940353251 0.017181153448942457 0 -0.0049584328228427059 0.015671736450851757 0 -0.005410389591019314 0.015357827345137885 0 -0.004721664342505762 0.014793488690661459 0 -0.0049584328228427059 0.015671736450851757 0 -0.004721664342505762 0.014793488690661459 0 -0.0044838126320115666 0.015390317516715324 0 -0.0046481432426456306 0.014994011639097535 0 -0.0044230068171320063 0.015427510419506569 0 -0.0053723315389647792 0.015887030602513192 0 -0.0049584328228427059 0.015671736450851757 0 -0.005410389591019314 0.015357827345137885 0 -0.0053723315389647792 0.015887030602513192 0 -0.005410389591019314 0.015357827345137885 0 -0.0058779107034312083 0.015742203342671915 0 -0.005410389591019314 0.015357827345137885 0 -0.0055467376110833215 0.014587092803798038 0 -0.004721664342505762 0.014793488690661459 0 -0.005410389591019314 0.015357827345137885 0 -0.0062321535012110924 0.014942017074077003 0 -0.0055467376110833215 0.014587092803798038 0 -0.0053950492382974944 0.015332503586867689 0 -0.0062969461549043145 0.015128350854083037 0 -0.005410389591019314 0.015357827345137885 0 -0.0059049457087592709 0.015082603646140506 0 -0.0058779107034312083 0.015742203342671915 0 -0.0058779107034312083 0.015742203342671915 0 -0.0063153702074312899 0.015250979494828603 0 -0.0064416867437130923 0.015726894784225551 0 -0.0059049457087592709 0.015082603646140506 0 -0.0063153702074312899 0.015250979494828603 0 -0.0063964407019292202 0.014798018530456914 0 -0.0062969461549043145 0.015128350854083037 0 -0.004631667049762072 0.012396783475450198 0 -0.0059049457087592709 0.015082603646140506 0 -0.0058779107034312083 0.015742203342671915 0 -0.0063153702074312899 0.015250979494828603 0 -0.0062321535012110924 0.014942017074077003 0 -0.0060483557538484282 0.013911955028529587 0 -0.0069634825570989971 0.014512689467834185 0 -0.0037314833211412376 0.011180820817937018 0 -0.004631667049762072 0.012396783475450198 0 -0.0013919664671586647 0.0086190820128498949 0 -0.0016384363138635869 0.0087110142127966046 0 -0.001502590952620009 0.0087959986806649976 0 -0.0013919664671586647 0.0086190820128498949 0 -0.0016384363138635869 0.0087110142127966046 0 -0.0017698532984978445 0.0095241837034410731 0 -0.0062321535012110924 0.014942017074077003 0 -0.0060483557538484282 0.013911955028529587 0 -0.0055467376110833215 0.014587092803798038 0 -0.0060483557538484282 0.013911955028529587 0 -0.0055467376110833215 0.014587092803798038 0 -0.00519699474183586 0.014045674086619799 0 -0.0055467376110833215 0.014587092803798038 0 -0.00519699474183586 0.014045674086619799 0 -0.004721664342505762 0.014793488690661459 0 -0.0037314833211412376 0.011180820817937018 0 -0.0037026634947878627 0.011252143083644176 0 -0.0060483557538484282 0.013911955028529587 0 -0.00519699474183586 0.014045674086619799 0 -0.0050599362769280778 0.013061760828021326 0 -0.00519699474183586 0.014045674086619799 0 -0.0045065577328091428 0.013827865953771471 0 -0.0050599362769280778 0.013061760828021326 0 -0.00519699474183586 0.014045674086619799 0 -0.0045065577328091428 0.013827865953771471 0 -0.004721664342505762 0.014793488690661459 0 -0.004943336236424835 0.011555076633592421 0 -0.0044887090362944757 0.01128816164829287 0 -0.0048802352986700315 0.01106421914570156 0 -0.0060952677945001746 0.013760534448171529 0 -0.0058852786747345303 0.013290789850823109 0 -0.0036043258211532212 0.0079353844075460943 0 -0.0035303724631070114 0.0077961355211818668 0 -0.0034828520323986335 0.0079438729188860274 0 -0.0035303724631070114 0.0077961355211818668 0 -0.0034828520323986335 0.0079438729188860274 0 -0.0034116034328982021 0.0077935499872446041 0 -0.0041724433314808554 0.0094023050150190707 0 -0.0042882057125380639 0.009592848718309753 0 -0.0051255766479678935 0.011448238988511576 0 -0.004943336236424835 0.011555076633592421 0 -0.0048802352986700315 0.01106421914570156 0 -0.0051255766479678935 0.011448238988511576 0 -0.0050157708207994355 0.01159399000916584 0 -0.004943336236424835 0.011555076633592421 0 -0.0046417923011337504 0.011507232809424109 0 -0.006185534775057476 0.014214019452736884 0 -0.0053368789465914742 0.011795268226640915 0 -0.0051255766479678935 0.011448238988511576 0 -0.0050157708207994355 0.01159399000916584 0 -0.0046417923011337504 0.011507232809424109 0 -0.0041724433314808554 0.0094023050150190707 0 -0.006185534775057476 0.014214019452736884 0 -0.0060952677945001746 0.013760534448171529 0 -0.0070192965917209573 0.015779170867645263 0 -0.0073958284458776674 0.015841977225488059 0 -0.0075704655657951366 0.015504133548038805 0 -0.0073958284458776674 0.015841977225488059 0 -0.0076697520474552187 0.015563024319642018 0 -0.0075704655657951366 0.015504133548038805 0 -0.0070192965917209573 0.015779170867645263 0 -0.0075704655657951366 0.015504133548038805 0 -0.0069851459311261769 0.015153373686529324 0 -0.0070192965917209573 0.015779170867645263 0 -0.0064416867437130923 0.015726894784225551 0 -0.0069851459311261769 0.015153373686529324 0 -0.0063153702074312899 0.015250979494828603 0 -0.0064416867437130923 0.015726894784225551 0 -0.0069851459311261769 0.015153373686529324 0 -0.0058852786747345303 0.013290789850823109 0 -0.004631667049762072 0.012396783475450198 0 -0.0063153702074312899 0.015250979494828603 0 -0.0069851459311261769 0.015153373686529324 0 -0.0063964407019292202 0.014798018530456914 0 -0.0044887090362944757 0.01128816164829287 0 -0.0045879831487010093 0.010983093622114002 0 -0.0048802352986700315 0.01106421914570156 0 -0.0044887090362944757 0.01128816164829287 0 -0.0045879831487010093 0.010983093622114002 0 -0.0043163600628084017 0.010840205626295943 0 -0.0045879831487010093 0.010983093622114002 0 -0.0043163600628084017 0.010840205626295943 0 -0.0046142904615126051 0.010666300433059588 0 -0.0044887090362944757 0.01128816164829287 0 -0.0040196049168681721 0.011011523671541627 0 -0.0043163600628084017 0.010840205626295943 0 -0.001502590952620009 0.0087959986806649976 0 -0.0017617796268219713 0.008760552842774872 0 -0.0016527127980095245 0.0085514190789088909 0 -0.004631667049762072 0.012396783475450198 0 -0.0029534309011929319 0.0098786810169250727 0 -0.0013919664671586647 0.0086190820128498949 0 -0.001502590952620009 0.0087959986806649976 0 -0.0016527127980095245 0.0085514190789088909 0 -0.0016527127980095245 0.0085514190789088909 0 -0.0021161077666232487 0.0086417137701334471 0 -0.0018465113013923749 0.0081425581718898871 0 -0.0017617796268219713 0.008760552842774872 0 -0.0016527127980095245 0.0085514190789088909 0 -0.0021161077666232487 0.0086417137701334471 0 -0.003222087850102545 0.0087655808292702239 0 -0.0016107666233150012 0.0080054009400058711 0 -0.0029534309011929319 0.0098786810169250727 0 -0.003222087850102545 0.0087655808292702239 0 -0.0022332730392789959 0.0086060413684764074 0 -0.0028638789878429999 0.0082179706517676657 0 -0.0023377124314138981 0.0080105227552966455 0 -0.0033436097303538421 0.007679968908948575 0 -0.0034854096567527781 0.0076944270732139247 0 -0.0034633194652282282 0.0076146159489753062 0 -0.003222087850102545 0.0087655808292702239 0 -0.0031143324305383025 0.0078677152100093857 0 -0.0033436097303538421 0.007679968908948575 0 -0.0034116034328982021 0.0077935499872446041 0 -0.0034854096567527781 0.0076944270732139247 0 -0.0045879831487010093 0.010983093622114002 0 -0.0046142904615126051 0.010666300433059588 0 -0.0048802352986700315 0.01106421914570156 0 -0.003222087850102545 0.0087655808292702239 0 -0.0042882057125380639 0.009592848718309753 0 -0.0035816409435822445 0.007695999327869134 0 -0.0035303724631070114 0.0077961355211818668 0 -0.0034854096567527781 0.0076944270732139247 0 -0.0035303724631070114 0.0077961355211818668 0 -0.0034116034328982021 0.0077935499872446041 0 -0.0034854096567527781 0.0076944270732139247 0 -0.0035673148596074298 0.0076148714632729483 0 -0.0034854096567527781 0.0076944270732139247 0 -0.0034633194652282282 0.0076146159489753062 0 -0.0028638789878429999 0.0082179706517676657 0 -0.0028826221380234521 0.0073963542410361589 0 -0.0035140013532459382 0.0076114408588517342 0 -0.0031143324305383025 0.0078677152100093857 0 -0.0034906375931882941 0.0076630052766183112 0 -0.0026005825706831363 0.0074423331993445346 0 -0.0032115731212304858 0.0073379182366953505 0 -0.0023339054578031147 0.0074619407519458669 0 -0.0025472920991296668 0.00712463492237726 0 -0.0028225758304773639 0.0073597848990419115 0 -0.0028826221380234521 0.0073963542410361589 0 -0.0023377124314138981 0.0080105227552966455 0 -0.0019399986378308383 0.0076128759216835557 0 -0.0026005825706831363 0.0074423331993445346 0 -0.0019844539635969199 0.0075744733050892212 0 -0.0023339054578031147 0.0074619407519458669 0 -0.0019399986378308383 0.0076128759216835557 0 -0.0020510900653653141 0.0073563972300538733 0 -0.0028638789878429999 0.0082179706517676657 0 -0.0028826221380234521 0.0073963542410361589 0 -0.0023377124314138981 0.0080105227552966455 0 -0.0022332730392789959 0.0086060413684764074 0 -0.0023377124314138981 0.0080105227552966455 0 -0.0018465113013923749 0.0081425581718898871 0 -0.0023377124314138981 0.0080105227552966455 0 -0.0018465113013923749 0.0081425581718898871 0 -0.0019399986378308383 0.0076128759216835557 0 -0.0013919664671586647 0.0086190820128498949 0 -0.0016527127980095245 0.0085514190789088909 0 -0.0015829217672968779 0.0081910705454738674 0 -0.0016527127980095245 0.0085514190789088909 0 -0.0018465113013923749 0.0081425581718898871 0 -0.0015829217672968779 0.0081910705454738674 0 -0.0018465113013923749 0.0081425581718898871 0 -0.0015829217672968779 0.0081910705454738674 0 -0.001676467290114953 0.0078158024786018371 0 -0.001676467290114953 0.0078158024786018371 0 -0.0017169781673977156 0.0074191125220350717 0 -0.0013284781946274083 0.0077733806054428476 0 -0.0015829217672968779 0.0081910705454738674 0 -0.001676467290114953 0.0078158024786018371 0 -0.0013284781946274083 0.0077733806054428476 0 -0.001676467290114953 0.0078158024786018371 0 -0.0019399986378308383 0.0076128759216835557 0 -0.0017169781673977156 0.0074191125220350717 0 -0.0018465113013923749 0.0081425581718898871 0 -0.001676467290114953 0.0078158024786018371 0 -0.0019399986378308383 0.0076128759216835557 0 -0.0019399986378308383 0.0076128759216835557 0 -0.0017169781673977156 0.0074191125220350717 0 -0.0020510900653653141 0.0073563972300538733 0 -0.0017169781673977156 0.0074191125220350717 0 -0.0019573337724245006 0.0071001256718917745 0 -0.0020510900653653141 0.0073563972300538733 0 -0.0017169781673977156 0.0074191125220350717 0 -0.0019573337724245006 0.0071001256718917745 0 -0.0017256903233273432 0.0070704047010478836 0 -0.0017169781673977156 0.0074191125220350717 0 -0.0014377382176525603 0.0072702622749517441 0 -0.0013284781946274083 0.0077733806054428476 0 -0.0017169781673977156 0.0074191125220350717 0 -0.0014377382176525603 0.0072702622749517441 0 -0.0017256903233273432 0.0070704047010478836 0 -0.0014377382176525603 0.0072702622749517441 0 -0.0017256903233273432 0.0070704047010478836 0 -0.0015636315800949267 0.0067407656134351743 0 -0.0019573337724245006 0.0071001256718917745 0 -0.0017256903233273432 0.0070704047010478836 0 -0.0019416225502151079 0.0067988274446178594 0 -0.0019573337724245006 0.0071001256718917745 0 -0.0021566907816363261 0.0069166909939007235 0 -0.0019416225502151079 0.0067988274446178594 0 -0.0021566907816363261 0.0069166909939007235 0 -0.0022276175787180365 0.0066423567027258223 0 -0.0019416225502151079 0.0067988274446178594 0 -0.0019573337724245006 0.0071001256718917745 0 -0.0021566907816363261 0.0069166909939007235 0 -0.0022451808533039781 0.0071481370308877521 0 -0.0021566907816363261 0.0069166909939007235 0 -0.0024139091685909902 0.006888737134754408 0 -0.0022451808533039781 0.0071481370308877521 0 -0.0021566907816363261 0.0069166909939007235 0 -0.0024139091685909902 0.006888737134754408 0 -0.0022276175787180365 0.0066423567027258223 0 -0.0024139091685909902 0.006888737134754408 0 -0.0025227407909267584 0.00660081688099838 0 -0.0022276175787180365 0.0066423567027258223 0 -0.0024139091685909902 0.006888737134754408 0 -0.0025227407909267584 0.00660081688099838 0 -0.0026271192499199973 0.0068500858559591166 0 -0.0024139091685909902 0.006888737134754408 0 -0.0025472920991296668 0.00712463492237726 0 -0.0026271192499199973 0.0068500858559591166 0 -0.0024139091685909902 0.006888737134754408 0 -0.0025472920991296668 0.00712463492237726 0 -0.0022451808533039781 0.0071481370308877521 0 -0.0023339054578031147 0.0074619407519458669 0 -0.0025472920991296668 0.00712463492237726 0 -0.0022451808533039781 0.0071481370308877521 0 -0.0023339054578031147 0.0074619407519458669 0 -0.0020510900653653141 0.0073563972300538733 0 -0.0022451808533039781 0.0071481370308877521 0 -0.0019573337724245006 0.0071001256718917745 0 -0.0020510900653653141 0.0073563972300538733 0 -0.0022451808533039781 0.0071481370308877521 0 -0.0024526698901094165 0.010170409315417829 0 -0.0023458368549630734 0.0094064339651252372 0 -0.0026778680718144883 0.010188666969815898 0 -0.0045065577328091428 0.013827865953771471 0 -0.0050599362769280778 0.013061760828021326 0 -0.0037659801261181471 0.012005967742997899 0 -0.0037026634947878627 0.011252143083644176 0 -0.003153300062794124 0.011066495093889397 0 -0.0016384363138635869 0.0087110142127966046 0 -0.0023458368549630734 0.0094064339651252372 0 -0.0017698532984978445 0.0095241837034410731 0 -0.0015229688415588319 0.00893314910839536 0 -0.0013263819968758587 0.0087717363939793028 0 -0.0024526698901094165 0.010170409315417829 0 -0.0023458368549630734 0.0094064339651252372 0 -0.0017698532984978445 0.0095241837034410731 0 -0.00059279542404147567 0.0077049285517537883 0 -0.00081640206968107334 0.0080124422844416749 0 -0.00072347682047849246 0.0075710456989147197 0 -0.00081640206968107334 0.0080124422844416749 0 -0.0013284781946274083 0.0077733806054428476 0 -0.00094697823166962447 0.0075453300862060981 0 -0.0013996316117302176 0.0086611073206487796 0 -0.0013263819968758587 0.0087717363939793028 0 -0.0013919664671586647 0.0086190820128498949 0 -0.0015829217672968779 0.0081910705454738674 0 -0.0013284781946274083 0.0077733806054428476 0 -0.0013919664671586647 0.0086190820128498949 0 -0.00081640206968107334 0.0080124422844416749 0 -0.0013284781946274083 0.0077733806054428476 0 -0.0014377382176525603 0.0072702622749517441 0 -0.0013284781946274083 0.0077733806054428476 0 -0.0012147526601185702 0.0074980008172021899 0 -0.0013284781946274083 0.0077733806054428476 0 -0.0012147526601185702 0.0074980008172021899 0 -0.00094697823166962447 0.0075453300862060981 0 -0.0014377382176525603 0.0072702622749517441 0 -0.0012147526601185702 0.0074980008172021899 0 -0.0010821305509773962 0.0072126213343822864 0 -0.0014377382176525603 0.0072702622749517441 0 -0.0010821305509773962 0.0072126213343822864 0 -0.0015636315800949267 0.0067407656134351743 0 -0.00094697823166962447 0.0075453300862060981 0 -0.00077078810945078796 0.0073614920182155236 0 -0.0010821305509773962 0.0072126213343822864 0 -0.0012147526601185702 0.0074980008172021899 0 -0.00094697823166962447 0.0075453300862060981 0 -0.0010821305509773962 0.0072126213343822864 0 -0.00081640206968107334 0.0080124422844416749 0 -0.00094697823166962447 0.0075453300862060981 0 -0.00072347682047849246 0.0075710456989147197 0 -0.00094697823166962447 0.0075453300862060981 0 -0.00072347682047849246 0.0075710456989147197 0 -0.00077078810945078796 0.0073614920182155236 0 -0.00072347682047849246 0.0075710456989147197 0 -0.00063803667902088978 0.0074958510641197169 0 -0.00077078810945078796 0.0073614920182155236 0 -0.00059279542404147567 0.0077049285517537883 0 -0.00063803667902088978 0.0074958510641197169 0 -0.0005265289746716089 0.0075090804334474667 0 -0.00063803667902088978 0.0074958510641197169 0 -0.00057349377363083236 0.0074131705498006271 0 -0.0005265289746716089 0.0075090804334474667 0 -0.00059279542404147567 0.0077049285517537883 0 -0.00072347682047849246 0.0075710456989147197 0 -0.00063803667902088978 0.0074958510641197169 0 -0.00059671935903557309 0.0072671971636172729 0 -0.00057349377363083236 0.0074131705498006271 0 -0.00053396393001684211 0.0074119378599336577 0 -0.00059671935903557309 0.0072671971636172729 0 -0.00053396393001684211 0.0074119378599336577 0 -0.00052493368494936393 0.0074330400641399643 0 -0.00059671935903557309 0.0072671971636172729 0 -0.00057349377363083236 0.0074131705498006271 0 -0.00077078810945078796 0.0073614920182155236 0 -0.00063803667902088978 0.0074958510641197169 0 -0.00057349377363083236 0.0074131705498006271 0 -0.00077078810945078796 0.0073614920182155236 0 -0.00059671935903557309 0.0072671971636172729 0 -0.00077078810945078796 0.0073614920182155236 0 -0.00093903921174445261 0.0071416366053471255 0 -0.00059671935903557309 0.0072671971636172729 0 -0.00093903921174445261 0.0071416366053471255 0 -0.00087039098034285244 0.0069879090508761605 0 -0.00093903921174445261 0.0071416366053471255 0 -0.0011123652343756148 0.0070841920518002121 0 -0.001076502098887905 0.0069112112222046744 0 -0.00093903921174445261 0.0071416366053471255 0 -0.001076502098887905 0.0069112112222046744 0 -0.00087039098034285244 0.0069879090508761605 0 -0.00077078810945078796 0.0073614920182155236 0 -0.00093903921174445261 0.0071416366053471255 0 -0.0010821305509773962 0.0072126213343822864 0 -0.00093903921174445261 0.0071416366053471255 0 -0.0010821305509773962 0.0072126213343822864 0 -0.0011123652343756148 0.0070841920518002121 0 -0.0011223200956041782 0.0071847519841636391 0 -0.0014722755946591569 0.0070116153877775355 0 -0.0010821305509773962 0.0072126213343822864 0 -0.0012154273747799478 0.0071300762622537438 0 -0.0011123652343756148 0.0070841920518002121 0 -0.0010821305509773962 0.0072126213343822864 0 -0.0012154273747799478 0.0071300762622537438 0 -0.0013437689187831463 0.0072869659633445476 0 -0.0012154273747799478 0.0071300762622537438 0 -0.0011123652343756148 0.0070841920518002121 0 -0.0012435348842052539 0.0069577888036622144 0 -0.0011123652343756148 0.0070841920518002121 0 -0.0012435348842052539 0.0069577888036622144 0 -0.001076502098887905 0.0069112112222046744 0 -0.0012435348842052539 0.0069577888036622144 0 -0.001076502098887905 0.0069112112222046744 0 -0.0013175047723755092 0.006812335743634614 0 -0.001076502098887905 0.0069112112222046744 0 -0.0010700359838687402 0.0066892861505131783 0 -0.0013175047723755092 0.006812335743634614 0 -0.0012316552525132385 0.0065820179902765221 0 -0.0010700359838687402 0.0066892861505131783 0 -0.0013175047723755092 0.006812335743634614 0 -0.0012316552525132385 0.0065820179902765221 0 -0.0010700359838687402 0.0066892861505131783 0 -0.0010852619614380053 0.0065477203869027589 0 -0.0010700359838687402 0.0066892861505131783 0 -0.00092478057727493287 0.0065792294553041692 0 -0.00094073864597116902 0.0067983599321815129 0 -0.00092478057727493287 0.0065792294553041692 0 -0.00094073864597116902 0.0067983599321815129 0 -0.00073115509208906482 0.0068406707479444087 0 -0.0010700359838687402 0.0066892861505131783 0 -0.00092478057727493287 0.0065792294553041692 0 -0.0010852619614380053 0.0065477203869027589 0 -0.001076502098887905 0.0069112112222046744 0 -0.0010700359838687402 0.0066892861505131783 0 -0.00094073864597116902 0.0067983599321815129 0 -0.001076502098887905 0.0069112112222046744 0 -0.00094073864597116902 0.0067983599321815129 0 -0.00087039098034285244 0.0069879090508761605 0 -0.00059671935903557309 0.0072671971636172729 0 -0.00087039098034285244 0.0069879090508761605 0 -0.00073115509208906482 0.0068406707479444087 0 -0.00094073864597116902 0.0067983599321815129 0 -0.00087039098034285244 0.0069879090508761605 0 -0.00073115509208906482 0.0068406707479444087 0 -0.00071391434393021532 0.0073527316574084189 0 -0.0011218954130327986 0.0070109894789358619 0 -0.00098688932341967723 0.0065316436076354109 0 -0.00073115509208906482 0.0068406707479444087 0 -0.00085015143423045395 0.0065231599527079782 0 -0.00073115509208906482 0.0068406707479444087 0 -0.00044336184564346674 0.006827959313942587 0 -0.00085015143423045395 0.0065231599527079782 0 -0.00094548634468103029 0.0065889973452679723 0 -0.0007528144332870475 0.0068082667390432193 0 -0.00094068963803896745 0.0076493764667199303 0 -0.00080452927259012724 0.0072121828182047524 0 -0.00092277412026920086 0.0073030570648866828 0 -0.00071391434393021532 0.0073527316574084189 0 -0.00025171293724211141 0.0072964414152581949 0 -0.00094068963803896745 0.0076493764667199303 0 -0.00092277412026920086 0.0073030570648866828 0 -0.0013112943995059129 0.007381843668681054 0 -0.00052311242424334505 0.0071707668077048104 0 -0.00071391434393021532 0.0073527316574084189 0 -0.00059671935903557309 0.0072671971636172729 0 -0.00051450463281999827 0.0074361348634741538 0 -0.00052493368494936393 0.0074330400641399643 0 -0.00059671935903557309 0.0072671971636172729 0 -0.00073115509208906482 0.0068406707479444087 0 -0.00044336184564346674 0.006827959313942587 0 -0.00071391434393021532 0.0073527316574084189 0 -0.00049330691257917563 0.0074738475581903841 0 -0.0020196972245125518 0.00640581785241311 0 -0.0023892282691542247 0.0062643861341955169 0 -0.0023271589936205562 0.0064564660399262586 0 -0.0022733687051410619 0.0071450104715385923 0 -0.0034711347865805488 0.006743945030065205 0 -0.0026720620955023211 0.0064364679446612663 0 -0.0022733687051410619 0.0071450104715385923 0 -0.0019401104145844957 0.0063237179496402392 0 -0.0026720620955023211 0.0064364679446612663 0 -0.0021998655616588176 0.0067984145564142576 0 -0.0026760474630390511 0.0060617562461311959 0 -0.0020196972245125518 0.00640581785241311 0 -0.002407886615781285 0.0061323462677745008 0 -0.0023892282691542247 0.0062643861341955169 0 -0.0023656799656982292 0.0060297887661424059 0 -0.0024916621048765289 0.0061227599881556096 0 -0.0024929176596762098 0.0059344081616091301 0 -0.0026760474630390511 0.0060617562461311959 0 -0.0025137863517555401 0.0060541147755938446 0 -0.0024916621048765289 0.0061227599881556096 0 -0.0023892282691542247 0.0062643861341955169 0 -0.0024999969259172109 0.0063782111206350254 0 -0.0023656799656982292 0.0060297887661424059 0 -0.0024916621048765289 0.0061227599881556096 0 -0.0023892282691542247 0.0062643861341955169 0 -0.0026760474630390511 0.0060617562461311959 0 -0.0025478468924511376 0.0061987940126009547 0 -0.0023271589936205562 0.0064564660399262586 0 -0.0025227407909267584 0.00660081688099838 0 -0.0022276175787180365 0.0066423567027258223 0 -0.0023892282691542247 0.0062643861341955169 0 -0.0023271589936205562 0.0064564660399262586 0 -0.0024999969259172109 0.0063782111206350254 0 -0.0023271589936205562 0.0064564660399262586 0 -0.0024999969259172109 0.0063782111206350254 0 -0.0025227407909267584 0.00660081688099838 0 -0.0020196972245125518 0.00640581785241311 0 -0.0022276175787180365 0.0066423567027258223 0 -0.0019416225502151079 0.0067988274446178594 0 -0.0020196972245125518 0.00640581785241311 0 -0.0023271589936205562 0.0064564660399262586 0 -0.0022276175787180365 0.0066423567027258223 0 -0.0021998655616588176 0.0067984145564142576 0 -0.0014722755946591569 0.0070116153877775355 0 -0.0020196972245125518 0.00640581785241311 0 -0.0019416225502151079 0.0067988274446178594 0 -0.0015636315800949267 0.0067407656134351743 0 -0.0017256903233273432 0.0070704047010478836 0 -0.0019416225502151079 0.0067988274446178594 0 -0.0015636315800949267 0.0067407656134351743 0 -0.0012435348842052539 0.0069577888036622144 0 -0.0014596436396401354 0.0069363035306620113 0 -0.0013175047723755092 0.006812335743634614 0 -0.0012154273747799478 0.0071300762622537438 0 -0.0013437689187831463 0.0072869659633445476 0 -0.0014596436396401354 0.0069363035306620113 0 -0.0012154273747799478 0.0071300762622537438 0 -0.0012435348842052539 0.0069577888036622144 0 -0.0014596436396401354 0.0069363035306620113 0 -0.0022733687051410619 0.0071450104715385923 0 -0.0014596436396401354 0.0069363035306620113 0 -0.0019401104145844957 0.0063237179496402392 0 -0.0022733687051410619 0.0071450104715385923 0 -0.0013437689187831463 0.0072869659633445476 0 -0.0014596436396401354 0.0069363035306620113 0 -0.0019401104145844957 0.0063237179496402392 0 -0.0010239977420936628 0.0059581098379164451 0 -0.0015908622618005684 0.0055305046798492276 0 -0.0019401104145844957 0.0063237179496402392 0 -0.0015908622618005684 0.0055305046798492276 0 -0.0024336812925133608 0.0057397289357834103 0 -0.0014596436396401354 0.0069363035306620113 0 -0.0019401104145844957 0.0063237179496402392 0 -0.0010239977420936628 0.0059581098379164451 0 -0.0014231427516595081 0.006892448078837432 0 -0.0011902826419201617 0.0064031058263158283 0 -0.00087775017774301394 0.0057302938272742075 0 -0.0011902826419201617 0.0064031058263158283 0 -0.00063474204258773725 0.0049813172406794476 0 -0.0010239977420936628 0.0059581098379164451 0 -0.0015908622618005684 0.0055305046798492276 0 -0.00063474204258773725 0.0049813172406794476 0 -0.0015908622618005684 0.0055305046798492276 0 -0.0018938349270641809 0.0047781974155375996 0 -0.0015908622618005684 0.0055305046798492276 0 -0.0024336812925133608 0.0057397289357834103 0 -0.0018938349270641809 0.0047781974155375996 0 -0.0029383730547186022 0.0049705692468330403 0 -0.0024336812925133608 0.0057397289357834103 0 -0.0030594174677889782 0.005907760539086755 0 -0.0029383730547186022 0.0049705692468330403 0 -0.0024336812925133608 0.0057397289357834103 0 -0.0018938349270641809 0.0047781974155375996 0 -0.0024336812925133608 0.0057397289357834103 0 -0.0026720620955023211 0.0064364679446612663 0 -0.0030594174677889782 0.005907760539086755 0 -0.0019401104145844957 0.0063237179496402392 0 -0.0024336812925133608 0.0057397289357834103 0 -0.0026720620955023211 0.0064364679446612663 0 -0.002307624255063387 0.0060044692077548794 0 -0.0023706784817189826 0.0052696405934409673 0 -0.0024929176596762098 0.0059344081616091301 0 -0.0034711347865805488 0.006743945030065205 0 -0.0030594174677889782 0.005907760539086755 0 -0.0036739960423880628 0.005481140618352618 0 -0.0026760474630390511 0.0060617562461311959 0 -0.0028830678390161122 0.0062421819276181267 0 -0.0034711347865805488 0.006743945030065205 0 -0.0026720620955023211 0.0064364679446612663 0 -0.0030594174677889782 0.005907760539086755 0 -0.0029383730547186022 0.0049705692468330403 0 -0.0030594174677889782 0.005907760539086755 0 -0.0036739960423880628 0.005481140618352618 0 -0.0023706784817189826 0.0052696405934409673 0 -0.0029698727620048404 0.0053766270309194503 0 -0.0030665084906769595 0.0048661045398287689 0 -0.0029698727620048404 0.0053766270309194503 0 -0.0032525177760191195 0.0053710368083386565 0 -0.0030665084906769595 0.0048661045398287689 0 -0.0029698727620048404 0.0053766270309194503 0 -0.0031365525703720555 0.0057222354557139397 0 -0.0027749305796720149 0.0057027317017521372 0 -0.0031365525703720555 0.0057222354557139397 0 -0.0027749305796720149 0.0057027317017521372 0 -0.0028887101399206611 0.005933033752712486 0 -0.0029698727620048404 0.0053766270309194503 0 -0.0031365525703720555 0.0057222354557139397 0 -0.0032525177760191195 0.0053710368083386565 0 -0.0023706784817189826 0.0052696405934409673 0 -0.0027749305796720149 0.0057027317017521372 0 -0.0024929176596762098 0.0059344081616091301 0 -0.0023706784817189826 0.0052696405934409673 0 -0.0029698727620048404 0.0053766270309194503 0 -0.0027749305796720149 0.0057027317017521372 0 -0.0024916621048765289 0.0061227599881556096 0 -0.0026759339131040265 0.0060147256263247692 0 -0.0024929176596762098 0.0059344081616091301 0 -0.0027749305796720149 0.0057027317017521372 0 -0.0026759339131040265 0.0060147256263247692 0 -0.0024929176596762098 0.0059344081616091301 0 -0.0024916621048765289 0.0061227599881556096 0 -0.0024999969259172109 0.0063782111206350254 0 -0.0026156494653958549 0.0062102605631300101 0 -0.0024916621048765289 0.0061227599881556096 0 -0.0026759339131040265 0.0060147256263247692 0 -0.0026156494653958549 0.0062102605631300101 0 -0.0026156494653958549 0.0062102605631300101 0 -0.0027959693151001432 0.0061446354872174841 0 -0.0027495981523350701 0.0063742698221461733 0 -0.0026759339131040265 0.0060147256263247692 0 -0.0026156494653958549 0.0062102605631300101 0 -0.0027959693151001432 0.0061446354872174841 0 -0.0026759339131040265 0.0060147256263247692 0 -0.0027959693151001432 0.0061446354872174841 0 -0.0028887101399206611 0.005933033752712486 0 -0.0027749305796720149 0.0057027317017521372 0 -0.0026759339131040265 0.0060147256263247692 0 -0.0028887101399206611 0.005933033752712486 0 -0.0031365525703720555 0.0057222354557139397 0 -0.0028887101399206611 0.005933033752712486 0 -0.0030461292718612044 0.0061790656718927733 0 -0.0031365525703720555 0.0057222354557139397 0 -0.0030461292718612044 0.0061790656718927733 0 -0.0033361091094361727 0.0059418237893938946 0 -0.0027959693151001432 0.0061446354872174841 0 -0.0028887101399206611 0.005933033752712486 0 -0.0030461292718612044 0.0061790656718927733 0 -0.0030461292718612044 0.0061790656718927733 0 -0.0029433630794590618 0.0064710320351114093 0 -0.0027495981523350701 0.0063742698221461733 0 -0.0030461292718612044 0.0061790656718927733 0 -0.0033200147268903787 0.006239044126193337 0 -0.0031742266471676216 0.0065148157759396244 0 -0.0030461292718612044 0.0061790656718927733 0 -0.0029433630794590618 0.0064710320351114093 0 -0.0031742266471676216 0.0065148157759396244 0 -0.0029433630794590618 0.0064710320351114093 0 -0.0027495981523350701 0.0063742698221461733 0 -0.0027890599677184887 0.0066585411171767384 0 -0.0025227407909267584 0.00660081688099838 0 -0.0027495981523350701 0.0063742698221461733 0 -0.0027890599677184887 0.0066585411171767384 0 -0.0024999969259172109 0.0063782111206350254 0 -0.0026156494653958549 0.0062102605631300101 0 -0.0027495981523350701 0.0063742698221461733 0 -0.0024999969259172109 0.0063782111206350254 0 -0.0025227407909267584 0.00660081688099838 0 -0.0027495981523350701 0.0063742698221461733 0 -0.0027959693151001432 0.0061446354872174841 0 -0.0030461292718612044 0.0061790656718927733 0 -0.0027495981523350701 0.0063742698221461733 0 -0.003778131309148149 0.0062896032201188584 0 -0.0035520002118942791 0.0060853551098000768 0 -0.0038099706515887224 0.0059208290933617973 0 -0.003778131309148149 0.0062896032201188584 0 -0.0035520002118942791 0.0060853551098000768 0 -0.0034796285599246928 0.0064594908787160244 0 -0.0033200147268903787 0.006239044126193337 0 -0.0035520002118942791 0.0060853551098000768 0 -0.0034796285599246928 0.0064594908787160244 0 -0.0033200147268903787 0.006239044126193337 0 -0.0031742266471676216 0.0065148157759396244 0 -0.0034796285599246928 0.0064594908787160244 0 -0.0033200147268903787 0.006239044126193337 0 -0.0033361091094361727 0.0059418237893938946 0 -0.0035520002118942791 0.0060853551098000768 0 -0.0033361091094361727 0.0059418237893938946 0 -0.0035520002118942791 0.0060853551098000768 0 -0.0035203473855450729 0.0056699482491553632 0 -0.0030461292718612044 0.0061790656718927733 0 -0.0033200147268903787 0.006239044126193337 0 -0.0033361091094361727 0.0059418237893938946 0 -0.0035520002118942791 0.0060853551098000768 0 -0.0035203473855450729 0.0056699482491553632 0 -0.0038099706515887224 0.0059208290933617973 0 -0.0035203473855450729 0.0056699482491553632 0 -0.0039037134232002236 0.0055083945714813794 0 -0.0038099706515887224 0.0059208290933617973 0 -0.0037714562012060677 0.0053920642141502273 0 -0.0035203473855450729 0.0056699482491553632 0 -0.0035428488577993788 0.0051850752475861087 0 -0.0037714562012060677 0.0053920642141502273 0 -0.0035203473855450729 0.0056699482491553632 0 -0.0039037134232002236 0.0055083945714813794 0 -0.0044675795386668656 -0.0032670374255666192 0 -0.003287157830372259 -0.00869124296450784 0 -0.0031365525703720555 0.0057222354557139397 0 -0.0035203473855450729 0.0056699482491553632 0 -0.0032525177760191195 0.0053710368083386565 0 -0.0035203473855450729 0.0056699482491553632 0 -0.0032525177760191195 0.0053710368083386565 0 -0.0035428488577993788 0.0051850752475861087 0 -0.0031365525703720555 0.0057222354557139397 0 -0.0033361091094361727 0.0059418237893938946 0 -0.0035203473855450729 0.0056699482491553632 0 -0.0049082104874349497 -0.0059457939962556574 0 -0.0053774530553482502 -0.0025887346146662837 0 -0.0050725946921152086 -0.012076199371842906 0 -0.0042492615742299412 -0.01127131620302513 0 -0.0065590245826468562 -0.010878825045337133 0 -0.0055708900454097994 -0.010713617051772387 0 -0.0066440456740991007 -0.010288374185015355 0 -0.0072145635414400961 -0.010238144377213373 0 -0.0032525177760191195 0.0053710368083386565 0 -0.0035428488577993788 0.0051850752475861087 0 -0.0030665084906769595 0.0048661045398287689 0 -0.0049082104874349497 -0.0059457939962556574 0 -0.0062026424449547861 -0.010818435932596357 0 -0.0050725946921152086 -0.012076199371842906 0 -0.0032634716272668188 -0.013172784778106537 0 -0.0042492615742299412 -0.01127131620302513 0 -0.0049082104874349497 -0.0059457939962556574 0 -0.003287157830372259 -0.00869124296450784 0 -0.004123787304323231 -0.0065452392005983682 0 -0.0051184013756484098 -0.0059396146520437091 0 -0.003757332567951281 -0.0065838689602482625 0 -0.0044675795386668656 -0.0032670374255666192 0 -0.0049082104874349497 -0.0059457939962556574 0 -0.0015583077365333674 -0.012549581935274778 0 -0.001187334038538108 -0.013406963809630062 0 -0.0032634716272668188 -0.013172784778106537 0 -0.0015583077365333674 -0.012549581935274778 0 -0.0032634716272668188 -0.013172784778106537 0 -0.0042492615742299412 -0.01127131620302513 0 -0.0015583077365333674 -0.012549581935274778 0 -0.0026409665299038576 -0.011223528321339698 0 -0.0039320087443951201 -0.011413287602952139 0 -0.0017036922519405486 -0.012461365617272903 0 -0.0039911075646252934 -0.011300328200190668 0 -0.0015583077365333674 -0.012549581935274778 0 -0.001187334038538108 -0.013406963809630062 0 -0.0014588689022750738 -0.010699198104187653 0 -0.0012122803676504897 -0.013274083480671117 0 -0.0015051966198268735 -0.011467344381413584 0 -0.00082565370572772049 -0.012748354664707699 0 -0.001187334038538108 -0.013406963809630062 0 -0.0015285615865681577 -0.012211864532485961 0 -0.00082565370572772049 -0.012748354664707699 0 -0.00069589864646774351 -0.013270592833280061 0 -0.001187334038538108 -0.013406963809630062 0 -0.00069589864646774351 -0.013270592833280061 0 -0.001187334038538108 -0.013406963809630062 0 -0.00092566647825846919 -0.013726742197712921 0 -0.0016871135371057475 -0.013833428093701933 0 -0.001353511379259427 -0.013363790219136754 0 -0.00024422095331618507 -0.01453353080805481 0 -0.0029951013284612018 -0.0046732632338322422 0 -0.0037542601809379384 -0.0044439953279690331 0 -0.0028215385165315564 -0.005001593090588858 0 -0.0016871135371057475 -0.013833428093701933 0 -0.001353511379259427 -0.013363790219136754 0 -0.0032598903456547324 -0.012983624019114917 0 -0.0023979366664025176 -0.0092228021299760304 0 -0.0011318390218206227 -0.0098787929490600206 0 -0.0029951013284612018 -0.0046732632338322422 0 -0.002081551368260917 -0.0051037193629131609 0 -0.0028215385165315564 -0.005001593090588858 0 -0.001187334038538108 -0.013406963809630062 0 -0.00092566647825846919 -0.013726742197712921 0 -0.0032634716272668188 -0.013172784778106537 0 -0.0042667457995162151 -0.0001283309317480901 0 -0.003450768464846011 0.00036935248336098431 0 -0.0023979366664025176 -0.0092228021299760304 0 -0.003287157830372259 -0.00869124296450784 0 -0.0010842305482080818 -0.013961835725501236 0 -0.003287157830372259 -0.00869124296450784 0 -0.0029951013284612018 -0.0046732632338322422 0 -0.0037542601809379384 -0.0044439953279690331 0 -0.0038858279305031191 -0.0042619962892432818 0 -0.0039037134232002236 0.0055083945714813794 0 -0.0039985583775109575 0.0058253555185452553 0 -0.0042314758257135481 0.0057697913797765833 0 -0.0044675795386668656 -0.0032670374255666192 0 -0.0042667457995162151 -0.0001283309317480901 0 -0.0041005275618198316 -0.0042417511018517191 0 -0.0037542601809379384 -0.0044439953279690331 0 -0.0038858279305031191 -0.0042619962892432818 0 0.0006762433954989554 -0.013415196536468959 0 0.00038834675009101976 -0.014062086044719948 0 0.0011787896579750351 -0.013737454411407325 0 0.0006762433954989554 -0.013415196536468959 0 0.0012862095071102264 -0.013158837846349476 0 0.0011787896579750351 -0.013737454411407325 0 0.0006762433954989554 -0.013415196536468959 0 0.00077450671459557011 -0.012811299954435156 0 0.0012862095071102264 -0.013158837846349476 0 0.00031785680300414521 -0.012973835193580857 0 0.0006762433954989554 -0.013415196536468959 0 0.00077450671459557011 -0.012811299954435156 0 0.0006762433954989554 -0.013415196536468959 0 -7.3031776710696152e-05 -0.013443351348211579 0 0.00038834675009101976 -0.014062086044719948 0 0.00031785680300414521 -0.012973835193580857 0 0.0006762433954989554 -0.013415196536468959 0 -7.3031776710696152e-05 -0.013443351348211579 0 -0.00069589864646774351 -0.013270592833280061 0 -0.00092566647825846919 -0.013726742197712921 0 -7.3031776710696152e-05 -0.013443351348211579 0 0.00031785680300414521 -0.012973835193580857 0 -7.3031776710696152e-05 -0.013443351348211579 0 -0.00017963411805150146 -0.012866052618468533 0 0.00031785680300414521 -0.012973835193580857 0 -0.00017963411805150146 -0.012866052618468533 0 0.00033631651074125167 -0.012507854551850901 0 -0.00082565370572772049 -0.012748354664707699 0 -0.00017963411805150146 -0.012866052618468533 0 -0.0004887543518217294 -0.013113067193992686 0 -0.00082565370572772049 -0.012748354664707699 0 -0.00069589864646774351 -0.013270592833280061 0 -0.0004887543518217294 -0.013113067193992686 0 -7.3031776710696152e-05 -0.013443351348211579 0 -0.00017963411805150146 -0.012866052618468533 0 -0.0004887543518217294 -0.013113067193992686 0 -0.00069589864646774351 -0.013270592833280061 0 -7.3031776710696152e-05 -0.013443351348211579 0 -0.0004887543518217294 -0.013113067193992686 0 -0.00092566647825846919 -0.013726742197712921 0 -7.3031776710696152e-05 -0.013443351348211579 0 0.00038834675009101976 -0.014062086044719948 0 -0.001353511379259427 -0.013363790219136754 0 0.00031166665131072713 -0.013745193233286714 0 -0.00024422095331618507 -0.01453353080805481 0 -0.0010842305482080818 -0.013961835725501236 0 0.00033037168168243482 -0.013868280782356631 0 0.00031166665131072713 -0.013745193233286714 0 0.00086089943941741103 -0.014385097179098251 0 0.0015515257377697379 -0.014246859231559725 0 0.00038834675009101976 -0.014062086044719948 0 0.0011787896579750351 -0.013737454411407325 0 0.0015515257377697379 -0.014246859231559725 0 0.00031166665131072713 -0.013745193233286714 0 0.00086089943941741103 -0.014385097179098251 0 -0.00024422095331618507 -0.01453353080805481 0 0.00033037168168243482 -0.013868280782356631 0 0.0014672623615537314 -0.014202627525404358 0 -0.0011450657230016111 -0.0055641826853016644 0 -0.002081551368260917 -0.0051037193629131609 0 -0.0018622042845208066 -0.005599279251868922 0 0.00093372155876246749 -0.0149962499037111 0 0.00086089943941741103 -0.014385097179098251 0 -0.00024422095331618507 -0.01453353080805481 0 -4.6862243088247278e-05 -0.0095521594844816503 0 -0.0011318390218206227 -0.0098787929490600206 0 -4.6862243088247278e-05 -0.0095521594844816503 0 -0.0032050973209317045 0.00071909753692510217 0 -0.002081551368260917 -0.0051037193629131609 0 -0.0018622042845208066 -0.005599279251868922 0 -0.0028215385165315564 -0.005001593090588858 0 -0.004499662380544364 0.0059283921127469101 0 -0.0042314758257135481 0.0057697913797765833 0 -0.0042964267938243161 0.0059905870296790573 0 -0.0032050973209317045 0.00071909753692510217 0 -0.003450768464846011 0.00036935248336098431 0 -0.0032050973209317045 0.00071909753692510217 0 -0.0043622145039394818 0.0058275326349220211 0 -0.0044388692752296913 0.0060896416262836376 0 -0.0043462762713784141 0.0062572994123907735 0 -0.004247662066108597 0.0061157486520028457 0 -0.0043462762713784141 0.0062572994123907735 0 -0.0042043297251162081 0.0062832001947904529 0 -0.0043780768781243509 0.0064787370017216515 0 -0.0043462762713784141 0.0062572994123907735 0 -0.0044836643218304963 0.0062953698158585312 0 -0.0043780768781243509 0.0064787370017216515 0 -0.0044388692752296913 0.0060896416262836376 0 -0.0043462762713784141 0.0062572994123907735 0 -0.0044836643218304963 0.0062953698158585312 0 -0.0044836643218304963 0.0062953698158585312 0 -0.0046212064885735689 0.0062077896875321918 0 -0.0046275676980180999 0.0064486735217509604 0 -0.0032050973209317045 0.00071909753692510217 0 -0.0033485172088218345 0.0014701030398859929 0 -0.0044388692752296913 0.0060896416262836376 0 -0.0044836643218304963 0.0062953698158585312 0 -0.0046212064885735689 0.0062077896875321918 0 -0.0016839943384958037 -0.0031823686967105665 0 -0.0021532549529897763 -0.0031915459781157117 0 -0.001698190497396602 -0.0034765554894225794 0 -0.0039037134232002236 0.0055083945714813794 0 -0.0038099706515887224 0.0059208290933617973 0 -0.0039985583775109575 0.0058253555185452553 0 -0.0038099706515887224 0.0059208290933617973 0 -0.0039985583775109575 0.0058253555185452553 0 -0.0040446908449442657 0.0060973258543793873 0 -0.0039985583775109575 0.0058253555185452553 0 -0.0042314758257135481 0.0057697913797765833 0 -0.0040446908449442657 0.0060973258543793873 0 -0.0042314758257135481 0.0057697913797765833 0 -0.0042964267938243161 0.0059905870296790573 0 -0.0040446908449442657 0.0060973258543793873 0 -0.0043622145039394818 0.0058275326349220211 0 -0.0040287206304850699 0.006071955152103012 0 -0.0042043297251162081 0.0062832001947904529 0 -0.0040446908449442657 0.0060973258543793873 0 -0.0040734333186996565 0.0064836534218004572 0 -0.004247662066108597 0.0061157486520028457 0 -0.0042043297251162081 0.0062832001947904529 0 -0.0040446908449442657 0.0060973258543793873 0 -0.0043462762713784141 0.0062572994123907735 0 -0.004247662066108597 0.0061157486520028457 0 -0.0042043297251162081 0.0062832001947904529 0 -0.003778131309148149 0.0062896032201188584 0 -0.0040446908449442657 0.0060973258543793873 0 -0.0040734333186996565 0.0064836534218004572 0 -0.003778131309148149 0.0062896032201188584 0 -0.0038099706515887224 0.0059208290933617973 0 -0.0040446908449442657 0.0060973258543793873 0 -0.0037804456271858917 0.0066051388165342013 0 -0.0040734333186996565 0.0064836534218004572 0 -0.003957907252768283 0.0068194214835162323 0 -0.003778131309148149 0.0062896032201188584 0 -0.0037804456271858917 0.0066051388165342013 0 -0.0040734333186996565 0.0064836534218004572 0 -0.0042043297251162081 0.0062832001947904529 0 -0.0040734333186996565 0.0064836534218004572 0 -0.0043780768781243509 0.0064787370017216515 0 -0.0040734333186996565 0.0064836534218004572 0 -0.0042190766634688723 0.0066805388252299423 0 -0.0043780768781243509 0.0064787370017216515 0 -0.0042190766634688723 0.0066805388252299423 0 -0.003957907252768283 0.0068194214835162323 0 -0.0042076785682583547 0.0070366271564192805 0 -0.0040734333186996565 0.0064836534218004572 0 -0.0042190766634688723 0.0066805388252299423 0 -0.003957907252768283 0.0068194214835162323 0 -0.0037804456271858917 0.0066051388165342013 0 -0.003957907252768283 0.0068194214835162323 0 -0.0035780234435951559 0.0069305866702777923 0 -0.003957907252768283 0.0068194214835162323 0 -0.003797470591307492 0.0071374392702007799 0 -0.0035780234435951559 0.0069305866702777923 0 -0.0046275676980180999 0.0064486735217509604 0 -0.0043780768781243509 0.0064787370017216515 0 -0.0045944106722741497 0.0066832200066849982 0 -0.0044836643218304963 0.0062953698158585312 0 -0.0046275676980180999 0.0064486735217509604 0 -0.0043780768781243509 0.0064787370017216515 0 -0.0043780768781243509 0.0064787370017216515 0 -0.0044006559059312925 0.0068006255232966537 0 -0.0045944106722741497 0.0066832200066849982 0 -0.0042190766634688723 0.0066805388252299423 0 -0.0043780768781243509 0.0064787370017216515 0 -0.0044006559059312925 0.0068006255232966537 0 -0.0042190766634688723 0.0066805388252299423 0 -0.0044006559059312925 0.0068006255232966537 0 -0.0042076785682583547 0.0070366271564192805 0 -0.0044006559059312925 0.0068006255232966537 0 -0.0045944106722741497 0.0066832200066849982 0 -0.0045998390832943069 0.0069654288163259045 0 -0.0045944106722741497 0.0066832200066849982 0 -0.0045998390832943069 0.0069654288163259045 0 -0.0046890347063691072 0.0068427564219391643 0 -0.0045998390832943069 0.0069654288163259045 0 -0.0046890347063691072 0.0068427564219391643 0 -0.004623287394348901 0.0070240307652087502 0 -0.0045998390832943069 0.0069654288163259045 0 -0.0046518985007307275 0.0070279765866876369 0 -0.0044678434085602585 0.007003717764948088 0 -0.0044006559059312925 0.0068006255232966537 0 -0.0045998390832943069 0.0069654288163259045 0 -0.0042076785682583547 0.0070366271564192805 0 -0.0045834101441363526 0.0069755208254089008 0 -0.0043370749577461946 0.0070230272934021102 0 -0.0045767595744167031 0.00710370997512433 0 -0.0046518985007307275 0.0070279765866876369 0 -0.0044678434085602585 0.007003717764948088 0 -0.0045998390832943069 0.0069654288163259045 0 -0.0046518985007307275 0.0070279765866876369 0 -0.0046251568077830905 0.0070155057270626948 0 -0.0048044087762655905 0.0069885886128414707 0 -0.0045767595744167031 0.00710370997512433 0 -0.0046518985007307275 0.0070279765866876369 0 -0.0048044087762655905 0.0069885886128414707 0 -0.0046518985007307275 0.0070279765866876369 0 -0.0046168462685145552 0.0069944361983037993 0 -0.0046518985007307275 0.0070279765866876369 0 -0.0046168462685145552 0.0069944361983037993 0 -0.0046251568077830905 0.0070155057270626948 0 -0.0045998390832943069 0.0069654288163259045 0 -0.0046251568077830905 0.0070155057270626948 0 -0.004623287394348901 0.0070240307652087502 0 -0.0046168462685145552 0.0069944361983037993 0 -0.0046251568077830905 0.0070155057270626948 0 -0.004623287394348901 0.0070240307652087502 0 -0.003957907252768283 0.0068194214835162323 0 -0.003797470591307492 0.0071374392702007799 0 -0.0042076785682583547 0.0070366271564192805 0 -0.0039770653372394483 0.007121509153870594 0 -0.0043370749577461946 0.0070230272934021102 0 -0.004157415433583978 0.0071016727701283351 0 -0.0044678434085602585 0.007003717764948088 0 -0.0043741834383984463 0.0071995044457971785 0 -0.0045767595744167031 0.00710370997512433 0 -0.0044678434085602585 0.007003717764948088 0 -0.0043741834383984463 0.0071995044457971785 0 -0.004157415433583978 0.0071016727701283351 0 -0.0043741834383984463 0.0071995044457971785 0 -0.0041257989395048281 0.0073308978584740924 0 -0.004157415433583978 0.0071016727701283351 0 -0.0041257989395048281 0.0073308978584740924 0 -0.003905583934423181 0.0073892719227331176 0 -0.0039770653372394483 0.007121509153870594 0 -0.0036021157338812339 0.007238969393864661 0 -0.003797470591307492 0.0071374392702007799 0 -0.0033278550004422116 0.0072530835151036364 0 -0.0035780234435951559 0.0069305866702777923 0 -0.004157415433583978 0.0071016727701283351 0 -0.0038751270317561488 0.0072290400069475146 0 -0.003905583934423181 0.0073892719227331176 0 -0.0038751270317561488 0.0072290400069475146 0 -0.003905583934423181 0.0073892719227331176 0 -0.0037093845348904978 0.0074564640111357211 0 -0.0037430529232103291 0.0075244983190288278 0 -0.003905583934423181 0.0073892719227331176 0 -0.0037093845348904978 0.0074564640111357211 0 -0.0035673148596074298 0.0076148714632729483 0 -0.0037430529232103291 0.0075244983190288278 0 -0.0037093845348904978 0.0074564640111357211 0 -0.0035673148596074298 0.0076148714632729483 0 -0.0034633194652282282 0.0076146159489753062 0 -0.0035140013532459382 0.0076114408588517342 0 -0.0037093845348904978 0.0074564640111357211 0 -0.0035140013532459382 0.0076114408588517342 0 -0.0036123563679567494 0.0073195435710715949 0 -0.0035673148596074298 0.0076148714632729483 0 -0.0037093845348904978 0.0074564640111357211 0 -0.0035140013532459382 0.0076114408588517342 0 -0.0028826221380234521 0.0073963542410361589 0 -0.0035140013532459382 0.0076114408588517342 0 -0.0036123563679567494 0.0073195435710715949 0 -0.0036021157338812339 0.007238969393864661 0 -0.0032115731212304858 0.0073379182366953505 0 -0.0033278550004422116 0.0072530835151036364 0 -0.0028225758304773639 0.0073597848990419115 0 -0.0030600427410133152 0.0071142164694680612 0 -0.0038751270317561488 0.0072290400069475146 0 -0.0037093845348904978 0.0074564640111357211 0 -0.0036123563679567494 0.0073195435710715949 0 -0.0028225758304773639 0.0073597848990419115 0 -0.0030600427410133152 0.0071142164694680612 0 -0.0028644646406626654 0.0069638543626198667 0 -0.0030600427410133152 0.0071142164694680612 0 -0.0028644646406626654 0.0069638543626198667 0 -0.0032234907777191142 0.0068790091337250225 0 -0.0028644646406626654 0.0069638543626198667 0 -0.0029856438470663707 0.0067210905121258529 0 -0.0032234907777191142 0.0068790091337250225 0 -0.0025472920991296668 0.00712463492237726 0 -0.0028644646406626654 0.0069638543626198667 0 -0.0026271192499199973 0.0068500858559591166 0 -0.0025472920991296668 0.00712463492237726 0 -0.0028225758304773639 0.0073597848990419115 0 -0.0028644646406626654 0.0069638543626198667 0 -0.0028644646406626654 0.0069638543626198667 0 -0.0026271192499199973 0.0068500858559591166 0 -0.0027890599677184887 0.0066585411171767384 0 -0.0028644646406626654 0.0069638543626198667 0 -0.0027890599677184887 0.0066585411171767384 0 -0.0029856438470663707 0.0067210905121258529 0 -0.0025227407909267584 0.00660081688099838 0 -0.0026271192499199973 0.0068500858559591166 0 -0.0027890599677184887 0.0066585411171767384 0 -0.0029856438470663707 0.0067210905121258529 0 -0.0031742266471676216 0.0065148157759396244 0 -0.0032234907777191142 0.0068790091337250225 0 -0.0029433630794590618 0.0064710320351114093 0 -0.0027890599677184887 0.0066585411171767384 0 -0.0029856438470663707 0.0067210905121258529 0 -0.0029433630794590618 0.0064710320351114093 0 -0.0029856438470663707 0.0067210905121258529 0 -0.0031742266471676216 0.0065148157759396244 0 -0.0034796285599246928 0.0064594908787160244 0 -0.0035780234435951559 0.0069305866702777923 0 -0.0032234907777191142 0.0068790091337250225 0 -0.0031742266471676216 0.0065148157759396244 0 -0.0034796285599246928 0.0064594908787160244 0 -0.0032234907777191142 0.0068790091337250225 0 -0.003778131309148149 0.0062896032201188584 0 -0.0037804456271858917 0.0066051388165342013 0 -0.0034796285599246928 0.0064594908787160244 0 -0.0037804456271858917 0.0066051388165342013 0 -0.0034796285599246928 0.0064594908787160244 0 -0.0035780234435951559 0.0069305866702777923 0 -0.0033278550004422116 0.0072530835151036364 0 -0.0035780234435951559 0.0069305866702777923 0 -0.0032234907777191142 0.0068790091337250225 0 -0.0033278550004422116 0.0072530835151036364 0 -0.0030600427410133152 0.0071142164694680612 0 -0.0032234907777191142 0.0068790091337250225 0 1.3654537151593863e-05 0.035001141361149471 0 6.7782923235540483e-09 0.035000003441849156 0 1.2107296256398165e-05 0.035007992053315236 0 6.7782923235540483e-09 0.035000003441849156 0 1.2107296256398165e-05 0.035007992053315236 0 4.7398286639674374e-09 0.035000018210829112 0 -3.9614944549733532e-06 0.035012605910601874 0 0.00010171937694416427 0.034889067248441562 0 1.3654537151593863e-05 0.035001141361149471 0 1.2107296256398165e-05 0.035007992053315236 0 3.0093002117896168e-05 0.035008361096977407 0 1.146901407143542e-05 0.034989063508422867 0 3.4671613528865299e-05 0.034977941734408394 0 3.6523397711299118e-05 0.03498765380853093 0 0.00045498208556291265 0.033296815538779473 0 4.6364826023963807e-06 0.034721546393616104 0 0.00030308108418187037 0.034314796161859402 0 0.00049170387075066322 0.034340965709145063 0 0.00016202420331235364 0.0344492925235311 0 0.00030308108418187037 0.034314796161859402 0 0.0001257643823285715 0.034284117028912597 0 0.00043244015305775243 0.034185144480819704 0 0.00010171937694416427 0.034889067248441562 0 0.00052091121636825164 0.034517015069653018 0 0.00010171937694416427 0.034889067248441562 0 4.6364826023963807e-06 0.034721546393616104 0 0.00030308108418187037 0.034314796161859402 0 0.0001257643823285715 0.034284117028912597 0 0.00016202420331235364 0.0344492925235311 0 0.00015148883265264773 0.035140953891737541 0 0.00016393989677065886 0.035102048067748373 0 0.00012350335243528632 0.035073641848820593 0 0.00016393989677065886 0.035102048067748373 0 0.00017806685569072425 0.035058032748541322 0 0.00020029309242490249 0.03512519047125956 0 0.00015148883265264773 0.035140953891737541 0 0.00016393989677065886 0.035102048067748373 0 0.00020029309242490249 0.03512519047125956 0 0.00010171937694416427 0.034889067248441562 0 8.0021822824573313e-05 0.035074377705452721 0 1.3654537151593863e-05 0.035001141361149471 0 3.0093002117896168e-05 0.035008361096977407 0 3.4521592195751587e-05 0.034996519301719889 0 0.00012350335243528632 0.035073641848820593 0 0.00017806685569072425 0.035058032748541322 0 0.00012793510487307371 0.035000653602532107 0 0.00016393989677065886 0.035102048067748373 0 0.00012350335243528632 0.035073641848820593 0 0.00017806685569072425 0.035058032748541322 0 0.00017806685569072425 0.035058032748541322 0 0.00012793510487307371 0.035000653602532107 0 0.00015173834928194975 0.03491674647162521 0 0.00031252522542907343 0.035217974388638731 0 0.00015173834928194975 0.03491674647162521 0 0.00036791830008597474 0.035017501786495153 0 0.00024007625277663291 0.035308170528156824 0 0.0001474649947718925 0.034852118964057648 0 0.00012350335243528632 0.035073641848820593 0 0.00012793510487307371 0.035000653602532107 0 5.2130829415814063e-05 0.03494042465564582 0 8.0021822824573313e-05 0.035074377705452721 0 5.1338675527849955e-05 0.034923256253434898 0 3.4521592195751587e-05 0.034996519301719889 0 9.3600391052243604e-06 0.034988511049796153 0 5.2130829415814063e-05 0.03494042465564582 0 9.3600391052243604e-06 0.034988511049796153 0 -1.1471063605807174e-05 0.034954634354313438 0 5.2130829415814063e-05 0.03494042465564582 0 1.3654537151593863e-05 0.035001141361149471 0 3.4521592195751587e-05 0.034996519301719889 0 9.3600391052243604e-06 0.034988511049796153 0 6.7782923235540483e-09 0.035000003441849156 0 9.3600391052243604e-06 0.034988511049796153 0 -1.2344025244177201e-08 0.034999970462524378 0 1.3654537151593863e-05 0.035001141361149471 0 6.7782923235540483e-09 0.035000003441849156 0 9.3600391052243604e-06 0.034988511049796153 0 9.3600391052243604e-06 0.034988511049796153 0 -1.2344025244177201e-08 0.034999970462524378 0 -1.1471063605807174e-05 0.034954634354313438 0 -1.2344025244177201e-08 0.034999970462524378 0 -1.1471063605807174e-05 0.034954634354313438 0 -3.5985421813721457e-08 0.034999825061298978 0 -1.1471063605807174e-05 0.034954634354313438 0 1.1827487056291398e-05 0.034890408138812404 0 5.2130829415814063e-05 0.03494042465564582 0 -1.1471063605807174e-05 0.034954634354313438 0 1.1827487056291398e-05 0.034890408138812404 0 -2.4047782430066567e-05 0.034853365263283288 0 1.1827487056291398e-05 0.034890408138812404 0 -2.4047782430066567e-05 0.034853365263283288 0 5.0984737197437289e-05 0.034812649134789472 0 -1.1471063605807174e-05 0.034954634354313438 0 -2.4047782430066567e-05 0.034853365263283288 0 -3.5985421813721457e-08 0.034999825061298978 0 -2.4047782430066567e-05 0.034853365263283288 0 -1.7115296005259625e-05 0.034674178904565124 0 -4.6115116017698704e-08 0.034999649472597483 0 -2.4047782430066567e-05 0.034853365263283288 0 -1.7115296005259625e-05 0.034674178904565124 0 -3.4317095391743398e-06 0.03462867654039703 0 -2.4047782430066567e-05 0.034853365263283288 0 -3.5985421813721457e-08 0.034999825061298978 0 -4.6115116017698704e-08 0.034999649472597483 0 -6.6918178487625164e-05 0.034380444112187991 0 -7.2358534139803393e-05 0.034428345945793477 0 -8.7002190347195706e-05 0.034153569347533989 0 -6.6918178487625164e-05 0.034380444112187991 0 -1.7115296005259625e-05 0.034674178904565124 0 -7.2358534139803393e-05 0.034428345945793477 0 -1.7115296005259625e-05 0.034674178904565124 0 -7.2358534139803393e-05 0.034428345945793477 0 -3.4317095391743398e-06 0.03462867654039703 0 -3.2328098252713306e-06 0.034598638762329242 0 0.00014149136505297837 0.03451280622653919 0 -7.2358534139803393e-05 0.034428345945793477 0 -3.4317095391743398e-06 0.03462867654039703 0 -9.3871269044084493e-05 0.034367127749634227 0 0.00020070143962317642 0.034781608163855768 0 0.00036887099685396085 0.034833958401584833 0 0.00038289750944796286 0.034623344246640229 0 -3.4317095391743398e-06 0.03462867654039703 0 0.00020070143962317642 0.034781608163855768 0 0.00038289750944796286 0.034623344246640229 0 -2.4047782430066567e-05 0.034853365263283288 0 -3.4317095391743398e-06 0.03462867654039703 0 5.0984737197437289e-05 0.034812649134789472 0 -3.4317095391743398e-06 0.03462867654039703 0 0.00020070143962317642 0.034781608163855768 0 5.0984737197437289e-05 0.034812649134789472 0 1.1827487056291398e-05 0.034890408138812404 0 5.0984737197437289e-05 0.034812649134789472 0 5.2130829415814063e-05 0.03494042465564582 0 5.0984737197437289e-05 0.034812649134789472 0 5.2130829415814063e-05 0.03494042465564582 0 0.00015173834928194975 0.03491674647162521 0 0.00020070143962317642 0.034781608163855768 0 5.0984737197437289e-05 0.034812649134789472 0 0.00015173834928194975 0.03491674647162521 0 0.00012793510487307371 0.035000653602532107 0 5.2130829415814063e-05 0.03494042465564582 0 0.00015173834928194975 0.03491674647162521 0 0.00020070143962317642 0.034781608163855768 0 0.00015173834928194975 0.03491674647162521 0 0.00036887099685396085 0.034833958401584833 0 0.00015173834928194975 0.03491674647162521 0 0.00036887099685396085 0.034833958401584833 0 0.00036791830008597474 0.035017501786495153 0 0.00053951236893132919 0.034960585083848417 0 0.00036887099685396085 0.034833958401584833 0 0.00036791830008597474 0.035017501786495153 0 0.00053951236893132919 0.034960585083848417 0 0.000754057433951674 0.034641591152561026 0 0.0007593699684880779 0.034934568375827806 0 0.00053951236893132919 0.034960585083848417 0 0.00036887099685396085 0.034833958401584833 0 0.000754057433951674 0.034641591152561026 0 0.00014149136505297837 0.03451280622653919 0 0.00050844618761535128 0.034562191494934356 0 0.00036887099685396085 0.034833958401584833 0 0.00038289750944796286 0.034623344246640229 0 0.000754057433951674 0.034641591152561026 0 -7.2358534139803393e-05 0.034428345945793477 0 -9.3871269044084493e-05 0.034367127749634227 0 -2.0029853868214352e-05 0.034190740576492309 0 -2.0029853868214352e-05 0.034190740576492309 0 0.00031806199252232481 0.034012449666762805 0 0.00022106985505015373 0.034488994778261971 0 -9.3871269044084493e-05 0.034367127749634227 0 -2.0029853868214352e-05 0.034190740576492309 0 0.00022106985505015373 0.034488994778261971 0 -2.0029853868214352e-05 0.034190740576492309 0 -2.1225005988012438e-05 0.033764035629780136 0 0.00031806199252232481 0.034012449666762805 0 -2.0029853868214352e-05 0.034190740576492309 0 -2.1225005988012438e-05 0.033764035629780136 0 -8.7002190347195706e-05 0.034153569347533989 0 -7.2358534139803393e-05 0.034428345945793477 0 -2.0029853868214352e-05 0.034190740576492309 0 -8.7002190347195706e-05 0.034153569347533989 0 0.0012834871859375412 0.032948778310964315 0 0.00071664838294445931 0.033558674476161676 0 0.0017239960042959035 0.033334584496541926 0 0.00071664838294445931 0.033558674476161676 0 0.00090917983583550116 0.034033248051925397 0 0.0017239960042959035 0.033334584496541926 0 -2.1225005988012438e-05 0.033764035629780136 0 0.00071664838294445931 0.033558674476161676 0 0.00031806199252232481 0.034012449666762805 0 0.00031806199252232481 0.034012449666762805 0 0.00090917983583550116 0.034033248051925397 0 0.00022106985505015373 0.034488994778261971 0 0.00071664838294445931 0.033558674476161676 0 0.00031806199252232481 0.034012449666762805 0 0.00090917983583550116 0.034033248051925397 0 0.00090917983583550116 0.034033248051925397 0 0.0011527174881126 0.034649475274403804 0 0.00022106985505015373 0.034488994778261971 0 0.0011167970124677422 0.034650575536621986 0 0.00050844618761535128 0.034562191494934356 0 0.0011527174881126 0.034649475274403804 0 0.000754057433951674 0.034641591152561026 0 0.00094994557955914503 0.034828257861036695 0 0.000754057433951674 0.034641591152561026 0 0.00094994557955914503 0.034828257861036695 0 0.0007593699684880779 0.034934568375827806 0 0.00094994557955914503 0.034828257861036695 0 0.0007593699684880779 0.034934568375827806 0 0.00091340956167109029 0.03506201395822893 0 0.00094994557955914503 0.034828257861036695 0 0.0012340311656819729 0.034915906325500581 0 0.00091340956167109029 0.03506201395822893 0 0.0011527174881126 0.034649475274403804 0 0.00094994557955914503 0.034828257861036695 0 0.0012340311656819729 0.034915906325500581 0 0.0012340311656819729 0.034915906325500581 0 0.001229252199375567 0.035154584510214075 0 0.00091340956167109029 0.03506201395822893 0 0.0013873871539251427 0.032584905098879478 0 0.0014101948609549272 0.032745142992979218 0 0.001229252199375567 0.035154584510214075 0 0.00097681415886728662 0.035365638977268049 0 0.00091340956167109029 0.03506201395822893 0 0.001527338266185746 0.030241631897718012 0 0.0020144488485694385 0.029705098725525462 0 0.0014552293365479856 0.029724783694181193 0 0.0020144488485694385 0.029705098725525462 0 0.0019954245851569346 0.029568830509226179 0 0.0014552293365479856 0.029724783694181193 0 0.00079784795492621793 0.035272528004531081 0 0.00092541713520461703 0.035310130144189496 0 0.00091340956167109029 0.03506201395822893 0 0.0014101948609549272 0.032745142992979218 0 0.00091320112576188201 0.036093146414666891 0 0.00079784795492621793 0.035272528004531081 0 0.00091340956167109029 0.03506201395822893 0 0.00065622769812594931 0.035165965689821527 0 0.00079784795492621793 0.035272528004531081 0 0.00092541713520461703 0.035310130144189496 0 0.00084953978430084059 0.035387649954413562 0 0.0007593699684880779 0.034934568375827806 0 0.00091340956167109029 0.03506201395822893 0 0.00065622769812594931 0.035165965689821527 0 0.00053951236893132919 0.034960585083848417 0 0.00047749635514230548 0.035138210285637732 0 0.00065622769812594931 0.035165965689821527 0 0.00053951236893132919 0.034960585083848417 0 0.0007593699684880779 0.034934568375827806 0 0.00065622769812594931 0.035165965689821527 0 0.00031252522542907343 0.035217974388638731 0 0.00036791830008597474 0.035017501786495153 0 0.00047749635514230548 0.035138210285637732 0 0.00053951236893132919 0.034960585083848417 0 0.00036791830008597474 0.035017501786495153 0 0.00047749635514230548 0.035138210285637732 0 0.00031252522542907343 0.035217974388638731 0 0.00047749635514230548 0.035138210285637732 0 0.00050697299927093288 0.035301627857308365 0 0.00047749635514230548 0.035138210285637732 0 0.00050697299927093288 0.035301627857308365 0 0.00065622769812594931 0.035165965689821527 0 0.00079784795492621793 0.035272528004531081 0 0.00065622769812594931 0.035165965689821527 0 0.00064280990554736067 0.035456340533258676 0 0.00050697299927093288 0.035301627857308365 0 0.00065622769812594931 0.035165965689821527 0 0.00064280990554736067 0.035456340533258676 0 0.00075519118074242081 0.032696466439741757 0 0.00077643452357795736 0.032898749516319235 0 0.0010679764872055385 0.032589160988411442 0 0.00062378295722662134 0.034098928612641452 0 0.00080022137248525992 0.031765843586052049 0 0.00031252522542907343 0.035217974388638731 0 0.00050697299927093288 0.035301627857308365 0 0.00044432442241946292 0.035515346076973979 0 0.00050697299927093288 0.035301627857308365 0 0.00064280990554736067 0.035456340533258676 0 0.00044432442241946292 0.035515346076973979 0 0.00024007625277663291 0.035308170528156824 0 0.00052091121636825164 0.034517015069653018 0 0.00075519118074242081 0.032696466439741757 0 0.00044406701068027934 0.032804465283951464 0 0.00062235661203396877 0.032846737863383588 0 0.00062378295722662134 0.034098928612641452 0 0.00052091121636825164 0.034517015069653018 0 0.00030308108418187037 0.034314796161859402 0 0.00043244015305775243 0.034185144480819704 0 0.00049170387075066322 0.034340965709145063 0 0.00052091121636825164 0.034517015069653018 0 0.00045498208556291265 0.033296815538779473 0 0.00044406701068027934 0.032804465283951464 0 0.00062235661203396877 0.032846737863383588 0 0.00051431532230395186 0.032987222977175379 0 0.00022250944881878164 0.031977893382467412 0 0.001027355899931918 0.031720775065976009 0 0.00037951440647064887 0.032395693955178967 0 0.00045498208556291265 0.033296815538779473 0 0.00056379226216358264 0.032037933782482465 0 0.00062629580028797664 0.029238063852604301 0 0.00058988400615691411 0.029246764968274011 0 0.00049631038050198205 0.029367475552971211 0 0.00062738680587431526 0.029238507129636368 0 0.00058988400615691411 0.029246764968274011 0 0.0005776470295414829 0.029177458115212489 0 0.00083742003275607808 0.030869063494547849 0 0.00088167906229631211 0.030547816053000432 0 0.00062235661203396877 0.032846737863383588 0 0.00051431532230395186 0.032987222977175379 0 0.00077643452357795736 0.032898749516319235 0 0.00075519118074242081 0.032696466439741757 0 0.00062235661203396877 0.032846737863383588 0 0.00077643452357795736 0.032898749516319235 0 0.00083742003275607808 0.030869063494547849 0 0.00056379226216358264 0.032037933782482465 0 0.00062738680587431526 0.029238507129636368 0 0.0006244270952717306 0.029128147197229365 0 0.00072498883761877651 0.029149978300722884 0 0.00045498208556291265 0.033296815538779473 0 0.00083742003275607808 0.030869063494547849 0 0.00062738680587431526 0.029238507129636368 0 0.0005776470295414829 0.029177458115212489 0 0.0006244270952717306 0.029128147197229365 0 0.00050500685602967099 0.029234025025677502 0 0.00039831211281227699 0.029138456321669403 0 0.0004373572993754812 0.029382378096551875 0 0.0005776470295414829 0.029177458115212489 0 0.00050500685602967099 0.029234025025677502 0 0.00053043207655295154 0.029091877544915976 0 0.00050500685602967099 0.029234025025677502 0 0.00039831211281227699 0.029138456321669403 0 0.00053043207655295154 0.029091877544915976 0 0.00058988400615691411 0.029246764968274011 0 0.0005776470295414829 0.029177458115212489 0 0.00050500685602967099 0.029234025025677502 0 0.0011523649551189207 0.023164791127136274 0 0.0010320289674340362 0.023355758957254124 0 0.00092523760944050368 0.023154457836719312 0 0.00071262560398400207 0.025801821202969494 0 0.0015132594526023042 0.028231292378225123 0 0.0011523649551189207 0.023164791127136274 0 0.0010320289674340362 0.023355758957254124 0 0.0012246540618277386 0.023546613127416245 0 0.0010320289674340362 0.023355758957254124 0 0.0012246540618277386 0.023546613127416245 0 0.00097712704747698973 0.023603375850823508 0 0.0015132594526023042 0.028231292378225123 0 0.0010150354963057977 0.02672195068687554 0 0.00083742003275607808 0.030869063494547849 0 0.00080022137248525992 0.031765843586052049 0 0.00079784795492621793 0.035272528004531081 0 0.00064280990554736067 0.035456340533258676 0 0.00084953978430084059 0.035387649954413562 0 0.0019970037142634485 0.030328280482509542 0 0.0020811535213159172 0.030975209411250596 0 0.0010524640874658511 0.031295408643951604 0 0.00050500685602967099 0.029234025025677502 0 0.0004373572993754812 0.029382378096551875 0 0.00049631038050198205 0.029367475552971211 0 0.0014101948609549272 0.032745142992979218 0 0.0015132594526023042 0.028231292378225123 0 0.0015132594526023042 0.028231292378225123 0 0.00080022137248525992 0.031765843586052049 0 0.0014101948609549272 0.032745142992979218 0 0.00080022137248525992 0.031765843586052049 0 0.00058988400615691411 0.029246764968274011 0 0.00050500685602967099 0.029234025025677502 0 0.00049631038050198205 0.029367475552971211 0 0.0022791871655084748 0.014114869583257613 0 0.00077121460626860606 0.01499220000974299 0 0.0025697599604466745 0.016173569038602061 0 0.0013517363347884416 0.017529764417099799 0 0.0020500364088883419 0.024906674400836111 0 0.00067954619071435897 0.023227681856542708 0 0.00072605185487407812 0.023672503999739032 0 0.00097712704747698973 0.023603375850823508 0 0.0010320289674340362 0.023355758957254124 0 0.00067954619071435897 0.023227681856542708 0 0.00097712704747698973 0.023603375850823508 0 0.00092523760944050368 0.023154457836719312 0 0.00067954619071435897 0.023227681856542708 0 0.0007899119391108696 0.023026549178314412 0 0.0010320289674340362 0.023355758957254124 0 0.00092523760944050368 0.023154457836719312 0 0.00067954619071435897 0.023227681856542708 0 0.0022791871655084748 0.014114869583257613 0 0.00077121460626860606 0.01499220000974299 0 0.00078566648141248265 0.012996479808667791 0 -0.00016521607621374705 0.01389265794369705 0 0.00077121460626860606 0.01499220000974299 0 0.00078566648141248265 0.012996479808667791 0 -0.00016521607621374705 0.01389265794369705 0 0.00077121460626860606 0.01499220000974299 0 -0.00079205425825085727 0.014963520641039504 0 0.00077121460626860606 0.01499220000974299 0 -0.00049368313533825414 0.016020840180117731 0 -0.00079205425825085727 0.014963520641039504 0 0.0013923208045003947 0.024274863280177129 0 0.0020500364088883419 0.024906674400836111 0 0.00077121460626860606 0.01499220000974299 0 0.000615144329268219 0.016736411817622251 0 0.0025697599604466745 0.016173569038602061 0 0.00077121460626860606 0.01499220000974299 0 0.000615144329268219 0.016736411817622251 0 -0.00049368313533825414 0.016020840180117731 0 0.0013923208045003947 0.024274863280177129 0 -0.00092275796561617563 0.022934303401430958 0 0.000615144329268219 0.016736411817622251 0 -0.0013724903806334899 0.01736791573866113 0 -0.00049368313533825414 0.016020840180117731 0 0.0016982385368273128 0.031702555895756393 0 0.0015636479918651981 0.032169173416193846 0 0.0011029113330890278 0.031844691291239909 0 0.0016982385368273128 0.031702555895756393 0 0.0021082473428638521 0.031993787780174553 0 0.0023061800772970959 0.03145960185733581 0 0.0016982385368273128 0.031702555895756393 0 0.0021082473428638521 0.031993787780174553 0 0.0019390738039415133 0.032304542905794542 0 0.0016982385368273128 0.031702555895756393 0 0.0019390738039415133 0.032304542905794542 0 0.0015636479918651981 0.032169173416193846 0 0.0020500364088883419 0.024906674400836111 0 0.0016561603149197821 0.033515946633640686 0 0.0021082473428638521 0.031993787780174553 0 0.0023061800772970959 0.03145960185733581 0 0.0023549218882526696 0.032203923820384034 0 0.001527338266185746 0.030241631897718012 0 0.0008763773518777662 0.029880055285928461 0 0.0014552293365479856 0.029724783694181193 0 0.0020500364088883419 0.024906674400836111 0 0.0010150354963057977 0.02672195068687554 0 0.0012340311656819729 0.034915906325500581 0 0.001229252199375567 0.035154584510214075 0 0.0015832723042269352 0.034923796778816747 0 0.0013873871539251427 0.032584905098879478 0 0.0016561603149197821 0.033515946633640686 0 0.001527338266185746 0.030241631897718012 0 0.0008763773518777662 0.029880055285928461 0 0.00098984773720349017 0.030828179746240393 0 0.0014050057584224893 0.034739868373761383 0 0.0015832723042269352 0.034923796778816747 0 0.001682180869283462 0.034396906965232669 0 0.0012340311656819729 0.034915906325500581 0 0.0014050057584224893 0.034739868373761383 0 0.0015832723042269352 0.034923796778816747 0 0.0011527174881126 0.034649475274403804 0 0.0012340311656819729 0.034915906325500581 0 0.0014050057584224893 0.034739868373761383 0 0.0021082473428638521 0.031993787780174553 0 0.0022558634610499806 0.032298610250232361 0 0.0019390738039415133 0.032304542905794542 0 0.0023383504573313511 0.032228123271631944 0 0.0022558634610499806 0.032298610250232361 0 0.002191299818813012 0.032795065391270833 0 0.0022558634610499806 0.032298610250232361 0 0.0020429044135802264 0.032609410705857572 0 0.0019390738039415133 0.032304542905794542 0 0.0021082473428638521 0.031993787780174553 0 0.0023549218882526696 0.032203923820384034 0 0.0022558634610499806 0.032298610250232361 0 0.0016561603149197821 0.033515946633640686 0 0.0020612393219627038 0.033000571077582717 0 0.0022558634610499806 0.032298610250232361 0 0.0020429044135802264 0.032609410705857572 0 0.002191299818813012 0.032795065391270833 0 0.0020429044135802264 0.032609410705857572 0 0.002191299818813012 0.032795065391270833 0 0.0019510874548937603 0.032962383255811273 0 0.0011527174881126 0.034649475274403804 0 0.0014050057584224893 0.034739868373761383 0 0.001682180869283462 0.034396906965232669 0 0.00090917983583550116 0.034033248051925397 0 0.0011527174881126 0.034649475274403804 0 0.001682180869283462 0.034396906965232669 0 0.0016561603149197821 0.033515946633640686 0 0.0019396158751481436 0.033569228625102955 0 0.0019396158751481436 0.033569228625102955 0 0.001757721470357008 0.03330550313980573 0 0.00090917983583550116 0.034033248051925397 0 0.001682180869283462 0.034396906965232669 0 0.0017239960042959035 0.033334584496541926 0 0.002191299818813012 0.032795065391270833 0 0.0019510874548937603 0.032962383255811273 0 0.0017239960042959035 0.033334584496541926 0 0.0018306004801794823 0.032776483137926624 0 0.0019539273124586517 0.032946096030776362 0 0.0017239960042959035 0.033334584496541926 0 0.0019510874548937603 0.032962383255811273 0 0.0019539273124586517 0.032946096030776362 0 0.0017239960042959035 0.033334584496541926 0 0.0019395144710579412 0.032938350994722344 0 0.0020853491805724014 0.032759188455831 0 0.0019325437558890433 0.03290386144440445 0 0.0019539273124586517 0.032946096030776362 0 0.0020853491805724014 0.032759188455831 0 0.0019325437558890433 0.03290386144440445 0 0.0019510874548937603 0.032962383255811273 0 0.0019325437558890433 0.03290386144440445 0 0.0018444985756267977 0.032624344647715652 0 0.0019510874548937603 0.032962383255811273 0 0.0019539273124586517 0.032946096030776362 0 0.0019325437558890433 0.03290386144440445 0 0.00078851984751200351 0.028308210671904293 0 0.00072931650666725528 0.028841074245118 0 0.0019395144710579412 0.032938350994722344 0 0.0019325437558890433 0.03290386144440445 0 0.0014219201466429633 0.032553253854882128 0 0.0019325437558890433 0.03290386144440445 0 0.0018444985756267977 0.032624344647715652 0 0.0014219201466429633 0.032553253854882128 0 0.0018444985756267977 0.032624344647715652 0 0.0015636479918651981 0.032169173416193846 0 0.0014219201466429633 0.032553253854882128 0 0.0020429044135802264 0.032609410705857572 0 0.0018444985756267977 0.032624344647715652 0 0.0019390738039415133 0.032304542905794542 0 0.0020429044135802264 0.032609410705857572 0 0.0019510874548937603 0.032962383255811273 0 0.0018444985756267977 0.032624344647715652 0 0.0018444985756267977 0.032624344647715652 0 0.0019390738039415133 0.032304542905794542 0 0.0015636479918651981 0.032169173416193846 0 0.0015636479918651981 0.032169173416193846 0 0.0014219201466429633 0.032553253854882128 0 0.0011029113330890278 0.031844691291239909 0 0.00072931650666725528 0.028841074245118 0 -0.00092275796561617563 0.022934303401430958 0 -0.0004966313521301345 0.023265068173817807 0 -0.0014065298031243605 0.02239675211652899 0 -0.00079580606042577357 0.0222296290854695 0 -0.0004966313521301345 0.023265068173817807 0 -0.0015475557072409506 0.023451380861320169 0 -0.0014065298031243605 0.02239675211652899 0 -0.0004966313521301345 0.023265068173817807 0 -0.0010743318813449503 0.024266255025320909 0 -0.0015475557072409506 0.023451380861320169 0 -0.00024998018860095621 0.024193993740664225 0 -0.0004966313521301345 0.023265068173817807 0 -0.0010743318813449503 0.024266255025320909 0 -0.0018799539367725375 0.021915072035360243 0 -0.0023829972991726927 0.02112814493202517 0 -0.00064959649658569499 0.02494196039614191 0 -0.00024998018860095621 0.024193993740664225 0 -0.0010743318813449503 0.024266255025320909 0 -0.0049343190857879561 0.02004836863084487 0 -0.0038999832656271866 0.019863629087933921 0 -0.0046948473278606564 0.019009314563222423 0 -0.0055116114630265637 0.01929523998851931 0 -0.0049343190857879561 0.02004836863084487 0 -0.0046948473278606564 0.019009314563222423 0 -0.0026313609639282425 0.019689493802224251 0 -0.0038999832656271866 0.019863629087933921 0 -0.00349987595405271 0.018215123964370427 0 -0.0038999832656271866 0.019863629087933921 0 -0.0046948473278606564 0.019009314563222423 0 -0.00349987595405271 0.018215123964370427 0 -0.0046948473278606564 0.019009314563222423 0 -0.0046945904314086816 0.018178428041946252 0 -0.00349987595405271 0.018215123964370427 0 -0.0056254804338789115 0.018326924698234447 0 -0.0046948473278606564 0.019009314563222423 0 -0.0046945904314086816 0.018178428041946252 0 -0.0046945904314086816 0.018178428041946252 0 -0.00349987595405271 0.018215123964370427 0 -0.0047545932197608281 0.017286808601636536 0 -0.0056254804338789115 0.018326924698234447 0 -0.0046945904314086816 0.018178428041946252 0 -0.0047545932197608281 0.017286808601636536 0 -0.0023829972991726927 0.02112814493202517 0 -0.0037218093984086389 0.018334324300691769 0 -0.00349987595405271 0.018215123964370427 0 -0.0047545932197608281 0.017286808601636536 0 -0.004279410902553132 0.016766859610632814 0 -0.0037218093984086389 0.018334324300691769 0 -0.0017401997256265729 0.019623285584554121 0 -0.0015475557072409506 0.023451380861320169 0 -0.0020309361873016947 0.022556160364418945 0 -0.0014065298031243605 0.02239675211652899 0 -0.0056333446940353251 0.017181153448942457 0 -0.0047545932197608281 0.017286808601636536 0 -0.004279410902553132 0.016766859610632814 0 -0.0053039193381862791 0.016487513097091275 0 -0.0037218093984086389 0.018334324300691769 0 -0.0035342499501092813 0.017352402202076449 0 -0.0041448544482766119 0.016120639982452618 0 -0.0031975251359706112 0.016429002143969383 0 -0.0049584328228427059 0.015671736450851757 0 -0.0041908388762458343 0.015997026494695626 0 -0.0044838126320115666 0.015390317516715324 0 -0.0037218093984086389 0.018334324300691769 0 -0.0044230068171320063 0.015427510419506569 0 -0.004721664342505762 0.014793488690661459 0 -0.0041448544482766119 0.016120639982452618 0 -0.0037465221748935254 0.014702743974090599 0 -0.0041448544482766119 0.016120639982452618 0 -0.0029461539044208385 0.015479306684442305 0 -0.0037465221748935254 0.014702743974090599 0 -0.0041448544482766119 0.016120639982452618 0 -0.0029461539044208385 0.015479306684442305 0 -0.0031975251359706112 0.016429002143969383 0 -0.0029461539044208385 0.015479306684442305 0 -0.0031975251359706112 0.016429002143969383 0 -0.0024123887913029872 0.016190371311553632 0 -0.0031975251359706112 0.016429002143969383 0 -0.0024738659473842817 0.017024803111989218 0 -0.0024123887913029872 0.016190371311553632 0 -0.0035342499501092813 0.017352402202076449 0 -0.0031975251359706112 0.016429002143969383 0 -0.0024738659473842817 0.017024803111989218 0 -0.0017401997256265729 0.019623285584554121 0 -0.00092275796561617563 0.022934303401430958 0 -0.0024123887913029872 0.016190371311553632 0 -0.001430556450935389 0.01672137868835466 0 -0.0017554497476392949 0.015679448904132948 0 -0.0024738659473842817 0.017024803111989218 0 -0.0024123887913029872 0.016190371311553632 0 -0.001430556450935389 0.01672137868835466 0 -0.00092275796561617563 0.022934303401430958 0 -0.0020471760046909537 0.014876668028309047 0 -0.0013724903806334899 0.01736791573866113 0 -0.00049368313533825414 0.016020840180117731 0 -0.0017453428958511871 0.016085394545854111 0 -0.00049368313533825414 0.016020840180117731 0 -0.0017453428958511871 0.016085394545854111 0 -0.00079205425825085727 0.014963520641039504 0 -0.0029461539044208385 0.015479306684442305 0 -0.0024123887913029872 0.016190371311553632 0 -0.0017554497476392949 0.015679448904132948 0 -0.0020471760046909537 0.014876668028309047 0 -0.0019283974971430486 0.015214210195532716 0 -0.0029461539044208385 0.015479306684442305 0 -0.0017554497476392949 0.015679448904132948 0 -0.0020606442018157281 0.014739661068351754 0 -0.0020606442018157281 0.014739661068351754 0 -0.0024788934798283201 0.013753531702650673 0 -0.0029538767189879449 0.014484676120745112 0 -0.0017453428958511871 0.016085394545854111 0 -0.0020606442018157281 0.014739661068351754 0 -0.00079205425825085727 0.014963520641039504 0 -0.0020606442018157281 0.014739661068351754 0 -0.00079205425825085727 0.014963520641039504 0 -0.0013711884673839681 0.013831333074223091 0 -0.00016521607621374705 0.01389265794369705 0 -0.00079205425825085727 0.014963520641039504 0 -0.0013711884673839681 0.013831333074223091 0 -0.00016521607621374705 0.01389265794369705 0 -0.0013711884673839681 0.013831333074223091 0 -0.00056847250093958928 0.012777250447601248 0 -0.0013711884673839681 0.013831333074223091 0 -0.0024788934798283201 0.013753531702650673 0 -0.001848843709394545 0.012813983905863358 0 -0.0020606442018157281 0.014739661068351754 0 -0.0013711884673839681 0.013831333074223091 0 -0.0024788934798283201 0.013753531702650673 0 -0.0024788934798283201 0.013753531702650673 0 -0.0035094256811160594 0.013722988850641712 0 -0.0029538767189879449 0.014484676120745112 0 -0.0024788934798283201 0.013753531702650673 0 -0.0035094256811160594 0.013722988850641712 0 -0.0028302104488939495 0.01284418837184209 0 -0.0045065577328091428 0.013827865953771471 0 -0.0035094256811160594 0.013722988850641712 0 -0.0037465221748935254 0.014702743974090599 0 -0.0045065577328091428 0.013827865953771471 0 -0.004721664342505762 0.014793488690661459 0 -0.0037465221748935254 0.014702743974090599 0 -0.0035094256811160594 0.013722988850641712 0 -0.0037465221748935254 0.014702743974090599 0 -0.0029538767189879449 0.014484676120745112 0 -0.0029461539044208385 0.015479306684442305 0 -0.0020606442018157281 0.014739661068351754 0 -0.0029538767189879449 0.014484676120745112 0 -0.0029461539044208385 0.015479306684442305 0 -0.0037465221748935254 0.014702743974090599 0 -0.0029538767189879449 0.014484676120745112 0 -0.0037659801261181471 0.012005967742997899 0 -0.0023648276700309672 0.012014704332727373 0 -0.0020898869802117594 0.010667013412881707 0 -0.003153300062794124 0.011066495093889397 0 -0.002127092177996827 0.010648110983104548 0 -0.0045065577328091428 0.013827865953771471 0 -0.0035094256811160594 0.013722988850641712 0 -0.0037659801261181471 0.012005967742997899 0 -0.0037659801261181471 0.012005967742997899 0 -0.0028302104488939495 0.01284418837184209 0 -0.0023648276700309672 0.012014704332727373 0 -0.0035094256811160594 0.013722988850641712 0 -0.0037659801261181471 0.012005967742997899 0 -0.0028302104488939495 0.01284418837184209 0 -0.0024788934798283201 0.013753531702650673 0 -0.0028302104488939495 0.01284418837184209 0 -0.001848843709394545 0.012813983905863358 0 -0.001848843709394545 0.012813983905863358 0 -0.0012745731175075473 0.011686791524326383 0 -0.0023648276700309672 0.012014704332727373 0 -0.0028302104488939495 0.01284418837184209 0 -0.001848843709394545 0.012813983905863358 0 -0.0023648276700309672 0.012014704332727373 0 -0.001848843709394545 0.012813983905863358 0 -0.00056847250093958928 0.012777250447601248 0 -0.0012745731175075473 0.011686791524326383 0 -0.0013711884673839681 0.013831333074223091 0 -0.001848843709394545 0.012813983905863358 0 -0.00056847250093958928 0.012777250447601248 0 -0.0012745731175075473 0.011686791524326383 0 -0.0009376845562215309 0.010464370410324058 0 0.00043493984581306235 0.011489181688862583 0 -0.00056847250093958928 0.012777250447601248 0 -0.0012745731175075473 0.011686791524326383 0 0.00043493984581306235 0.011489181688862583 0 -0.0012745731175075473 0.011686791524326383 0 -0.0023648276700309672 0.012014704332727373 0 -0.0020898869802117594 0.010667013412881707 0 -0.0020898869802117594 0.010667013412881707 0 -0.0009376845562215309 0.010464370410324058 0 -0.0017863784765260082 0.0091606985907593096 0 -0.0012745731175075473 0.011686791524326383 0 -0.0020898869802117594 0.010667013412881707 0 -0.0009376845562215309 0.010464370410324058 0 -0.0009376845562215309 0.010464370410324058 0 -0.0017863784765260082 0.0091606985907593096 0 -0.00027041407058517932 0.0096862416794656625 0 -0.0017863784765260082 0.0091606985907593096 0 -5.4151241762426244e-05 0.0088514581082872086 0 -0.00027041407058517932 0.0096862416794656625 0 -0.0020898869802117594 0.010667013412881707 0 -0.0026639126553856985 0.010153400417640941 0 -0.0017863784765260082 0.0091606985907593096 0 -0.0015595082517247151 0.0088539914472005338 0 -0.0010721306288005604 0.0084065427087558191 0 -0.0026778680718144883 0.010188666969815898 0 -0.0020898869802117594 0.010667013412881707 0 -0.0026639126553856985 0.010153400417640941 0 -0.0015229688415588319 0.00893314910839536 0 -0.0015595082517247151 0.0088539914472005338 0 -0.0024526698901094165 0.010170409315417829 0 -0.0026778680718144883 0.010188666969815898 0 -0.0026639126553856985 0.010153400417640941 0 -0.00059279542404147567 0.0077049285517537883 0 -0.00048247074827316856 0.0075857879072314931 0 -0.0005265289746716089 0.0075090804334474667 0 -0.00048247074827316856 0.0075857879072314931 0 -0.0005265289746716089 0.0075090804334474667 0 -0.00050590257179893331 0.0074980179821300319 0 -0.00057349377363083236 0.0074131705498006271 0 -0.00050590257179893331 0.0074980179821300319 0 -0.00053396393001684211 0.0074119378599336577 0 -0.00057349377363083236 0.0074131705498006271 0 -0.0005265289746716089 0.0075090804334474667 0 -0.00050590257179893331 0.0074980179821300319 0 -0.00048247074827316856 0.0075857879072314931 0 -0.00050590257179893331 0.0074980179821300319 0 -0.00045863517138863494 0.0075915234236630042 0 -0.00048247074827316856 0.0075857879072314931 0 -0.00045863517138863494 0.0075915234236630042 0 -0.00043950132779734175 0.0076556723537920413 0 -0.00050590257179893331 0.0074980179821300319 0 -0.00045863517138863494 0.0075915234236630042 0 -0.00049281406469347578 0.0075044266212180273 0 -0.00045863517138863494 0.0075915234236630042 0 -0.00049281406469347578 0.0075044266212180273 0 -0.00045219092055790778 0.0075560976181715074 0 -0.00050590257179893331 0.0074980179821300319 0 -0.00049281406469347578 0.0075044266212180273 0 -0.00053396393001684211 0.0074119378599336577 0 -0.00049281406469347578 0.0075044266212180273 0 -0.00053396393001684211 0.0074119378599336577 0 -0.00052493368494936393 0.0074330400641399643 0 -0.00049281406469347578 0.0075044266212180273 0 -0.00052493368494936393 0.0074330400641399643 0 -0.00049426450259628936 0.0074932001795110876 0 -0.00048688966854566708 0.0074660238835429224 0 -0.00052493368494936393 0.0074330400641399643 0 -0.00049998872165892667 0.007480467746187703 0 -0.00052493368494936393 0.0074330400641399643 0 -0.00049426450259628936 0.0074932001795110876 0 -0.00049998872165892667 0.007480467746187703 0 -0.00049426450259628936 0.0074932001795110876 0 -0.00047269885224351845 0.0074905474781597333 0 -0.00045219092055790778 0.0075560976181715074 0 -0.00049281406469347578 0.0075044266212180273 0 -0.00049426450259628936 0.0074932001795110876 0 -0.00045219092055790778 0.0075560976181715074 0 -0.00049426450259628936 0.0074932001795110876 0 -0.00047269885224351845 0.0074905474781597333 0 -0.00049998872165892667 0.007480467746187703 0 -0.00047269885224351845 0.0074905474781597333 0 -0.00049998872165892667 0.007480467746187703 0 -0.00048747368291433255 0.0074953729512538519 0 -0.00048688966854566708 0.0074660238835429224 0 -0.00049998872165892667 0.007480467746187703 0 -0.00048747368291433255 0.0074953729512538519 0 -0.00038525190401042964 0.0075213150668539822 0 -0.00030947374334883989 0.0076140662881355771 0 -0.00018769788486258529 0.0074894111014667071 0 -0.00038525190401042964 0.0075213150668539822 0 -0.00018769788486258529 0.0074894111014667071 0 -0.00040055210569922166 0.0074823748210036053 0 -0.00047269885224351845 0.0074905474781597333 0 -0.00038525190401042964 0.0075213150668539822 0 -0.00040055210569922166 0.0074823748210036053 0 -0.00047269885224351845 0.0074905474781597333 0 -0.00038525190401042964 0.0075213150668539822 0 -0.00045219092055790778 0.0075560976181715074 0 -0.00038525190401042964 0.0075213150668539822 0 -0.00045219092055790778 0.0075560976181715074 0 -0.00030947374334883989 0.0076140662881355771 0 -0.00030947374334883989 0.0076140662881355771 0 -0.00040414604893708315 0.0076983200062208778 0 -0.00024407526626558156 0.007962209883812181 0 -0.00045219092055790778 0.0075560976181715074 0 -0.00030947374334883989 0.0076140662881355771 0 -0.00040414604893708315 0.0076983200062208778 0 -0.00045863517138863494 0.0075915234236630042 0 -0.00045219092055790778 0.0075560976181715074 0 -0.00040414604893708315 0.0076983200062208778 0 -0.00045863517138863494 0.0075915234236630042 0 -0.00040414604893708315 0.0076983200062208778 0 -0.00043950132779734175 0.0076556723537920413 0 -0.0010721306288005604 0.0084065427087558191 0 -0.00027841457408612152 0.0079568683838294185 0 -0.0017863784765260082 0.0091606985907593096 0 -5.4151241762426244e-05 0.0088514581082872086 0 -0.00024407526626558156 0.007962209883812181 0 -0.00040414604893708315 0.0076983200062208778 0 -0.00043950132779734175 0.0076556723537920413 0 -0.00024407526626558156 0.007962209883812181 0 -5.4151241762426244e-05 0.0088514581082872086 0 0.0007769460329577441 0.0084561318456270376 0 -0.00024407526626558156 0.007962209883812181 0 -5.4151241762426244e-05 0.0088514581082872086 0 0.0007769460329577441 0.0084561318456270376 0 0.00049858303689691893 0.0093766338628019502 0 3.5645938167789923e-05 0.011240912816202282 0 -3.1913665296646019e-05 0.015156105343663417 0 -0.00061963004137169288 0.014774713047196186 0 -0.00062362752708830711 0.014772379884703242 0 -0.00057085307771201647 0.01481369209827553 0 -0.0006977653179445337 0.017687659002815308 0 -3.1913665296646019e-05 0.015156105343663417 0 -0.00061963004137169288 0.014774713047196186 0 -0.00064648536132210952 0.014759850379869514 0 -0.00064456983241064454 0.014773240607163982 0 -0.0006977653179445337 0.017687659002815308 0 -0.00099676455711880402 0.018528905105969086 0 -0.0007398544747619308 0.020124358242195328 0 -0.00078208165084445733 0.020191503851844986 0 -0.0008029127087003004 0.020180272251583291 0 -0.00061963004137169288 0.014774713047196186 0 -0.00062362752708830711 0.014772379884703242 0 -0.00064648536132210952 0.014759850379869514 0 3.5645938167789923e-05 0.011240912816202282 0 -0.00031240211645823995 0.010613338856136259 0 0.0007769460329577441 0.0084561318456270376 0 -0.00024407526626558156 0.007962209883812181 0 8.2450642758674869e-05 0.0076154569981952205 0 -0.00030947374334883989 0.0076140662881355771 0 -0.00024407526626558156 0.007962209883812181 0 8.2450642758674869e-05 0.0076154569981952205 0 -0.00064648536132210952 0.014759850379869514 0 -0.00064456983241064454 0.014773240607163982 0 -0.00066180525007711061 0.014764967228804191 0 -0.00030947374334883989 0.0076140662881355771 0 8.2450642758674869e-05 0.0076154569981952205 0 -0.00018769788486258529 0.0074894111014667071 0 -0.00031240211645823995 0.010613338856136259 0 -0.0012317427748678893 0.014932325761039299 0 -0.00099676455711880402 0.018528905105969086 0 -0.0012317427748678893 0.014932325761039299 0 -0.00099676455711880402 0.018528905105969086 0 -0.00047961176620463404 0.020074150687076721 0 -0.00099676455711880402 0.018528905105969086 0 -0.0010079624825094003 0.020179110963725506 0 -0.0010133520028680406 0.020137398533291623 0 -0.0011473260978994864 0.019824008688198749 0 -0.00078969617528349464 0.020059285895392995 0 -0.0011022946816036615 0.02015560171754998 0 -0.0011473260978994864 0.019824008688198749 0 -0.0016402193200545042 0.019678766507145111 0 -0.0011473260978994864 0.019824008688198749 0 -0.0010223835200779314 0.01955554644974155 0 -0.00078969617528349464 0.020059285895392995 0 -0.0011473260978994864 0.019824008688198749 0 -0.0010223835200779314 0.01955554644974155 0 -0.001334993586919191 0.019311454914907624 0 -0.0011473260978994864 0.019824008688198749 0 -0.0016402193200545042 0.019678766507145111 0 -0.001334993586919191 0.019311454914907624 0 -0.0012317427748678893 0.014932325761039299 0 -0.0012365812273853933 0.020436853865022211 0 -0.00072371887365949537 0.020137347738247255 0 -0.00077792316779250485 0.020162212449242392 0 -0.00081078059396700209 0.020390685406085029 0 -0.00037980550908675413 0.027458404809062677 0 -0.0010923528117775263 0.02553593103739641 0 -9.7920090666843781e-05 0.018244619589075799 0 -0.0010923528117775263 0.02553593103739641 0 -0.0008008102683954312 0.020025329157681168 0 -0.00084443066841310846 0.019537868438151421 0 -0.00072371887365949537 0.020137347738247255 0 -0.00078969617528349464 0.020059285895392995 0 -0.00087674462779489923 0.019905641674069496 0 -0.0010223835200779314 0.01955554644974155 0 -0.00078969617528349464 0.020059285895392995 0 -0.00080285777858711278 0.019161382251748252 0 -0.00072371887365949537 0.020137347738247255 0 -0.00078969617528349464 0.020059285895392995 0 -0.0007665636258656288 0.02015699382400489 0 -0.0010133520028680406 0.020137398533291623 0 -0.00078969617528349464 0.020059285895392995 0 -0.0008029127087003004 0.020180272251583291 0 -0.00078969617528349464 0.020059285895392995 0 -0.0008029127087003004 0.020180272251583291 0 -0.0007665636258656288 0.02015699382400489 0 -0.00072371887365949537 0.020137347738247255 0 -0.0007665636258656288 0.02015699382400489 0 -0.00077792316779250485 0.020162212449242392 0 -0.0007665636258656288 0.02015699382400489 0 -0.00077792316779250485 0.020162212449242392 0 -0.00079993434559408436 0.020200004087329141 0 -0.0007665636258656288 0.02015699382400489 0 -0.00078970609033011767 0.020165188478622306 0 -0.00079993434559408436 0.020200004087329141 0 -0.0008029127087003004 0.020180272251583291 0 -0.0007665636258656288 0.02015699382400489 0 -0.00078970609033011767 0.020165188478622306 0 -0.0007398544747619308 0.020124358242195328 0 -0.0008029127087003004 0.020180272251583291 0 -0.00078970609033011767 0.020165188478622306 0 -0.0007398544747619308 0.020124358242195328 0 -0.00080489060428247448 0.02008668848663538 0 -0.00070594699113399296 0.019966999353412243 0 -0.0007398544747619308 0.020124358242195328 0 -0.00078970609033011767 0.020165188478622306 0 -0.00080489060428247448 0.02008668848663538 0 -0.00078970609033011767 0.020165188478622306 0 -0.00080489060428247448 0.02008668848663538 0 -0.00079993434559408436 0.020200004087329141 0 0.00070633876762631704 0.023277295491236669 0 0.00045063800689793958 0.023153979327894723 0 0.00047243924648623443 0.023575476850643193 0 -0.00021461619523400422 0.021772944406352968 0 0.00028301118173187592 0.02667551829878817 0 0.00070633876762631704 0.023277295491236669 0 0.00063134910510266075 0.023013240348194217 0 0.00075085886453300646 0.023023690481403281 0 0.00070633876762631704 0.023277295491236669 0 0.00063134910510266075 0.023013240348194217 0 0.00045063800689793958 0.023153979327894723 0 0.00063134910510266075 0.023013240348194217 0 0.00065249396040796819 0.022913765782605431 0 0.00045099653005869919 0.02285229349653238 0 0.00063134910510266075 0.023013240348194217 0 0.00076507610785274936 0.022921921542991799 0 0.00075085886453300646 0.023023690481403281 0 0.00063134910510266075 0.023013240348194217 0 0.00065249396040796819 0.022913765782605431 0 0.00076507610785274936 0.022921921542991799 0 0.00076507610785274936 0.022921921542991799 0 0.00083884765716442746 0.022947569010695265 0 0.00072197136993396613 0.022846629191026133 0 0.00083884765716442746 0.022947569010695265 0 0.00085285421864202734 0.022954359774929507 0 0.00072197136993396613 0.022846629191026133 0 0.00071540839612567908 0.016459374646379227 0 0.0014657877007537054 0.017829512879539218 0 0.00065249396040796819 0.022913765782605431 0 0.00076507610785274936 0.022921921542991799 0 0.00075234458714604083 0.022860609637264179 0 0.00076507610785274936 0.022921921542991799 0 0.00075085886453300646 0.023023690481403281 0 0.00079760955962111064 0.02296303323239391 0 0.00076507610785274936 0.022921921542991799 0 0.00079760955962111064 0.02296303323239391 0 0.00083884765716442746 0.022947569010695265 0 0.00075085886453300646 0.023023690481403281 0 0.00079760955962111064 0.02296303323239391 0 0.0008596903083334873 0.022981045455601513 0 0.00079760955962111064 0.02296303323239391 0 0.00083884765716442746 0.022947569010695265 0 0.0008596903083334873 0.022981045455601513 0 0.0010970728228423092 0.017836996132550909 0 0.00071540839612567908 0.016459374646379227 0 0.00070633876762631704 0.023277295491236669 0 0.00075085886453300646 0.023023690481403281 0 0.0008596903083334873 0.022981045455601513 0 -0.00080489060428247448 0.02008668848663538 0 -0.00071884516610136754 0.019919558829199074 0 -0.00070594699113399296 0.019966999353412243 0 0.00071540839612567908 0.016459374646379227 0 -3.1913665296646019e-05 0.015156105343663417 0 -0.00021461619523400422 0.021772944406352968 0 0.00071540839612567908 0.016459374646379227 0 0.0007769460329577441 0.0084561318456270376 0 0.00049858303689691893 0.0093766338628019502 0 0.0014361291659037161 0.0098266225057559928 0 0.0015767400604048919 0.010171992759681973 0 0.0014361291659037161 0.0098266225057559928 0 0.00057670747776167135 0.010137666587986292 0 0.00049858303689691893 0.0093766338628019502 0 0.0014361291659037161 0.0098266225057559928 0 0.00057670747776167135 0.010137666587986292 0 -5.4151241762426244e-05 0.0088514581082872086 0 0.00049858303689691893 0.0093766338628019502 0 -0.00027041407058517932 0.0096862416794656625 0 0.00049858303689691893 0.0093766338628019502 0 -0.00027041407058517932 0.0096862416794656625 0 0.00057670747776167135 0.010137666587986292 0 -0.0009376845562215309 0.010464370410324058 0 0.00057670747776167135 0.010137666587986292 0 0.00043493984581306235 0.011489181688862583 0 -0.0009376845562215309 0.010464370410324058 0 -0.00027041407058517932 0.0096862416794656625 0 0.00057670747776167135 0.010137666587986292 0 0.0015767400604048919 0.010171992759681973 0 0.00057670747776167135 0.010137666587986292 0 0.00043493984581306235 0.011489181688862583 0 0.00071540839612567908 0.016459374646379227 0 0.0013268374258434059 0.0091723640420919572 0 0.0017195186232297857 0.010306380476329816 0 0.00043493984581306235 0.011489181688862583 0 0.001937139697860118 0.01214919634132349 0 0.00043493984581306235 0.011489181688862583 0 0.00078566648141248265 0.012996479808667791 0 0.001937139697860118 0.01214919634132349 0 -0.00016521607621374705 0.01389265794369705 0 -0.00056847250093958928 0.012777250447601248 0 0.00078566648141248265 0.012996479808667791 0 -0.00056847250093958928 0.012777250447601248 0 0.00043493984581306235 0.011489181688862583 0 0.00078566648141248265 0.012996479808667791 0 0.0022791871655084748 0.014114869583257613 0 0.00078566648141248265 0.012996479808667791 0 0.001937139697860118 0.01214919634132349 0 0.0013517363347884416 0.017529764417099799 0 0.0014657877007537054 0.017829512879539218 0 0.00067954619071435897 0.023227681856542708 0 0.0007899119391108696 0.023026549178314412 0 0.00072197136993396613 0.022846629191026133 0 0.0007899119391108696 0.023026549178314412 0 0.00072197136993396613 0.022846629191026133 0 0.00077011747352457476 0.022898233041616586 0 0.00092523760944050368 0.023154457836719312 0 0.0007899119391108696 0.023026549178314412 0 0.00096841174786470459 0.023018508124852372 0 0.0007899119391108696 0.023026549178314412 0 0.00096841174786470459 0.023018508124852372 0 0.00083227523842724013 0.022900283408706576 0 0.0007899119391108696 0.023026549178314412 0 0.00083227523842724013 0.022900283408706576 0 0.00077011747352457476 0.022898233041616586 0 0.00083227523842724013 0.022900283408706576 0 0.00075234458714604083 0.022860609637264179 0 0.00077011747352457476 0.022898233041616586 0 0.00096841174786470459 0.023018508124852372 0 0.00083227523842724013 0.022900283408706576 0 0.0010829298567315545 0.022842313063744277 0 0.00065249396040796819 0.022913765782605431 0 0.00075234458714604083 0.022860609637264179 0 0.00045099653005869919 0.02285229349653238 0 0.0012948669407716596 0.022471438871043855 0 0.00040750590894947413 0.025755726838744362 0 0.00083227523842724013 0.022900283408706576 0 0.00075234458714604083 0.022860609637264179 0 0.0009769844516912627 0.022887695485536503 0 0.00087461169218030056 0.022119220990350196 0 0.00040750590894947413 0.025755726838744362 0 0.00076507610785274936 0.022921921542991799 0 0.00075234458714604083 0.022860609637264179 0 0.00072197136993396613 0.022846629191026133 0 0.00075234458714604083 0.022860609637264179 0 0.00072197136993396613 0.022846629191026133 0 0.00077011747352457476 0.022898233041616586 0 0.00030540090866619914 0.029246003811055077 0 0.00040750590894947413 0.025755726838744362 0 0.00040750590894947413 0.025755726838744362 0 -0.00083549228704707737 0.032145558820435176 0 6.7208604526311467e-05 0.029473768134525003 0 0.00069517369911612089 0.029437901855370988 0 -0.00040200635820634051 0.029834480282199215 0 0.00045031028332535904 0.028987174283788029 0 0.00051300712068847463 0.028915333703788109 0 0.00036208265135853336 0.028886249386991605 0 0.00045031028332535904 0.028987174283788029 0 0.00051300712068847463 0.028915333703788109 0 0.00052315988642002943 0.029000330190843363 0 0.00051300712068847463 0.028915333703788109 0 0.00052315988642002943 0.029000330190843363 0 0.00060205558446183613 0.029033355765092611 0 0.00071262560398400207 0.025801821202969494 0 0.00040750590894947413 0.025755726838744362 0 0.00039831211281227699 0.029138456321669403 0 0.00045031028332535904 0.028987174283788029 0 0.00036208265135853336 0.028886249386991605 0 0.0011523649551189207 0.023164791127136274 0 0.00092523760944050368 0.023154457836719312 0 0.00096841174786470459 0.023018508124852372 0 0.0011523649551189207 0.023164791127136274 0 0.00096841174786470459 0.023018508124852372 0 0.0010829298567315545 0.022842313063744277 0 0.00039831211281227699 0.029138456321669403 0 0.00045031028332535904 0.028987174283788029 0 0.00053043207655295154 0.029091877544915976 0 0.00052315988642002943 0.029000330190843363 0 0.00053043207655295154 0.029091877544915976 0 0.00060205558446183613 0.029033355765092611 0 0.00045031028332535904 0.028987174283788029 0 0.00052315988642002943 0.029000330190843363 0 0.00053043207655295154 0.029091877544915976 0 0.00053043207655295154 0.029091877544915976 0 0.0006244270952717306 0.029128147197229365 0 0.00060205558446183613 0.029033355765092611 0 0.00056379226216358264 0.032037933782482465 0 0.00010523422867799955 0.032223775203405601 0 0.00060205558446183613 0.029033355765092611 0 0.00072498883761877651 0.029149978300722884 0 0.00065030005446273297 0.028942529077982844 0 0.0005776470295414829 0.029177458115212489 0 0.00053043207655295154 0.029091877544915976 0 0.0006244270952717306 0.029128147197229365 0 0.0006244270952717306 0.029128147197229365 0 0.00060205558446183613 0.029033355765092611 0 0.00072498883761877651 0.029149978300722884 0 0.00030981333383804524 0.03450642638324683 0 0.00039676960692955614 0.034409856008832201 0 0.00054654364982885059 0.034856499566836674 0 0.00035447020713904324 0.03423927830482261 0 0.00030981333383804524 0.03450642638324683 0 8.1421252016805189e-05 0.034569312803958613 0 0.00035447020713904324 0.03423927830482261 0 0.00030981333383804524 0.03450642638324683 0 0.00041274855307305675 0.034398787771029476 0 -0.00012008534265520448 0.03346017090316606 0 0.00056379226216358264 0.032037933782482465 0 0.00030981333383804524 0.03450642638324683 0 0.00018566414116473077 0.034632045015422025 0 8.1421252016805189e-05 0.034569312803958613 0 0.00030981333383804524 0.03450642638324683 0 0.00018566414116473077 0.034632045015422025 0 0.00023486534619586888 0.034723213087285855 0 0.00018566414116473077 0.034632045015422025 0 0.00023486534619586888 0.034723213087285855 0 0.0001118717194528694 0.0347274491779117 0 -0.00012676828603323061 0.034939486634913149 0 -0.00010839441320588819 0.034941582648344065 0 -8.3390995272844133e-05 0.034979406156622019 0 0.00030981333383804524 0.03450642638324683 0 0.00023486534619586888 0.034723213087285855 0 0.00054654364982885059 0.034856499566836674 0 0.00023486534619586888 0.034723213087285855 0 0.00054654364982885059 0.034856499566836674 0 1.1022269401393448e-05 0.034867661293350206 0 0.00010523422867799955 0.032223775203405601 0 -1.8260544301380287e-06 0.035272502191659699 0 0.00051300712068847463 0.028915333703788109 0 0.00060205558446183613 0.029033355765092611 0 0.00065030005446273297 0.028942529077982844 0 0.00010523422867799955 0.032223775203405601 0 -0.00083549228704707737 0.032145558820435176 0 6.7208604526311467e-05 0.029473768134525003 0 -0.00052584696447104996 0.029501661789875771 0 -0.00040200635820634051 0.029834480282199215 0 0.00030540090866619914 0.029246003811055077 0 0.00010523422867799955 0.032223775203405601 0 -0.00083549228704707737 0.032145558820435176 0 -0.0011103909023865745 0.032684910690270623 0 -0.00021800548822027197 0.03496228510585609 0 -0.00015254763811728186 0.03496124314365421 0 -0.00019659751743458513 0.034907974122527233 0 -0.00012676828603323061 0.034939486634913149 0 -0.0001324343333052602 0.034924902730663281 0 -0.00010839441320588819 0.034941582648344065 0 -0.00083549228704707737 0.032145558820435176 0 -0.00017292390980669267 0.034909270917691609 0 -0.00017292390980669267 0.034909270917691609 0 -8.50580339513952e-05 0.034945901410930798 0 -0.00015254763811728186 0.03496124314365421 0 -0.00014527500880214046 0.034884280416512051 0 -0.00019659751743458513 0.034907974122527233 0 -0.00015254763811728186 0.03496124314365421 0 -0.00014527500880214046 0.034884280416512051 0 -9.746343912281336e-05 0.034919670066861308 0 -0.00021800548822027197 0.03496228510585609 0 -0.00019659751743458513 0.034907974122527233 0 -0.00026558327344316688 0.034876643113659074 0 -0.00014527500880214046 0.034884280416512051 0 -0.00019659751743458513 0.034907974122527233 0 -0.00020296574677535761 0.034840814666065263 0 -0.00019659751743458513 0.034907974122527233 0 -0.00026558327344316688 0.034876643113659074 0 -0.00020296574677535761 0.034840814666065263 0 -0.0017898262564731739 0.030643003648916509 0 -6.7423675010996935e-05 0.030136325304335104 0 -0.00072573649156117094 0.031338322971939711 0 -0.0017898262564731739 0.030643003648916509 0 -0.0010099100448465715 0.029142775095254595 0 -6.7423675010996935e-05 0.030136325304335104 0 -0.0024667114383962719 0.028757437790964301 0 -0.0017898262564731739 0.030643003648916509 0 -0.0010099100448465715 0.029142775095254595 0 -0.0003280150087491748 0.02809182289879229 0 -0.0024667114383962719 0.028757437790964301 0 -0.0010099100448465715 0.029142775095254595 0 0.00063134910510266075 0.023013240348194217 0 0.00045099653005869919 0.02285229349653238 0 0.00045063800689793958 0.023153979327894723 0 0.00040750590894947413 0.025755726838744362 0 0.00016456884578373301 0.026845815874881603 0 -0.0003280150087491748 0.02809182289879229 0 -0.0010099100448465715 0.029142775095254595 0 -6.7423675010996935e-05 0.030136325304335104 0 -0.00072573649156117094 0.031338322971939711 0 -0.0011149886991522148 0.032620796368071886 0 0.00018765516155016854 0.032226192029592517 0 0.00016456884578373301 0.026845815874881603 0 0.00028301118173187592 0.02667551829878817 0 -6.7423675010996935e-05 0.030136325304335104 0 -0.00072573649156117094 0.031338322971939711 0 0.00018765516155016854 0.032226192029592517 0 -0.0017898262564731739 0.030643003648916509 0 -0.00072573649156117094 0.031338322971939711 0 -0.0011149886991522148 0.032620796368071886 0 -0.00026558327344316688 0.034876643113659074 0 -0.00035100815769982145 0.034739088547911599 0 -0.00025869257281155376 0.034782454213210051 0 -0.0011103909023865745 0.032684910690270623 0 -0.00069926951226213091 0.033696582019396279 0 -0.00035100815769982145 0.034739088547911599 0 -0.00025771020380315369 0.034673308781880081 0 -0.00025869257281155376 0.034782454213210051 0 -0.00035100815769982145 0.034739088547911599 0 -0.00025771020380315369 0.034673308781880081 0 -0.00029941922746620385 0.034543399412596439 0 -0.0011149886991522148 0.032620796368071886 0 0.00018765516155016854 0.032226192029592517 0 -0.00068951596431833138 0.033108467735259085 0 7.868279385882456e-05 0.032366336042026433 0 -0.00068951596431833138 0.033108467735259085 0 -0.00025359858779696958 0.033513508409087962 0 -0.00037980550908675413 0.027458404809062677 0 0.00028301118173187592 0.02667551829878817 0 0.00028301118173187592 0.02667551829878817 0 -0.0016237934288084062 0.033762844289231986 0 1.0436732206977922e-05 0.034183805628826155 0 7.868279385882456e-05 0.032366336042026433 0 -0.00025359858779696958 0.033513508409087962 0 -0.00069926951226213091 0.033696582019396279 0 -0.00038730493399819095 0.03429170757159191 0 -0.0011149886991522148 0.032620796368071886 0 -0.00068951596431833138 0.033108467735259085 0 -0.00034312952469793122 0.034324231783253362 0 -0.00068951596431833138 0.033108467735259085 0 -0.00025359858779696958 0.033513508409087962 0 -0.00034312952469793122 0.034324231783253362 0 1.0436732206977922e-05 0.034183805628826155 0 -0.00025359858779696958 0.033513508409087962 0 -0.00034312952469793122 0.034324231783253362 0 -0.00035100815769982145 0.034739088547911599 0 -0.00029941922746620385 0.034543399412596439 0 -0.00034312952469793122 0.034324231783253362 0 -0.00025771020380315369 0.034673308781880081 0 -0.00029941922746620385 0.034543399412596439 0 -0.00025261697558781983 0.034576189132723478 0 -0.00025261697558781983 0.034576189132723478 0 -0.00030255197347205874 0.034459003799051605 0 -0.00025153648092379906 0.034538694947454734 0 -0.00029941922746620385 0.034543399412596439 0 -0.00025261697558781983 0.034576189132723478 0 -0.00030255197347205874 0.034459003799051605 0 -0.00029941922746620385 0.034543399412596439 0 -0.00030255197347205874 0.034459003799051605 0 -0.00034312952469793122 0.034324231783253362 0 -0.00030255197347205874 0.034459003799051605 0 -0.00028401201223487494 0.034485237694439494 0 -0.00031041914823163789 0.034428236811490903 0 -0.00030255197347205874 0.034459003799051605 0 -0.00028401201223487494 0.034485237694439494 0 -0.00025153648092379906 0.034538694947454734 0 -0.00028401201223487494 0.034485237694439494 0 -0.00024953794912098182 0.034520833259068906 0 -0.00025153648092379906 0.034538694947454734 0 -0.00028401201223487494 0.034485237694439494 0 -0.00024953794912098182 0.034520833259068906 0 -0.00028177294277134202 0.034475787512261213 0 -0.00028401201223487494 0.034485237694439494 0 -0.00031041914823163789 0.034428236811490903 0 -0.00028177294277134202 0.034475787512261213 0 1.0436732206977922e-05 0.034183805628826155 0 -0.00031041914823163789 0.034428236811490903 0 -0.00020405115568069638 0.034442671126736081 0 1.0436732206977922e-05 0.034183805628826155 0 -0.00031041914823163789 0.034428236811490903 0 -0.00034312952469793122 0.034324231783253362 0 -0.00030255197347205874 0.034459003799051605 0 -0.00031041914823163789 0.034428236811490903 0 -0.00034312952469793122 0.034324231783253362 0 -0.00014407010540528869 0.034678306210492352 0 -0.00020741632829493844 0.034581241742770816 0 -0.0002011363947456115 0.034625226112739216 0 -0.00014407010540528869 0.034678306210492352 0 -9.2309498264519461e-05 0.034701790016727907 0 -0.0001610516816319542 0.03461717237718509 0 -0.00014407010540528869 0.034678306210492352 0 -0.00020741632829493844 0.034581241742770816 0 -0.0001610516816319542 0.03461717237718509 0 -0.00020741632829493844 0.034581241742770816 0 -0.00024953794912098182 0.034520833259068906 0 -0.00025153648092379906 0.034538694947454734 0 -0.00020741632829493844 0.034581241742770816 0 -0.00025153648092379906 0.034538694947454734 0 -0.0002011363947456115 0.034625226112739216 0 -0.00025261697558781983 0.034576189132723478 0 -0.0002011363947456115 0.034625226112739216 0 -0.00021278556891717916 0.034664057550475184 0 -0.00025261697558781983 0.034576189132723478 0 -0.00025153648092379906 0.034538694947454734 0 -0.0002011363947456115 0.034625226112739216 0 -0.00025771020380315369 0.034673308781880081 0 -0.00025261697558781983 0.034576189132723478 0 -0.00021278556891717916 0.034664057550475184 0 -0.0002011363947456115 0.034625226112739216 0 -0.00021278556891717916 0.034664057550475184 0 -0.00016381607418080281 0.034710807081699761 0 -0.00014407010540528869 0.034678306210492352 0 -0.00016381607418080281 0.034710807081699761 0 -9.3624485537047766e-05 0.034790326362811083 0 -0.00014407010540528869 0.034678306210492352 0 -0.0002011363947456115 0.034625226112739216 0 -0.00016381607418080281 0.034710807081699761 0 -0.00016381607418080281 0.034710807081699761 0 -0.00014533037783759901 0.034800508232339128 0 -9.3624485537047766e-05 0.034790326362811083 0 -0.00016381607418080281 0.034710807081699761 0 -0.00014533037783759901 0.034800508232339128 0 -0.00020565869763564722 0.034744825586592538 0 -0.00014533037783759901 0.034800508232339128 0 -0.00020565869763564722 0.034744825586592538 0 -0.00020296574677535761 0.034840814666065263 0 -0.00025771020380315369 0.034673308781880081 0 -0.00021278556891717916 0.034664057550475184 0 -0.00020565869763564722 0.034744825586592538 0 -0.00021278556891717916 0.034664057550475184 0 -0.00016381607418080281 0.034710807081699761 0 -0.00020565869763564722 0.034744825586592538 0 -0.00025771020380315369 0.034673308781880081 0 -0.00020565869763564722 0.034744825586592538 0 -0.00025869257281155376 0.034782454213210051 0 -0.00020565869763564722 0.034744825586592538 0 -0.00020296574677535761 0.034840814666065263 0 -0.00025869257281155376 0.034782454213210051 0 -0.00026558327344316688 0.034876643113659074 0 -0.00020296574677535761 0.034840814666065263 0 -0.00025869257281155376 0.034782454213210051 0 -0.00014527500880214046 0.034884280416512051 0 -0.00014533037783759901 0.034800508232339128 0 -0.00020296574677535761 0.034840814666065263 0 -0.00014527500880214046 0.034884280416512051 0 -0.00014533037783759901 0.034800508232339128 0 -9.3144594025598474e-05 0.034867709992461193 0 -9.3144594025598474e-05 0.034867709992461193 0 -4.1671875157580419e-05 0.034884027937262758 0 -5.973764335463717e-05 0.034922581029929407 0 -9.3144594025598474e-05 0.034867709992461193 0 -5.973764335463717e-05 0.034922581029929407 0 -9.746343912281336e-05 0.034919670066861308 0 -0.00014527500880214046 0.034884280416512051 0 -9.3144594025598474e-05 0.034867709992461193 0 -9.746343912281336e-05 0.034919670066861308 0 -3.2320780405863815e-05 0.034927652669083806 0 -4.1671875157580419e-05 0.034884027937262758 0 -5.973764335463717e-05 0.034922581029929407 0 -3.2320780405863815e-05 0.034927652669083806 0 -4.1671875157580419e-05 0.034884027937262758 0 -9.1504741481221122e-06 0.034944895947578679 0 -4.1671875157580419e-05 0.034884027937262758 0 -4.6991356980194589e-05 0.034839875659283155 0 -1.1126982800380484e-05 0.034901899965053947 0 -4.1671875157580419e-05 0.034884027937262758 0 -9.3624485537047766e-05 0.034790326362811083 0 -4.6991356980194589e-05 0.034839875659283155 0 -0.00014533037783759901 0.034800508232339128 0 -9.3144594025598474e-05 0.034867709992461193 0 -9.3624485537047766e-05 0.034790326362811083 0 -9.3144594025598474e-05 0.034867709992461193 0 -4.1671875157580419e-05 0.034884027937262758 0 -9.3624485537047766e-05 0.034790326362811083 0 -0.00014407010540528869 0.034678306210492352 0 -9.3624485537047766e-05 0.034790326362811083 0 -8.615717324684067e-05 0.034753881377662305 0 -9.3624485537047766e-05 0.034790326362811083 0 -4.6991356980194589e-05 0.034839875659283155 0 -8.615717324684067e-05 0.034753881377662305 0 -4.6991356980194589e-05 0.034839875659283155 0 -3.3080386543280858e-05 0.034816101668349288 0 -1.1126982800380484e-05 0.034901899965053947 0 -4.6991356980194589e-05 0.034839875659283155 0 -3.3080386543280858e-05 0.034816101668349288 0 -8.615717324684067e-05 0.034753881377662305 0 -3.3080386543280858e-05 0.034816101668349288 0 -2.1704506128250744e-05 0.034781860706976468 0 -9.2309498264519461e-05 0.034701790016727907 0 -3.3080386543280858e-05 0.034816101668349288 0 -2.1704506128250744e-05 0.034781860706976468 0 6.1321620395602712e-06 0.034887959020491868 0 -0.00014407010540528869 0.034678306210492352 0 -9.2309498264519461e-05 0.034701790016727907 0 -8.615717324684067e-05 0.034753881377662305 0 -3.3080386543280858e-05 0.034816101668349288 0 -9.2309498264519461e-05 0.034701790016727907 0 -8.615717324684067e-05 0.034753881377662305 0 1.4114487815489529e-08 0.034999856861959243 0 6.1321620395602712e-06 0.034887959020491868 0 4.8905939869946761e-06 0.034916893092681048 0 1.4114487815489529e-08 0.034999856861959243 0 6.1321620395602712e-06 0.034887959020491868 0 1.459874146823139e-08 0.034999896828560528 0 -3.3080386543280858e-05 0.034816101668349288 0 6.1321620395602712e-06 0.034887959020491868 0 -1.1126982800380484e-05 0.034901899965053947 0 6.1321620395602712e-06 0.034887959020491868 0 -1.1126982800380484e-05 0.034901899965053947 0 1.459874146823139e-08 0.034999896828560528 0 1.459874146823139e-08 0.034999896828560528 0 -9.1504741481221122e-06 0.034944895947578679 0 -6.4070258247505259e-09 0.034999947860060519 0 -4.1671875157580419e-05 0.034884027937262758 0 -1.1126982800380484e-05 0.034901899965053947 0 -9.1504741481221122e-06 0.034944895947578679 0 -1.1126982800380484e-05 0.034901899965053947 0 1.459874146823139e-08 0.034999896828560528 0 -9.1504741481221122e-06 0.034944895947578679 0 -9.1504741481221122e-06 0.034944895947578679 0 -4.7895543929887301e-06 0.034977490106080263 0 -2.5484624231367086e-05 0.034956857846129105 0 -3.2320780405863815e-05 0.034927652669083806 0 -9.1504741481221122e-06 0.034944895947578679 0 -2.5484624231367086e-05 0.034956857846129105 0 -9.1504741481221122e-06 0.034944895947578679 0 -6.4070258247505259e-09 0.034999947860060519 0 -4.7895543929887301e-06 0.034977490106080263 0 -6.4070258247505259e-09 0.034999947860060519 0 -4.7895543929887301e-06 0.034977490106080263 0 -2.8835593874941638e-09 0.034999960637650311 0 -4.7895543929887301e-06 0.034977490106080263 0 -2.8835593874941638e-09 0.034999960637650311 0 -1.1671403083082336e-05 0.034985338258251633 0 -2.8835593874941638e-09 0.034999960637650311 0 -1.1671403083082336e-05 0.034985338258251633 0 5.1877530967829905e-10 0.035000020047108095 0 -1.1671403083082336e-05 0.034985338258251633 0 -2.5484624231367086e-05 0.034956857846129105 0 -4.6354732324952873e-05 0.034968844007561853 0 -1.1671403083082336e-05 0.034985338258251633 0 -4.6354732324952873e-05 0.034968844007561853 0 -2.6564557281098843e-05 0.034999143858119433 0 -4.7895543929887301e-06 0.034977490106080263 0 -1.1671403083082336e-05 0.034985338258251633 0 -2.5484624231367086e-05 0.034956857846129105 0 -2.5484624231367086e-05 0.034956857846129105 0 -5.973764335463717e-05 0.034922581029929407 0 -4.6354732324952873e-05 0.034968844007561853 0 -3.2320780405863815e-05 0.034927652669083806 0 -2.5484624231367086e-05 0.034956857846129105 0 -5.973764335463717e-05 0.034922581029929407 0 -5.973764335463717e-05 0.034922581029929407 0 -8.6156824155754093e-05 0.034953826217239789 0 -4.6354732324952873e-05 0.034968844007561853 0 -5.973764335463717e-05 0.034922581029929407 0 -9.746343912281336e-05 0.034919670066861308 0 -8.6156824155754093e-05 0.034953826217239789 0 -8.6156824155754093e-05 0.034953826217239789 0 -4.6354732324952873e-05 0.034968844007561853 0 -8.3390995272844133e-05 0.034979406156622019 0 -0.00015254763811728186 0.03496124314365421 0 -9.746343912281336e-05 0.034919670066861308 0 -8.6156824155754093e-05 0.034953826217239789 0 -0.00010839441320588819 0.034941582648344065 0 -8.6156824155754093e-05 0.034953826217239789 0 -8.3390995272844133e-05 0.034979406156622019 0 -1.8260544301380287e-06 0.035272502191659699 0 -2.5810061374026658e-05 0.034907432698408576 0 4.0049093382217873e-06 0.034862355426925291 0 6.7190930356083782e-07 0.034894579073504933 0 -1.8646985046878973e-06 0.034901834931573048 0 -4.6354732324952873e-05 0.034968844007561853 0 -8.3390995272844133e-05 0.034979406156622019 0 -2.6564557281098843e-05 0.034999143858119433 0 1.1022269401393448e-05 0.034867661293350206 0 4.0049093382217873e-06 0.034862355426925291 0 -1.8646985046878973e-06 0.034901834931573048 0 1.1022269401393448e-05 0.034867661293350206 0 1.5077385893043421e-05 0.034820212726801358 0 4.0049093382217873e-06 0.034862355426925291 0 0.00023486534619586888 0.034723213087285855 0 1.1022269401393448e-05 0.034867661293350206 0 0.0001118717194528694 0.0347274491779117 0 1.1022269401393448e-05 0.034867661293350206 0 1.5077385893043421e-05 0.034820212726801358 0 0.0001118717194528694 0.0347274491779117 0 1.5077385893043421e-05 0.034820212726801358 0 4.2199020458778714e-06 0.034858111902552329 0 4.0049093382217873e-06 0.034862355426925291 0 0.00035447020713904324 0.03423927830482261 0 8.1421252016805189e-05 0.034569312803958613 0 -0.00010231378453173941 0.034390763470519836 0 1.5077385893043421e-05 0.034820212726801358 0 8.1421252016805189e-05 0.034569312803958613 0 -0.00010231378453173941 0.034390763470519836 0 -4.8992695214303051e-06 0.034765303631848814 0 4.6364826023963807e-06 0.034721546393616104 0 1.5077385893043421e-05 0.034820212726801358 0 0.0001118717194528694 0.0347274491779117 0 8.1421252016805189e-05 0.034569312803958613 0 0.00018566414116473077 0.034632045015422025 0 0.0001118717194528694 0.0347274491779117 0 8.1421252016805189e-05 0.034569312803958613 0 4.2199020458778714e-06 0.034858111902552329 0 4.0049093382217873e-06 0.034862355426925291 0 6.7190930356083782e-07 0.034894579073504933 0 4.6364826023963807e-06 0.034721546393616104 0 9.3287614493542086e-06 0.034973014247872185 0 1.146901407143542e-05 0.034989063508422867 0 3.6523397711299118e-05 0.03498765380853093 0 1.204895158704632e-05 0.034997183294894728 0 1.146901407143542e-05 0.034989063508422867 0 1.204895158704632e-05 0.034997183294894728 0 -4.4030704074095241e-10 0.034999976172502431 0 -3.9614944549733532e-06 0.035012605910601874 0 3.3479874813801488e-08 0.034999986051958372 0 9.3287614493542086e-06 0.034973014247872185 0 2.6385057670716537e-08 0.034999957600817998 0 1.204895158704632e-05 0.034997183294894728 0 -4.4030704074095241e-10 0.034999976172502431 0 1.2625286383986293e-09 0.035000020286154641 0 -1.3994832687931256e-08 0.034999915571509291 0 6.3159431428213323e-09 0.035000004001941809 0 -1.8646985046878973e-06 0.034901834931573048 0 -1.1671403083082336e-05 0.034985338258251633 0 5.1877530967829905e-10 0.035000020047108095 0 -2.6564557281098843e-05 0.034999143858119433 0 -6.7785083903642404e-09 0.035000006614214554 0 -2.5810061374026658e-05 0.034907432698408576 0 6.7190930356083782e-07 0.034894579073504933 0 -1.3994832687931256e-08 0.034999915571509291 0 -1.8646985046878973e-06 0.034901834931573048 0 5.5180836478620822e-05 0.034975700663991131 0 2.4282680549737365e-05 0.034979224369929049 0 4.037424511931935e-05 0.034938039998435734 0 0.0004510275088414398 0.032248143595081213 0 0.00035710988434092057 0.033760219378580626 0 0.0004510275088414398 0.032248143595081213 0 -1.0162526072781275e-06 0.035001547040591448 0 5.5180836478620822e-05 0.034975700663991131 0 2.4282680549737365e-05 0.034979224369929049 0 -3.0850242500533337e-10 0.035000060848130989 0 2.4282680549737365e-05 0.034979224369929049 0 1.1727086385611972e-08 0.03499988755482674 0 -3.0850242500533337e-10 0.035000060848130989 0 -1.0041608211646961e-05 0.034967772307150445 0 -8.9935592222451112e-09 0.034999974680826849 0 -9.6445712610168989e-06 0.034980088295995436 0 -8.9935592222451112e-09 0.034999974680826849 0 -9.6445712610168989e-06 0.034980088295995436 0 -5.1436483491906927e-10 0.034999960925787367 0 -1.0041608211646961e-05 0.034967772307150445 0 -9.6445712610168989e-06 0.034980088295995436 0 -2.6283281859588253e-05 0.034958812769180704 0 0.00079347821481198105 0.028666602326791416 0 0.00061502405285312198 0.028652860152014493 0 0.00069411186073086231 0.02841880664288517 0 0.0004510275088414398 0.032248143595081213 0 0.00029540577106598834 0.031569168740508434 0 0.00052125434772442593 0.028498574764053868 0 0.00061502405285312198 0.028652860152014493 0 0.00069411186073086231 0.02841880664288517 0 0.0005679721425523043 0.030550621806348485 0 0.00038832921396736707 0.030777197113778458 0 0.00011918478106937217 0.030557613291108142 0 0.00072062816750265645 0.029422660779511927 0 0.00027276463600048534 0.029790435910389091 0 0.00052125434772442593 0.028498574764053868 0 0.00061502405285312198 0.028652860152014493 0 0.0004447716694488644 0.028637984060144735 0 0.0004510275088414398 0.032248143595081213 0 0.00072062816750265645 0.029422660779511927 0 0.0010090482296092186 0.030527121904145225 0 0.0005679721425523043 0.030550621806348485 0 0.00085532120418028849 0.030803496843584167 0 0.0005679721425523043 0.030550621806348485 0 0.00085532120418028849 0.030803496843584167 0 0.00060702958989201504 0.030816617847593847 0 0.00085532120418028849 0.030803496843584167 0 0.00060702958989201504 0.030816617847593847 0 0.00067477193180810497 0.031204848148140459 0 0.00053581584623181447 0.030515842753569208 0 0.00036003730787524646 0.032369442140282513 0 0.00085532120418028849 0.030803496843584167 0 0.00067477193180810497 0.031204848148140459 0 0.00117868899426697 0.030943000533590982 0 0.00060702958989201504 0.030816617847593847 0 0.00048671928623215629 0.031003684504944864 0 0.00069862437398291453 0.031170140389872501 0 0.0005679721425523043 0.030550621806348485 0 0.00060702958989201504 0.030816617847593847 0 0.00038832921396736707 0.030777197113778458 0 0.00060702958989201504 0.030816617847593847 0 0.00038832921396736707 0.030777197113778458 0 0.00048671928623215629 0.031003684504944864 0 0.00048671928623215629 0.031003684504944864 0 0.0002957934919156537 0.031191320681119936 0 0.00019552289042265884 0.030918793551505536 0 0.00038832921396736707 0.030777197113778458 0 0.00048671928623215629 0.031003684504944864 0 0.00019552289042265884 0.030918793551505536 0 0.00048671928623215629 0.031003684504944864 0 0.00059367456427828922 0.031230294709315758 0 0.00069862437398291453 0.031170140389872501 0 0.00048671928623215629 0.031003684504944864 0 0.0002957934919156537 0.031191320681119936 0 0.00059367456427828922 0.031230294709315758 0 0.00059367456427828922 0.031230294709315758 0 0.00038249394894609984 0.03136764386106039 0 0.00048968896509427929 0.031566401486733148 0 0.0002957934919156537 0.031191320681119936 0 0.00059367456427828922 0.031230294709315758 0 0.00038249394894609984 0.03136764386106039 0 0.0002957934919156537 0.031191320681119936 0 0.00038249394894609984 0.03136764386106039 0 0.00015011040226768003 0.031483838049525099 0 -0.00016707896978557222 0.034783914013759042 0 -7.2529981533554449e-05 0.034838548169819003 0 -0.00012851504391074556 0.034921189839030253 0 0.00059367456427828922 0.031230294709315758 0 0.00071376324798579809 0.03116958294107448 0 0.00083115629577060538 0.031686022071587626 0 0.0007277556595185812 0.031904103054021103 0 0.00036003730787524646 0.032369442140282513 0 -7.2529981533554449e-05 0.034838548169819003 0 -2.5313042448857502e-05 0.034710502433542186 0 1.2363881319855509e-05 0.034838792201964654 0 0.00035710988434092057 0.033760219378580626 0 4.7133481063423476e-05 0.035080900911072618 0 -0.00016707896978557222 0.034783914013759042 0 -7.2529981533554449e-05 0.034838548169819003 0 -2.5313042448857502e-05 0.034710502433542186 0 -7.2529981533554449e-05 0.034838548169819003 0 1.2363881319855509e-05 0.034838792201964654 0 -2.5443064068813362e-05 0.034923084459017054 0 0.00036003730787524646 0.032369442140282513 0 0.00035710988434092057 0.033760219378580626 0 0.0010090482296092186 0.030527121904145225 0 0.00085532120418028849 0.030803496843584167 0 0.00117868899426697 0.030943000533590982 0 -8.023270144781324e-07 0.035000690014909387 0 0.00035710988434092057 0.033760219378580626 0 6.6576372206091629e-09 0.034999986941618079 0 3.1528869814659622e-06 0.034997300340743956 0 -1.3570637781920116e-09 0.035000012475159215 0 6.6576372206091629e-09 0.034999986941618079 0 5.8681590601872969e-06 0.034993614512043254 0 3.1528869814659622e-06 0.034997300340743956 0 2.4282680549737365e-05 0.034979224369929049 0 1.1727086385611972e-08 0.03499988755482674 0 4.037424511931935e-05 0.034938039998435734 0 3.1528869814659622e-06 0.034997300340743956 0 -1.3570637781920116e-09 0.035000012475159215 0 5.0222106541738949e-06 0.034996760014321164 0 -1.3570637781920116e-09 0.035000012475159215 0 5.0222106541738949e-06 0.034996760014321164 0 5.8651097783366393e-06 0.034987867584596245 0 5.8681590601872969e-06 0.034993614512043254 0 3.1528869814659622e-06 0.034997300340743956 0 5.0222106541738949e-06 0.034996760014321164 0 1.2363881319855509e-05 0.034838792201964654 0 5.8651097783366393e-06 0.034987867584596245 0 -2.5443064068813362e-05 0.034923084459017054 0 -1.3570637781920116e-09 0.035000012475159215 0 5.8651097783366393e-06 0.034987867584596245 0 1.9715830425545638e-08 0.034999908153476152 0 4.7133481063423476e-05 0.035080900911072618 0 -1.1928181115863003e-05 0.034917929860437395 0 5.8651097783366393e-06 0.034987867584596245 0 -2.5443064068813362e-05 0.034923084459017054 0 -1.5311285252239912e-05 0.034971402901491935 0 -7.2529981533554449e-05 0.034838548169819003 0 -2.5443064068813362e-05 0.034923084459017054 0 -0.00012851504391074556 0.034921189839030253 0 -2.5443064068813362e-05 0.034923084459017054 0 -4.6012384669124678e-05 0.034975247338960472 0 -0.00012851504391074556 0.034921189839030253 0 -2.5443064068813362e-05 0.034923084459017054 0 -4.6012384669124678e-05 0.034975247338960472 0 -1.5311285252239912e-05 0.034971402901491935 0 -4.6012384669124678e-05 0.034975247338960472 0 -7.2256789365273881e-06 0.034992923349453017 0 -2.6597831856111497e-05 0.03501616120993073 0 -4.6012384669124678e-05 0.034975247338960472 0 -2.6597831856111497e-05 0.03501616120993073 0 -8.971961227076016e-05 0.03501145714390104 0 -4.6012384669124678e-05 0.034975247338960472 0 -8.971961227076016e-05 0.03501145714390104 0 -0.00012851504391074556 0.034921189839030253 0 1.9715830425545638e-08 0.034999908153476152 0 -7.2256789365273881e-06 0.034992923349453017 0 -1.4317308218527783e-08 0.035000069394242495 0 5.8651097783366393e-06 0.034987867584596245 0 1.9715830425545638e-08 0.034999908153476152 0 -7.2256789365273881e-06 0.034992923349453017 0 5.8651097783366393e-06 0.034987867584596245 0 -1.5311285252239912e-05 0.034971402901491935 0 -7.2256789365273881e-06 0.034992923349453017 0 -4.6012384669124678e-05 0.034975247338960472 0 -1.5311285252239912e-05 0.034971402901491935 0 -7.2256789365273881e-06 0.034992923349453017 0 -2.437369576990919e-08 0.034999850383500189 0 -1.915120251804644e-06 0.034932489174155597 0 4.8905939869946761e-06 0.034916893092681048 0 2.5237072444032818e-12 0.034999986894036439 0 -4.2474083511583784e-05 0.034967518918780902 0 -7.2256789365273881e-06 0.034992923349453017 0 -1.4317308218527783e-08 0.035000069394242495 0 -2.6597831856111497e-05 0.03501616120993073 0 -4.2474083511583784e-05 0.034967518918780902 0 0.00036594888875240018 0.034048927703948677 0 -1.915120251804644e-06 0.034932489174155597 0 3.4017911044290758e-05 0.034805248015022515 0 8.3859331137529409e-05 0.03493662134395998 0 -2.1704506128250744e-05 0.034781860706976468 0 6.1321620395602712e-06 0.034887959020491868 0 3.4017911044290758e-05 0.034805248015022515 0 6.1321620395602712e-06 0.034887959020491868 0 3.4017911044290758e-05 0.034805248015022515 0 4.8905939869946761e-06 0.034916893092681048 0 -1.915120251804644e-06 0.034932489174155597 0 3.4017911044290758e-05 0.034805248015022515 0 4.8905939869946761e-06 0.034916893092681048 0 1.4114487815489529e-08 0.034999856861959243 0 -2.437369576990919e-08 0.034999850383500189 0 4.8905939869946761e-06 0.034916893092681048 0 -9.2309498264519461e-05 0.034701790016727907 0 -6.2372689445223275e-05 0.034652696618267212 0 -0.0001444119769559503 0.034582889239384976 0 -2.1704506128250744e-05 0.034781860706976468 0 3.4017911044290758e-05 0.034805248015022515 0 -6.2372689445223275e-05 0.034652696618267212 0 -2.1704506128250744e-05 0.034781860706976468 0 -9.2309498264519461e-05 0.034701790016727907 0 -6.2372689445223275e-05 0.034652696618267212 0 5.5898212717865274e-05 0.03502522712356447 0 0.00036594888875240018 0.034048927703948677 0 -6.2372689445223275e-05 0.034652696618267212 0 3.6566442854882914e-05 0.034557433243152282 0 -0.00011271393597967971 0.03448076632354441 0 3.4017911044290758e-05 0.034805248015022515 0 -6.2372689445223275e-05 0.034652696618267212 0 3.6566442854882914e-05 0.034557433243152282 0 -6.2372689445223275e-05 0.034652696618267212 0 -0.00011271393597967971 0.03448076632354441 0 -0.0001444119769559503 0.034582889239384976 0 0.00036594888875240018 0.034048927703948677 0 0.00013900799992777951 0.033182650014495392 0 0.00093954035018495785 0.032214614143110901 0 0.00038035028893707761 0.032060318313749184 0 0.00083115629577060538 0.031686022071587626 0 0.00036594888875240018 0.034048927703948677 0 0.00035308237874150149 0.033334033720605671 0 0.00059367456427828922 0.031230294709315758 0 0.00083115629577060538 0.031686022071587626 0 0.00048968896509427929 0.031566401486733148 0 0.00036003730787524646 0.032369442140282513 0 0.00035308237874150149 0.033334033720605671 0 0.00038035028893707761 0.032060318313749184 0 0.00048968896509427929 0.031566401486733148 0 0.00015011040226768003 0.031483838049525099 0 0.00038035028893707761 0.032060318313749184 0 0.00083115629577060538 0.031686022071587626 0 0.00048968896509427929 0.031566401486733148 0 0.00038249394894609984 0.03136764386106039 0 0.00048968896509427929 0.031566401486733148 0 0.00015011040226768003 0.031483838049525099 0 0.00015011040226768003 0.031483838049525099 0 -0.00025134737810586066 0.031496127181236899 0 -0.00015771418659384776 0.031907066233149026 0 -0.00025134737810586066 0.031496127181236899 0 -0.00015771418659384776 0.031907066233149026 0 -0.0007000412468296291 0.031757899246455001 0 -0.0001994405608453876 0.034406745920922528 0 -0.00021661174157301192 0.034465241470378279 0 -0.00024689796511069757 0.034412917980284424 0 -0.0001994405608453876 0.034406745920922528 0 -0.00024689796511069757 0.034412917980284424 0 -0.00026437104252805715 0.034333521369736109 0 -0.00018793584399005113 0.033384437656292308 0 -0.00017407368491737706 0.030811107234204421 0 0.00013900799992777951 0.033182650014495392 0 -0.00018793584399005113 0.033384437656292308 0 0.00038035028893707761 0.032060318313749184 0 0.00015011040226768003 0.031483838049525099 0 -0.00015771418659384776 0.031907066233149026 0 -0.00011271393597967971 0.03448076632354441 0 -0.0001994405608453876 0.034406745920922528 0 -0.00017368907955463356 0.034488062909508156 0 -0.00011271393597967971 0.03448076632354441 0 -0.00017368907955463356 0.034488062909508156 0 -0.0001444119769559503 0.034582889239384976 0 -0.00017368907955463356 0.034488062909508156 0 -0.00020876367069205955 0.034540248560895319 0 -0.0001444119769559503 0.034582889239384976 0 -0.0001994405608453876 0.034406745920922528 0 -0.00017368907955463356 0.034488062909508156 0 -0.00021661174157301192 0.034465241470378279 0 -0.00017368907955463356 0.034488062909508156 0 -0.00021661174157301192 0.034465241470378279 0 -0.00020876367069205955 0.034540248560895319 0 -0.00021661174157301192 0.034465241470378279 0 -0.00020876367069205955 0.034540248560895319 0 -0.00024755743051577085 0.034471153920716327 0 -0.00021661174157301192 0.034465241470378279 0 -0.00024755743051577085 0.034471153920716327 0 -0.00024689796511069757 0.034412917980284424 0 -0.00020876367069205955 0.034540248560895319 0 -0.00025387522965882221 0.034495802579896026 0 -0.00024755743051577085 0.034471153920716327 0 -0.00024953794912098182 0.034520833259068906 0 -0.00020876367069205955 0.034540248560895319 0 -0.00025387522965882221 0.034495802579896026 0 -0.00020741632829493844 0.034581241742770816 0 -0.00024953794912098182 0.034520833259068906 0 -0.00020876367069205955 0.034540248560895319 0 -0.00020741632829493844 0.034581241742770816 0 -0.00020876367069205955 0.034540248560895319 0 -0.0001610516816319542 0.03461717237718509 0 -0.00020876367069205955 0.034540248560895319 0 -0.0001610516816319542 0.03461717237718509 0 -0.0001444119769559503 0.034582889239384976 0 -9.2309498264519461e-05 0.034701790016727907 0 -0.0001610516816319542 0.03461717237718509 0 -0.0001444119769559503 0.034582889239384976 0 -0.00028623603195234657 0.034454648012246826 0 -0.00028159565613547667 0.034446684050210549 0 -0.00020405115568069638 0.034442671126736081 0 -0.00031041914823163789 0.034428236811490903 0 -0.00028623603195234657 0.034454648012246826 0 -0.00020405115568069638 0.034442671126736081 0 -0.00028623603195234657 0.034454648012246826 0 -0.00027370668479057708 0.034465561839070596 0 -0.00028159565613547667 0.034446684050210549 0 -0.00031041914823163789 0.034428236811490903 0 -0.00028623603195234657 0.034454648012246826 0 -0.00028177294277134202 0.034475787512261213 0 -0.00024953794912098182 0.034520833259068906 0 -0.00028177294277134202 0.034475787512261213 0 -0.00025387522965882221 0.034495802579896026 0 -0.00028177294277134202 0.034475787512261213 0 -0.00025387522965882221 0.034495802579896026 0 -0.00027370668479057708 0.034465561839070596 0 -0.00025387522965882221 0.034495802579896026 0 -0.00027370668479057708 0.034465561839070596 0 -0.00024755743051577085 0.034471153920716327 0 -0.00028623603195234657 0.034454648012246826 0 -0.00028177294277134202 0.034475787512261213 0 -0.00027370668479057708 0.034465561839070596 0 -0.00027370668479057708 0.034465561839070596 0 -0.00026673179557713735 0.034443193856382864 0 -0.00028159565613547667 0.034446684050210549 0 -0.00026673179557713735 0.034443193856382864 0 -0.00027483297565865876 0.034417567542103934 0 -0.00028159565613547667 0.034446684050210549 0 -0.00027370668479057708 0.034465561839070596 0 -0.00026673179557713735 0.034443193856382864 0 -0.00024755743051577085 0.034471153920716327 0 -0.00026673179557713735 0.034443193856382864 0 -0.00024755743051577085 0.034471153920716327 0 -0.00024689796511069757 0.034412917980284424 0 -0.00026673179557713735 0.034443193856382864 0 -0.00027483297565865876 0.034417567542103934 0 -0.00024689796511069757 0.034412917980284424 0 -0.00028159565613547667 0.034446684050210549 0 -0.00030598879232880471 0.034411860385973346 0 -0.00020405115568069638 0.034442671126736081 0 -0.00027483297565865876 0.034417567542103934 0 -0.00028159565613547667 0.034446684050210549 0 -0.00030598879232880471 0.034411860385973346 0 -0.001856165908968302 0.025442429102590054 0 -0.0019589607245663015 0.02490903650270904 0 -0.0013877857260595366 0.024433903197267567 0 -0.00030598879232880471 0.034411860385973346 0 -0.00026714408984606383 0.034353853369569948 0 -0.000305743992657467 0.034280541879608682 0 -0.0013929536183875967 0.031142279809065081 0 -0.0017014621298597783 0.026783153441926028 0 -0.00027483297565865876 0.034417567542103934 0 -0.00030598879232880471 0.034411860385973346 0 -0.00026714408984606383 0.034353853369569948 0 -0.0019589607245663015 0.02490903650270904 0 -0.0019285806970807551 0.024563713482985666 0 -0.0013877857260595366 0.024433903197267567 0 -0.0019589607245663015 0.02490903650270904 0 -0.0019285806970807551 0.024563713482985666 0 -0.0022338718836916534 0.024597341407380482 0 -0.00027483297565865876 0.034417567542103934 0 -0.00024689796511069757 0.034412917980284424 0 -0.00026714408984606383 0.034353853369569948 0 -0.00024689796511069757 0.034412917980284424 0 -0.00026714408984606383 0.034353853369569948 0 -0.00026437104252805715 0.034333521369736109 0 -0.00017407368491737706 0.030811107234204421 0 -0.0017014621298597783 0.026783153441926028 0 -0.00026714408984606383 0.034353853369569948 0 -0.00024975283696144877 0.034292602530670707 0 -0.000305743992657467 0.034280541879608682 0 -0.00062743122863393504 0.033390723335849207 0 -0.00017407368491737706 0.030811107234204421 0 -0.0012839005687292409 0.025515359490325393 0 -0.001864733401025906 0.025385879688174497 0 -0.0013026872837021027 0.024128810980816599 0 -0.0017014621298597783 0.026783153441926028 0 -0.0010904278096581824 0.023600258030836797 0 -0.0012839005687292409 0.025515359490325393 0 -0.00083211205648522977 0.023594184671305508 0 -0.0013026872837021027 0.024128810980816599 0 -0.00025134737810586066 0.031496127181236899 0 -0.0007000412468296291 0.031757899246455001 0 -0.00052922140785547755 0.03115374559735002 0 -0.00017407368491737706 0.030811107234204421 0 -0.00073216828501394653 0.02692371578160295 0 -0.0014964351228064787 0.024409813082850056 0 -0.0017123736535237482 0.023888207617966752 0 -0.0011503301496419796 0.023669034418610901 0 -0.0017014621298597783 0.026783153441926028 0 -0.0021767434508070146 0.02449120577483677 0 -0.0014964351228064787 0.024409813082850056 0 -0.0017123736535237482 0.023888207617966752 0 -0.0021489644398725244 0.024254821484527657 0 -0.0019285806970807551 0.024563713482985666 0 -0.0013877857260595366 0.024433903197267567 0 -0.0021489644398725244 0.024254821484527657 0 -0.0017123736535237482 0.023888207617966752 0 -0.0020662442301827956 0.023925630998285357 0 -0.0019992393955636165 0.023557552491479318 0 -0.0017123736535237482 0.023888207617966752 0 -0.0020662442301827956 0.023925630998285357 0 -0.0021489644398725244 0.024254821484527657 0 -0.0019992393955636165 0.023557552491479318 0 -0.0015513443940672082 0.023510175939068047 0 -0.0017400948988876945 0.023203042463420743 0 -0.0017123736535237482 0.023888207617966752 0 -0.0019992393955636165 0.023557552491479318 0 -0.0015513443940672082 0.023510175939068047 0 -0.0017123736535237482 0.023888207617966752 0 -0.0015513443940672082 0.023510175939068047 0 -0.0011503301496419796 0.023669034418610901 0 -0.0017400948988876945 0.023203042463420743 0 -0.001524433357190139 0.022902935652976106 0 -0.0012530653990881766 0.02320282165106629 0 -0.0015513443940672082 0.023510175939068047 0 -0.0017400948988876945 0.023203042463420743 0 -0.0012530653990881766 0.02320282165106629 0 -0.0017400948988876945 0.023203042463420743 0 -0.0019914748697693204 0.022918002148529515 0 -0.0022439718643208879 0.023180610973787041 0 -0.0019992393955636165 0.023557552491479318 0 -0.0017400948988876945 0.023203042463420743 0 -0.0022439718643208879 0.023180610973787041 0 -0.0019914748697693204 0.022918002148529515 0 -0.0017824445071564588 0.022629283893308056 0 -0.0023201261443304743 0.022608446735039457 0 -0.0012991488866682486 0.022498485051887802 0 -0.0017715132862627079 0.022231331157674512 0 -0.0017824445071564588 0.022629283893308056 0 -0.0012352500461355633 0.022572012781162245 0 -0.0020752084741769467 0.022153331365715151 0 -0.0019914748697693204 0.022918002148529515 0 -0.001524433357190139 0.022902935652976106 0 -0.0017824445071564588 0.022629283893308056 0 -0.0017400948988876945 0.023203042463420743 0 -0.0019914748697693204 0.022918002148529515 0 -0.001524433357190139 0.022902935652976106 0 -0.001524433357190139 0.022902935652976106 0 -0.0017824445071564588 0.022629283893308056 0 -0.0012352500461355633 0.022572012781162245 0 -0.0017824445071564588 0.022629283893308056 0 -0.0020752084741769467 0.022153331365715151 0 -0.0023201261443304743 0.022608446735039457 0 -0.00086969388877807061 0.02244611232316978 0 -0.00080552018138323005 0.023044086297159309 0 -0.00050676416427230815 0.022115777539874187 0 -0.00080552018138323005 0.023044086297159309 0 -0.00083211205648522977 0.023594184671305508 0 -0.00050676416427230815 0.022115777539874187 0 -0.00086969388877807061 0.02244611232316978 0 -0.0012352500461355633 0.022572012781162245 0 -0.00080552018138323005 0.023044086297159309 0 -0.00086969388877807061 0.02244611232316978 0 -0.0012352500461355633 0.022572012781162245 0 -0.00098677484942771431 0.022273329844220893 0 -0.0012352500461355633 0.022572012781162245 0 -0.0011487763837463732 0.022178349861991378 0 -0.00098677484942771431 0.022273329844220893 0 -0.001524433357190139 0.022902935652976106 0 -0.0012352500461355633 0.022572012781162245 0 -0.0012530653990881766 0.02320282165106629 0 -0.0012352500461355633 0.022572012781162245 0 -0.00080552018138323005 0.023044086297159309 0 -0.0012530653990881766 0.02320282165106629 0 -0.00080552018138323005 0.023044086297159309 0 -0.00083211205648522977 0.023594184671305508 0 -0.0013026872837021027 0.024128810980816599 0 -0.00080552018138323005 0.023044086297159309 0 -0.0012530653990881766 0.02320282165106629 0 -0.0011503301496419796 0.023669034418610901 0 -0.00089700579705279462 0.023228198581546542 0 -0.0010904278096581824 0.023600258030836797 0 -0.0015513443940672082 0.023510175939068047 0 -0.0012530653990881766 0.02320282165106629 0 -0.0011503301496419796 0.023669034418610901 0 -0.00025134737810586066 0.031496127181236899 0 -0.00052922140785547755 0.03115374559735002 0 -2.5976989397647652e-05 0.031180364956937191 0 -0.00052922140785547755 0.03115374559735002 0 -2.5976989397647652e-05 0.031180364956937191 0 -7.3384140132739194e-05 0.030835747922196025 0 0.00015011040226768003 0.031483838049525099 0 -0.00025134737810586066 0.031496127181236899 0 -2.5976989397647652e-05 0.031180364956937191 0 0.0002957934919156537 0.031191320681119936 0 0.00015011040226768003 0.031483838049525099 0 -2.5976989397647652e-05 0.031180364956937191 0 0.0002957934919156537 0.031191320681119936 0 -2.5976989397647652e-05 0.031180364956937191 0 0.00019552289042265884 0.030918793551505536 0 0.00019552289042265884 0.030918793551505536 0 -7.3384140132739194e-05 0.030835747922196025 0 0.00011918478106937217 0.030557613291108142 0 0.00038832921396736707 0.030777197113778458 0 0.00019552289042265884 0.030918793551505536 0 0.00011918478106937217 0.030557613291108142 0 -2.5976989397647652e-05 0.031180364956937191 0 0.00019552289042265884 0.030918793551505536 0 -7.3384140132739194e-05 0.030835747922196025 0 -0.00073216828501394653 0.02692371578160295 0 -0.00038571016928366948 0.026532363849929921 0 -0.00052922140785547755 0.03115374559735002 0 -7.3384140132739194e-05 0.030835747922196025 0 -0.00035636810516787173 0.030567952950411318 0 -0.00067131429764464288 0.022181270467846546 0 -0.00063810626925028596 0.021750013916335308 0 -0.00090133511255018929 0.021854432288628295 0 -7.3384140132739194e-05 0.030835747922196025 0 -0.00035636810516787173 0.030567952950411318 0 0.00011918478106937217 0.030557613291108142 0 -0.00086969388877807061 0.02244611232316978 0 -0.00075526122586061907 0.022181216601802497 0 -0.00050676416427230815 0.022115777539874187 0 -0.0003709328401903578 0.025786488061203195 0 -0.00038571016928366948 0.026532363849929921 0 -0.00038571016928366948 0.026532363849929921 0 0.00027276463600048534 0.029790435910389091 0 -0.00075526122586061907 0.022181216601802497 0 -0.00067131429764464288 0.022181270467846546 0 -0.00092639241413448382 0.022039862995463507 0 0.00027456578684711356 0.028629211517648627 0 0.00042045424679736847 0.028530497459257332 0 0.00031522338592424428 0.02850196481754599 0 -0.00038571016928366948 0.026532363849929921 0 -4.6903415074730291e-05 0.024726978648256702 0 0.00027456578684711356 0.028629211517648627 0 0.0004447716694488644 0.028637984060144735 0 0.00042045424679736847 0.028530497459257332 0 0.00052125434772442593 0.028498574764053868 0 0.0004447716694488644 0.028637984060144735 0 0.00042045424679736847 0.028530497459257332 0 0.00042045424679736847 0.028530497459257332 0 0.00043818737657429148 0.028425470951396074 0 0.00035000656250871131 0.028431643006652883 0 0.00052125434772442593 0.028498574764053868 0 0.00042045424679736847 0.028530497459257332 0 0.00043818737657429148 0.028425470951396074 0 0.00031522338592424428 0.02850196481754599 0 0.00035000656250871131 0.028431643006652883 0 0.00035170709196406927 0.028335018178904065 0 -0.00063810626925028596 0.021750013916335308 0 -0.00087458402719093632 0.021525381108134862 0 -0.00057264973083344633 0.021349120844753135 0 -4.6903415074730291e-05 0.024726978648256702 0 0.00017188623890633777 0.026356133959832939 0 -0.00063810626925028596 0.021750013916335308 0 -0.00087458402719093632 0.021525381108134862 0 -0.00090133511255018929 0.021854432288628295 0 0.00042045424679736847 0.028530497459257332 0 0.00031522338592424428 0.02850196481754599 0 0.00035000656250871131 0.028431643006652883 0 -0.00087458402719093632 0.021525381108134862 0 -0.0010949906002945323 0.021671551748408891 0 -0.0011478228093615764 0.021404502932622731 0 -0.00087458402719093632 0.021525381108134862 0 -0.0010949906002945323 0.021671551748408891 0 -0.00090133511255018929 0.021854432288628295 0 -0.0010949906002945323 0.021671551748408891 0 -0.0013405663973047764 0.021613228768232094 0 -0.0012076133892115397 0.021908431592824622 0 -0.0010949906002945323 0.021671551748408891 0 -0.00090133511255018929 0.021854432288628295 0 -0.0012076133892115397 0.021908431592824622 0 -0.0010949906002945323 0.021671551748408891 0 -0.0013405663973047764 0.021613228768232094 0 -0.0011478228093615764 0.021404502932622731 0 -0.0013405663973047764 0.021613228768232094 0 -0.001425966591417826 0.021310212531530478 0 -0.0011478228093615764 0.021404502932622731 0 -0.0013405663973047764 0.021613228768232094 0 -0.0016099625450964957 0.021559824150015904 0 -0.001425966591417826 0.021310212531530478 0 -0.0016099625450964957 0.021559824150015904 0 -0.0015223017787402411 0.021854523984517506 0 -0.0016843492875338872 0.021738164145106903 0 -0.0013405663973047764 0.021613228768232094 0 -0.0016099625450964957 0.021559824150015904 0 -0.0015223017787402411 0.021854523984517506 0 -0.0013405663973047764 0.021613228768232094 0 -0.0015223017787402411 0.021854523984517506 0 -0.0012076133892115397 0.021908431592824622 0 -0.0012352500461355633 0.022572012781162245 0 -0.00164191481202619 0.022114102376437884 0 -0.0013598846857678861 0.022110353985974371 0 -0.0015223017787402411 0.021854523984517506 0 -0.0013598846857678861 0.022110353985974371 0 -0.0012076133892115397 0.021908431592824622 0 -0.0015223017787402411 0.021854523984517506 0 -0.00164191481202619 0.022114102376437884 0 -0.0017299088944066467 0.021853758615695999 0 -0.0015223017787402411 0.021854523984517506 0 -0.00164191481202619 0.022114102376437884 0 -0.0013598846857678861 0.022110353985974371 0 -0.0012352500461355633 0.022572012781162245 0 -0.0013598846857678861 0.022110353985974371 0 -0.0011487763837463732 0.022178349861991378 0 -0.0013598846857678861 0.022110353985974371 0 -0.0011487763837463732 0.022178349861991378 0 -0.0012076133892115397 0.021908431592824622 0 -0.00086969388877807061 0.02244611232316978 0 -0.00075526122586061907 0.022181216601802497 0 -0.00098677484942771431 0.022273329844220893 0 -0.00075526122586061907 0.022181216601802497 0 -0.00098677484942771431 0.022273329844220893 0 -0.00092639241413448382 0.022039862995463507 0 -0.0011487763837463732 0.022178349861991378 0 -0.00098677484942771431 0.022273329844220893 0 -0.00092639241413448382 0.022039862995463507 0 -0.00067131429764464288 0.022181270467846546 0 -0.00092639241413448382 0.022039862995463507 0 -0.00090133511255018929 0.021854432288628295 0 -0.00092639241413448382 0.022039862995463507 0 -0.00090133511255018929 0.021854432288628295 0 -0.0012076133892115397 0.021908431592824622 0 -0.0011487763837463732 0.022178349861991378 0 -0.00092639241413448382 0.022039862995463507 0 -0.0012076133892115397 0.021908431592824622 0 -0.0022302847778837413 0.018177602662417865 0 -0.0023094911043241941 0.018165146075933673 0 -0.0023405679970881187 0.018102826403511057 0 -0.0024858273251941372 0.020798831529820493 0 -0.0023317338222320068 0.021358476777160761 0 -0.0022302847778837413 0.018177602662417865 0 -0.0023094911043241941 0.018165146075933673 0 -0.0022918890745090149 0.018210150798473351 0 -0.0024858273251941372 0.020798831529820493 0 -0.0025294487941935613 0.020385554791701552 0 -0.0022302847778837413 0.018177602662417865 0 -0.0022918890745090149 0.018210150798473351 0 -0.0022236250818230404 0.018247215171533344 0 -0.0030295335296548352 0.021639017830137591 0 -0.0025294487941935613 0.020385554791701552 0 -0.0020752084741769467 0.022153331365715151 0 -0.0029132759870941919 0.02172655984484544 0 -0.0025180902461382016 0.02203704173442211 0 -0.00164191481202619 0.022114102376437884 0 -0.0019609733686989797 0.021820891295190992 0 -0.0017299088944066467 0.021853758615695999 0 -0.0017715132862627079 0.022231331157674512 0 -0.0024858273251941372 0.020798831529820493 0 -0.0029132759870941919 0.02172655984484544 0 -0.0025180902461382016 0.02203704173442211 0 -0.0028390275167116423 0.022277638857104074 0 -0.0020752084741769467 0.022153331365715151 0 -0.0025180902461382016 0.02203704173442211 0 -0.0023201261443304743 0.022608446735039457 0 -0.0015223017787402411 0.021854523984517506 0 -0.0017299088944066467 0.021853758615695999 0 -0.0016843492875338872 0.021738164145106903 0 -0.0017299088944066467 0.021853758615695999 0 -0.0018183378094611372 0.021735303497446429 0 -0.0016843492875338872 0.021738164145106903 0 -0.0019609733686989797 0.021820891295190992 0 -0.0017299088944066467 0.021853758615695999 0 -0.0018183378094611372 0.021735303497446429 0 -0.0019609733686989797 0.021820891295190992 0 -0.0018183378094611372 0.021735303497446429 0 -0.0019573588738960169 0.021711667526200993 0 -0.0018183378094611372 0.021735303497446429 0 -0.0018653167659561881 0.021620599633432266 0 -0.0019573588738960169 0.021711667526200993 0 -0.0018183378094611372 0.021735303497446429 0 -0.0018653167659561881 0.021620599633432266 0 -0.001754242523633591 0.02162448911408003 0 -0.0018183378094611372 0.021735303497446429 0 -0.0016843492875338872 0.021738164145106903 0 -0.001754242523633591 0.02162448911408003 0 -0.0016099625450964957 0.021559824150015904 0 -0.0016843492875338872 0.021738164145106903 0 -0.001754242523633591 0.02162448911408003 0 -0.0016099625450964957 0.021559824150015904 0 -0.001754242523633591 0.02162448911408003 0 -0.0017857235533937064 0.021471473108057488 0 -0.0016099625450964957 0.021559824150015904 0 -0.0017857235533937064 0.021471473108057488 0 -0.0016297787026314328 0.021280902040626579 0 -0.0017857235533937064 0.021471473108057488 0 -0.001971681769865701 0.021533000315807162 0 -0.0018971439896533866 0.021364609333575858 0 -0.0018653167659561881 0.021620599633432266 0 -0.0017857235533937064 0.021471473108057488 0 -0.001971681769865701 0.021533000315807162 0 -0.0018653167659561881 0.021620599633432266 0 -0.001754242523633591 0.02162448911408003 0 -0.0017857235533937064 0.021471473108057488 0 -0.001971681769865701 0.021533000315807162 0 -0.0020570433867086913 0.021401681145214999 0 -0.0018971439896533866 0.021364609333575858 0 -0.0024858273251941372 0.020798831529820493 0 -0.0021907727549269618 0.019987236189915176 0 -0.0019482243964917892 0.021792964899575346 0 -0.0019573588738960169 0.021711667526200993 0 -0.0022445079449941356 0.021606296325524632 0 -0.001971681769865701 0.021533000315807162 0 -0.0019573588738960169 0.021711667526200993 0 -0.0022445079449941356 0.021606296325524632 0 -0.0018653167659561881 0.021620599633432266 0 -0.001971681769865701 0.021533000315807162 0 -0.0019573588738960169 0.021711667526200993 0 -0.001971681769865701 0.021533000315807162 0 -0.0022445079449941356 0.021606296325524632 0 -0.0020570433867086913 0.021401681145214999 0 -0.0021907727549269618 0.019987236189915176 0 -0.0021055061781285801 0.017011256962123512 0 -0.0022445079449941356 0.021606296325524632 0 -0.0022069085312670139 0.02128098520050813 0 -0.0020570433867086913 0.021401681145214999 0 -0.0022445079449941356 0.021606296325524632 0 -0.002574224811644541 0.021414275123256075 0 -0.0024434640304734066 0.021274924880605797 0 -0.0023405679970881187 0.018102826403511057 0 -0.0024667211974855781 0.018027886104088595 0 -0.0023786170751191413 0.01817101156451088 0 -0.0021055061781285801 0.017011256962123512 0 -0.0024842796860599673 0.015660998777787326 0 -0.0020072526487831407 0.014234011791499083 0 -0.0019228683869410386 0.013882140553707826 0 -0.0018887487765798924 0.014287798386594537 0 -0.0020072526487831407 0.014234011791499083 0 -0.0019228683869410386 0.013882140553707826 0 -0.0022650332588400827 0.013830930152130943 0 -0.0021055061781285801 0.017011256962123512 0 -0.0020962698751162451 0.014111592519586215 0 -0.0019228683869410386 0.013882140553707826 0 -0.0022650332588400827 0.013830930152130943 0 -0.0020834051780031729 0.013513074969768319 0 -0.0019228683869410386 0.013882140553707826 0 -0.0020834051780031729 0.013513074969768319 0 -0.0017301410318468779 0.013518317694545623 0 -0.0022918890745090149 0.018210150798473351 0 -0.0023786170751191413 0.01817101156451088 0 -0.002295889290224614 0.018292064594112496 0 -0.0023094911043241941 0.018165146075933673 0 -0.0022918890745090149 0.018210150798473351 0 -0.0023786170751191413 0.01817101156451088 0 -0.0023094911043241941 0.018165146075933673 0 -0.0023405679970881187 0.018102826403511057 0 -0.0023786170751191413 0.01817101156451088 0 -0.0024842796860599673 0.015660998777787326 0 -0.0019962702593831058 0.016852288373228115 0 -0.0022650332588400827 0.013830930152130943 0 -0.0020834051780031729 0.013513074969768319 0 -0.0025190260630623324 0.013446346041386762 0 -0.0020834051780031729 0.013513074969768319 0 -0.0022543409470777119 0.013218196224255198 0 -0.0025190260630623324 0.013446346041386762 0 -0.0017447800956119463 0.015064134392736503 0 -0.0019962702593831058 0.016852288373228115 0 -0.0020834051780031729 0.013513074969768319 0 -0.001845331295510849 0.013218635169568215 0 -0.0017301410318468779 0.013518317694545623 0 -0.0020834051780031729 0.013513074969768319 0 -0.001845331295510849 0.013218635169568215 0 -0.0022543409470777119 0.013218196224255198 0 -0.001845331295510849 0.013218635169568215 0 -0.0019873286616887095 0.012993279918541279 0 -0.0022543409470777119 0.013218196224255198 0 -0.0018176008620302887 0.015232700767523491 0 -0.0017447800956119463 0.015064134392736503 0 -0.0018176008620302887 0.015232700767523491 0 -0.0011613497519532123 0.017647236096732587 0 -0.0016211442124881062 0.017145317260619675 0 -0.0015421692603174535 0.017098420079849769 0 -0.0014991362837440837 0.017173208523605436 0 -0.0015421692603174535 0.017098420079849769 0 -0.0014673051673533351 0.017120226559557184 0 -0.0014566954423383194 0.017031254201252784 0 -0.0015421692603174535 0.017098420079849769 0 -0.0014991362837440837 0.017173208523605436 0 -0.0014673051673533351 0.017120226559557184 0 -0.0014673051673533351 0.017120226559557184 0 -0.0014566954423383194 0.017031254201252784 0 -0.0013596230392064399 0.017198914051885648 0 -0.0019962702593831058 0.016852288373228115 0 -0.0016209011735102232 0.019845978335059987 0 -0.0011613497519532123 0.017647236096732587 0 -0.0016209011735102232 0.019845978335059987 0 -0.0025164667430627257 0.019511705601063824 0 -0.002014251426140974 0.019715760057768823 0 -0.0020522091669739717 0.020249882500961793 0 -0.0014991362837440837 0.017173208523605436 0 -0.0014673051673533351 0.017120226559557184 0 -0.0013596230392064399 0.017198914051885648 0 -0.0025164667430627257 0.019511705601063824 0 -0.002088050771960386 0.019188147102517011 0 -0.002014251426140974 0.019715760057768823 0 -0.0019962702593831058 0.016852288373228115 0 -0.0025294487941935613 0.020385554791701552 0 -0.0022918890745090149 0.018210150798473351 0 -0.002295889290224614 0.018292064594112496 0 -0.0022236250818230404 0.018247215171533344 0 -0.0025180902461382016 0.02203704173442211 0 -0.0028477148884572959 0.022293511765072559 0 -0.0023201261443304743 0.022608446735039457 0 -0.0028477148884572959 0.022293511765072559 0 -0.0023201261443304743 0.022608446735039457 0 -0.0027490392416363485 0.023009148561380508 0 -0.0025294487941935613 0.020385554791701552 0 -0.0023523110190541018 0.021487750220631693 0 -0.0023201261443304743 0.022608446735039457 0 -0.0022439718643208879 0.023180610973787041 0 -0.0027490392416363485 0.023009148561380508 0 -0.0019914748697693204 0.022918002148529515 0 -0.0023201261443304743 0.022608446735039457 0 -0.0022439718643208879 0.023180610973787041 0 -0.0022439718643208879 0.023180610973787041 0 -0.0027490392416363485 0.023009148561380508 0 -0.0023854124131834653 0.023433974195458115 0 -0.0023523110190541018 0.021487750220631693 0 -0.0020428288562524201 0.021428156274328695 0 -0.0027490392416363485 0.023009148561380508 0 -0.0026485854336508003 0.023706276353808921 0 -0.0023854124131834653 0.023433974195458115 0 -0.0020428288562524201 0.021428156274328695 0 -0.0023743067229365276 0.022424112998349292 0 -0.002014251426140974 0.019715760057768823 0 -0.0019420167797795532 0.020252761389340974 0 -0.0020522091669739717 0.020249882500961793 0 -0.0020428288562524201 0.021428156274328695 0 -0.0016209011735102232 0.019845978335059987 0 -0.0026485854336508003 0.023706276353808921 0 -0.0022886600010792305 0.023714578496815093 0 -0.0023854124131834653 0.023433974195458115 0 -0.0019992393955636165 0.023557552491479318 0 -0.0022439718643208879 0.023180610973787041 0 -0.0023854124131834653 0.023433974195458115 0 -0.0019992393955636165 0.023557552491479318 0 -0.0022886600010792305 0.023714578496815093 0 -0.0023854124131834653 0.023433974195458115 0 -0.0020662442301827956 0.023925630998285357 0 -0.0026117516195060639 0.023982234212852709 0 -0.0021489644398725244 0.024254821484527657 0 -0.0020662442301827956 0.023925630998285357 0 -0.0022886600010792305 0.023714578496815093 0 -0.0026117516195060639 0.023982234212852709 0 -0.0020662442301827956 0.023925630998285357 0 -0.0019992393955636165 0.023557552491479318 0 -0.0022886600010792305 0.023714578496815093 0 -0.0020428288562524201 0.021428156274328695 0 -0.0018545298013581998 0.02183033899132545 0 -0.0026471715582282221 0.023701016172956151 0 -0.0022886600010792305 0.023714578496815093 0 -0.0026117516195060639 0.023982234212852709 0 -0.00150990158579351 0.020570272830763459 0 -0.0019226691116994658 0.020565332078540607 0 -0.0014044719458927123 0.021376500040625586 0 -0.0016209011735102232 0.019845978335059987 0 -0.0018545298013581998 0.02183033899132545 0 -0.0018545298013581998 0.02183033899132545 0 -0.0019410424110133519 0.024735877356094626 0 -0.0026117516195060639 0.023982234212852709 0 -0.0021489644398725244 0.024254821484527657 0 -0.0022338718836916534 0.024597341407380482 0 -0.00090159763929829613 0.018241749175209879 0 -0.0009191283100997129 0.018888370394362225 0 -0.00089536902608095936 0.01819488681098709 0 -0.00089210556127554885 0.018589418488205185 0 -0.0010652502533699008 0.018376724053759938 0 -0.0011435494751282547 0.018100205302908567 0 -0.00066410951627174104 0.018173106831732143 0 -0.00089536902608095936 0.01819488681098709 0 -0.00049608880802963322 0.018386245335837156 0 -0.00089536902608095936 0.01819488681098709 0 -0.00097275269569735629 0.019208940877515308 0 -0.0011435494751282547 0.018100205302908567 0 -0.00089536902608095936 0.01819488681098709 0 -0.0010652502533699008 0.018376724053759938 0 -0.00066410951627174104 0.018173106831732143 0 -0.00049608880802963322 0.018386245335837156 0 -0.00089536902608095936 0.01819488681098709 0 -0.0018545298013581998 0.02183033899132545 0 -0.0015222027246263789 0.021612050113740115 0 -0.00049608880802963322 0.018386245335837156 0 -0.00097275269569735629 0.019208940877515308 0 -0.00043188561317942826 0.019299171838323415 0 -0.0026922367672620163 0.02386661107373398 0 -0.0022338718836916534 0.024597341407380482 0 -0.002504782862010552 0.025192757222643261 0 -0.0019285806970807551 0.024563713482985666 0 -0.0021489644398725244 0.024254821484527657 0 -0.0022338718836916534 0.024597341407380482 0 -0.0019589607245663015 0.02490903650270904 0 -0.0022338718836916534 0.024597341407380482 0 -0.002504782862010552 0.025192757222643261 0 -0.001856165908968302 0.025442429102590054 0 -0.0019589607245663015 0.02490903650270904 0 -0.002504782862010552 0.025192757222643261 0 -0.00043188561317942826 0.019299171838323415 0 -0.00067356009725014633 0.019632988978255387 0 -0.00049378672224611488 0.019915186510228708 0 -0.0015222027246263789 0.021612050113740115 0 -0.0010923528117775263 0.02553593103739641 0 -0.0013929536183875967 0.031142279809065081 0 -0.0010923528117775263 0.02553593103739641 0 -0.001856165908968302 0.025442429102590054 0 -0.002504782862010552 0.025192757222643261 0 -0.0023118039625672016 0.026430011851325437 0 -0.00097275269569735629 0.019208940877515308 0 -0.00067356009725014633 0.019632988978255387 0 -0.00087674462779489923 0.019905641674069496 0 -0.00089210556127554885 0.018589418488205185 0 -0.00080285777858711278 0.019161382251748252 0 -0.0011557469841678458 0.018647531779764789 0 -0.00097275269569735629 0.019208940877515308 0 -0.00043188561317942826 0.019299171838323415 0 -0.00067356009725014633 0.019632988978255387 0 -0.0009191283100997129 0.018888370394362225 0 -0.00084443066841310846 0.019537868438151421 0 -0.00072371887365949537 0.020137347738247255 0 -0.00087674462779489923 0.019905641674069496 0 -0.00049378672224611488 0.019915186510228708 0 -0.00067356009725014633 0.019632988978255387 0 -0.00087674462779489923 0.019905641674069496 0 -0.00049378672224611488 0.019915186510228708 0 -0.001334993586919191 0.019311454914907624 0 -0.001394827450283058 0.018913234496562258 0 -0.0017590058004918006 0.019138925690497188 0 -0.0016402193200545042 0.019678766507145111 0 -0.001334993586919191 0.019311454914907624 0 -0.0017590058004918006 0.019138925690497188 0 -0.0010223835200779314 0.01955554644974155 0 -0.00080285777858711278 0.019161382251748252 0 -0.001334993586919191 0.019311454914907624 0 -0.00080285777858711278 0.019161382251748252 0 -0.001334993586919191 0.019311454914907624 0 -0.001394827450283058 0.018913234496562258 0 -0.00080285777858711278 0.019161382251748252 0 -0.001394827450283058 0.018913234496562258 0 -0.0011557469841678458 0.018647531779764789 0 -0.001394827450283058 0.018913234496562258 0 -0.0015237539432016662 0.018507603177882807 0 -0.0011557469841678458 0.018647531779764789 0 -0.001394827450283058 0.018913234496562258 0 -0.0015237539432016662 0.018507603177882807 0 -0.0018343708547917924 0.018755216512739828 0 -0.001394827450283058 0.018913234496562258 0 -0.0018343708547917924 0.018755216512739828 0 -0.0017590058004918006 0.019138925690497188 0 -0.00089210556127554885 0.018589418488205185 0 -0.0011557469841678458 0.018647531779764789 0 -0.0010652502533699008 0.018376724053759938 0 -0.0015237539432016662 0.018507603177882807 0 -0.0011557469841678458 0.018647531779764789 0 -0.0012705036577332761 0.018350948007849865 0 -0.0011557469841678458 0.018647531779764789 0 -0.0010652502533699008 0.018376724053759938 0 -0.0012705036577332761 0.018350948007849865 0 -0.0014977842629313961 0.018045769311002505 0 -0.0011435494751282547 0.018100205302908567 0 -0.0012705036577332761 0.018350948007849865 0 -0.0011435494751282547 0.018100205302908567 0 -0.0010652502533699008 0.018376724053759938 0 -0.0012705036577332761 0.018350948007849865 0 -0.0014977842629313961 0.018045769311002505 0 -0.0015237539432016662 0.018507603177882807 0 -0.0019760690292919621 0.018365866164799436 0 -0.0014977842629313961 0.018045769311002505 0 -0.0015237539432016662 0.018507603177882807 0 -0.0012705036577332761 0.018350948007849865 0 -0.0018176008620302887 0.015232700767523491 0 -0.0020218034625514099 0.015921773393948072 0 -0.0019760690292919621 0.018365866164799436 0 -0.0018343708547917924 0.018755216512739828 0 -0.0024227698251720014 0.018666305133457808 0 -0.0022626894852658796 0.012978473682760283 0 -0.0016081008311947865 0.012442117358948393 0 -0.001751208716165156 0.012957939568398483 0 -0.0016081008311947865 0.012442117358948393 0 -0.0011645468552846166 0.012462403636934167 0 -0.0012397282141481717 0.012927278899452648 0 -0.0016081008311947865 0.012442117358948393 0 -0.0012397282141481717 0.012927278899452648 0 -0.001751208716165156 0.012957939568398483 0 -0.0020218034625514099 0.015921773393948072 0 -0.001134337202718539 0.012718747278296295 0 -0.0016081008311947865 0.012442117358948393 0 -0.00098804139267164742 0.011951845668652485 0 -0.0011645468552846166 0.012462403636934167 0 -0.0015237539432016662 0.018507603177882807 0 -0.0019760690292919621 0.018365866164799436 0 -0.0018343708547917924 0.018755216512739828 0 -0.0018343708547917924 0.018755216512739828 0 -0.0020084554096430557 0.019067418106939123 0 -0.0024227698251720014 0.018666305133457808 0 -0.0012441289042503822 0.013083203669932607 0 -0.001134337202718539 0.012718747278296295 0 -0.0012317427748678893 0.014932325761039299 0 -0.0012441289042503822 0.013083203669932607 0 -0.0016607596270271339 0.019310632114085961 0 -0.0020084554096430557 0.019067418106939123 0 -0.0017590058004918006 0.019138925690497188 0 -0.0018343708547917924 0.018755216512739828 0 -0.0020084554096430557 0.019067418106939123 0 -0.0017590058004918006 0.019138925690497188 0 -0.00047269885224351845 0.0074905474781597333 0 -0.00048747368291433255 0.0074953729512538519 0 -0.0004672277949621919 0.007505434532375929 0 -0.00047269885224351845 0.0074905474781597333 0 -0.00040055210569922166 0.0074823748210036053 0 -0.0004672277949621919 0.007505434532375929 0 -0.00025171293724211141 0.0072964414152581949 0 -0.00079777714459812704 0.010188713742895188 0 -0.00083320057201953393 0.0072143253176619971 0 -0.00078155203452161086 0.0069575647902191664 0 -0.00093724404743773652 0.0070422946584151663 0 -0.00025171293724211141 0.0072964414152581949 0 -0.001134337202718539 0.012718747278296295 0 0.00019865573912640209 0.0086391282586569338 0 -0.0017399712053870167 0.010174349068997784 0 -0.0005595696505852944 0.011096489054997086 0 -0.00078155203452161086 0.0069575647902191664 0 -0.00093724404743773652 0.0070422946584151663 0 -0.00086133457223506874 0.0069069939269630759 0 -0.00066006547419600759 0.012209607703750267 0 -0.00088823269930973141 0.012284287806467956 0 -0.00074867228140625087 0.012507266696773064 0 -0.00079777714459812704 0.010188713742895188 0 -0.00099881667798549525 0.012802760321958553 0 -0.0006445076931971324 0.012115839459522982 0 -0.00074867228140625087 0.012507266696773064 0 -0.00034441735418453079 0.012360628866804333 0 -0.00079777714459812704 0.010188713742895188 0 -0.00087547232920176944 0.0089864389197003881 0 -0.00098804139267164742 0.011951845668652485 0 -0.0011645468552846166 0.012462403636934167 0 -0.00088823269930973141 0.012284287806467956 0 -0.0011645468552846166 0.012462403636934167 0 -0.00088823269930973141 0.012284287806467956 0 -0.00074867228140625087 0.012507266696773064 0 -0.001134337202718539 0.012718747278296295 0 -0.00079777714459812704 0.010188713742895188 0 -0.00098804139267164742 0.011951845668652485 0 -0.00066006547419600759 0.012209607703750267 0 -0.00088823269930973141 0.012284287806467956 0 -0.0011645468552846166 0.012462403636934167 0 -0.00093434964829137751 0.012767341956852378 0 -0.00074867228140625087 0.012507266696773064 0 -0.0011645468552846166 0.012462403636934167 0 -0.00093434964829137751 0.012767341956852378 0 -0.0012397282141481717 0.012927278899452648 0 -0.00093434964829137751 0.012767341956852378 0 -0.00074867228140625087 0.012507266696773064 0 -0.00068780547420924662 0.012714108731306947 0 -0.00093434964829137751 0.012767341956852378 0 -0.00068780547420924662 0.012714108731306947 0 -0.00082197581863465167 0.012926731041314438 0 -0.00068780547420924662 0.012714108731306947 0 -0.0005645507778258617 0.0129983291334521 0 -0.00034441735418453079 0.012360628866804333 0 -0.0014681335398790858 0.0085618040969039806 0 -0.00087547232920176944 0.0089864389197003881 0 -0.00074867228140625087 0.012507266696773064 0 -0.00068780547420924662 0.012714108731306947 0 -0.00034441735418453079 0.012360628866804333 0 -0.0014681335398790858 0.0085618040969039806 0 -0.0015367206541718169 0.0057564905897642587 0 -0.0005645507778258617 0.0129983291334521 0 -0.00091843225725336797 0.0131701697423939 0 -0.00082197581863465167 0.012926731041314438 0 -0.00068780547420924662 0.012714108731306947 0 -0.0005645507778258617 0.0129983291334521 0 -0.00082197581863465167 0.012926731041314438 0 -0.00088926944101941601 0.0086395416727094599 0 -0.0011356894211181725 0.0089438021217776009 0 -0.0011810132518415811 0.0087833468850938654 0 -0.0014681335398790858 0.0085618040969039806 0 -0.00090845343004414931 0.011623956933765639 0 -0.0024472657692526539 0.0040905121212382652 0 -0.0027053729213585469 0.0035209576503054808 0 -0.0029415912510899114 0.0039061114104136279 0 -0.00088926944101941601 0.0086395416727094599 0 -0.0010211767077986315 0.0090651012843043621 0 -0.0011356894211181725 0.0089438021217776009 0 -0.0024472657692526539 0.0040905121212382652 0 -0.0027053729213585469 0.0035209576503054808 0 -0.0022010560978444433 0.0032154903022796723 0 -0.0027053729213585469 0.0035209576503054808 0 -0.0022010560978444433 0.0032154903022796723 0 -0.0028000047357684367 0.0029901750254759225 0 -0.00092375632819292571 0.013160910297153466 0 -0.0012835111932458707 0.013259165581427422 0 -0.0012598616822157649 0.013545928993925229 0 -0.00090845343004414931 0.011623956933765639 0 -0.0014143201990059174 0.011318820368463342 0 -0.0012349004293473569 0.0090509067063846409 0 -0.0011810132518415811 0.0087833468850938654 0 -0.0015438664451742478 0.0091675633388808523 0 -0.0012349004293473569 0.0090509067063846409 0 -0.0015438664451742478 0.0091675633388808523 0 -0.0012927832776739273 0.0092814250283087922 0 -0.0010211767077986315 0.0090651012843043621 0 -0.0012349004293473569 0.0090509067063846409 0 -0.0012927832776739273 0.0092814250283087922 0 -0.0010211767077986315 0.0090651012843043621 0 -0.0012349004293473569 0.0090509067063846409 0 -0.0011356894211181725 0.0089438021217776009 0 -0.0012349004293473569 0.0090509067063846409 0 -0.0011356894211181725 0.0089438021217776009 0 -0.0011810132518415811 0.0087833468850938654 0 -0.0011300589268426638 0.013078324504444657 0 -0.00091843225725336797 0.0131701697423939 0 -0.0012835111932458707 0.013259165581427422 0 -0.0011300589268426638 0.013078324504444657 0 -0.00091843225725336797 0.0131701697423939 0 -0.0010164340507393258 0.012968502041899891 0 -0.00090845343004414931 0.011623956933765639 0 -0.001360194238329565 0.013217748280922982 0 -0.00091843225725336797 0.0131701697423939 0 -0.00082197581863465167 0.012926731041314438 0 -0.0010164340507393258 0.012968502041899891 0 -0.00093434964829137751 0.012767341956852378 0 -0.00082197581863465167 0.012926731041314438 0 -0.0010164340507393258 0.012968502041899891 0 -0.00093434964829137751 0.012767341956852378 0 -0.0010164340507393258 0.012968502041899891 0 -0.0012397282141481717 0.012927278899452648 0 -0.0011300589268426638 0.013078324504444657 0 -0.0010164340507393258 0.012968502041899891 0 -0.0012397282141481717 0.012927278899452648 0 -0.0012645704524171361 0.012941290539583775 0 -0.001733276843352395 0.012917634782592774 0 -0.0012397282141481717 0.012927278899452648 0 -0.0016109565429730654 0.012969711919416862 0 -0.0015124593254927207 0.013181185698116204 0 -0.0012397282141481717 0.012927278899452648 0 -0.0015124593254927207 0.013181185698116204 0 -0.0012835111932458707 0.013259165581427422 0 -0.0011300589268426638 0.013078324504444657 0 -0.0012397282141481717 0.012927278899452648 0 -0.0012835111932458707 0.013259165581427422 0 -0.0018176008620302887 0.015232700767523491 0 -0.001733276843352395 0.012917634782592774 0 -0.001845331295510849 0.013218635169568215 0 -0.0019873286616887095 0.012993279918541279 0 -0.0016109565429730654 0.012969711919416862 0 -0.001845331295510849 0.013218635169568215 0 -0.0016109565429730654 0.012969711919416862 0 -0.0015124593254927207 0.013181185698116204 0 -0.001845331295510849 0.013218635169568215 0 -0.0015124593254927207 0.013181185698116204 0 -0.0017301410318468779 0.013518317694545623 0 -0.0015124593254927207 0.013181185698116204 0 -0.0017301410318468779 0.013518317694545623 0 -0.001484622111975349 0.013427602992531725 0 -0.0015124593254927207 0.013181185698116204 0 -0.0012835111932458707 0.013259165581427422 0 -0.001484622111975349 0.013427602992531725 0 -0.0012835111932458707 0.013259165581427422 0 -0.001484622111975349 0.013427602992531725 0 -0.0012598616822157649 0.013545928993925229 0 -0.0015438664451742478 0.0091675633388808523 0 -0.0015306942367943823 0.009601351159992522 0 -0.0019371332612063794 0.0096009054257456001 0 -0.001484622111975349 0.013427602992531725 0 -0.0012598616822157649 0.013545928993925229 0 -0.0015723751239142744 0.013913833477471401 0 -0.0014143201990059174 0.011318820368463342 0 -0.0016432327908603773 0.011482626702454915 0 -0.0015438664451742478 0.0091675633388808523 0 -0.0015306942367943823 0.009601351159992522 0 -0.0012927832776739273 0.0092814250283087922 0 -0.0019228683869410386 0.013882140553707826 0 -0.0017301410318468779 0.013518317694545623 0 -0.0015723751239142744 0.013913833477471401 0 -0.0017301410318468779 0.013518317694545623 0 -0.001484622111975349 0.013427602992531725 0 -0.0015723751239142744 0.013913833477471401 0 -0.0016432327908603773 0.011482626702454915 0 -0.0020962698751162451 0.014111592519586215 0 -0.0019228683869410386 0.013882140553707826 0 -0.0015723751239142744 0.013913833477471401 0 -0.0018887487765798924 0.014287798386594537 0 -0.0019371332612063794 0.0096009054257456001 0 -0.00183218077220205 0.0099376966196635282 0 -0.0023340027720170535 0.010068285341729176 0 -0.0015306942367943823 0.009601351159992522 0 -0.0019371332612063794 0.0096009054257456001 0 -0.00183218077220205 0.0099376966196635282 0 -0.0015306942367943823 0.009601351159992522 0 -0.00183218077220205 0.0099376966196635282 0 -0.0013013107940117322 0.010050075284822614 0 -0.0015306942367943823 0.009601351159992522 0 -0.0011527334754565426 0.009539119897903096 0 -0.0013013107940117322 0.010050075284822614 0 -0.0016224738319313278 0.0060343952487233871 0 -0.0012390755451181044 0.0060900690384528295 0 -0.0020183978663186452 0.0024099988631662416 0 -0.0018503185569943711 0.0017401880756947429 0 -0.0019404963280476128 0.0017755968442266993 0 -0.0022847168350508431 0.0019557823237487692 0 -0.0020183978663186452 0.0024099988631662416 0 -0.0019404963280476128 0.0017755968442266993 0 -0.0022847168350508431 0.0019557823237487692 0 -0.0026550357404256557 0.0021179853642111419 0 -0.0020183978663186452 0.0024099988631662416 0 -0.0026550357404256557 0.0021179853642111419 0 -0.0025238454275392738 0.0015344736039680403 0 -0.0029855250723119101 0.0019181465165751328 0 -0.0022847168350508431 0.0019557823237487692 0 -0.0026550357404256557 0.0021179853642111419 0 -0.0025238454275392738 0.0015344736039680403 0 -0.0026550357404256557 0.0021179853642111419 0 -0.0025153835757434025 0.0026187121942300908 0 -0.0020183978663186452 0.0024099988631662416 0 -0.0022010560978444433 0.0032154903022796723 0 -0.0025153835757434025 0.0026187121942300908 0 -0.0020183978663186452 0.0024099988631662416 0 -0.0026550357404256557 0.0021179853642111419 0 -0.0025153835757434025 0.0026187121942300908 0 -0.0029109481281601977 0.0024061810834937756 0 -0.0025153835757434025 0.0026187121942300908 0 -0.0028000047357684367 0.0029901750254759225 0 -0.0029109481281601977 0.0024061810834937756 0 -0.0022010560978444433 0.0032154903022796723 0 -0.0025153835757434025 0.0026187121942300908 0 -0.0028000047357684367 0.0029901750254759225 0 -0.0015367206541718169 0.0057564905897642587 0 -0.0016224738319313278 0.0060343952487233871 0 -0.0010211767077986315 0.0090651012843043621 0 -0.0012927832776739273 0.0092814250283087922 0 -0.0011527334754565426 0.009539119897903096 0 -0.0015306942367943823 0.009601351159992522 0 -0.0012927832776739273 0.0092814250283087922 0 -0.0011527334754565426 0.009539119897903096 0 -0.00042971423069379066 0.016953631129572534 0 -0.00047178276627665071 0.017716378365641754 0 -0.00018127974897275562 0.017704278000188884 0 -0.0016119408991070476 0.012122176896400171 0 -0.00078726963516454916 0.0086787350523457665 0 -0.00042971423069379066 0.016953631129572534 0 0.00024619948436056143 0.017375993410607027 0 -0.00018127974897275562 0.017704278000188884 0 -0.00073289426677448889 0.001193035049075595 0 -0.0018705280970263615 0.00056382672565649899 0 -0.0015183110689809441 0.0012091421135831855 0 -0.0018705280970263615 0.00056382672565649899 0 -0.0024071441250944846 0.00076354233097468524 0 -0.0030974659612588466 -4.598577837786033e-05 0 -0.0018705280970263615 0.00056382672565649899 0 -0.0024071441250944846 0.00076354233097468524 0 -0.0015183110689809441 0.0012091421135831855 0 -0.0022847168350508431 0.0019557823237487692 0 -0.0025238454275392738 0.0015344736039680403 0 -0.0019404963280476128 0.0017755968442266993 0 -0.0024071441250944846 0.00076354233097468524 0 -0.0020826300223450124 0.0016350695887423731 0 -0.0015183110689809441 0.0012091421135831855 0 -0.0022142158460348631 0.00096594375719500746 0 -0.00075194320944181766 0.0070759440610813247 0 -0.0025238454275392738 0.0015344736039680403 0 -0.0017152348384469615 0.0013795425037588988 0 -0.0019404963280476128 0.0017755968442266993 0 -0.0020826300223450124 0.0016350695887423731 0 -0.0015183110689809441 0.0012091421135831855 0 -0.0007867864112656417 0.0013528622172730696 0 -0.00075194320944181766 0.0070759440610813247 0 -0.0012390755451181044 0.0060900690384528295 0 -0.00073289426677448889 0.001193035049075595 0 -0.0015183110689809441 0.0012091421135831855 0 -0.0007867864112656417 0.0013528622172730696 0 -0.00076250334013109201 0.0094138695056258069 0 -0.00037010018716529417 0.0081917019113510198 0 -0.0012114456133866258 0.0095608116970027131 0 -0.0016119408991070476 0.012122176896400171 0 -0.00075194320944181766 0.0070759440610813247 0 -0.0017152348384469615 0.0013795425037588988 0 -0.0018500536794699329 0.0017450930710721001 0 -0.0019404963280476128 0.0017755968442266993 0 -0.0012390755451181044 0.0060900690384528295 0 -0.0010967506358899343 0.005638437960060725 0 -0.0012390755451181044 0.0060900690384528295 0 -0.0019737124078828914 0.012033966566912342 0 -0.00037010018716529417 0.0081917019113510198 0 -0.0023272658930875113 0.0090391570013514961 0 -0.0012114456133866258 0.0095608116970027131 0 -0.00183218077220205 0.0099376966196635282 0 -0.0013013107940117322 0.010050075284822614 0 -0.001795653294529749 0.010295026567852941 0 -0.0019737124078828914 0.012033966566912342 0 -0.0015262682412223276 0.011814183231461049 0 -0.00075194320944181766 0.0070759440610813247 0 -0.0015262682412223276 0.011814183231461049 0 -0.0025838622982637238 0.0095526836549024753 0 -0.0030046185746410957 0.010844501071667954 0 -0.0011180857974381366 0.010257569738281314 0 -0.0019737124078828914 0.012033966566912342 0 -0.0020962698751162451 0.014111592519586215 0 -0.0022709288733292225 0.014775344890903127 0 -0.0020593153712315107 0.014703636109785789 0 -0.0019661472937000908 0.014942631460331502 0 -0.00183218077220205 0.0099376966196635282 0 -0.001795653294529749 0.010295026567852941 0 -0.0023340027720170535 0.010068285341729176 0 -0.0019737124078828914 0.012033966566912342 0 -0.0022775690065085247 0.016735911480509215 0 -0.0018166404268301726 0.019064323850176559 0 -0.0017237051332821109 0.019210380645962043 0 -0.0019374599608666895 0.019103778801308879 0 -0.0018656442867831281 0.018983518495301183 0 -0.0018203016222910504 0.019055505169834546 0 -0.0019374599608666895 0.019103778801308879 0 -0.0022775690065085247 0.016735911480509215 0 -0.0022503147867687554 0.01820534314450235 0 -0.0018618796537150741 0.014247273382889421 0 -0.0026020896527642352 0.014579100985314484 0 -0.0024024990607624695 0.01488978783857158 0 -0.0022503147867687554 0.01820534314450235 0 -0.0014917946675974576 0.019616713018824578 0 -0.002394116498294845 0.018513733208526229 0 -0.001191150193195805 0.019465548285595661 0 -0.0017890022207856029 0.019466634251909965 0 -0.0022503147867687554 0.01820534314450235 0 -0.001989956300655227 0.018770034712132462 0 -0.00069366937322403149 0.017990073779968269 0 -0.002394116498294845 0.018513733208526229 0 -0.001191150193195805 0.019465548285595661 0 -0.0015262682412223276 0.011814183231461049 0 -0.0022503147867687554 0.01820534314450235 0 -0.0018618796537150741 0.014247273382889421 0 -0.0012973442126193789 0.014506370693874155 0 -0.0024024990607624695 0.01488978783857158 0 -0.0016119408991070476 0.012122176896400171 0 -0.00096064351645692157 0.020336274754717942 0 -0.00041613024923769766 0.018127832226899235 0 -0.00069366937322403149 0.017990073779968269 0 -0.001191150193195805 0.019465548285595661 0 -0.0016119408991070476 0.012122176896400171 0 -0.0015262682412223276 0.011814183231461049 0 -0.00042971423069379066 0.016953631129572534 0 -0.00047178276627665071 0.017716378365641754 0 -0.00079716768470889786 0.017948983937310332 0 -0.00041613024923769766 0.018127832226899235 0 -0.001191150193195805 0.019465548285595661 0 -0.0012471375538923666 0.020292609763759632 0 -0.0013984609634535748 0.019554215826615845 0 -0.0014917946675974576 0.019616713018824578 0 -0.001191150193195805 0.019465548285595661 0 -0.0013477630555101048 0.020124127978079186 0 -0.0017976427437402516 0.019479143122513188 0 -0.0013427417974406783 0.020000484973657286 0 -0.0014917946675974576 0.019616713018824578 0 -0.001191150193195805 0.019465548285595661 0 -0.0012471375538923666 0.020292609763759632 0 -0.0013477630555101048 0.020124127978079186 0 -0.0012471375538923666 0.020292609763759632 0 -0.0013477630555101048 0.020124127978079186 0 -0.001201763661699344 0.020196831253780592 0 -0.00047178276627665071 0.017716378365641754 0 -0.00056037734532395111 0.017981772101165996 0 -0.00037226179176929789 0.018059941741800183 0 -0.00047178276627665071 0.017716378365641754 0 -0.00079716768470889786 0.017948983937310332 0 -0.00056037734532395111 0.017981772101165996 0 -0.0014917946675974576 0.019616713018824578 0 -0.0016199083902376655 0.019776036298783498 0 -0.0012546349955307205 0.020249541153319901 0 -0.0012025560244145156 0.020244347824388682 0 -0.0011799365461045298 0.020380191371220095 0 -0.0013477630555101048 0.020124127978079186 0 -0.0012546349955307205 0.020249541153319901 0 -0.0012435949045152051 0.020195062441072695 0 -0.0012546349955307205 0.020249541153319901 0 -0.0012435949045152051 0.020195062441072695 0 -0.0012025560244145156 0.020244347824388682 0 -0.0013477630555101048 0.020124127978079186 0 -0.0012435949045152051 0.020195062441072695 0 -0.001201763661699344 0.020196831253780592 0 -0.0012435949045152051 0.020195062441072695 0 -0.0012025560244145156 0.020244347824388682 0 -0.001201763661699344 0.020196831253780592 0 -0.001201763661699344 0.020196831253780592 0 -0.0011559524768146665 0.020149892058015411 0 -0.0010687909913696426 0.019782884057389951 0 -0.0012025560244145156 0.020244347824388682 0 -0.001201763661699344 0.020196831253780592 0 -0.0011559524768146665 0.020149892058015411 0 -0.0012471375538923666 0.020292609763759632 0 -0.001201763661699344 0.020196831253780592 0 -0.0010687909913696426 0.019782884057389951 0 -0.00079716768470889786 0.017948983937310332 0 -0.00056864952091349849 0.018461096746967363 0 -0.0010687909913696426 0.019782884057389951 0 -0.00096064351645692157 0.020336274754717942 0 -0.0010395731992431526 0.019221152165621397 0 -0.00056864952091349849 0.018461096746967363 0 -0.00028518043312568446 0.018365451598426008 0 -0.00037226179176929789 0.018059941741800183 0 -0.00056037734532395111 0.017981772101165996 0 -0.00056864952091349849 0.018461096746967363 0 -0.00037226179176929789 0.018059941741800183 0 -0.00079716768470889786 0.017948983937310332 0 -0.00056037734532395111 0.017981772101165996 0 -0.00056864952091349849 0.018461096746967363 0 -0.00056864952091349849 0.018461096746967363 0 -0.00049584199143127444 0.018869830291969855 0 -0.00028518043312568446 0.018365451598426008 0 -0.00049584199143127444 0.018869830291969855 0 -0.00010499438666065059 0.018600542008544007 0 -0.00028518043312568446 0.018365451598426008 0 -0.00010499438666065059 0.018600542008544007 0 -8.0063552116761444e-05 0.018338425650541171 0 -0.00028518043312568446 0.018365451598426008 0 -0.00010499438666065059 0.018600542008544007 0 -8.0063552116761444e-05 0.018338425650541171 0 0.00021338878436956947 0.018292706933812363 0 -8.0063552116761444e-05 0.018338425650541171 0 -0.00012990068736306397 0.018078506450514814 0 8.3248110784905284e-05 0.018002551301212297 0 -8.0063552116761444e-05 0.018338425650541171 0 8.3248110784905284e-05 0.018002551301212297 0 0.00021338878436956947 0.018292706933812363 0 -8.0063552116761444e-05 0.018338425650541171 0 -0.00028518043312568446 0.018365451598426008 0 -0.00012990068736306397 0.018078506450514814 0 -0.00028518043312568446 0.018365451598426008 0 -0.00012990068736306397 0.018078506450514814 0 -0.00037226179176929789 0.018059941741800183 0 -0.00012990068736306397 0.018078506450514814 0 -0.00037226179176929789 0.018059941741800183 0 -0.00018127974897275562 0.017704278000188884 0 0.00024619948436056143 0.017375993410607027 0 8.3248110784905284e-05 0.018002551301212297 0 -0.00018127974897275562 0.017704278000188884 0 -0.00047178276627665071 0.017716378365641754 0 -0.00037226179176929789 0.018059941741800183 0 -0.00018127974897275562 0.017704278000188884 0 -0.00012990068736306397 0.018078506450514814 0 8.3248110784905284e-05 0.018002551301212297 0 -0.00018127974897275562 0.017704278000188884 0 0.00024619948436056143 0.017375993410607027 0 8.3248110784905284e-05 0.018002551301212297 0 0.00040715937513848016 0.017980551203217076 0 0.00024619948436056143 0.017375993410607027 0 0.00040715937513848016 0.017980551203217076 0 0.0006636896479970748 0.017747460040404398 0 0.00040715937513848016 0.017980551203217076 0 0.00021338878436956947 0.018292706933812363 0 0.00041401848976628313 0.018221791906715752 0 -0.00010499438666065059 0.018600542008544007 0 0.00021338878436956947 0.018292706933812363 0 0.00039485039309937453 0.018485665781424111 0 8.3248110784905284e-05 0.018002551301212297 0 0.00040715937513848016 0.017980551203217076 0 0.00021338878436956947 0.018292706933812363 0 0.00041401848976628313 0.018221791906715752 0 0.00039485039309937453 0.018485665781424111 0 0.00061242188865588882 0.018119099907840171 0 0.00021338878436956947 0.018292706933812363 0 0.00041401848976628313 0.018221791906715752 0 0.00039485039309937453 0.018485665781424111 0 0.00060819034624052539 0.018239038934239872 0 0.0004600971292163244 0.018529684059941657 0 0.00044265818853078957 0.01820530958067949 0 0.0004600971292163244 0.018529684059941657 0 0.00044265818853078957 0.01820530958067949 0 0.00036894068577936217 0.018056131611112011 0 0.00060819034624052539 0.018239038934239872 0 0.00044265818853078957 0.01820530958067949 0 0.00037276606574053066 0.01807393527507235 0 0.0004600971292163244 0.018529684059941657 0 3.7603533144680644e-05 0.02013885374762751 0 -0.00045815062339603818 0.019192082960656002 0 -0.00010499438666065059 0.018600542008544007 0 0.00039485039309937453 0.018485665781424111 0 -0.00045815062339603818 0.019192082960656002 0 0.00060819034624052539 0.018239038934239872 0 0.0004600971292163244 0.018529684059941657 0 -0.00045815062339603818 0.019192082960656002 0 0.00042497385943902373 0.018251554224311524 0 -0.00038540054007206502 0.019115865633896702 0 0.0004182412782713082 0.018625698688752534 0 0.0001476397442803491 0.019127856024446603 0 0.0004600971292163244 0.018529684059941657 0 0.00031874354424354766 0.01803143224848491 0 0.00036894068577936217 0.018056131611112011 0 0.00031874354424354766 0.01803143224848491 0 0.00036894068577936217 0.018056131611112011 0 0.00035991488995476388 0.017876011371743043 0 0.00036894068577936217 0.018056131611112011 0 0.00035991488995476388 0.017876011371743043 0 0.00037511870163297532 0.017924208812761033 0 0.00044265818853078957 0.01820530958067949 0 0.00036894068577936217 0.018056131611112011 0 0.00037511870163297532 0.017924208812761033 0 0.00031874354424354766 0.01803143224848491 0 0.00024070872022089482 0.018509479790797822 0 -0.0001862368644192234 0.018985259970648288 0 0.00031874354424354766 0.01803143224848491 0 0.00035991488995476388 0.017876011371743043 0 0.00024070872022089482 0.018509479790797822 0 0.00024070872022089482 0.018509479790797822 0 7.0715977650445415e-07 0.019504704369477106 0 -0.0001862368644192234 0.018985259970648288 0 0.00024070872022089482 0.018509479790797822 0 7.0715977650445415e-07 0.019504704369477106 0 5.9862373095076439e-07 0.01767970822027292 0 0.00035991488995476388 0.017876011371743043 0 0.00024070872022089482 0.018509479790797822 0 5.9862373095076439e-07 0.01767970822027292 0 -0.00022970364259545395 0.021393250278145724 0 0.00023224349457951222 0.022956343219528004 0 6.2373523898613925e-05 0.02230101205945732 0 -0.00022970364259545395 0.021393250278145724 0 -1.7037356628364739e-06 0.021332671245255876 0 -0.00046894216498727446 0.021213354435039182 0 -1.4529776257143055e-07 0.021329153365836979 0 -0.00022058094207267701 0.020103725465951874 0 -0.00022970364259545395 0.021393250278145724 0 -1.7037356628364739e-06 0.021332671245255876 0 6.2373523898613925e-05 0.02230101205945732 0 7.0715977650445415e-07 0.019504704369477106 0 -1.5526434901477153e-06 0.021327215269012451 0 -0.0001862368644192234 0.018985259970648288 0 0.0001476397442803491 0.019127856024446603 0 -0.00022058094207267701 0.020103725465951874 0 3.7603533144680644e-05 0.02013885374762751 0 -0.00046894216498727446 0.021213354435039182 0 -0.0005679514421391143 0.020531771655692001 0 -0.00046894216498727446 0.021213354435039182 0 -0.0005679514421391143 0.020531771655692001 0 -0.00065209701257269779 0.020878242916719435 0 -0.00022970364259545395 0.021393250278145724 0 -0.00065209701257269779 0.020878242916719435 0 -0.0012550994995136496 0.020687791825136647 0 -0.00027568650969542153 0.021515695036688706 0 -0.00044671626935222634 0.021768238540283157 0 -0.00065209701257269779 0.020878242916719435 0 -0.00091443837992564493 0.020353921875868111 0 -0.0012550994995136496 0.020687791825136647 0 -0.0005679514421391143 0.020531771655692001 0 -0.00065209701257269779 0.020878242916719435 0 -0.00091443837992564493 0.020353921875868111 0 -0.00022970364259545395 0.021393250278145724 0 -0.00046894216498727446 0.021213354435039182 0 -0.00065209701257269779 0.020878242916719435 0 -0.00091443837992564493 0.020353921875868111 0 -0.0010687909913696426 0.019782884057389951 0 -0.0012063500130256172 0.020208287028039586 0 -0.00091443837992564493 0.020353921875868111 0 -0.00062118290899212589 0.020029451254304359 0 -0.0010687909913696426 0.019782884057389951 0 3.7603533144680644e-05 0.02013885374762751 0 -0.0005679514421391143 0.020531771655692001 0 -0.00062118290899212589 0.020029451254304359 0 3.7603533144680644e-05 0.02013885374762751 0 -0.00062118290899212589 0.020029451254304359 0 -0.00045815062339603818 0.019192082960656002 0 -0.0005679514421391143 0.020531771655692001 0 -0.00091443837992564493 0.020353921875868111 0 -0.00062118290899212589 0.020029451254304359 0 -0.00056864952091349849 0.018461096746967363 0 -0.00049584199143127444 0.018869830291969855 0 -0.0010687909913696426 0.019782884057389951 0 -0.00062118290899212589 0.020029451254304359 0 -0.00045815062339603818 0.019192082960656002 0 -0.0010687909913696426 0.019782884057389951 0 -0.00049584199143127444 0.018869830291969855 0 -0.00045815062339603818 0.019192082960656002 0 -0.0010687909913696426 0.019782884057389951 0 -0.00049584199143127444 0.018869830291969855 0 -0.00010499438666065059 0.018600542008544007 0 -0.00045815062339603818 0.019192082960656002 0 -0.0011559524768146665 0.020149892058015411 0 -0.0010687909913696426 0.019782884057389951 0 -0.0011528446154887169 0.020104900136430875 0 -0.0010687909913696426 0.019782884057389951 0 -0.0011528446154887169 0.020104900136430875 0 -0.0012063500130256172 0.020208287028039586 0 -0.0012381344125628993 0.020294608051200379 0 -0.0013065639541404185 0.020300298508644465 0 -0.0012063500130256172 0.020208287028039586 0 -0.0011528446154887169 0.020104900136430875 0 -0.0012381344125628993 0.020294608051200379 0 -0.0012063500130256172 0.020208287028039586 0 -0.0012381344125628993 0.020294608051200379 0 -0.0013065639541404185 0.020300298508644465 0 -0.0011957403031628555 0.020467920204134332 0 -0.00091443837992564493 0.020353921875868111 0 -0.0012063500130256172 0.020208287028039586 0 -0.0012550994995136496 0.020687791825136647 0 -0.0013065639541404185 0.020300298508644465 0 -0.0012063500130256172 0.020208287028039586 0 -0.0012550994995136496 0.020687791825136647 0 -0.00057700562358257361 0.021548330017822942 0 -0.00044671626935222634 0.021768238540283157 0 0.00017838773776957597 0.022779144653987424 0 0.00023224349457951222 0.022956343219528004 0 -7.09332270803173e-06 0.023839786008637863 0 0.00023224349457951222 0.022956343219528004 0 1.0440385945162254e-06 0.023218701763660081 0 -7.09332270803173e-06 0.023839786008637863 0 -1.7037356628364739e-06 0.021332671245255876 0 1.0440385945162254e-06 0.023218701763660081 0 6.2373523898613925e-05 0.02230101205945732 0 0.00023224349457951222 0.022956343219528004 0 1.0440385945162254e-06 0.023218701763660081 0 6.2373523898613925e-05 0.02230101205945732 0 -5.8317104128993331e-07 0.025108864651596428 0 4.4295948964979617e-05 0.025956085859827789 0 1.0121043939406231e-06 0.026999267631377749 0 1.0440385945162254e-06 0.023218701763660081 0 -5.8317104128993331e-07 0.025108864651596428 0 -7.09332270803173e-06 0.023839786008637863 0 -5.8317104128993331e-07 0.025108864651596428 0 -7.09332270803173e-06 0.023839786008637863 0 4.4295948964979617e-05 0.025956085859827789 0 -7.09332270803173e-06 0.023839786008637863 0 -0.0010800336151947181 0.023553562228608275 0 -0.00047127762114157744 0.022960939600765329 0 0.00017838773776957597 0.022779144653987424 0 -7.09332270803173e-06 0.023839786008637863 0 -0.00047127762114157744 0.022960939600765329 0 4.5355325061307632e-05 0.024020655616185525 0 -0.0003852673721956215 0.024767866133357092 0 -0.001122537657142199 0.022647019750246335 0 -0.00047127762114157744 0.022960939600765329 0 -0.00035919970560849935 0.022002405468427227 0 -0.0010800336151947181 0.023553562228608275 0 -0.001122537657142199 0.022647019750246335 0 -0.00047127762114157744 0.022960939600765329 0 0.00017838773776957597 0.022779144653987424 0 -0.00047127762114157744 0.022960939600765329 0 -0.00035919970560849935 0.022002405468427227 0 -0.00057700562358257361 0.021548330017822942 0 -0.00081759787992742681 0.021232813111537532 0 -0.001122537657142199 0.022647019750246335 0 -0.00035919970560849935 0.022002405468427227 0 -0.0013473227942770471 0.021831195517323931 0 -0.00081759787992742681 0.021232813111537532 0 -0.0011732238712820519 0.021021864069775787 0 -0.00035919970560849935 0.022002405468427227 0 -0.001195874054030138 0.021049168287747937 0 -0.0013473227942770471 0.021831195517323931 0 -0.0011957403031628555 0.020467920204134332 0 -0.001195874054030138 0.021049168287747937 0 -0.0012131898351049435 0.020749661217962647 0 -0.001195874054030138 0.021049168287747937 0 -0.0013554105145315298 0.02084270832082958 0 -0.0012131898351049435 0.020749661217962647 0 -0.001195874054030138 0.021049168287747937 0 -0.0013531237153239593 0.020964510927763136 0 -0.0013554105145315298 0.02084270832082958 0 -0.0013531237153239593 0.020964510927763136 0 -0.0013554105145315298 0.02084270832082958 0 -0.0014181141467762889 0.020865453632580248 0 -0.0013531237153239593 0.020964510927763136 0 -0.0014181141467762889 0.020865453632580248 0 -0.0014685204004188394 0.020910682259061363 0 -0.0013554105145315298 0.02084270832082958 0 -0.0014453332730484587 0.020809635929805427 0 -0.0013164190820033647 0.020800074878651331 0 -0.0014453332730484587 0.020809635929805427 0 -0.0019066764777223876 0.020712259262433166 0 -0.0017053159550271457 0.020884933611058396 0 -0.0014569384395894454 0.020722907979483896 0 -0.0017037991072081512 0.020246757310063087 0 -0.0013047562128884532 0.020716227972378799 0 -0.0017037991072081512 0.020246757310063087 0 -0.0014453332730484587 0.020809635929805427 0 -0.001463563957667075 0.020864916883539426 0 -0.0014181141467762889 0.020865453632580248 0 -0.001463563957667075 0.020864916883539426 0 -0.0014181141467762889 0.020865453632580248 0 -0.0014685204004188394 0.020910682259061363 0 -0.0013554105145315298 0.02084270832082958 0 -0.0014453332730484587 0.020809635929805427 0 -0.0014181141467762889 0.020865453632580248 0 -0.0012147227903852326 0.020628245142530321 0 -0.0012131898351049435 0.020749661217962647 0 -0.0012092885933599731 0.020506995477136844 0 -0.0022444142693850994 0.019197872762263427 0 -0.0023408203707897626 0.01923258827244367 0 -0.0022263288729946051 0.019176093642820542 0 -0.0017037991072081512 0.020246757310063087 0 -0.0025334464529623946 0.019514880300185975 0 -0.0013554105145315298 0.02084270832082958 0 -0.0012147227903852326 0.020628245142530321 0 -0.0012131898351049435 0.020749661217962647 0 -0.0011957403031628555 0.020467920204134332 0 -0.0012131898351049435 0.020749661217962647 0 -0.0012092885933599731 0.020506995477136844 0 -0.0012381344125628993 0.020294608051200379 0 -0.0012092885933599731 0.020506995477136844 0 -0.0011880443641892754 0.02028461623623036 0 -0.0012381344125628993 0.020294608051200379 0 -0.0011957403031628555 0.020467920204134332 0 -0.0012092885933599731 0.020506995477136844 0 -0.0011528446154887169 0.020104900136430875 0 -0.0012381344125628993 0.020294608051200379 0 -0.0011880443641892754 0.02028461623623036 0 -0.0011559524768146665 0.020149892058015411 0 -0.0011528446154887169 0.020104900136430875 0 -0.0011880443641892754 0.02028461623623036 0 -0.0012025560244145156 0.020244347824388682 0 -0.0011559524768146665 0.020149892058015411 0 -0.0011880443641892754 0.02028461623623036 0 -0.0012025560244145156 0.020244347824388682 0 -0.0011880443641892754 0.02028461623623036 0 -0.0011799365461045298 0.020380191371220095 0 -0.0017037991072081512 0.020246757310063087 0 -0.0016199083902376655 0.019776036298783498 0 -0.0022444142693850994 0.019197872762263427 0 -0.0023408203707897626 0.01923258827244367 0 -0.0020510012059060355 0.019213064961027041 0 -0.0022444142693850994 0.019197872762263427 0 -0.0020510012059060355 0.019213064961027041 0 -0.0022268255457433793 0.019175033731790518 0 -0.0012092885933599731 0.020506995477136844 0 -0.0011880443641892754 0.02028461623623036 0 -0.0011799365461045298 0.020380191371220095 0 -0.0012147227903852326 0.020628245142530321 0 -0.0012092885933599731 0.020506995477136844 0 -0.0011799365461045298 0.020380191371220095 0 -0.0025334464529623946 0.019514880300185975 0 -0.0024273574025313865 0.018904694651461044 0 -0.0032940335301684357 0.018917755373995478 0 -0.0028316654089038241 0.01838357809069836 0 -0.0026649795454704722 0.018640700667453432 0 -0.0020510012059060355 0.019213064961027041 0 -0.0022268255457433793 0.019175033731790518 0 -0.0020549370511364867 0.019082825297232424 0 -0.0024643544610966736 0.019438355482368073 0 -0.0025334464529623946 0.019514880300185975 0 -0.0025334464529623946 0.019514880300185975 0 -0.0028441291389433455 0.020026728786016613 0 -0.0021615784045987459 0.02081796544366828 0 -0.0024087015156226007 0.021082919996889164 0 -0.002093475449486635 0.021073906790223661 0 -0.0022775690065085247 0.016735911480509215 0 -0.0024273574025313865 0.018904694651461044 0 -0.0017237051332821109 0.019210380645962043 0 -0.0020510012059060355 0.019213064961027041 0 -0.0019374599608666895 0.019103778801308879 0 -0.0018656442867831281 0.018983518495301183 0 -0.0019374599608666895 0.019103778801308879 0 -0.0020549370511364867 0.019082825297232424 0 -0.0020254267718726065 0.018360557951369878 0 -0.0026649795454704722 0.018640700667453432 0 -0.002429577602584589 0.018299831706790236 0 -0.0020510012059060355 0.019213064961027041 0 -0.0019374599608666895 0.019103778801308879 0 -0.0020549370511364867 0.019082825297232424 0 -0.0028316654089038241 0.01838357809069836 0 -0.0026649795454704722 0.018640700667453432 0 -0.002429577602584589 0.018299831706790236 0 -0.0020593153712315107 0.014703636109785789 0 -0.0019319474251897821 0.014907177955632319 0 -0.0019661472937000908 0.014942631460331502 0 -0.0020254267718726065 0.018360557951369878 0 -0.002429577602584589 0.018299831706790236 0 -0.0023592400527230775 0.01784326688509754 0 -0.0022775690065085247 0.016735911480509215 0 -0.0026396039279335684 0.017117661815606922 0 -0.0024087015156226007 0.021082919996889164 0 -0.0026347953843759335 0.021313067978898745 0 -0.0024434640304734066 0.021274924880605797 0 -0.0028316654089038241 0.01838357809069836 0 -0.002429577602584589 0.018299831706790236 0 -0.0023592400527230775 0.01784326688509754 0 -0.0028441291389433455 0.020026728786016613 0 -0.0026396039279335684 0.017117661815606922 0 -0.002574224811644541 0.021414275123256075 0 -0.0026347953843759335 0.021313067978898745 0 -0.0024434640304734066 0.021274924880605797 0 -0.001798264552721423 0.016246104416657831 0 -0.0025925870168673 0.015009942274424863 0 -0.0031295961596566613 0.015604913946863835 0 -0.0021055061781285801 0.017011256962123512 0 -0.0026396039279335684 0.017117661815606922 0 -0.0026396039279335684 0.017117661815606922 0 -0.0020962698751162451 0.014111592519586215 0 -0.0022445079449941356 0.021606296325524632 0 -0.0024434640304734066 0.021274924880605797 0 -0.0022069085312670139 0.02128098520050813 0 -0.0024087015156226007 0.021082919996889164 0 -0.0022069085312670139 0.02128098520050813 0 -0.002093475449486635 0.021073906790223661 0 -0.0024087015156226007 0.021082919996889164 0 -0.0024434640304734066 0.021274924880605797 0 -0.0022069085312670139 0.02128098520050813 0 -0.0022069085312670139 0.02128098520050813 0 -0.0020570433867086913 0.021401681145214999 0 -0.0019875919152094034 0.021234495139205601 0 -0.0022069085312670139 0.02128098520050813 0 -0.0019875919152094034 0.021234495139205601 0 -0.002093475449486635 0.021073906790223661 0 -0.0019875919152094034 0.021234495139205601 0 -0.0018198011409841916 0.021216661448805966 0 -0.0018735766253954475 0.021091587862132027 0 -0.0019875919152094034 0.021234495139205601 0 -0.002093475449486635 0.021073906790223661 0 -0.0018735766253954475 0.021091587862132027 0 -0.0020570433867086913 0.021401681145214999 0 -0.0019875919152094034 0.021234495139205601 0 -0.0018971439896533866 0.021364609333575858 0 -0.0019875919152094034 0.021234495139205601 0 -0.0018971439896533866 0.021364609333575858 0 -0.0018198011409841916 0.021216661448805966 0 -0.0017857235533937064 0.021471473108057488 0 -0.0018971439896533866 0.021364609333575858 0 -0.0017646919283608332 0.021307337850343621 0 -0.0018971439896533866 0.021364609333575858 0 -0.0017646919283608332 0.021307337850343621 0 -0.0018198011409841916 0.021216661448805966 0 -0.0017646919283608332 0.021307337850343621 0 -0.0016297787026314328 0.021280902040626579 0 -0.0017033557213979231 0.021194149898626027 0 -0.0017857235533937064 0.021471473108057488 0 -0.0017646919283608332 0.021307337850343621 0 -0.0016297787026314328 0.021280902040626579 0 -0.0016297787026314328 0.021280902040626579 0 -0.0017033557213979231 0.021194149898626027 0 -0.0016008257743169354 0.021065994430635126 0 -0.0016297787026314328 0.021280902040626579 0 -0.0016008257743169354 0.021065994430635126 0 -0.0015148607325140382 0.021092725617898531 0 -0.0017033557213979231 0.021194149898626027 0 -0.0017152828749872951 0.021080238819078195 0 -0.0016008257743169354 0.021065994430635126 0 -0.0017646919283608332 0.021307337850343621 0 -0.0017033557213979231 0.021194149898626027 0 -0.0018198011409841916 0.021216661448805966 0 -0.0017033557213979231 0.021194149898626027 0 -0.0018198011409841916 0.021216661448805966 0 -0.0017152828749872951 0.021080238819078195 0 -0.0018198011409841916 0.021216661448805966 0 -0.0017152828749872951 0.021080238819078195 0 -0.0018735766253954475 0.021091587862132027 0 -0.0017152828749872951 0.021080238819078195 0 -0.0017472761045618848 0.020980901755955732 0 -0.0015715959120785785 0.020932491884864263 0 -0.0017152828749872951 0.021080238819078195 0 -0.0017472761045618848 0.020980901755955732 0 -0.0018735766253954475 0.021091587862132027 0 -0.0016008257743169354 0.021065994430635126 0 -0.0015715959120785785 0.020932491884864263 0 -0.0014878343724861369 0.020902632173930839 0 -0.0017152828749872951 0.021080238819078195 0 -0.0016008257743169354 0.021065994430635126 0 -0.0015715959120785785 0.020932491884864263 0 -0.001463563957667075 0.020864916883539426 0 -0.0015715959120785785 0.020932491884864263 0 -0.0014878343724861369 0.020902632173930839 0 -0.0014453332730484587 0.020809635929805427 0 -0.001463563957667075 0.020864916883539426 0 -0.0015715959120785785 0.020932491884864263 0 -0.0014453332730484587 0.020809635929805427 0 -0.0015715959120785785 0.020932491884864263 0 -0.0017053159550271457 0.020884933611058396 0 -0.0017472761045618848 0.020980901755955732 0 -0.0015715959120785785 0.020932491884864263 0 -0.0017053159550271457 0.020884933611058396 0 -0.0019066764777223876 0.020712259262433166 0 -0.0017053159550271457 0.020884933611058396 0 -0.0019088897743621636 0.020930201451104153 0 -0.0017472761045618848 0.020980901755955732 0 -0.0017053159550271457 0.020884933611058396 0 -0.0019088897743621636 0.020930201451104153 0 -0.0021615784045987459 0.02081796544366828 0 -0.0019088897743621636 0.020930201451104153 0 -0.002093475449486635 0.021073906790223661 0 -0.0019066764777223876 0.020712259262433166 0 -0.0021615784045987459 0.02081796544366828 0 -0.0019088897743621636 0.020930201451104153 0 -0.0019088897743621636 0.020930201451104153 0 -0.002093475449486635 0.021073906790223661 0 -0.0018735766253954475 0.021091587862132027 0 -0.0017472761045618848 0.020980901755955732 0 -0.0019088897743621636 0.020930201451104153 0 -0.0018735766253954475 0.021091587862132027 0 -0.0015349360853398157 0.020996542857912255 0 -0.0014594086499523857 0.020474741433512637 0 -0.0014360357925399627 0.020922065455195329 0 -0.00090588966481606114 0.021135903036717668 0 -0.00091761351546746728 0.020695346573930413 0 -0.0014360357925399627 0.020922065455195329 0 -0.0020684692089659139 0.020862040003562114 0 -0.0015956660144986849 0.020947648122060198 0 -0.0014878343724861369 0.020902632173930839 0 -0.0014360357925399627 0.020922065455195329 0 -0.0015956660144986849 0.020947648122060198 0 -0.0014878343724861369 0.020902632173930839 0 -0.0014360357925399627 0.020922065455195329 0 -0.0015148607325140382 0.021092725617898531 0 -0.0016008257743169354 0.021065994430635126 0 -0.0014878343724861369 0.020902632173930839 0 -0.0015148607325140382 0.021092725617898531 0 -0.0014360357925399627 0.020922065455195329 0 -0.0015148607325140382 0.021092725617898531 0 -0.001425966591417826 0.021310212531530478 0 -0.0014360357925399627 0.020922065455195329 0 -0.001425966591417826 0.021310212531530478 0 -0.0011478228093615764 0.021404502932622731 0 -0.0016099625450964957 0.021559824150015904 0 -0.0016297787026314328 0.021280902040626579 0 -0.001425966591417826 0.021310212531530478 0 -0.0016297787026314328 0.021280902040626579 0 -0.0015148607325140382 0.021092725617898531 0 -0.001425966591417826 0.021310212531530478 0 -0.00087458402719093632 0.021525381108134862 0 -0.0011478228093615764 0.021404502932622731 0 -0.00090588966481606114 0.021135903036717668 0 -0.0014360357925399627 0.020922065455195329 0 -0.0011478228093615764 0.021404502932622731 0 -0.00090588966481606114 0.021135903036717668 0 -0.00090588966481606114 0.021135903036717668 0 -0.00057264973083344633 0.021349120844753135 0 -0.00057345408629878825 0.020874352106377583 0 -0.00087458402719093632 0.021525381108134862 0 -0.00090588966481606114 0.021135903036717668 0 -0.00057264973083344633 0.021349120844753135 0 0.00017188623890633777 0.026356133959832939 0 -2.9462745496205058e-06 0.024219466156655874 0 0.00017338059361957648 0.028474175911235858 0 0.00017188623890633777 0.026356133959832939 0 0.00052125434772442593 0.028498574764053868 0 0.00043818737657429148 0.028425470951396074 0 0.00051859820722146297 0.02832660564760886 0 0.00043818737657429148 0.028425470951396074 0 0.0004447578141033011 0.028352284662378983 0 0.00051859820722146297 0.02832660564760886 0 0.00043818737657429148 0.028425470951396074 0 0.00035000656250871131 0.028431643006652883 0 0.00036001907928713084 0.028375015498695141 0 0.00043818737657429148 0.028425470951396074 0 0.00036001907928713084 0.028375015498695141 0 0.0004447578141033011 0.028352284662378983 0 0.00036001907928713084 0.028375015498695141 0 0.0004447578141033011 0.028352284662378983 0 0.0004566190294448526 0.02828213569548731 0 0.0004447578141033011 0.028352284662378983 0 0.0004566190294448526 0.02828213569548731 0 0.00051859820722146297 0.02832660564760886 0 0.00017188623890633777 0.026356133959832939 0 0.00041864718675906819 0.028876321262899751 0 0.00036001907928713084 0.028375015498695141 0 0.0004566190294448526 0.02828213569548731 0 0.00045055437869912521 0.028174004318114048 0 0.00047696756428003688 0.027854386478944372 0 0.00048970480788503652 0.028122129409525465 0 0.00045055437869912521 0.028174004318114048 0 0.0004566190294448526 0.02828213569548731 0 0.00051081752902259559 0.028227953906585095 0 0.00051859820722146297 0.02832660564760886 0 0.0004566190294448526 0.02828213569548731 0 0.00045055437869912521 0.028174004318114048 0 0.00051081752902259559 0.028227953906585095 0 -0.00090588966481606114 0.021135903036717668 0 -0.00057345408629878825 0.020874352106377583 0 -0.00091761351546746728 0.020695346573930413 0 -0.0014594086499523857 0.020474741433512637 0 -0.00072211679980952305 0.024011350111745763 0 -0.00057345408629878825 0.020874352106377583 0 -0.00091761351546746728 0.020695346573930413 0 -0.0005553812145258852 0.020498514487142492 0 -0.0020684692089659139 0.020862040003562114 0 -0.002790335448404139 0.021261938856078688 0 -0.0024344629852216552 0.021430807110083192 0 -0.0020684692089659139 0.020862040003562114 0 -0.0024344629852216552 0.021430807110083192 0 -0.0020795986632301273 0.021334286262635203 0 -2.9462745496205058e-06 0.024219466156655874 0 -0.00072211679980952305 0.024011350111745763 0 0.00045055437869912521 0.028174004318114048 0 0.00043198095084952682 0.028142687311710424 0 0.00051081752902259559 0.028227953906585095 0 0.00048970480788503652 0.028122129409525465 0 0.00045055437869912521 0.028174004318114048 0 0.00043198095084952682 0.028142687311710424 0 -0.00072211679980952305 0.024011350111745763 0 -0.0019244485085879455 0.024326673327613801 0 -0.00014646446624859701 0.025904197168950496 0 -0.00029330690812885896 0.027433331818576556 0 -0.0016901109335589297 0.027101039242083017 0 -0.00072211679980952305 0.024011350111745763 0 -0.00019309528356150252 0.031022248538097031 0 -0.0019244485085879455 0.024326673327613801 0 -0.00072332790536671168 0.031104149090574591 0 -0.00029330690812885896 0.027433331818576556 0 -0.0016901109335589297 0.027101039242083017 0 -0.0015479160942230891 0.027445880126539896 0 -0.002790335448404139 0.021261938856078688 0 -0.0028688094859525008 0.02179592788667116 0 -0.0024344629852216552 0.021430807110083192 0 -0.0024344629852216552 0.021430807110083192 0 -0.0022298758234645232 0.021697659244232892 0 -0.0020795986632301273 0.021334286262635203 0 -0.0028688094859525008 0.02179592788667116 0 -0.0024344629852216552 0.021430807110083192 0 -0.0025354596906919658 0.021782050473983818 0 -0.0019244485085879455 0.024326673327613801 0 -0.002779568610839759 0.022626595229075133 0 -0.0024344629852216552 0.021430807110083192 0 -0.0025354596906919658 0.021782050473983818 0 -0.0022298758234645232 0.021697659244232892 0 -0.0022298758234645232 0.021697659244232892 0 -0.0018624623741029943 0.021660733945880372 0 -0.0020795986632301273 0.021334286262635203 0 -0.0018624623741029943 0.021660733945880372 0 -0.0020795986632301273 0.021334286262635203 0 -0.0018134257200131015 0.021174999918580333 0 -0.0020684692089659139 0.020862040003562114 0 -0.0020795986632301273 0.021334286262635203 0 -0.0018134257200131015 0.021174999918580333 0 -0.0020684692089659139 0.020862040003562114 0 -0.0018134257200131015 0.021174999918580333 0 -0.0015956660144986849 0.020947648122060198 0 -0.001463563957667075 0.020864916883539426 0 -0.0014878343724861369 0.020902632173930839 0 -0.0014685204004188394 0.020910682259061363 0 -0.0014878343724861369 0.020902632173930839 0 -0.0014685204004188394 0.020910682259061363 0 -0.0015956660144986849 0.020947648122060198 0 -0.0018134257200131015 0.021174999918580333 0 -0.0015956660144986849 0.020947648122060198 0 -0.0015228054951031541 0.021146041712642959 0 -0.0014685204004188394 0.020910682259061363 0 -0.0015956660144986849 0.020947648122060198 0 -0.0015228054951031541 0.021146041712642959 0 -0.0013531237153239593 0.020964510927763136 0 -0.0014685204004188394 0.020910682259061363 0 -0.0015228054951031541 0.021146041712642959 0 -0.001195874054030138 0.021049168287747937 0 -0.0015228054951031541 0.021146041712642959 0 -0.0013473227942770471 0.021831195517323931 0 -0.001195874054030138 0.021049168287747937 0 -0.0013531237153239593 0.020964510927763136 0 -0.0015228054951031541 0.021146041712642959 0 -0.0018624623741029943 0.021660733945880372 0 -0.0015228054951031541 0.021146041712642959 0 -0.0013473227942770471 0.021831195517323931 0 -0.0018624623741029943 0.021660733945880372 0 -0.0018134257200131015 0.021174999918580333 0 -0.0015228054951031541 0.021146041712642959 0 -0.0018624623741029943 0.021660733945880372 0 -0.0013473227942770471 0.021831195517323931 0 -0.0017379554722771538 0.022285022352921513 0 -0.001122537657142199 0.022647019750246335 0 -0.0013473227942770471 0.021831195517323931 0 -0.0017379554722771538 0.022285022352921513 0 -0.0017379554722771538 0.022285022352921513 0 -0.0021565958016093764 0.022062641199081249 0 -0.0022777759270288397 0.022577671695343186 0 -0.0022298758234645232 0.021697659244232892 0 -0.0021565958016093764 0.022062641199081249 0 -0.0024391588561863283 0.022101753989206725 0 -0.0022298758234645232 0.021697659244232892 0 -0.0018624623741029943 0.021660733945880372 0 -0.0021565958016093764 0.022062641199081249 0 -0.0018624623741029943 0.021660733945880372 0 -0.0017379554722771538 0.022285022352921513 0 -0.0021565958016093764 0.022062641199081249 0 -0.0021565958016093764 0.022062641199081249 0 -0.0022777759270288397 0.022577671695343186 0 -0.0024391588561863283 0.022101753989206725 0 -0.0017379554722771538 0.022285022352921513 0 -0.0022777759270288397 0.022577671695343186 0 -0.0016544284318719123 0.022878040302767449 0 -0.0022777759270288397 0.022577671695343186 0 -0.0020010700313401941 0.02334048061053071 0 -0.002604802471249027 0.022859695693169129 0 -0.0022777759270288397 0.022577671695343186 0 -0.0016544284318719123 0.022878040302767449 0 -0.0020010700313401941 0.02334048061053071 0 -0.001122537657142199 0.022647019750246335 0 -0.0017379554722771538 0.022285022352921513 0 -0.0016544284318719123 0.022878040302767449 0 -0.0010800336151947181 0.023553562228608275 0 -0.001122537657142199 0.022647019750246335 0 -0.0016544284318719123 0.022878040302767449 0 -0.0010800336151947181 0.023553562228608275 0 -0.0016544284318719123 0.022878040302767449 0 -0.0020010700313401941 0.02334048061053071 0 -0.0003852673721956215 0.024767866133357092 0 -0.0009712366075752991 0.024802478537460253 0 0.00020171742619363983 0.02719757002697034 0 1.0121043939406231e-06 0.026999267631377749 0 -1.6548387462892791e-06 0.028884931592345033 0 4.4295948964979617e-05 0.025956085859827789 0 0.00020171742619363983 0.02719757002697034 0 1.0121043939406231e-06 0.026999267631377749 0 -0.0001324816021610626 0.031188592514522048 0 3.9206627835201534e-07 0.030484530436683695 0 -2.063129376337275e-06 0.028891307425870535 0 -0.0001324816021610626 0.031188592514522048 0 -2.063129376337275e-06 0.028891307425870535 0 -0.00067147071895150225 0.031810363117636756 0 7.4571674352651078e-07 0.028890255459178022 0 -0.0017418329995942418 0.028831178192019035 0 -0.0020010700313401941 0.02334048061053071 0 -0.0029079067126948064 0.023244329358549781 0 -0.002604802471249027 0.022859695693169129 0 -0.0009712366075752991 0.024802478537460253 0 -0.0017418329995942418 0.028831178192019035 0 0.00020171742619363983 0.02719757002697034 0 -1.6548387462892791e-06 0.028884931592345033 0 -0.00093908705297092649 0.027248621289902263 0 -0.0001324816021610626 0.031188592514522048 0 -0.00067147071895150225 0.031810363117636756 0 -0.00012201097507343834 0.032188593683667714 0 -0.0017418329995942418 0.028831178192019035 0 -0.00043957521041914385 0.032554145009738876 0 -0.0019567213259029212 0.032912834377377555 0 -0.0016633076887126084 0.033274710204406886 0 -0.001138663161393575 0.033038051406060844 0 -0.0012334255823423382 0.033438301385818207 0 -0.0016633076887126084 0.033274710204406886 0 -0.001138663161393575 0.033038051406060844 0 -0.0012334255823423382 0.033438301385818207 0 -0.0016633076887126084 0.033274710204406886 0 -0.0016777971959964575 0.033597611811885378 0 -0.0012334255823423382 0.033438301385818207 0 -0.0016777971959964575 0.033597611811885378 0 -0.00095197935587482466 0.03383063205816212 0 -0.0017418329995942418 0.028831178192019035 0 -0.0019463246587788099 0.028983239470796663 0 -0.0019567213259029212 0.032912834377377555 0 -0.0016633076887126084 0.033274710204406886 0 -0.0016881545436672641 0.033553659227374168 0 -0.0020495981097772738 0.031886704134532623 0 -0.0019463246587788099 0.028983239470796663 0 -0.0029079067126948064 0.023244329358549781 0 -0.0030946630092084167 0.022809277734681697 0 -0.002604802471249027 0.022859695693169129 0 -0.0030946630092084167 0.022809277734681697 0 -0.002604802471249027 0.022859695693169129 0 -0.0027493245569960439 0.022324211778139143 0 -0.0022777759270288397 0.022577671695343186 0 -0.002604802471249027 0.022859695693169129 0 -0.0027493245569960439 0.022324211778139143 0 -0.0022777759270288397 0.022577671695343186 0 -0.0024391588561863283 0.022101753989206725 0 -0.0027493245569960439 0.022324211778139143 0 -0.0029897307140591659 0.021801204418913839 0 -0.0025354596906919658 0.021782050473983818 0 -0.0027493245569960439 0.022324211778139143 0 -0.0025354596906919658 0.021782050473983818 0 -0.0024391588561863283 0.022101753989206725 0 -0.0027493245569960439 0.022324211778139143 0 -0.0025354596906919658 0.021782050473983818 0 -0.0022298758234645232 0.021697659244232892 0 -0.0024391588561863283 0.022101753989206725 0 -0.0029897307140591659 0.021801204418913839 0 -0.0030946630092084167 0.022809277734681697 0 -0.0027493245569960439 0.022324211778139143 0 -0.0019463246587788099 0.028983239470796663 0 -0.00072332790536671168 0.031104149090574591 0 -0.0019244485085879455 0.024326673327613801 0 -0.0019463246587788099 0.028983239470796663 0 -0.0016777971959964575 0.033597611811885378 0 -0.00084858029477780865 0.034333783085980084 0 -0.0010813589071420129 0.034896390161776945 0 -0.0015720522171165515 0.028063510227659436 0 -0.0016274442038368311 0.02856622118772929 0 -0.0018183174153611949 0.028075402398733271 0 -0.00084858029477780865 0.034333783085980084 0 -0.0010813589071420129 0.034896390161776945 0 -0.00078365957420214701 0.034887772939901189 0 -0.00089626256615528649 0.034244224632719089 0 -0.00066783359031412186 0.033193052158003299 0 -0.00043214166814337427 0.0346048225912573 0 -0.00084858029477780865 0.034333783085980084 0 -0.00078365957420214701 0.034887772939901189 0 -0.00043214166814337427 0.0346048225912573 0 -0.00084858029477780865 0.034333783085980084 0 -0.00031867139673340191 0.034015303848129043 0 -0.00043214166814337427 0.0346048225912573 0 -9.9420559977699742e-05 0.03447652159839644 0 -4.7400512210744368e-07 0.034715877864933561 0 -0.00043214166814337427 0.0346048225912573 0 -4.7400512210744368e-07 0.034715877864933561 0 -0.00061411840981190151 0.034741960962009093 0 -0.00043214166814337427 0.0346048225912573 0 -9.9420559977699742e-05 0.03447652159839644 0 -0.00031867139673340191 0.034015303848129043 0 -0.00031867139673340191 0.034015303848129043 0 4.9759300825107001e-05 0.033758435583503513 0 2.9660349028751045e-05 0.034298460154407608 0 -9.9420559977699742e-05 0.03447652159839644 0 -0.00031867139673340191 0.034015303848129043 0 2.9660349028751045e-05 0.034298460154407608 0 -0.00031867139673340191 0.034015303848129043 0 -0.00020679532366059652 0.033149556556981936 0 4.9759300825107001e-05 0.033758435583503513 0 -0.0016777971959964575 0.033597611811885378 0 -0.00084858029477780865 0.034333783085980084 0 -0.00095197935587482466 0.03383063205816212 0 -0.00031867139673340191 0.034015303848129043 0 -0.00095197935587482466 0.03383063205816212 0 -0.00074121007274962779 0.033456246160263194 0 -0.00084858029477780865 0.034333783085980084 0 -0.00031867139673340191 0.034015303848129043 0 -0.00095197935587482466 0.03383063205816212 0 -0.00031867139673340191 0.034015303848129043 0 -0.00074121007274962779 0.033456246160263194 0 -0.00020679532366059652 0.033149556556981936 0 -0.0012334255823423382 0.033438301385818207 0 -0.00074121007274962779 0.033456246160263194 0 -0.001138663161393575 0.033038051406060844 0 -0.0012334255823423382 0.033438301385818207 0 -0.00095197935587482466 0.03383063205816212 0 -0.00074121007274962779 0.033456246160263194 0 -0.0001324816021610626 0.031188592514522048 0 -0.00012201097507343834 0.032188593683667714 0 -4.6266803602838651e-05 0.032010074933386222 0 -0.00012201097507343834 0.032188593683667714 0 -0.00020679532366059652 0.033149556556981936 0 -4.6266803602838651e-05 0.032010074933386222 0 -0.00043957521041914385 0.032554145009738876 0 -0.00020099810932896122 0.032957466504310896 0 -0.00074121007274962779 0.033456246160263194 0 -0.001138663161393575 0.033038051406060844 0 -0.00020679532366059652 0.033149556556981936 0 -0.00020679532366059652 0.033149556556981936 0 3.5180269368215035e-05 0.032962483003242359 0 -4.6266803602838651e-05 0.032010074933386222 0 -0.00020679532366059652 0.033149556556981936 0 4.9759300825107001e-05 0.033758435583503513 0 3.5180269368215035e-05 0.032962483003242359 0 3.5180269368215035e-05 0.032962483003242359 0 -1.9128994700354317e-07 0.032081819696725175 0 7.5777772074685673e-07 0.03367523823483811 0 3.5180269368215035e-05 0.032962483003242359 0 -1.9128994700354317e-07 0.032081819696725175 0 -4.6266803602838651e-05 0.032010074933386222 0 3.9206627835201534e-07 0.030484530436683695 0 -1.9128994700354317e-07 0.032081819696725175 0 -4.6266803602838651e-05 0.032010074933386222 0 -0.0001324816021610626 0.031188592514522048 0 3.9206627835201534e-07 0.030484530436683695 0 -4.6266803602838651e-05 0.032010074933386222 0 1.4121246014950385e-09 0.034998213889246475 0 -1.82604844962721e-09 0.033679591622607474 0 1.8299728412872409e-10 0.035000889834134373 0 7.5777772074685673e-07 0.03367523823483811 0 7.9506662824009919e-05 0.033956006511228355 0 5.6412051311949094e-07 0.034997120876684468 0 -1.2633630527238454e-07 0.033677313827066221 0 1.2831582997814267e-07 0.034999595776733318 0 3.5180269368215035e-05 0.032962483003242359 0 7.5777772074685673e-07 0.03367523823483811 0 7.9506662824009919e-05 0.033956006511228355 0 4.9759300825107001e-05 0.033758435583503513 0 3.5180269368215035e-05 0.032962483003242359 0 7.9506662824009919e-05 0.033956006511228355 0 4.9759300825107001e-05 0.033758435583503513 0 7.9506662824009919e-05 0.033956006511228355 0 0.00011379217526342077 0.034465152696352988 0 7.9506662824009919e-05 0.033956006511228355 0 5.6412051311949094e-07 0.034997120876684468 0 0.00011379217526342077 0.034465152696352988 0 7.4106851012965869e-08 0.034999762264907856 0 0.00011379217526342077 0.034465152696352988 0 8.2487790285662227e-05 0.034639800726682005 0 5.6412051311949094e-07 0.034997120876684468 0 7.4106851012965869e-08 0.034999762264907856 0 0.00011379217526342077 0.034465152696352988 0 4.9759300825107001e-05 0.033758435583503513 0 0.00011379217526342077 0.034465152696352988 0 2.9660349028751045e-05 0.034298460154407608 0 0.00011379217526342077 0.034465152696352988 0 2.9660349028751045e-05 0.034298460154407608 0 8.2487790285662227e-05 0.034639800726682005 0 8.2487790285662227e-05 0.034639800726682005 0 2.5864044550780679e-05 0.034941408831958669 0 -4.7400512210744368e-07 0.034715877864933561 0 -9.9420559977699742e-05 0.03447652159839644 0 2.9660349028751045e-05 0.034298460154407608 0 8.2487790285662227e-05 0.034639800726682005 0 -9.9420559977699742e-05 0.03447652159839644 0 8.2487790285662227e-05 0.034639800726682005 0 -4.7400512210744368e-07 0.034715877864933561 0 7.4106851012965869e-08 0.034999762264907856 0 9.4742768836934391e-08 0.034999740863352356 0 2.5864044550780679e-05 0.034941408831958669 0 7.4106851012965869e-08 0.034999762264907856 0 8.2487790285662227e-05 0.034639800726682005 0 2.5864044550780679e-05 0.034941408831958669 0 9.4742768836934391e-08 0.034999740863352356 0 2.5864044550780679e-05 0.034941408831958669 0 -1.9908502254029671e-06 0.034967560032671922 0 9.4742768836934391e-08 0.034999740863352356 0 -2.3537991826468244e-08 0.035000006671610059 0 -1.9908502254029671e-06 0.034967560032671922 0 -2.3537991826468244e-08 0.035000006671610059 0 -1.9908502254029671e-06 0.034967560032671922 0 -1.2506019930229488e-05 0.034971904870158541 0 -1.9908502254029671e-06 0.034967560032671922 0 -2.9680756207180215e-05 0.034938648908761208 0 -1.2506019930229488e-05 0.034971904870158541 0 2.5864044550780679e-05 0.034941408831958669 0 -1.9908502254029671e-06 0.034967560032671922 0 -2.9387113861097324e-05 0.034903568529931053 0 -1.9908502254029671e-06 0.034967560032671922 0 -2.9387113861097324e-05 0.034903568529931053 0 -2.9680756207180215e-05 0.034938648908761208 0 9.2263922449835921e-06 0.034876940677205918 0 5.1451605282955646e-05 0.034996295904655798 0 5.1451605282955646e-05 0.034996295904655798 0 -0.00066783359031412186 0.033193052158003299 0 -2.9387113861097324e-05 0.034903568529931053 0 -5.6205856304087135e-05 0.034902173497387161 0 -8.1925908469898497e-05 0.03485929731133193 0 -2.9387113861097324e-05 0.034903568529931053 0 -5.6205856304087135e-05 0.034902173497387161 0 -2.9680756207180215e-05 0.034938648908761208 0 -0.00034987716209054889 0.031997548702294779 0 -0.00029948572264801461 0.032121012042048758 0 -0.00051304606883329266 0.0321239771506601 0 -0.00019309528356150252 0.031022248538097031 0 -0.00072332790536671168 0.031104149090574591 0 -0.00019309528356150252 0.031022248538097031 0 -0.00066783359031412186 0.033193052158003299 0 -0.00072332790536671168 0.031104149090574591 0 -0.00066783359031412186 0.033193052158003299 0 -5.6205856304087135e-05 0.034902173497387161 0 -9.4008667663999186e-05 0.034862052720696979 0 -8.1925908469898497e-05 0.03485929731133193 0 0.00043198095084952682 0.028142687311710424 0 0.00050408405887097561 0.028114806117022155 0 0.00057765737690001421 0.028212727059168254 0 0.00043198095084952682 0.028142687311710424 0 0.00057765737690001421 0.028212727059168254 0 0.00051081752902259559 0.028227953906585095 0 -0.00019309528356150252 0.031022248538097031 0 0.00034284782302903616 0.031706062452704895 0 -5.6205856304087135e-05 0.034902173497387161 0 -9.4008667663999186e-05 0.034862052720696979 0 -5.5906005041213198e-05 0.034930039848226742 0 -5.6205856304087135e-05 0.034902173497387161 0 -5.5906005041213198e-05 0.034930039848226742 0 -2.9680756207180215e-05 0.034938648908761208 0 -5.5906005041213198e-05 0.034930039848226742 0 -2.9680756207180215e-05 0.034938648908761208 0 -1.2506019930229488e-05 0.034971904870158541 0 -5.5906005041213198e-05 0.034930039848226742 0 -2.6283281859588253e-05 0.034958812769180704 0 -1.2506019930229488e-05 0.034971904870158541 0 0.00034284782302903616 0.031706062452704895 0 0.00029540577106598834 0.031569168740508434 0 0.00057765737690001421 0.028212727059168254 0 0.00051859820722146297 0.02832660564760886 0 0.00069411186073086231 0.02841880664288517 0 0.00057765737690001421 0.028212727059168254 0 0.00051081752902259559 0.028227953906585095 0 0.00051859820722146297 0.02832660564760886 0 0.00052125434772442593 0.028498574764053868 0 0.00051859820722146297 0.02832660564760886 0 0.00069411186073086231 0.02841880664288517 0 -9.6445712610168989e-06 0.034980088295995436 0 -2.6283281859588253e-05 0.034958812769180704 0 -1.2506019930229488e-05 0.034971904870158541 0 -9.6445712610168989e-06 0.034980088295995436 0 -5.1436483491906927e-10 0.034999960925787367 0 -1.2506019930229488e-05 0.034971904870158541 0 -2.3537991826468244e-08 0.035000006671610059 0 -5.1436483491906927e-10 0.034999960925787367 0 -1.2506019930229488e-05 0.034971904870158541 0 -0.0047719001646568462 -0.005049793487059499 0 -0.0043365649797778901 -0.004791718784911865 0 -0.0054448849577434085 -0.0047555840155812422 0 -0.0047719001646568462 -0.005049793487059499 0 -0.0043365649797778901 -0.004791718784911865 0 -0.0039763602790113817 -0.0049327700048912163 0 -0.0033769518282666055 -0.0043551351532563603 0 -0.0040010246000009228 -0.0027426505114174094 0 -0.0022843542299610751 -0.0036213348630263565 0 -0.002732280773204494 -0.0033542298614443432 0 -0.0032081593724429501 -0.0035326434179880958 0 -0.0022843542299610751 -0.0036213348630263565 0 -0.002732280773204494 -0.0033542298614443432 0 -0.0024638462663210889 -0.0033032297413761826 0 -0.002732280773204494 -0.0033542298614443432 0 -0.0024638462663210889 -0.0033032297413761826 0 -0.0027061856860143927 -0.0031213033993533782 0 -0.0022843542299610751 -0.0036213348630263565 0 -0.0024638462663210889 -0.0033032297413761826 0 -0.0022474710732664068 -0.0033661864650550446 0 -0.0033467738251881447 -0.0051220844977917365 0 -0.0039763602790113817 -0.0049327700048912163 0 -0.0029216360310929858 -0.0047691906478967818 0 -0.0033769518282666055 -0.0043551351532563603 0 -0.002105059770278622 -0.0043638085883473052 0 -0.0022843542299610751 -0.0036213348630263565 0 -0.0020644756068078189 -0.0034702960004835315 0 -0.0018271164345114309 -0.0036257931761131562 0 -0.0022843542299610751 -0.0036213348630263565 0 -0.0022474710732664068 -0.0033661864650550446 0 -0.0020644756068078189 -0.0034702960004835315 0 -0.0043365649797778901 -0.004791718784911865 0 -0.0039763602790113817 -0.0049327700048912163 0 -0.0029216360310929858 -0.0047691906478967818 0 -0.0022843542299610751 -0.0036213348630263565 0 -0.0018271164345114309 -0.0036257931761131562 0 -0.0014693128746209438 -0.003939111198933417 0 -0.0018271164345114309 -0.0036257931761131562 0 -0.0016116391508678956 -0.003724691293620385 0 -0.0016754596793843635 -0.0035851426564209041 0 -0.0018271164345114309 -0.0036257931761131562 0 -0.0018551460881206878 -0.003399195980054654 0 -0.0016754596793843635 -0.0035851426564209041 0 -0.0020644756068078189 -0.0034702960004835315 0 -0.0018271164345114309 -0.0036257931761131562 0 -0.0018551460881206878 -0.003399195980054654 0 -0.0033467738251881447 -0.0051220844977917365 0 -0.0039763602790113817 -0.0049327700048912163 0 -0.0037296577261164403 -0.0052515412763940823 0 -0.0039763602790113817 -0.0049327700048912163 0 -0.003951241628049473 -0.0055576801303612788 0 -0.0037296577261164403 -0.0052515412763940823 0 -0.0039763602790113817 -0.0049327700048912163 0 -0.003951241628049473 -0.0055576801303612788 0 -0.0044788395495702748 -0.0057040843267009535 0 -0.003951241628049473 -0.0055576801303612788 0 -0.0037296577261164403 -0.0052515412763940823 0 -0.003360369384030427 -0.0057461937763932163 0 -0.0033467738251881447 -0.0051220844977917365 0 -0.0037296577261164403 -0.0052515412763940823 0 -0.003360369384030427 -0.0057461937763932163 0 -0.003951241628049473 -0.0055576801303612788 0 -0.003360369384030427 -0.0057461937763932163 0 -0.0038192037599886703 -0.0060666101383374483 0 -0.003360369384030427 -0.0057461937763932163 0 -0.0038192037599886703 -0.0060666101383374483 0 -0.0032664431352565711 -0.0066079050851058649 0 -0.003951241628049473 -0.0055576801303612788 0 -0.0042269249745176991 -0.0059708905949956061 0 -0.0038192037599886703 -0.0060666101383374483 0 -0.003951241628049473 -0.0055576801303612788 0 -0.0042269249745176991 -0.0059708905949956061 0 -0.0044788395495702748 -0.0057040843267009535 0 -0.0042269249745176991 -0.0059708905949956061 0 -0.0038192037599886703 -0.0060666101383374483 0 -0.0042568868606472285 -0.0065044650190904645 0 -0.0047719001646568462 -0.005049793487059499 0 -0.0039763602790113817 -0.0049327700048912163 0 -0.0050696031802828076 -0.0056949012958210938 0 -0.0039763602790113817 -0.0049327700048912163 0 -0.0044788395495702748 -0.0057040843267009535 0 -0.0053472559413956346 -0.0060346896978231762 0 -0.0042269249745176991 -0.0059708905949956061 0 -0.0046967980233915962 -0.0061143870912460487 0 -0.0042568868606472285 -0.0065044650190904645 0 -0.0043517096099773894 -0.0055294880816270922 0 -0.0046770895709968025 -0.0042936707205473114 0 -0.0042269249745176991 -0.0059708905949956061 0 -0.0046967980233915962 -0.0061143870912460487 0 -0.0044788395495702748 -0.0057040843267009535 0 -0.0046967980233915962 -0.0061143870912460487 0 -0.0044788395495702748 -0.0057040843267009535 0 -0.0053472559413956346 -0.0060346896978231762 0 -0.0046967980233915962 -0.0061143870912460487 0 -0.0053472559413956346 -0.0060346896978231762 0 -0.005173075447079822 -0.0063220163145890785 0 -0.0046770895709968025 -0.0042936707205473114 0 -0.0040010246000009228 -0.0027426505114174094 0 -0.0046770895709968025 -0.0042936707205473114 0 -0.0045610421314792159 -0.0054822107661438961 0 -0.0047719001646568462 -0.005049793487059499 0 -0.0050696031802828076 -0.0056949012958210938 0 -0.0054448849577434085 -0.0047555840155812422 0 -0.0032162767014324977 -0.0011065294778394219 0 -0.003434831349827435 -0.00087299978129669212 0 -0.0034138479205060531 -0.00074816638685217039 0 -0.0032162767014324977 -0.0011065294778394219 0 -0.0033688014305901519 -0.0010429661424340301 0 -0.0034415184742550529 -0.0011774683003028411 0 -0.0033688014305901519 -0.0010429661424340301 0 -0.0034926089778049688 -0.0010283360694968411 0 -0.0034415184742550529 -0.0011774683003028411 0 -0.0033688014305901519 -0.0010429661424340301 0 -0.0034394409392009694 -0.00096046394432434707 0 -0.0034926089778049688 -0.0010283360694968411 0 -0.0033688014305901519 -0.0010429661424340301 0 -0.0034394409392009694 -0.00096046394432434707 0 -0.003434831349827435 -0.00087299978129669212 0 -0.0032162767014324977 -0.0011065294778394219 0 -0.0033688014305901519 -0.0010429661424340301 0 -0.003434831349827435 -0.00087299978129669212 0 -0.0034926089778049688 -0.0010283360694968411 0 -0.0036552969313710616 -0.00082925855107112366 0 -0.0035617311612760319 -0.0012056477591471167 0 -0.0036552969313710616 -0.00082925855107112366 0 -0.0035617311612760319 -0.0012056477591471167 0 -0.0037780920600132208 -0.00125378122268304 0 -0.0034926089778049688 -0.0010283360694968411 0 -0.0035617311612760319 -0.0012056477591471167 0 -0.0034415184742550529 -0.0011774683003028411 0 -0.0034926089778049688 -0.0010283360694968411 0 -0.0035123769430942054 -0.00089581174813602366 0 -0.0036552969313710616 -0.00082925855107112366 0 -0.0034394409392009694 -0.00096046394432434707 0 -0.0034926089778049688 -0.0010283360694968411 0 -0.0035123769430942054 -0.00089581174813602366 0 -0.0034394409392009694 -0.00096046394432434707 0 -0.003434831349827435 -0.00087299978129669212 0 -0.0035123769430942054 -0.00089581174813602366 0 -0.003434831349827435 -0.00087299978129669212 0 -0.0035123769430942054 -0.00089581174813602366 0 -0.0035480588317377665 -0.0008125476920097421 0 -0.0035123769430942054 -0.00089581174813602366 0 -0.0036552969313710616 -0.00082925855107112366 0 -0.0035480588317377665 -0.0008125476920097421 0 -0.0036552969313710616 -0.00082925855107112366 0 -0.0035780897699696176 -0.00074816099797850885 0 -0.0035919431273503024 -0.00071921086731950839 0 -0.003510465295670691 -0.00076149894020611521 0 -0.0034945564838496498 -0.00076367686176994677 0 -0.0036273933010489193 -0.00072134061651867769 0 -0.0036552969313710616 -0.00082925855107112366 0 -0.0035480588317377665 -0.0008125476920097421 0 -0.0035780897699696176 -0.00074816099797850885 0 -0.0035480588317377665 -0.0008125476920097421 0 -0.003510465295670691 -0.00076149894020611521 0 -0.0035780897699696176 -0.00074816099797850885 0 -0.003434831349827435 -0.00087299978129669212 0 -0.0035480588317377665 -0.0008125476920097421 0 -0.0034706531551748731 -0.00079931674942937652 0 -0.0035480588317377665 -0.0008125476920097421 0 -0.003510465295670691 -0.00076149894020611521 0 -0.0034706531551748731 -0.00079931674942937652 0 -0.003510465295670691 -0.00076149894020611521 0 -0.0034706531551748731 -0.00079931674942937652 0 -0.0034138479205060531 -0.00074816638685217039 0 -0.0037475799447044904 -0.0024047063440699582 0 -0.0040010246000009228 -0.0027426505114174094 0 -0.003434831349827435 -0.00087299978129669212 0 -0.0034706531551748731 -0.00079931674942937652 0 -0.0034138479205060531 -0.00074816638685217039 0 -0.002732280773204494 -0.0033542298614443432 0 -0.0032081593724429501 -0.0035326434179880958 0 -0.003027155633106288 -0.0030375063006463131 0 -0.0032081593724429501 -0.0035326434179880958 0 -0.003027155633106288 -0.0030375063006463131 0 -0.0035307154090466033 -0.0024434409233006949 0 -0.002732280773204494 -0.0033542298614443432 0 -0.003027155633106288 -0.0030375063006463131 0 -0.0027061856860143927 -0.0031213033993533782 0 -0.003027155633106288 -0.0030375063006463131 0 -0.0027643050351048881 -0.0027102165277101227 0 -0.0027061856860143927 -0.0031213033993533782 0 -0.003027155633106288 -0.0030375063006463131 0 -0.0027643050351048881 -0.0027102165277101227 0 -0.0035307154090466033 -0.0024434409233006949 0 -0.0035780897699696176 -0.00074816099797850885 0 -0.0036273933010489193 -0.00072134061651867769 0 -0.0035919431273503024 -0.00071921086731950839 0 -0.003510465295670691 -0.00076149894020611521 0 -0.0035780897699696176 -0.00074816099797850885 0 -0.0036273933010489193 -0.00072134061651867769 0 -0.0040010246000009228 -0.0027426505114174094 0 -0.0034903239050543501 -0.0014929487156548004 0 -0.0034903239050543501 -0.0014929487156548004 0 -0.0036035102397284631 -0.0011529481937817816 0 -0.0036273933010489193 -0.00072134061651867769 0 -0.0035438131022512589 -0.000722835453863136 0 -0.0035779478001113176 -0.001046914092436361 0 -0.0035307154090466033 -0.0024434409233006949 0 -0.0035779478001113176 -0.001046914092436361 0 -0.0031420266586905097 -0.0014438459574968186 0 -0.0035307154090466033 -0.0024434409233006949 0 -0.0027542868279821667 -0.002006828741779041 0 -0.0031420266586905097 -0.0014438459574968186 0 -0.0027643050351048881 -0.0027102165277101227 0 -0.0035307154090466033 -0.0024434409233006949 0 -0.0027542868279821667 -0.002006828741779041 0 -0.0027542868279821667 -0.002006828741779041 0 -0.0023267411966840959 -0.0024291521763096335 0 -0.0021885854860014572 -0.0018505751232319391 0 -0.0027643050351048881 -0.0027102165277101227 0 -0.0027542868279821667 -0.002006828741779041 0 -0.0023267411966840959 -0.0024291521763096335 0 -0.0027643050351048881 -0.0027102165277101227 0 -0.0023267411966840959 -0.0024291521763096335 0 -0.0023603800277660182 -0.0030298980951012286 0 -0.0023267411966840959 -0.0024291521763096335 0 -0.0023603800277660182 -0.0030298980951012286 0 -0.0020142634750168822 -0.0027852379528418053 0 -0.0022474710732664068 -0.0033661864650550446 0 -0.0023603800277660182 -0.0030298980951012286 0 -0.0020647967652284217 -0.0032048759118976306 0 -0.0024638462663210889 -0.0033032297413761826 0 -0.0022474710732664068 -0.0033661864650550446 0 -0.0023603800277660182 -0.0030298980951012286 0 -0.0024638462663210889 -0.0033032297413761826 0 -0.0023603800277660182 -0.0030298980951012286 0 -0.0027061856860143927 -0.0031213033993533782 0 -0.0027643050351048881 -0.0027102165277101227 0 -0.0023603800277660182 -0.0030298980951012286 0 -0.0027061856860143927 -0.0031213033993533782 0 -0.0018551460881206878 -0.003399195980054654 0 -0.0020647967652284217 -0.0032048759118976306 0 -0.0018385876265981406 -0.0031150478099179865 0 -0.0018551460881206878 -0.003399195980054654 0 -0.0018385876265981406 -0.0031150478099179865 0 -0.0016398450727481328 -0.0033359606103562428 0 -0.0018551460881206878 -0.003399195980054654 0 -0.0016398450727481328 -0.0033359606103562428 0 -0.0016754596793843635 -0.0035851426564209041 0 -0.0020644756068078189 -0.0034702960004835315 0 -0.0018551460881206878 -0.003399195980054654 0 -0.0020647967652284217 -0.0032048759118976306 0 -0.0022474710732664068 -0.0033661864650550446 0 -0.0020644756068078189 -0.0034702960004835315 0 -0.0020647967652284217 -0.0032048759118976306 0 -0.0020647967652284217 -0.0032048759118976306 0 -0.0020142634750168822 -0.0027852379528418053 0 -0.0018385876265981406 -0.0031150478099179865 0 -0.0023603800277660182 -0.0030298980951012286 0 -0.0020647967652284217 -0.0032048759118976306 0 -0.0020142634750168822 -0.0027852379528418053 0 -0.0018385876265981406 -0.0031150478099179865 0 -0.0016398450727481328 -0.0033359606103562428 0 -0.0015977515465645591 -0.0029205729848307002 0 -0.0020142634750168822 -0.0027852379528418053 0 -0.0018385876265981406 -0.0031150478099179865 0 -0.0015977515465645591 -0.0029205729848307002 0 -0.0020142634750168822 -0.0027852379528418053 0 -0.0018483423165044602 -0.0023382376697937187 0 -0.0015977515465645591 -0.0029205729848307002 0 -0.0023267411966840959 -0.0024291521763096335 0 -0.0020142634750168822 -0.0027852379528418053 0 -0.0018483423165044602 -0.0023382376697937187 0 -0.0023267411966840959 -0.0024291521763096335 0 -0.0018483423165044602 -0.0023382376697937187 0 -0.0021885854860014572 -0.0018505751232319391 0 -0.0018483423165044602 -0.0023382376697937187 0 -0.0013858780049693222 -0.0024268234262164088 0 -0.0016682785692951048 -0.0019118737004936975 0 -0.0018483423165044602 -0.0023382376697937187 0 -0.0013858780049693222 -0.0024268234262164088 0 -0.0015977515465645591 -0.0029205729848307002 0 -0.0013858780049693222 -0.0024268234262164088 0 -0.00099234777261111634 -0.0031109118761484156 0 -0.0015977515465645591 -0.0029205729848307002 0 -0.0013858780049693222 -0.0024268234262164088 0 -0.00085532897369858046 -0.0023560325542042854 0 -0.00099234777261111634 -0.0031109118761484156 0 -0.0013858780049693222 -0.0024268234262164088 0 -0.00085532897369858046 -0.0023560325542042854 0 -0.0012522689305669249 -0.0019304587308228813 0 -0.00085532897369858046 -0.0023560325542042854 0 -0.00099234777261111634 -0.0031109118761484156 0 0.00012583379121143469 -0.002568044944715278 0 -0.00099234777261111634 -0.0031109118761484156 0 -0.00040259825175890045 -0.0036377662297376314 0 0.00012583379121143469 -0.002568044944715278 0 -0.00099234777261111634 -0.0031109118761484156 0 -0.00089435977526830979 -0.0037532034533817623 0 -0.0013237632310084465 -0.0034836306985880322 0 -0.00099234777261111634 -0.0031109118761484156 0 -0.00040259825175890045 -0.0036377662297376314 0 -0.00089435977526830979 -0.0037532034533817623 0 -0.00089435977526830979 -0.0037532034533817623 0 -0.0013237632310084465 -0.0034836306985880322 0 -0.0011380224704075686 -0.0038919770912403378 0 -0.0013237632310084465 -0.0034836306985880322 0 -0.0016398450727481328 -0.0033359606103562428 0 -0.0015977515465645591 -0.0029205729848307002 0 -0.0013237632310084465 -0.0034836306985880322 0 -0.0016398450727481328 -0.0033359606103562428 0 -0.0014641641613145206 -0.0036962930329745079 0 -0.0016398450727481328 -0.0033359606103562428 0 -0.0016754596793843635 -0.0035851426564209041 0 -0.0014641641613145206 -0.0036962930329745079 0 -0.00099234777261111634 -0.0031109118761484156 0 -0.0013237632310084465 -0.0034836306985880322 0 -0.0015977515465645591 -0.0029205729848307002 0 0.0015797325472157568 -0.0062430654080219885 0 0.0011435991413353487 -0.0060994119784274093 0 0.0015611520265161056 -0.0058124078437549846 0 0.00062746183834995939 -0.0043145585394322415 0 0.0013311621668727735 -0.0054847185947732814 0 0.00012583379121143469 -0.002568044944715278 0 0.0011770867400494054 -0.0043559089001372394 0 0.0002087196156846938 -0.0041526642724872371 0 -0.00040259825175890045 -0.0036377662297376314 0 0.00012583379121143469 -0.002568044944715278 0 0.0002087196156846938 -0.0041526642724872371 0 0.0015797325472157568 -0.0062430654080219885 0 0.0015370827283917399 -0.0065863712448137263 0 0.001869637417296894 -0.0066432648471263485 0 0.0015797325472157568 -0.0062430654080219885 0 0.0011435991413353487 -0.0060994119784274093 0 0.0015370827283917399 -0.0065863712448137263 0 0.0013311621668727735 -0.0054847185947732814 0 0.0018150474240577301 -0.0066480731350457099 0 0.0011770867400494054 -0.0043559089001372394 0 0.0002087196156846938 -0.0041526642724872371 0 0.00062201843473926488 -0.0059200174753011418 0 0.0002087196156846938 -0.0041526642724872371 0 0.00062201843473926488 -0.0059200174753011418 0 -0.00045972219139315656 -0.0046836369763056671 0 -0.00040259825175890045 -0.0036377662297376314 0 0.0002087196156846938 -0.0041526642724872371 0 -0.00045972219139315656 -0.0046836369763056671 0 0.00062201843473926488 -0.0059200174753011418 0 0.0008336907074094536 -0.0070186604524767058 0 -0.00042065026428653586 -0.0067973278890891761 0 -0.00038211372804568033 -0.0056650318618815332 0 0.00062201843473926488 -0.0059200174753011418 0 -0.00042065026428653586 -0.0067973278890891761 0 -0.00038211372804568033 -0.0056650318618815332 0 0.00062201843473926488 -0.0059200174753011418 0 -0.00045972219139315656 -0.0046836369763056671 0 0.0011770867400494054 -0.0043559089001372394 0 0.00062201843473926488 -0.0059200174753011418 0 0.001830010820912437 -0.0067659125625662868 0 0.00062201843473926488 -0.0059200174753011418 0 0.0008336907074094536 -0.0070186604524767058 0 0.001830010820912437 -0.0067659125625662868 0 -0.0026475774840740841 -0.004933651851734628 0 -0.0029216360310929858 -0.0047691906478967818 0 -0.0017276714948204774 -0.00495647240108614 0 -0.0026475774840740841 -0.004933651851734628 0 -0.0029628394644681845 -0.0050770039376686581 0 -0.0029086813537592586 -0.0054717629699610722 0 -0.0033467738251881447 -0.0051220844977917365 0 -0.0029628394644681845 -0.0050770039376686581 0 -0.0029216360310929858 -0.0047691906478967818 0 -0.0033467738251881447 -0.0051220844977917365 0 -0.0029628394644681845 -0.0050770039376686581 0 -0.0029086813537592586 -0.0054717629699610722 0 -0.0026475774840740841 -0.004933651851734628 0 -0.0029628394644681845 -0.0050770039376686581 0 -0.0029216360310929858 -0.0047691906478967818 0 -0.0018271164345114309 -0.0036257931761131562 0 -0.0014693128746209438 -0.003939111198933417 0 -0.0016116391508678956 -0.003724691293620385 0 -0.0014693128746209438 -0.003939111198933417 0 -0.0016116391508678956 -0.003724691293620385 0 -0.0014641641613145206 -0.0036962930329745079 0 -0.0016116391508678956 -0.003724691293620385 0 -0.0016754596793843635 -0.0035851426564209041 0 -0.0014641641613145206 -0.0036962930329745079 0 -0.0014693128746209438 -0.003939111198933417 0 -0.0014641641613145206 -0.0036962930329745079 0 -0.0011380224704075686 -0.0038919770912403378 0 -0.0013237632310084465 -0.0034836306985880322 0 -0.0014641641613145206 -0.0036962930329745079 0 -0.0011380224704075686 -0.0038919770912403378 0 -0.0014693128746209438 -0.003939111198933417 0 -0.0011380224704075686 -0.0038919770912403378 0 -0.00045972219139315656 -0.0046836369763056671 0 -0.002105059770278622 -0.0043638085883473052 0 -0.00053675399137337928 -0.0046201320901647731 0 -0.00089435977526830979 -0.0037532034533817623 0 -0.0011380224704075686 -0.0038919770912403378 0 -0.00045972219139315656 -0.0046836369763056671 0 -0.0029216360310929858 -0.0047691906478967818 0 -0.00045972219139315656 -0.0046836369763056671 0 -0.0017276714948204774 -0.00495647240108614 0 -0.00040259825175890045 -0.0036377662297376314 0 -0.00089435977526830979 -0.0037532034533817623 0 -0.00045972219139315656 -0.0046836369763056671 0 -0.00038211372804568033 -0.0056650318618815332 0 -0.00045972219139315656 -0.0046836369763056671 0 -0.0017276714948204774 -0.00495647240108614 0 -0.0016666407534389818 -0.0050650067304307224 0 -0.00049886824921710731 -0.0071292163156487587 0 -0.0017276714948204774 -0.00495647240108614 0 -0.0024417547122544819 -0.0077273624996787279 0 -0.000509327414597086 -0.0075356452352209127 0 -0.00038211372804568033 -0.0056650318618815332 0 -0.0017276714948204774 -0.00495647240108614 0 -0.00042065026428653586 -0.0067973278890891761 0 -0.0026475774840740841 -0.004933651851734628 0 -0.0029086813537592586 -0.0054717629699610722 0 -0.002292663741754374 -0.0065425082053190281 0 -0.0026475774840740841 -0.004933651851734628 0 -0.0017276714948204774 -0.00495647240108614 0 -0.0024417547122544819 -0.0077273624996787279 0 -0.0026311727961762354 -0.0050867538393204563 0 -0.0023572459709633657 -0.0071172846991133477 0 -0.003360369384030427 -0.0057461937763932163 0 -0.0029086813537592586 -0.0054717629699610722 0 -0.002292663741754374 -0.0065425082053190281 0 -0.0033467738251881447 -0.0051220844977917365 0 -0.003360369384030427 -0.0057461937763932163 0 -0.0029086813537592586 -0.0054717629699610722 0 -0.003360369384030427 -0.0057461937763932163 0 -0.002292663741754374 -0.0065425082053190281 0 -0.0032664431352565711 -0.0066079050851058649 0 -0.002292663741754374 -0.0065425082053190281 0 -0.0029513697914581249 -0.0076321807258325058 0 -0.0032664431352565711 -0.0066079050851058649 0 -0.0024417547122544819 -0.0077273624996787279 0 -0.00089519265329836663 -0.0092232381507071307 0 -0.000509327414597086 -0.0075356452352209127 0 -0.00089519265329836663 -0.0092232381507071307 0 -0.0020426231755412134 -0.010201171192954009 0 -0.00066881348179220258 -0.010893826215446979 0 -0.0024417547122544819 -0.0077273624996787279 0 -0.00089519265329836663 -0.0092232381507071307 0 -0.0020426231755412134 -0.010201171192954009 0 -0.002292663741754374 -0.0065425082053190281 0 -0.0018662576121815655 -0.0085175879256367115 0 -0.0029513697914581249 -0.0076321807258325058 0 -0.0018662576121815655 -0.0085175879256367115 0 -0.0029513697914581249 -0.0076321807258325058 0 -0.0032714376498457222 -0.0086714420786660664 0 -0.0023572459709633657 -0.0071172846991133477 0 -0.001948651453889927 -0.0093551063202906657 0 0.0008336907074094536 -0.0070186604524767058 0 0.001830010820912437 -0.0067659125625662868 0 0.0013733402259078183 -0.0075208634447847256 0 0.0008336907074094536 -0.0070186604524767058 0 0.0005219977865234442 -0.0079672645764021222 0 0.0013733402259078183 -0.0075208634447847256 0 -0.00049886824921710731 -0.0071292163156487587 0 0.00048970368633363291 -0.0087394592853634028 0 -0.00089519265329836663 -0.0092232381507071307 0 -0.000509327414597086 -0.0075356452352209127 0 0.00044977066215974598 -0.0098039258648254298 0 0.0008336907074094536 -0.0070186604524767058 0 -0.00042065026428653586 -0.0067973278890891761 0 0.0005219977865234442 -0.0079672645764021222 0 -0.00089519265329836663 -0.0092232381507071307 0 0.00044977066215974598 -0.0098039258648254298 0 -0.00066881348179220258 -0.010893826215446979 0 0.0005219977865234442 -0.0079672645764021222 0 0.0012540594819955341 -0.0081162981341487694 0 0.0013733402259078183 -0.0075208634447847256 0 0.00048970368633363291 -0.0087394592853634028 0 0.0009315681042682 -0.010994602019773925 0 0.00044977066215974598 -0.0098039258648254298 0 0.00032276436092675665 -0.011376926354994687 0 0.0014122749490340896 -0.011818900671478243 0 0.0005219977865234442 -0.0079672645764021222 0 0.0012540594819955341 -0.0081162981341487694 0 0.0011221024422917929 -0.0087281261142375215 0 0.00032276436092675665 -0.011376926354994687 0 0.00047590543042428968 -0.011979605834659204 0 0.00093501827755471893 -0.011884738028745132 0 0.00059474346490254279 -0.011418439284895519 0 0.0009315681042682 -0.010994602019773925 0 -0.00066881348179220258 -0.010893826215446979 0 0.00032276436092675665 -0.011376926354994687 0 -0.00029785421646216992 -0.012122566044716718 0 0.00044977066215974598 -0.0098039258648254298 0 -0.00066881348179220258 -0.010893826215446979 0 0.00032276436092675665 -0.011376926354994687 0 -0.00082565370572772049 -0.012748354664707699 0 -0.00017963411805150146 -0.012866052618468533 0 -0.00029785421646216992 -0.012122566044716718 0 -0.00017963411805150146 -0.012866052618468533 0 -0.00029785421646216992 -0.012122566044716718 0 0.00033631651074125167 -0.012507854551850901 0 0.00032276436092675665 -0.011376926354994687 0 -0.00029785421646216992 -0.012122566044716718 0 0.00047590543042428968 -0.011979605834659204 0 -0.00029785421646216992 -0.012122566044716718 0 0.00047590543042428968 -0.011979605834659204 0 0.00033631651074125167 -0.012507854551850901 0 0.00047590543042428968 -0.011979605834659204 0 0.00093501827755471893 -0.011884738028745132 0 0.00075770668397778438 -0.01231994168107471 0 0.00047590543042428968 -0.011979605834659204 0 0.00033631651074125167 -0.012507854551850901 0 0.00075770668397778438 -0.01231994168107471 0 0.00031785680300414521 -0.012973835193580857 0 0.00033631651074125167 -0.012507854551850901 0 0.00077450671459557011 -0.012811299954435156 0 0.00033631651074125167 -0.012507854551850901 0 0.00077450671459557011 -0.012811299954435156 0 0.00075770668397778438 -0.01231994168107471 0 0.00077450671459557011 -0.012811299954435156 0 0.0011081349993999948 -0.012477348814858007 0 0.0012862095071102264 -0.013158837846349476 0 0.00077450671459557011 -0.012811299954435156 0 0.0011081349993999948 -0.012477348814858007 0 0.00075770668397778438 -0.01231994168107471 0 0.0011081349993999948 -0.012477348814858007 0 0.00093501827755471893 -0.011884738028745132 0 0.00075770668397778438 -0.01231994168107471 0 0.0012821858910823654 -0.012217795802101673 0 0.0009315681042682 -0.010994602019773925 0 -0.0018662576121815655 -0.0085175879256367115 0 -0.0029480262856029231 -0.0099915895891126635 0 -0.0014588689022750738 -0.010699198104187653 0 -0.0018662576121815655 -0.0085175879256367115 0 -0.0029480262856029231 -0.0099915895891126635 0 -0.0032714376498457222 -0.0086714420786660664 0 -0.0020426231755412134 -0.010201171192954009 0 -0.00066881348179220258 -0.010893826215446979 0 -0.0015285615865681577 -0.012211864532485961 0 -0.001948651453889927 -0.0093551063202906657 0 -0.0015051966198268735 -0.011467344381413584 0 -0.00082565370572772049 -0.012748354664707699 0 -0.00029785421646216992 -0.012122566044716718 0 -0.0015285615865681577 -0.012211864532485961 0 -0.00066881348179220258 -0.010893826215446979 0 -0.00029785421646216992 -0.012122566044716718 0 -0.0015285615865681577 -0.012211864532485961 0 -0.0029480262856029231 -0.0099915895891126635 0 -0.0014588689022750738 -0.010699198104187653 0 -0.0026409665299038576 -0.011223528321339698 0 -0.0015583077365333674 -0.012549581935274778 0 -0.0014588689022750738 -0.010699198104187653 0 -0.0026409665299038576 -0.011223528321339698 0 -0.0029480262856029231 -0.0099915895891126635 0 -0.0026409665299038576 -0.011223528321339698 0 -0.0033925852993407909 -0.010736908668712859 0 -0.0026409665299038576 -0.011223528321339698 0 -0.0039320087443951201 -0.011413287602952139 0 -0.0033925852993407909 -0.010736908668712859 0 -0.0039320087443951201 -0.011413287602952139 0 -0.0040237781173562952 -0.010318385656517728 0 -0.0033925852993407909 -0.010736908668712859 0 -0.0039320087443951201 -0.011413287602952139 0 -0.0040237781173562952 -0.010318385656517728 0 -0.0048523768418521265 -0.01047546559214514 0 -0.0029480262856029231 -0.0099915895891126635 0 -0.0040237781173562952 -0.010318385656517728 0 -0.0033925852993407909 -0.010736908668712859 0 -0.0039320087443951201 -0.011413287602952139 0 -0.0048523768418521265 -0.01047546559214514 0 -0.0060503622649854894 -0.010540029533853065 0 -0.0039911075646252934 -0.011300328200190668 0 -0.0068882682094274471 -0.010816971667739518 0 -0.0042492615742299412 -0.01127131620302513 0 -0.0065590245826468562 -0.010878825045337133 0 -0.0068881084161298784 -0.010009789729759114 0 -0.0040237781173562952 -0.010318385656517728 0 -0.0048523768418521265 -0.01047546559214514 0 -0.0048913164513442664 -0.0097521955137127875 0 -0.0048523768418521265 -0.01047546559214514 0 -0.0055134356851921544 -0.010056360029455674 0 -0.0048913164513442664 -0.0097521955137127875 0 -0.0048523768418521265 -0.01047546559214514 0 -0.0055134356851921544 -0.010056360029455674 0 -0.0060503622649854894 -0.010540029533853065 0 -0.0055206829720065706 -0.0094855462843621875 0 -0.0048913164513442664 -0.0097521955137127875 0 -0.0050655328820961472 -0.009016318335721132 0 -0.0055134356851921544 -0.010056360029455674 0 -0.0055206829720065706 -0.0094855462843621875 0 -0.0048913164513442664 -0.0097521955137127875 0 -0.0050655328820961472 -0.009016318335721132 0 -0.0042089471973510931 -0.0093095388796896189 0 -0.0045356333790675576 -0.0084078387244491681 0 -0.0048913164513442664 -0.0097521955137127875 0 -0.0050655328820961472 -0.009016318335721132 0 -0.0042089471973510931 -0.0093095388796896189 0 -0.0055206829720065706 -0.0094855462843621875 0 -0.0050655328820961472 -0.009016318335721132 0 -0.0058582129881984066 -0.0089281821489149808 0 -0.0029480262856029231 -0.0099915895891126635 0 -0.0040237781173562952 -0.010318385656517728 0 -0.0042089471973510931 -0.0093095388796896189 0 -0.0040237781173562952 -0.010318385656517728 0 -0.0048913164513442664 -0.0097521955137127875 0 -0.0042089471973510931 -0.0093095388796896189 0 -0.0042089471973510931 -0.0093095388796896189 0 -0.0032714376498457222 -0.0086714420786660664 0 -0.0045356333790675576 -0.0084078387244491681 0 -0.0029480262856029231 -0.0099915895891126635 0 -0.0042089471973510931 -0.0093095388796896189 0 -0.0032714376498457222 -0.0086714420786660664 0 -0.0029513697914581249 -0.0076321807258325058 0 -0.0032714376498457222 -0.0086714420786660664 0 -0.003887991658442177 -0.0076156377294737182 0 -0.003887991658442177 -0.0076156377294737182 0 -0.0045356333790675576 -0.0084078387244491681 0 -0.0049819819443272708 -0.0076136904212052714 0 -0.0032714376498457222 -0.0086714420786660664 0 -0.003887991658442177 -0.0076156377294737182 0 -0.0045356333790675576 -0.0084078387244491681 0 -0.0050655328820961472 -0.009016318335721132 0 -0.0045356333790675576 -0.0084078387244491681 0 -0.0053245425811422296 -0.0082188869494597434 0 -0.0045356333790675576 -0.0084078387244491681 0 -0.0053245425811422296 -0.0082188869494597434 0 -0.0049819819443272708 -0.0076136904212052714 0 -0.0050655328820961472 -0.009016318335721132 0 -0.0053245425811422296 -0.0082188869494597434 0 -0.0058582129881984066 -0.0089281821489149808 0 -0.0053245425811422296 -0.0082188869494597434 0 -0.0060956191889525446 -0.0083281700590374565 0 -0.0058582129881984066 -0.0089281821489149808 0 -0.0053245425811422296 -0.0082188869494597434 0 -0.0057591786517972188 -0.0077930249966425818 0 -0.0060956191889525446 -0.0083281700590374565 0 -0.0057591786517972188 -0.0077930249966425818 0 -0.0049819819443272708 -0.0076136904212052714 0 -0.0061205328883300845 -0.0071194603661589922 0 -0.0053245425811422296 -0.0082188869494597434 0 -0.0057591786517972188 -0.0077930249966425818 0 -0.0049819819443272708 -0.0076136904212052714 0 -0.0042568868606472285 -0.0065044650190904645 0 -0.005173075447079822 -0.0063220163145890785 0 -0.0053434435873608637 -0.0066975101086387571 0 -0.0049819819443272708 -0.0076136904212052714 0 -0.0042568868606472285 -0.0065044650190904645 0 -0.0061205328883300845 -0.0071194603661589922 0 -0.0042511286046925337 -0.006454040577549741 0 -0.0059546908175132631 -0.0071358295135644416 0 -0.0046967980233915962 -0.0061143870912460487 0 -0.0042568868606472285 -0.0065044650190904645 0 -0.005173075447079822 -0.0063220163145890785 0 -0.0038192037599886703 -0.0060666101383374483 0 -0.0042568868606472285 -0.0065044650190904645 0 -0.0032664431352565711 -0.0066079050851058649 0 -0.003887991658442177 -0.0076156377294737182 0 -0.0042568868606472285 -0.0065044650190904645 0 -0.0032664431352565711 -0.0066079050851058649 0 -0.0029513697914581249 -0.0076321807258325058 0 -0.003887991658442177 -0.0076156377294737182 0 -0.0032664431352565711 -0.0066079050851058649 0 -0.003887991658442177 -0.0076156377294737182 0 -0.0049819819443272708 -0.0076136904212052714 0 -0.0042568868606472285 -0.0065044650190904645 0 -0.0061264974497196849 -0.0067698520518140598 0 -0.0053434435873608637 -0.0066975101086387571 0 -0.0061518378279182117 -0.0069380628789991522 0 -0.0048807023522354611 -0.0033727543016970887 0 -0.0037109859726315139 -0.00078725901834811817 0 -0.0035919846979180765 -0.0015718132684594194 0 -0.0035617311612760319 -0.0012056477591471167 0 -0.0037780920600132208 -0.00125378122268304 0 -0.0036055086612385039 -0.0014514918591913115 0 -0.0035617311612760319 -0.0012056477591471167 0 -0.0034415184742550529 -0.0011774683003028411 0 -0.0046770895709968025 -0.0042936707205473114 0 -0.0048807023522354611 -0.0033727543016970887 0 -0.0052720847245592267 -0.0061042956813964619 0 -0.0061264974497196849 -0.0067698520518140598 0 -0.0053434435873608637 -0.0066975101086387571 0 -0.0032162767014324977 -0.0011065294778394219 0 -0.0036055086612385039 -0.0014514918591913115 0 -0.0034415184742550529 -0.0011774683003028411 0 -0.0052720847245592267 -0.0061042956813964619 0 -0.005173075447079822 -0.0063220163145890785 0 -0.0053434435873608637 -0.0066975101086387571 0 -0.0061205328883300845 -0.0071194603661589922 0 -0.0070202366574293028 -0.0079439377472881618 0 -0.0064068526889883457 -0.0078800534117570362 0 -0.0059546908175132631 -0.0071358295135644416 0 -0.006124282291088046 -0.0053654809199717348 0 -0.0061205328883300845 -0.0071194603661589922 0 -0.0070202366574293028 -0.0079439377472881618 0 -0.0078542638923829421 -0.0077269390569365106 0 -0.0057591786517972188 -0.0077930249966425818 0 -0.0061205328883300845 -0.0071194603661589922 0 -0.0064068526889883457 -0.0078800534117570362 0 -0.0057591786517972188 -0.0077930249966425818 0 -0.0064068526889883457 -0.0078800534117570362 0 -0.0060956191889525446 -0.0083281700590374565 0 -0.0064068526889883457 -0.0078800534117570362 0 -0.0060956191889525446 -0.0083281700590374565 0 -0.0067882938928900049 -0.0084242257064690677 0 -0.0060956191889525446 -0.0083281700590374565 0 -0.0067882938928900049 -0.0084242257064690677 0 -0.0064786820406750913 -0.0089252235506031511 0 -0.0070202366574293028 -0.0079439377472881618 0 -0.0064068526889883457 -0.0078800534117570362 0 -0.0067882938928900049 -0.0084242257064690677 0 -0.0067882938928900049 -0.0084242257064690677 0 -0.0073837644276803262 -0.00868361710355409 0 -0.0069055885264010242 -0.0089572922566046979 0 -0.0070202366574293028 -0.0079439377472881618 0 -0.0073837644276803262 -0.00868361710355409 0 -0.0078542638923829421 -0.0077269390569365106 0 -0.0070202366574293028 -0.0079439377472881618 0 -0.0067882938928900049 -0.0084242257064690677 0 -0.0073837644276803262 -0.00868361710355409 0 -0.004755647413284699 -0.0022064090717205556 0 -0.004704385431063011 -0.0019574327957817203 0 -0.004653189935008995 -0.0021583019185740949 0 -0.0048807023522354611 -0.0033727543016970887 0 -0.0042503458259228136 -0.0025403846843018835 0 -0.0056992051008581826 -0.0042818563516835439 0 -0.0056080606721879873 -0.0036661006728702949 0 -0.0043405833775941741 -0.0032292090296152029 0 -0.006124282291088046 -0.0053654809199717348 0 -0.0042503458259228136 -0.0025403846843018835 0 -0.0048807023522354611 -0.0033727543016970887 0 -0.006124282291088046 -0.0053654809199717348 0 -0.006124282291088046 -0.0053654809199717348 0 -0.0060500002512847923 -0.0050123167296966349 0 -0.0071539531214684328 -0.0094279161817970962 0 -0.0081500219475985469 -0.0097559147568305159 0 -0.0060503622649854894 -0.010540029533853065 0 -0.0073837644276803262 -0.00868361710355409 0 -0.0078542638923829421 -0.0077269390569365106 0 -0.0081500219475985469 -0.0097559147568305159 0 -0.0073837644276803262 -0.00868361710355409 0 -0.0071539531214684328 -0.0094279161817970962 0 -0.0081500219475985469 -0.0097559147568305159 0 -0.0073837644276803262 -0.00868361710355409 0 -0.0071539531214684328 -0.0094279161817970962 0 -0.0069055885264010242 -0.0089572922566046979 0 -0.0060500002512847923 -0.0050123167296966349 0 -0.0041093640094707002 0.00052325977559698408 0 -0.0058582129881984066 -0.0089281821489149808 0 -0.0064786820406750913 -0.0089252235506031511 0 -0.0063605786536267426 -0.0097117793062406251 0 -0.0060956191889525446 -0.0083281700590374565 0 -0.0058582129881984066 -0.0089281821489149808 0 -0.0064786820406750913 -0.0089252235506031511 0 -0.0067237091375272331 -0.0092748469980874996 0 -0.0064786820406750913 -0.0089252235506031511 0 -0.0063605786536267426 -0.0097117793062406251 0 -0.0067237091375272331 -0.0092748469980874996 0 -0.0064786820406750913 -0.0089252235506031511 0 -0.0069055885264010242 -0.0089572922566046979 0 -0.0067882938928900049 -0.0084242257064690677 0 -0.0064786820406750913 -0.0089252235506031511 0 -0.0069055885264010242 -0.0089572922566046979 0 -0.0071539531214684328 -0.0094279161817970962 0 -0.0067237091375272331 -0.0092748469980874996 0 -0.0069055885264010242 -0.0089572922566046979 0 -0.0071539531214684328 -0.0094279161817970962 0 -0.0063605786536267426 -0.0097117793062406251 0 -0.0060503622649854894 -0.010540029533853065 0 -0.0071539531214684328 -0.0094279161817970962 0 -0.0067237091375272331 -0.0092748469980874996 0 -0.0063605786536267426 -0.0097117793062406251 0 -0.0055206829720065706 -0.0094855462843621875 0 -0.0058582129881984066 -0.0089281821489149808 0 -0.0063605786536267426 -0.0097117793062406251 0 -0.0055134356851921544 -0.010056360029455674 0 -0.0055206829720065706 -0.0094855462843621875 0 -0.0063605786536267426 -0.0097117793062406251 0 -0.0088600875913903959 -0.0090249937863450813 0 -0.0068881084161298784 -0.010009789729759114 0 -0.0077261314665347178 -0.0097427642872638508 0 -0.0055134356851921544 -0.010056360029455674 0 -0.0063605786536267426 -0.0097117793062406251 0 -0.0060503622649854894 -0.010540029533853065 0 -0.0066440456740991007 -0.010288374185015355 0 -0.0077261314665347178 -0.0097427642872638508 0 -0.0072145635414400961 -0.010238144377213373 0 -0.0062026424449547861 -0.010818435932596357 0 -0.0077111638712677611 -0.0098003811149636414 0 -0.0065590245826468562 -0.010878825045337133 0 -0.0068881084161298784 -0.010009789729759114 0 -0.0077261314665347178 -0.0097427642872638508 0 -0.0053774530553482502 -0.0025887346146662837 0 -0.0041093640094707002 0.00052325977559698408 0 -0.0077261314665347178 -0.0097427642872638508 0 -0.0072145635414400961 -0.010238144377213373 0 -0.0088967497480468855 -0.0093594911144847266 0 -0.0060500002512847923 -0.0050123167296966349 0 -0.0068882682094274471 -0.010816971667739518 0 -0.0023706784817189826 0.0052696405934409673 0 -0.0030665084906769595 0.0048661045398287689 0 -0.0024671254097637387 0.0045285666087590366 0 -0.0088600875913903959 -0.0090249937863450813 0 -0.0077261314665347178 -0.0097427642872638508 0 -0.0088967497480468855 -0.0093594911144847266 0 -0.0029383730547186022 0.0049705692468330403 0 -0.0036739960423880628 0.005481140618352618 0 -0.0038687641350509715 0.0041926597031091487 0 -0.0029383730547186022 0.0049705692468330403 0 -0.0038687641350509715 0.0041926597031091487 0 -0.0025278095523161301 0.003561891317823457 0 -0.0028830678390161122 0.0062421819276181267 0 -0.0041093640094707002 0.00052325977559698408 0 -0.004704385431063011 -0.0019574327957817203 0 -0.004653189935008995 -0.0021583019185740949 0 -0.004579409100530743 -0.0020866185802110178 0 -0.0041093640094707002 0.00052325977559698408 0 -0.0035960305659388041 0.00078218772688732903 0 -0.0060500002512847923 -0.0050123167296966349 0 -0.0035960305659388041 0.00078218772688732903 0 -0.004704385431063011 -0.0019574327957817203 0 -0.0044546601011202893 -0.0020136032779716827 0 -0.004579409100530743 -0.0020866185802110178 0 -0.0039090879051256354 -0.00093634318781174312 0 -0.0039202029333209312 -0.0010135917326010348 0 -0.0044610095968925295 -0.00069352073478330071 0 -0.0029383730547186022 0.0049705692468330403 0 -0.0025278095523161301 0.003561891317823457 0 -0.0018938349270641809 0.0047781974155375996 0 -0.0025278095523161301 0.003561891317823457 0 -0.0018938349270641809 0.0047781974155375996 0 -0.0013280156638295778 0.0041013426116635011 0 -0.00063474204258773725 0.0049813172406794476 0 -0.0013280156638295778 0.0041013426116635011 0 -0.00024422990390440916 0.0039851131349104996 0 -0.00063474204258773725 0.0049813172406794476 0 -0.0018938349270641809 0.0047781974155375996 0 -0.0013280156638295778 0.0041013426116635011 0 -0.0026095828541994243 0.0021491617443593347 0 -0.0026027536046962572 0.0018178791111172947 0 -0.00054287430782174156 0.0043715629522563387 0 -0.0021696678779912137 0.0017554616228630672 0 -0.0012563032484373849 0.005268465293562498 0 -0.0026095828541994243 0.0021491617443593347 0 -0.0033879175560358713 0.0022403296562249903 0 -0.00054287430782174156 0.0043715629522563387 0 -0.0013280156638295778 0.0041013426116635011 0 -0.0013296410098205976 0.0031703784700287656 0 -0.00024422990390440916 0.0039851131349104996 0 -0.0035960305659388041 0.00078218772688732903 0 -0.0021696678779912137 0.0017554616228630672 0 -0.0025278095523161301 0.003561891317823457 0 -0.0013280156638295778 0.0041013426116635011 0 -0.0013296410098205976 0.0031703784700287656 0 -0.0036382454480240276 2.1027084365183609e-05 0 -0.0042786305212812355 -0.0013196274730250673 0 -0.0044546601011202893 -0.0020136032779716827 0 -0.0046541091706298063 -0.0018235889932095757 0 -0.0048871638100175738 -0.0018497625240932525 0 -0.0036031342361918122 -0.00069773595782174434 0 -0.003588129338322049 -0.00070324655912238992 0 -0.003635274290520621 -0.0007373805736364022 0 -0.0035960305659388041 0.00078218772688732903 0 -0.0036382454480240276 2.1027084365183609e-05 0 -0.0034233492299175737 0.00098754278697113333 0 -0.0031031945938033915 0.00090047545848397689 0 -0.0031412191843292001 0.00087027143988334431 0 -0.0046541091706298063 -0.0018235889932095757 0 -0.0048871638100175738 -0.0018497625240932525 0 -0.0045829750637485156 -0.0015550747749485327 0 -0.0028230915452839797 0.0019359354596424085 0 -0.0028366655306561474 0.0019080054051145454 0 -0.0026044086252991826 0.001819240777656202 0 -0.0033879175560358713 0.0022403296562249903 0 -0.0028516030927234082 0.0015170704114244773 0 -0.0026095828541994243 0.0021491617443593347 0 -0.0026044086252991826 0.001819240777656202 0 -0.0033879175560358713 0.0022403296562249903 0 -0.0036382454480240276 2.1027084365183609e-05 0 -0.003335057491029155 0.00068087952325332642 0 -0.0033879175560358713 0.0022403296562249903 0 -0.0037606148076620594 0.001950493478735212 0 -0.0028516030927234082 0.0015170704114244773 0 -0.0021696678779912137 0.0017554616228630672 0 -0.0036382454480240276 2.1027084365183609e-05 0 -0.0034255356591371766 -0.00032251375151270224 0 -0.0034033801084249033 -0.00033370459896509127 0 -0.0034749998724802195 -0.00047006139473600134 0 -0.0026746952939788195 0.0038764692627326013 0 -0.0026724666782018971 0.0037864062330793457 0 -0.0024159032891532231 0.0038430018045604235 0 -0.0028366655306561474 0.0019080054051145454 0 -0.003335057491029155 0.00068087952325332642 0 -0.0030357133392182865 0.00090747549729619265 0 -0.0029064552484308614 0.0010645172751700114 0 -0.0030408205000820887 0.001129166178431525 0 -0.0028366655306561474 0.0019080054051145454 0 -0.0032395819086012147 0.0012208715910160092 0 -0.003335057491029155 0.00068087952325332642 0 -0.0032395819086012147 0.0012208715910160092 0 -0.0035134460965931301 0.0018621640555869891 0 -0.0030189885484512057 0.0011149219101556935 0 -0.0034989201274717861 0.0008262742921329527 0 -0.0034033801084249033 -0.00033370459896509127 0 -0.0034749998724802195 -0.00047006139473600134 0 -0.0034085140977718549 -0.00063026460467499384 0 -0.0032395819086012147 0.0012208715910160092 0 -0.0035678375531180222 4.405749848430583e-05 0 -0.0034255356591371766 -0.00032251375151270224 0 -0.0034749998724802195 -0.00047006139473600134 0 -0.0035852841864349775 -0.00056719640361383035 0 -0.003335057491029155 0.00068087952325332642 0 -0.0036926737548049864 -0.00090060919246782783 0 -0.003588129338322049 -0.00070324655912238992 0 -0.0036291099859721162 -0.00075376883063422648 0 -0.003635274290520621 -0.0007373805736364022 0 -0.0034749998724802195 -0.00047006139473600134 0 -0.0035852841864349775 -0.00056719640361383035 0 -0.0034989526058640153 -0.00058481359086276399 0 -0.0042786305212812355 -0.0013196274730250673 0 -0.003848488950156792 -0.00093877269779530639 0 -0.0036291099859721162 -0.00075376883063422648 0 -0.003635274290520621 -0.0007373805736364022 0 -0.0036255581057819844 -0.00075898115062374226 0 -0.0045829750637485156 -0.0015550747749485327 0 -0.0042523983262482247 -0.0015698858644321485 0 -0.0041667985021437426 -0.0011793616279801035 0 -0.0041667985021437426 -0.0011793616279801035 0 -0.0037780920600132208 -0.00125378122268304 0 -0.0039263496517687353 -0.001497974080268717 0 -0.0035919846979180765 -0.0015718132684594194 0 -0.0037780920600132208 -0.00125378122268304 0 -0.0039263496517687353 -0.001497974080268717 0 -0.0042523983262482247 -0.0015698858644321485 0 -0.0039263496517687353 -0.001497974080268717 0 -0.0040442521368608429 -0.0016459993895697024 0 -0.0042523983262482247 -0.0015698858644321485 0 -0.0041667985021437426 -0.0011793616279801035 0 -0.0039263496517687353 -0.001497974080268717 0 -0.004631453896901015 -0.0021723637787628776 0 -0.004579409100530743 -0.0020866185802110178 0 -0.0044625528397123854 -0.00198862477975988 0 -0.0042523983262482247 -0.0015698858644321485 0 -0.0040442521368608429 -0.0016459993895697024 0 -0.0042198887274507808 -0.0017481473906576744 0 -0.0038668310902631978 -0.001800228349838343 0 -0.0044625528397123854 -0.00198862477975988 0 -0.0042198887274507808 -0.0017481473906576744 0 -0.0042503458259228136 -0.0025403846843018835 0 -0.0044095921158463737 -0.0019024923052105615 0 -0.0040442521368608429 -0.0016459993895697024 0 -0.0038668310902631978 -0.001800228349838343 0 -0.0042198887274507808 -0.0017481473906576744 0 -0.0039263496517687353 -0.001497974080268717 0 -0.0040442521368608429 -0.0016459993895697024 0 -0.0038668310902631978 -0.001800228349838343 0 -0.0035919846979180765 -0.0015718132684594194 0 -0.0039263496517687353 -0.001497974080268717 0 -0.0038668310902631978 -0.001800228349838343 0 -0.0042503458259228136 -0.0025403846843018835 0 -0.0044199423161455599 -0.0023381239949575084 0 -0.0044546601011202893 -0.0020136032779716827 0 -0.004579409100530743 -0.0020866185802110178 0 -0.0044625528397123854 -0.00198862477975988 0 -0.0044625528397123854 -0.00198862477975988 0 -0.0044785348492053442 -0.0017510340511889516 0 -0.0042198887274507808 -0.0017481473906576744 0 -0.0045182486484065046 -0.0019127320285953601 0 -0.0044625528397123854 -0.00198862477975988 0 -0.0044785348492053442 -0.0017510340511889516 0 -0.0044546601011202893 -0.0020136032779716827 0 -0.0046541091706298063 -0.0018235889932095757 0 -0.0045182486484065046 -0.0019127320285953601 0 -0.0044546601011202893 -0.0020136032779716827 0 -0.0045182486484065046 -0.0019127320285953601 0 -0.0044625528397123854 -0.00198862477975988 0 -0.0046541091706298063 -0.0018235889932095757 0 -0.0045182486484065046 -0.0019127320285953601 0 -0.0044785348492053442 -0.0017510340511889516 0 -0.0046541091706298063 -0.0018235889932095757 0 -0.0045829750637485156 -0.0015550747749485327 0 -0.0044785348492053442 -0.0017510340511889516 0 -0.0045829750637485156 -0.0015550747749485327 0 -0.0042523983262482247 -0.0015698858644321485 0 -0.0044785348492053442 -0.0017510340511889516 0 -0.0042523983262482247 -0.0015698858644321485 0 -0.0044785348492053442 -0.0017510340511889516 0 -0.0042198887274507808 -0.0017481473906576744 0 -0.00083320057201953393 0.0072143253176619971 0 -0.00093724404743773652 0.0070422946584151663 0 -0.00092277412026920086 0.0073030570648866828 0 -0.00093724404743773652 0.0070422946584151663 0 -0.00092277412026920086 0.0073030570648866828 0 -0.0011070902507089695 0.0071704398262324122 0 -0.00025171293724211141 0.0072964414152581949 0 -0.00077618818594745408 0.007435533879764462 0 -0.00092277412026920086 0.0073030570648866828 0 -0.0013112943995059129 0.007381843668681054 0 -0.0011070902507089695 0.0071704398262324122 0 -0.0013112943995059129 0.007381843668681054 0 -0.0011070902507089695 0.0071704398262324122 0 -0.0012846767054335974 0.0069468895305848282 0 -0.00093724404743773652 0.0070422946584151663 0 -0.0011070902507089695 0.0071704398262324122 0 -0.0012846767054335974 0.0069468895305848282 0 -0.00093724404743773652 0.0070422946584151663 0 -0.0012846767054335974 0.0069468895305848282 0 -0.0011953258459229449 0.0067549490015620149 0 -0.0013112943995059129 0.007381843668681054 0 -0.0012846767054335974 0.0069468895305848282 0 -0.0015825558422726119 0.0069307925835714245 0 -0.0012846767054335974 0.0069468895305848282 0 -0.0015825558422726119 0.0069307925835714245 0 -0.0014122772670734235 0.0067191282011157373 0 -0.00094548634468103029 0.0065889973452679723 0 -0.0011365076468931238 0.0060880446030334035 0 -0.00098688932341967723 0.0065316436076354109 0 -0.00085015143423045395 0.0065231599527079782 0 -0.0012373422401696535 0.0062267583500300464 0 -0.0011218954130327986 0.0070109894789358619 0 -0.0011365076468931238 0.0060880446030334035 0 -0.00092478057727493287 0.0065792294553041692 0 -0.0010852619614380053 0.0065477203869027589 0 -0.0011120091360927377 0.0063397793393972701 0 -0.0013112943995059129 0.007381843668681054 0 -0.0015825558422726119 0.0069307925835714245 0 -0.001723015518814017 0.0070735797680136795 0 -0.0012316552525132385 0.0065820179902765221 0 -0.0010852619614380053 0.0065477203869027589 0 -0.0011120091360927377 0.0063397793393972701 0 -0.00087775017774301394 0.0057302938272742075 0 -0.0012563032484373849 0.005268465293562498 0 -0.0012316552525132385 0.0065820179902765221 0 -0.0011120091360927377 0.0063397793393972701 0 -0.0011338661060043436 0.006312515807857918 0 -0.0015825558422726119 0.0069307925835714245 0 -0.0017519391021538352 0.0070378254035813066 0 -0.0016378329466659571 0.0067227349053356217 0 -0.0012563032484373849 0.005268465293562498 0 -0.0019236164420666964 0.0055289068632159936 0 -0.0028366655306561474 0.0019080054051145454 0 -0.0012563032484373849 0.005268465293562498 0 -0.0015825558422726119 0.0069307925835714245 0 -0.001723015518814017 0.0070735797680136795 0 -0.0017519391021538352 0.0070378254035813066 0 -0.0011365076468931238 0.0060880446030334035 0 -0.0012563032484373849 0.005268465293562498 0 -0.0022362209875957158 0.0044192229772316407 0 -0.0024159032891532231 0.0038430018045604235 0 -0.002056016847096144 0.0039413360496323539 0 -0.0022954758370596529 0.0036189040730043305 0 -0.0019307832499421698 0.0034506631748408298 0 -0.002056016847096144 0.0039413360496323539 0 -0.0026746952939788195 0.0038764692627326013 0 -0.0022362209875957158 0.0044192229772316407 0 -0.0024159032891532231 0.0038430018045604235 0 -0.0024159032891532231 0.0038430018045604235 0 -0.0022954758370596529 0.0036189040730043305 0 -0.002056016847096144 0.0039413360496323539 0 -0.0032395819086012147 0.0012208715910160092 0 -0.0026765286694625276 0.0025877473885174019 0 -0.0026724666782018971 0.0037864062330793457 0 -0.0024159032891532231 0.0038430018045604235 0 -0.0022954758370596529 0.0036189040730043305 0 -0.0035134460965931301 0.0018621640555869891 0 -0.0030268860341828119 0.0016327456429203989 0 -0.0030189885484512057 0.0011149219101556935 0 -0.0025504515363099123 0.0031237153604708823 0 -0.0033786830787069884 0.0010855239588002169 0 -0.0030268860341828119 0.0016327456429203989 0 -0.0025395688808461559 0.0014079374736529243 0 -0.0030189885484512057 0.0011149219101556935 0 -0.0032445708412454366 0.0012553875929952789 0 -0.0033238055295805131 0.0011002761549386325 0 -0.0034796132935795928 0.0011652657122458901 0 -0.0026765286694625276 0.0025877473885174019 0 -0.0025504515363099123 0.0031237153604708823 0 -0.0019307832499421698 0.0034506631748408298 0 -0.0018811933720818666 0.0034808886219824644 0 -0.002056016847096144 0.0039413360496323539 0 -0.0025504515363099123 0.0031237153604708823 0 -0.0020618018728355936 0.0042634293781660991 0 -0.0032445708412454366 0.0012553875929952789 0 -0.0031993194934971285 0.0012303660186978346 0 -0.0032374781895618166 0.0010928450951950841 0 -0.0032445708412454366 0.0012553875929952789 0 -0.0033238055295805131 0.0011002761549386325 0 -0.0032374781895618166 0.0010928450951950841 0 -0.0025504515363099123 0.0031237153604708823 0 -0.0023877175768308046 0.0035214726708677796 0 -0.0018678016697162268 0.0031013500323186947 0 -0.0028191865739520747 0.0035585719854930266 0 -0.0024900905186777743 0.0027358703599150657 0 -0.0019337216543569918 0.0060838362832499118 0 -0.0018623651824001156 0.0061688527537846569 0 -0.0015644090572382576 0.0058973875222609069 0 -0.0023877175768308046 0.0035214726708677796 0 -0.0020618018728355936 0.0042634293781660991 0 -0.0020618018728355936 0.0042634293781660991 0 -0.0011621500907645754 0.0065916882316779581 0 -0.0019807791399865248 0.0061530003405385258 0 -0.0018623651824001156 0.0061688527537846569 0 -0.0014827498852151312 0.0064611328406415612 0 -0.0019337216543569918 0.0060838362832499118 0 -0.0019807791399865248 0.0061530003405385258 0 -0.0018623651824001156 0.0061688527537846569 0 -0.0015180125827211181 0.0063902461943432434 0 -0.0016378329466659571 0.0067227349053356217 0 -0.0014122772670734235 0.0067191282011157373 0 -0.0015180125827211181 0.0063902461943432434 0 -0.0014122772670734235 0.0067191282011157373 0 -0.0012555750033089645 0.0065589207172804869 0 -0.0020618018728355936 0.0042634293781660991 0 -0.0019236164420666964 0.0055289068632159936 0 -0.0015825558422726119 0.0069307925835714245 0 -0.0016378329466659571 0.0067227349053356217 0 -0.0014122772670734235 0.0067191282011157373 0 -0.0012846767054335974 0.0069468895305848282 0 -0.0014122772670734235 0.0067191282011157373 0 -0.0011953258459229449 0.0067549490015620149 0 -0.0011621500907645754 0.0065916882316779581 0 -0.0011072593587041436 0.0066538020112000109 0 -0.0014827498852151312 0.0064611328406415612 0 -0.0011053186217195308 0.0064232091427207649 0 -0.0009984979096543127 0.0067144293598429125 0 -0.0011953258459229449 0.0067549490015620149 0 -0.0012555750033089645 0.0065589207172804869 0 -0.0009984979096543127 0.0067144293598429125 0 -0.0014122772670734235 0.0067191282011157373 0 -0.0011953258459229449 0.0067549490015620149 0 -0.0012555750033089645 0.0065589207172804869 0 -0.0018623651824001156 0.0061688527537846569 0 -0.0014385938958410358 0.005997293290824348 0 -0.0015644090572382576 0.0058973875222609069 0 -0.0018623651824001156 0.0061688527537846569 0 -0.0014827498852151312 0.0064611328406415612 0 -0.0012601833536469297 0.0060018651220586968 0 -0.0015642695549807177 0.0060799101742035812 0 -0.0021746103232892122 0.0059173112156120471 0 -0.0023877175768308046 0.0035214726708677796 0 -0.0028210066024116267 0.0044066394727320206 0 -0.0021746103232892122 0.0059173112156120471 0 -0.0028210066024116267 0.0044066394727320206 0 -0.0014827498852151312 0.0064611328406415612 0 -0.0012601833536469297 0.0060018651220586968 0 -0.0011053186217195308 0.0064232091427207649 0 -0.0021746103232892122 0.0059173112156120471 0 -0.00087547232920176944 0.0089864389197003881 0 -0.0012601833536469297 0.0060018651220586968 0 -0.00070535710522544673 0.0065097577243177548 0 -0.0011053186217195308 0.0064232091427207649 0 -0.0012990453952639995 0.0076077346050767618 0 -0.0019084358242359904 0.0078017945080593402 0 -0.0014738724824594541 0.008152957543003941 0 -0.00074839485293733609 0.0061488700531835243 0 -0.00087547232920176944 0.0089864389197003881 0 -0.00093724404743773652 0.0070422946584151663 0 -0.00070535710522544673 0.0065097577243177548 0 -0.0009984979096543127 0.0067144293598429125 0 -0.00070535710522544673 0.0065097577243177548 0 -0.0011053186217195308 0.0064232091427207649 0 -0.0009984979096543127 0.0067144293598429125 0 -0.00093724404743773652 0.0070422946584151663 0 -0.0011953258459229449 0.0067549490015620149 0 -0.0009984979096543127 0.0067144293598429125 0 -0.0028000047357684367 0.0029901750254759225 0 -0.0031375038718907231 0.0034130495882444072 0 -0.0032560919019844086 0.002879604610171593 0 -0.0031375038718907231 0.0034130495882444072 0 -0.0035857571217832529 0.0035009740778859178 0 -0.0032560919019844086 0.002879604610171593 0 -0.0031375038718907231 0.0034130495882444072 0 -0.0034074264769584969 0.0037357633552002941 0 -0.0035857571217832529 0.0035009740778859178 0 -0.0027053729213585469 0.0035209576503054808 0 -0.0031375038718907231 0.0034130495882444072 0 -0.0029415912510899114 0.0039061114104136279 0 -0.0027053729213585469 0.0035209576503054808 0 -0.0028000047357684367 0.0029901750254759225 0 -0.0031375038718907231 0.0034130495882444072 0 -0.0014681335398790858 0.0085618040969039806 0 -0.0021746103232892122 0.0059173112156120471 0 -0.0024472657692526539 0.0040905121212382652 0 -0.003547134478025067 0.0044597509919422317 0 -0.0029415912510899114 0.0039061114104136279 0 -0.003547134478025067 0.0044597509919422317 0 -0.0029415912510899114 0.0039061114104136279 0 -0.0034161388857242569 0.0041138548194925755 0 -0.0031375038718907231 0.0034130495882444072 0 -0.0029415912510899114 0.0039061114104136279 0 -0.0034074264769584969 0.0037357633552002941 0 -0.0029415912510899114 0.0039061114104136279 0 -0.0034161388857242569 0.0041138548194925755 0 -0.0034074264769584969 0.0037357633552002941 0 -0.0034161388857242569 0.0041138548194925755 0 -0.0034074264769584969 0.0037357633552002941 0 -0.0036946492170016106 0.0039035102845030225 0 -0.0034074264769584969 0.0037357633552002941 0 -0.0036946492170016106 0.0039035102845030225 0 -0.0035857571217832529 0.0035009740778859178 0 -0.0034161388857242569 0.0041138548194925755 0 -0.0036946492170016106 0.0039035102845030225 0 -0.0037716861927994936 0.0042784910715315651 0 -0.003441540636316646 0.0043962736338604034 0 -0.0028210066024116267 0.0044066394727320206 0 -0.003547134478025067 0.0044597509919422317 0 -0.0034161388857242569 0.0041138548194925755 0 -0.0037607635791069871 0.0042878829935312579 0 -0.0036946492170016106 0.0039035102845030225 0 -0.0037716861927994936 0.0042784910715315651 0 -0.0041601835217113933 0.0039678152860213676 0 -0.0028210066024116267 0.0044066394727320206 0 -0.003277373391174915 0.0024805087018650212 0 -0.0036946492170016106 0.0039035102845030225 0 -0.0035857571217832529 0.0035009740778859178 0 -0.0041601835217113933 0.0039678152860213676 0 -0.0035857571217832529 0.0035009740778859178 0 -0.0037859977864813676 0.0029854728355508892 0 -0.0041601835217113933 0.0039678152860213676 0 -0.0035233401419280178 0.001499702605184867 0 -0.0032436494469405474 0.00093464998668610778 0 -0.0033067276578113585 0.00088679701954584697 0 -0.0036773155431072159 0.0022395013682613204 0 -0.003277373391174915 0.0024805087018650212 0 -0.0035857571217832529 0.0035009740778859178 0 -0.0037859977864813676 0.0029854728355508892 0 -0.0032560919019844086 0.002879604610171593 0 -0.0035233401419280178 0.001499702605184867 0 -0.0031673025687453701 0.0009486597271383179 0 -0.0033331450346459086 0.0018112100027049016 0 -0.0035233401419280178 0.001499702605184867 0 -0.0032436494469405474 0.00093464998668610778 0 -0.0031673025687453701 0.0009486597271383179 0 -0.0031673025687453701 0.0009486597271383179 0 -0.003399157264935059 0.00037853616330607245 0 -0.003101527544691274 1.102875571412515e-05 0 -0.0031759210076246795 0.00096229423945909398 0 -0.0032391011554698873 0.00091576797489111331 0 -0.0032436494469405474 0.00093464998668610778 0 -0.0032310640661955439 0.0010052407473725416 0 -0.003231377204835381 0.00099317126870661159 0 -0.0032436494469405474 0.00093464998668610778 0 -0.0031745579091728426 0.00098366439711904466 0 -0.0032310640661955439 0.0010052407473725416 0 -0.0034228754868009859 0.0022334938481019398 0 -0.003277373391174915 0.0024805087018650212 0 -0.0031993194934971285 0.0012303660186978346 0 -0.0031745579091728426 0.00098366439711904466 0 -0.0032374781895618166 0.0010928450951950841 0 -0.0023877175768308046 0.0035214726708677796 0 -0.003277373391174915 0.0024805087018650212 0 -0.0027943732708745413 0.0035327075435487671 0 -0.0028058114585476383 0.0035391642891149837 0 -0.0028010864060061822 0.0035395609046453835 0 -0.0031745579091728426 0.00098366439711904466 0 -0.0032310640661955439 0.0010052407473725416 0 -0.0032374781895618166 0.0010928450951950841 0 -0.0033238055295805131 0.0011002761549386325 0 -0.003231377204835381 0.00099317126870661159 0 -0.0034114330253595653 0.00097240386986469042 0 -0.0033238055295805131 0.0011002761549386325 0 -0.0032374781895618166 0.0010928450951950841 0 -0.003231377204835381 0.00099317126870661159 0 -0.0032310640661955439 0.0010052407473725416 0 -0.0032374781895618166 0.0010928450951950841 0 -0.003231377204835381 0.00099317126870661159 0 -0.003231377204835381 0.00099317126870661159 0 -0.0031673025687453701 0.0009486597271383179 0 -0.0034114330253595653 0.00097240386986469042 0 -0.0032436494469405474 0.00093464998668610778 0 -0.003231377204835381 0.00099317126870661159 0 -0.0031673025687453701 0.0009486597271383179 0 -0.0034114330253595653 0.00097240386986469042 0 -0.003573458058575011 0.00072012290380537409 0 -0.0038414332489912642 0.0010069912906177623 0 -0.0031673025687453701 0.0009486597271383179 0 -0.0034114330253595653 0.00097240386986469042 0 -0.003573458058575011 0.00072012290380537409 0 -0.0034114330253595653 0.00097240386986469042 0 -0.0034796132935795928 0.0011652657122458901 0 -0.0038414332489912642 0.0010069912906177623 0 -0.0033238055295805131 0.0011002761549386325 0 -0.0034114330253595653 0.00097240386986469042 0 -0.0034796132935795928 0.0011652657122458901 0 -0.0033786830787069884 0.0010855239588002169 0 -0.0035678375531180222 4.405749848430583e-05 0 -0.0031673025687453701 0.0009486597271383179 0 -0.003573458058575011 0.00072012290380537409 0 -0.003399157264935059 0.00037853616330607245 0 -0.003573458058575011 0.00072012290380537409 0 -0.003399157264935059 0.00037853616330607245 0 -0.0038365845813207859 0.00035450777990834092 0 -0.003399157264935059 0.00037853616330607245 0 -0.0034200831848698924 -8.779131109483838e-05 0 -0.0038365845813207859 0.00035450777990834092 0 -0.0034200831848698924 -8.779131109483838e-05 0 -0.0038365845813207859 0.00035450777990834092 0 -0.0036561903810790244 -0.00035264086382996078 0 -0.0034200831848698924 -8.779131109483838e-05 0 -0.0033483802688291922 -0.0002146160255302152 0 -0.0035029178988324342 -0.00031832989777532696 0 -0.0034200831848698924 -8.779131109483838e-05 0 -0.0036561903810790244 -0.00035264086382996078 0 -0.0035029178988324342 -0.00031832989777532696 0 -0.0034200831848698924 -8.779131109483838e-05 0 -0.0033483802688291922 -0.0002146160255302152 0 -0.003101527544691274 1.102875571412515e-05 0 -0.0033483802688291922 -0.0002146160255302152 0 -0.0032899810661878156 -0.00019147464900590389 0 -0.003101527544691274 1.102875571412515e-05 0 -0.003399157264935059 0.00037853616330607245 0 -0.0034200831848698924 -8.779131109483838e-05 0 -0.003101527544691274 1.102875571412515e-05 0 -0.0037859977864813676 0.0029854728355508892 0 -0.0033373668189897766 0.0019294546941439311 0 -0.0032560919019844086 0.002879604610171593 0 -0.0036773155431072159 0.0022395013682613204 0 -0.003367139246971412 0.0019174830122673655 0 -0.0035233401419280178 0.001499702605184867 0 -0.0033331450346459086 0.0018112100027049016 0 -0.0033373668189897766 0.0019294546941439311 0 -0.0033331450346459086 0.0018112100027049016 0 -0.0033371279495431447 0.0017865798892695429 0 -0.0035483329765750248 0.0015920562269731212 0 -0.0033331450346459086 0.0018112100027049016 0 -0.0033371279495431447 0.0017865798892695429 0 -0.0033373668189897766 0.0019294546941439311 0 -0.0032391011554698873 0.00091576797489111331 0 -0.003403010335298906 0.00065810700357581326 0 -0.0032899810661878156 -0.00019147464900590389 0 -0.003101527544691274 1.102875571412515e-05 0 -0.0033183973002464291 -0.00023281597891963772 0 -0.0025238454275392738 0.0015344736039680403 0 -0.0033371279495431447 0.0017865798892695429 0 -0.0029855250723119101 0.0019181465165751328 0 -0.0033371279495431447 0.0017865798892695429 0 -0.0033373668189897766 0.0019294546941439311 0 -0.0029855250723119101 0.0019181465165751328 0 -0.0026550357404256557 0.0021179853642111419 0 -0.0029855250723119101 0.0019181465165751328 0 -0.0029109481281601977 0.0024061810834937756 0 -0.0033373668189897766 0.0019294546941439311 0 -0.0029855250723119101 0.0019181465165751328 0 -0.0029109481281601977 0.0024061810834937756 0 -0.0033373668189897766 0.0019294546941439311 0 -0.0029109481281601977 0.0024061810834937756 0 -0.0032560919019844086 0.002879604610171593 0 -0.0028000047357684367 0.0029901750254759225 0 -0.0029109481281601977 0.0024061810834937756 0 -0.0032560919019844086 0.002879604610171593 0 -0.0036109577118671999 -0.00073353451480851265 0 -0.0035672936993287468 -0.00068751274597195504 0 -0.0035919431273503024 -0.00071921086731950839 0 -0.0036109577118671999 -0.00073353451480851265 0 -0.0035662528100836475 -0.00070014899126923243 0 -0.0035672936993287468 -0.00068751274597195504 0 -0.0036552969313710616 -0.00082925855107112366 0 -0.0036109577118671999 -0.00073353451480851265 0 -0.0035919431273503024 -0.00071921086731950839 0 -0.0036552969313710616 -0.00082925855107112366 0 -0.0041667985021437426 -0.0011793616279801035 0 -0.0037780920600132208 -0.00125378122268304 0 -0.0036960153311556788 -0.00084796294549815412 0 -0.003848488950156792 -0.00093877269779530639 0 -0.0036552969313710616 -0.00082925855107112366 0 -0.0036255581057819844 -0.00075898115062374226 0 -0.0036109577118671999 -0.00073353451480851265 0 -0.0036291099859721162 -0.00075376883063422648 0 -0.0036255581057819844 -0.00075898115062374226 0 -0.0036109577118671999 -0.00073353451480851265 0 -0.0036926737548049864 -0.00090060919246782783 0 -0.0035628118053705393 -0.00062882621229960755 0 -0.0035852841864349775 -0.00056719640361383035 0 -0.0036109577118671999 -0.00073353451480851265 0 -0.0035662528100836475 -0.00070014899126923243 0 -0.0035852841864349775 -0.00056719640361383035 0 -0.0034989526058640153 -0.00058481359086276399 0 -0.0035662528100836475 -0.00070014899126923243 0 -0.0034989526058640153 -0.00058481359086276399 0 -0.0034085140977718549 -0.00063026460467499384 0 -0.0035662528100836475 -0.00070014899126923243 0 -0.0035678375531180222 4.405749848430583e-05 0 -0.0036395806968944661 -0.00082109289097949921 0 -0.0034749998724802195 -0.00047006139473600134 0 -0.0034989526058640153 -0.00058481359086276399 0 -0.0034085140977718549 -0.00063026460467499384 0 -0.0036631958248381628 -0.00075008058397103253 0 -0.0035662528100836475 -0.00070014899126923243 0 -0.0036758155571209794 -0.00064031614420093693 0 -0.0035678375531180222 4.405749848430583e-05 0 -0.0037588503311008293 -0.00012102955213440327 0 -0.003573458058575011 0.00072012290380537409 0 -0.0038414332489912642 0.0010069912906177623 0 -0.0038365845813207859 0.00035450777990834092 0 -0.0035662528100836475 -0.00070014899126923243 0 -0.0035636732878817322 -0.00063071642029757227 0 -0.0035672936993287468 -0.00068751274597195504 0 -0.0035662528100836475 -0.00070014899126923243 0 -0.0035636732878817322 -0.00063071642029757227 0 -0.0036758155571209794 -0.00064031614420093693 0 -0.0037588503311008293 -0.00012102955213440327 0 -0.0036772427492603858 -0.00033706050506618281 0 -0.0035636732878817322 -0.00063071642029757227 0 -0.0036758155571209794 -0.00064031614420093693 0 -0.0036561903810790244 -0.00035264086382996078 0 -0.0036561903810790244 -0.00035264086382996078 0 -0.0035801790473377931 -0.00051500367666351297 0 -0.003567875710325674 -0.00048590037594893073 0 -0.0035636732878817322 -0.00063071642029757227 0 -0.0035801790473377931 -0.00051500367666351297 0 -0.0035398447561730039 -0.00063011233204328474 0 -0.0035801790473377931 -0.00051500367666351297 0 -0.0035398447561730039 -0.00063011233204328474 0 -0.003567875710325674 -0.00048590037594893073 0 -0.0035636732878817322 -0.00063071642029757227 0 -0.0036561903810790244 -0.00035264086382996078 0 -0.0035801790473377931 -0.00051500367666351297 0 -0.0035398447561730039 -0.00063011233204328474 0 -0.0035438131022512589 -0.000722835453863136 0 -0.0035278499684560732 -0.00077622268165513167 0 -0.0035398447561730039 -0.00063011233204328474 0 -0.0035672936993287468 -0.00068751274597195504 0 -0.0035438131022512589 -0.000722835453863136 0 -0.0035636732878817322 -0.00063071642029757227 0 -0.0035398447561730039 -0.00063011233204328474 0 -0.0035672936993287468 -0.00068751274597195504 0 -0.0035672936993287468 -0.00068751274597195504 0 -0.0035919431273503024 -0.00071921086731950839 0 -0.0035438131022512589 -0.000722835453863136 0 -0.0036273933010489193 -0.00072134061651867769 0 -0.0035919431273503024 -0.00071921086731950839 0 -0.0035438131022512589 -0.000722835453863136 0 -0.0035438131022512589 -0.000722835453863136 0 -0.0035779478001113176 -0.001046914092436361 0 -0.0035278499684560732 -0.00077622268165513167 0 -0.0035779478001113176 -0.001046914092436361 0 -0.0035279776627435235 -0.00075924190556275447 0 -0.0035278499684560732 -0.00077622268165513167 0 -0.0034323329203583271 -0.00069386547388125791 0 -0.0035279776627435235 -0.00075924190556275447 0 -0.0035165374407256545 -0.00056886081864152786 0 -0.0035779478001113176 -0.001046914092436361 0 -0.0034323329203583271 -0.00069386547388125791 0 -0.0035279776627435235 -0.00075924190556275447 0 -0.0035279776627435235 -0.00075924190556275447 0 -0.0035165374407256545 -0.00056886081864152786 0 -0.0035431045753009554 -0.0006312020736079666 0 -0.0035165374407256545 -0.00056886081864152786 0 -0.0035431045753009554 -0.0006312020736079666 0 -0.003548333395979771 -0.00048358370705775126 0 -0.0035398447561730039 -0.00063011233204328474 0 -0.0035431045753009554 -0.0006312020736079666 0 -0.0035278499684560732 -0.00077622268165513167 0 -0.0035279776627435235 -0.00075924190556275447 0 -0.0035431045753009554 -0.0006312020736079666 0 -0.0035278499684560732 -0.00077622268165513167 0 -0.0035398447561730039 -0.00063011233204328474 0 -0.0035431045753009554 -0.0006312020736079666 0 -0.003567875710325674 -0.00048590037594893073 0 -0.0036561903810790244 -0.00035264086382996078 0 -0.0035280006043577161 -0.00036898766826502213 0 -0.0035029178988324342 -0.00031832989777532696 0 -0.0036561903810790244 -0.00035264086382996078 0 -0.003567875710325674 -0.00048590037594893073 0 -0.0035280006043577161 -0.00036898766826502213 0 -0.0035280006043577161 -0.00036898766826502213 0 -0.0035348699027064633 -0.00039304144934219025 0 -0.003490007505798599 -0.00031105603523764016 0 -0.003567875710325674 -0.00048590037594893073 0 -0.0035280006043577161 -0.00036898766826502213 0 -0.0035348699027064633 -0.00039304144934219025 0 -0.0035431045753009554 -0.0006312020736079666 0 -0.003567875710325674 -0.00048590037594893073 0 -0.003548333395979771 -0.00048358370705775126 0 -0.003567875710325674 -0.00048590037594893073 0 -0.0035348699027064633 -0.00039304144934219025 0 -0.003548333395979771 -0.00048358370705775126 0 -0.0035348699027064633 -0.00039304144934219025 0 -0.003548333395979771 -0.00048358370705775126 0 -0.0035416683172084266 -0.00037446476977790269 0 -0.003548333395979771 -0.00048358370705775126 0 -0.0035416683172084266 -0.00037446476977790269 0 -0.0035314214065757478 -0.00037330374782943001 0 -0.0035416683172084266 -0.00037446476977790269 0 -0.0035432736309392184 -0.00029186472885156045 0 -0.0035314214065757478 -0.00037330374782943001 0 -0.0035142979245243685 -0.00031752640158199405 0 -0.0035432736309392184 -0.00029186472885156045 0 -0.0034387143462465942 -0.00024926619538512702 0 -0.003490007505798599 -0.00031105603523764016 0 -0.0035142979245243685 -0.00031752640158199405 0 -0.0034387143462465942 -0.00024926619538512702 0 -0.0035348699027064633 -0.00039304144934219025 0 -0.003490007505798599 -0.00031105603523764016 0 -0.0035142979245243685 -0.00031752640158199405 0 -0.0035348699027064633 -0.00039304144934219025 0 -0.0035416683172084266 -0.00037446476977790269 0 -0.0035142979245243685 -0.00031752640158199405 0 -0.0035416683172084266 -0.00037446476977790269 0 -0.0035142979245243685 -0.00031752640158199405 0 -0.0035432736309392184 -0.00029186472885156045 0 -0.00418045795711975 -0.0024549171424718226 0 -0.0025123055175896012 0.0063593239586524483 0 -0.0035432736309392184 -0.00029186472885156045 0 -0.0034387143462465942 -0.00024926619538512702 0 -0.0035603792203110773 -0.00022846909007218232 0 -0.0034387143462465942 -0.00024926619538512702 0 -0.0033479771691739295 6.1705918949603905e-05 0 -0.0029472664750524115 0.00043409889081343967 0 -0.0035432736309392184 -0.00029186472885156045 0 -0.0035425356232162836 -0.00024185610890666245 0 -0.0035603792203110773 -0.00022846909007218232 0 -0.0035432736309392184 -0.00029186472885156045 0 -0.0035425356232162836 -0.00024185610890666245 0 -0.0035314214065757478 -0.00037330374782943001 0 -0.0035425356232162836 -0.00024185610890666245 0 -0.0034525552985295079 -0.00021266775876212316 0 -0.0035314214065757478 -0.00037330374782943001 0 -0.0034525552985295079 -0.00021266775876212316 0 -0.0034293418742384822 -0.000401813628816395 0 -0.0035314214065757478 -0.00037330374782943001 0 -0.0034525552985295079 -0.00021266775876212316 0 -0.0032636727021469977 -0.00027687551338308365 0 -0.0034293418742384822 -0.000401813628816395 0 -0.0032636727021469977 -0.00027687551338308365 0 -0.0034293418742384822 -0.000401813628816395 0 -0.0032373116461409503 -0.0004972416467770675 0 -0.0034323329203583271 -0.00069386547388125791 0 -0.0034293418742384822 -0.000401813628816395 0 -0.0032373116461409503 -0.0004972416467770675 0 -0.0034323329203583271 -0.00069386547388125791 0 -0.0035165374407256545 -0.00056886081864152786 0 -0.0034293418742384822 -0.000401813628816395 0 -0.0035165374407256545 -0.00056886081864152786 0 -0.0034293418742384822 -0.000401813628816395 0 -0.0035314214065757478 -0.00037330374782943001 0 -0.0035165374407256545 -0.00056886081864152786 0 -0.003548333395979771 -0.00048358370705775126 0 -0.0035314214065757478 -0.00037330374782943001 0 -0.0029312981427886383 0.00046669002608186677 0 -0.0028822454240005442 0.0010170217490617797 0 -0.0035483329765750248 0.0015920562269731212 0 -0.0024071441250944846 0.00076354233097468524 0 -0.0029312981427886383 0.00046669002608186677 0 -0.0030974659612588466 -4.598577837786033e-05 0 -0.0024071441250944846 0.00076354233097468524 0 -0.0029312981427886383 0.00046669002608186677 0 -0.0028822454240005442 0.0010170217490617797 0 -0.0024071441250944846 0.00076354233097468524 0 -0.0020826300223450124 0.0016350695887423731 0 -0.0028822454240005442 0.0010170217490617797 0 -0.0028822454240005442 0.0010170217490617797 0 -0.0031348573403137546 0.0014416437633417896 0 -0.0035483329765750248 0.0015920562269731212 0 -0.0020826300223450124 0.0016350695887423731 0 -0.0028822454240005442 0.0010170217490617797 0 -0.0031348573403137546 0.0014416437633417896 0 -0.0022142158460348631 0.00096594375719500746 0 -0.0033273511615335418 0.0019245450152770866 0 -0.0020826300223450124 0.0016350695887423731 0 -0.0033371279495431447 0.0017865798892695429 0 -0.0031348573403137546 0.0014416437633417896 0 -0.0033371279495431447 0.0017865798892695429 0 -0.0031348573403137546 0.0014416437633417896 0 -0.0035483329765750248 0.0015920562269731212 0 -0.0033183973002464291 -0.00023281597891963772 0 -0.003327467546936802 -0.00018529883781353182 0 -0.0033462630944035092 -0.00023524002160212073 0 -0.0029312981427886383 0.00046669002608186677 0 -0.0035483329765750248 0.0015920562269731212 0 -0.0032374329736611814 -1.1156436980348476e-06 0 -0.003327467546936802 -0.00018529883781353182 0 -0.003303218227334653 -0.00012221579418144761 0 -0.0033563620845882955 -0.0001731187985723306 0 -0.003403010335298906 0.00065810700357581326 0 -0.0032459944094029246 1.8978893519846369e-05 0 -0.0033183973002464291 -0.00023281597891963772 0 -0.003303218227334653 -0.00012221579418144761 0 -0.0032374329736611814 -1.1156436980348476e-06 0 -0.0033183973002464291 -0.00023281597891963772 0 -0.003327467546936802 -0.00018529883781353182 0 -0.003303218227334653 -0.00012221579418144761 0 -0.003303218227334653 -0.00012221579418144761 0 -0.0033427507873934315 -0.00011572245254714758 0 -0.0032374329736611814 -1.1156436980348476e-06 0 -0.003303218227334653 -0.00012221579418144761 0 -0.0033563620845882955 -0.0001731187985723306 0 -0.0033427507873934315 -0.00011572245254714758 0 -0.0033563620845882955 -0.0001731187985723306 0 -0.0034085485816071643 -0.00023971108116861313 0 -0.0034111739201606829 -0.00018483329392020694 0 -0.0034085485816071643 -0.00023971108116861313 0 -0.0033462630944035092 -0.00023524002160212073 0 -0.0034476335623185011 -0.00029589080424339848 0 -0.003327467546936802 -0.00018529883781353182 0 -0.0033563620845882955 -0.0001731187985723306 0 -0.0033462630944035092 -0.00023524002160212073 0 -0.0033563620845882955 -0.0001731187985723306 0 -0.0034085485816071643 -0.00023971108116861313 0 -0.0033462630944035092 -0.00023524002160212073 0 -0.0032899810661878156 -0.00019147464900590389 0 -0.0033183973002464291 -0.00023281597891963772 0 -0.0033462630944035092 -0.00023524002160212073 0 -0.0033483802688291922 -0.0002146160255302152 0 -0.0032899810661878156 -0.00019147464900590389 0 -0.0033462630944035092 -0.00023524002160212073 0 -0.0033483802688291922 -0.0002146160255302152 0 -0.0033462630944035092 -0.00023524002160212073 0 -0.0034107269138639539 -0.00027094109666359962 0 -0.0033462630944035092 -0.00023524002160212073 0 -0.0034107269138639539 -0.00027094109666359962 0 -0.0034476335623185011 -0.00029589080424339848 0 -0.0034107269138639539 -0.00027094109666359962 0 -0.0035029178988324342 -0.00031832989777532696 0 -0.0034476335623185011 -0.00029589080424339848 0 -0.0033483802688291922 -0.0002146160255302152 0 -0.0034107269138639539 -0.00027094109666359962 0 -0.0035029178988324342 -0.00031832989777532696 0 -0.0035280006043577161 -0.00036898766826502213 0 -0.0035029178988324342 -0.00031832989777532696 0 -0.0034476335623185011 -0.00029589080424339848 0 -0.0035280006043577161 -0.00036898766826502213 0 -0.0034476335623185011 -0.00029589080424339848 0 -0.0034582486515080278 -0.00028580132636769011 0 -0.0035280006043577161 -0.00036898766826502213 0 -0.003490007505798599 -0.00031105603523764016 0 -0.0034582486515080278 -0.00028580132636769011 0 -0.0034085485816071643 -0.00023971108116861313 0 -0.0034476335623185011 -0.00029589080424339848 0 -0.0034582486515080278 -0.00028580132636769011 0 -0.0034085485816071643 -0.00023971108116861313 0 -0.0034582486515080278 -0.00028580132636769011 0 -0.0034377531036865398 -0.00023326322039695692 0 -0.003490007505798599 -0.00031105603523764016 0 -0.0034527337861109449 -0.00025986188857814012 0 -0.0034387143462465942 -0.00024926619538512702 0 -0.003490007505798599 -0.00031105603523764016 0 -0.0034582486515080278 -0.00028580132636769011 0 -0.0034527337861109449 -0.00025986188857814012 0 -0.0034527337861109449 -0.00025986188857814012 0 -0.0034377531036865398 -0.00023326322039695692 0 -0.003452694737183939 -0.00019275658992527864 0 -0.0034582486515080278 -0.00028580132636769011 0 -0.0034527337861109449 -0.00025986188857814012 0 -0.0034377531036865398 -0.00023326322039695692 0 -0.0034527337861109449 -0.00025986188857814012 0 -0.003452694737183939 -0.00019275658992527864 0 -0.0034387143462465942 -0.00024926619538512702 0 -0.0034387143462465942 -0.00024926619538512702 0 -0.0033479771691739295 6.1705918949603905e-05 0 -0.0034702547219596794 -2.95693127861653e-05 0 -0.00162124105199479 0.010261424348841938 0 -0.0025123055175896012 0.0063593239586524483 0 -0.0033479771691739295 6.1705918949603905e-05 0 -0.003679335964385552 0.00015241783145629285 0 -0.0029472664750524115 0.00043409889081343967 0 -0.0026793962050278841 0.0051915769124702962 0 -0.00162124105199479 0.010261424348841938 0 -0.003452694737183939 -0.00019275658992527864 0 -0.0034387143462465942 -0.00024926619538512702 0 -0.0034702547219596794 -2.95693127861653e-05 0 -0.00162124105199479 0.010261424348841938 0 -0.0012704059314621581 0.0087260474123677309 0 0.00093002565993198733 0.01784158190477864 0 0.00086361937750674802 0.017892029888771942 0 0.00080491962139364332 0.018081308100947199 0 -0.003452694737183939 -0.00019275658992527864 0 -0.0034702547219596794 -2.95693127861653e-05 0 -0.0034169221890650993 -0.00017790651858279425 0 -0.00162124105199479 0.010261424348841938 0 0.00066656336697237177 0.0193056102565945 0 -0.003452694737183939 -0.00019275658992527864 0 -0.0034169221890650993 -0.00017790651858279425 0 -0.0034111739201606829 -0.00018483329392020694 0 -0.0034377531036865398 -0.00023326322039695692 0 -0.003452694737183939 -0.00019275658992527864 0 -0.0034111739201606829 -0.00018483329392020694 0 -0.0034085485816071643 -0.00023971108116861313 0 -0.0034377531036865398 -0.00023326322039695692 0 -0.0034111739201606829 -0.00018483329392020694 0 -0.0034169221890650993 -0.00017790651858279425 0 -0.0034111739201606829 -0.00018483329392020694 0 -0.0033427507873934315 -0.00011572245254714758 0 -0.0033563620845882955 -0.0001731187985723306 0 -0.0034111739201606829 -0.00018483329392020694 0 -0.0033427507873934315 -0.00011572245254714758 0 -0.0034169221890650993 -0.00017790651858279425 0 -0.0030974659612588466 -4.598577837786033e-05 0 -0.0032374329736611814 -1.1156436980348476e-06 0 -0.0012704059314621581 0.0087260474123677309 0 -0.0011980236895648769 0.0088933869976225415 0 -0.0034169221890650993 -0.00017790651858279425 0 -0.0033427507873934315 -0.00011572245254714758 0 -0.0032374329736611814 -1.1156436980348476e-06 0 0.00086361937750674802 0.017892029888771942 0 0.00061242188865588882 0.018119099907840171 0 0.0006636896479970748 0.017747460040404398 0 0.00086361937750674802 0.017892029888771942 0 0.00080491962139364332 0.018081308100947199 0 0.00061242188865588882 0.018119099907840171 0 0.00039485039309937453 0.018485665781424111 0 0.00080491962139364332 0.018081308100947199 0 0.00061242188865588882 0.018119099907840171 0 0.00040715937513848016 0.017980551203217076 0 0.00041401848976628313 0.018221791906715752 0 0.00061242188865588882 0.018119099907840171 0 -0.00078726963516454916 0.0086787350523457665 0 -0.0011980236895648769 0.0088933869976225415 0 0.00040715937513848016 0.017980551203217076 0 0.00061242188865588882 0.018119099907840171 0 0.0006636896479970748 0.017747460040404398 0 -0.0029312981427886383 0.00046669002608186677 0 -0.0030974659612588466 -4.598577837786033e-05 0 -0.0032374329736611814 -1.1156436980348476e-06 0 0.00035991488995476388 0.017876011371743043 0 0.00025156338236915354 0.017492598896163714 0 0.00037511870163297532 0.017924208812761033 0 0.00025156338236915354 0.017492598896163714 0 0.00037511870163297532 0.017924208812761033 0 0.00022013514821460231 0.017860197884880798 0 0.00042497385943902373 0.018251554224311524 0 0.00066656336697237177 0.0193056102565945 0 0.00044265818853078957 0.01820530958067949 0 0.00037511870163297532 0.017924208812761033 0 0.00037276606574053066 0.01807393527507235 0 4.4349644072363427e-05 0.018251085606970377 0 0.00037276606574053066 0.01807393527507235 0 0.00022013514821460231 0.017860197884880798 0 0.00060819034624052539 0.018239038934239872 0 4.4349644072363427e-05 0.018251085606970377 0 0.00037276606574053066 0.01807393527507235 0 0.00037511870163297532 0.017924208812761033 0 0.00037276606574053066 0.01807393527507235 0 0.00022013514821460231 0.017860197884880798 0 4.4349644072363427e-05 0.018251085606970377 0 0.00022013514821460231 0.017860197884880798 0 -0.00011292462471197298 0.017536637538553907 0 4.4349644072363427e-05 0.018251085606970377 0 -0.00011292462471197298 0.017536637538553907 0 -0.00056876811870237279 0.017808936419258486 0 0.00025156338236915354 0.017492598896163714 0 -0.00011292462471197298 0.017536637538553907 0 -2.9780212135500687e-05 0.016986268392580092 0 0.00025156338236915354 0.017492598896163714 0 0.00022013514821460231 0.017860197884880798 0 -0.00011292462471197298 0.017536637538553907 0 -0.00011292462471197298 0.017536637538553907 0 -0.0006773063405460418 0.01719798111668501 0 -0.00034880717732892988 0.016843941907047286 0 -0.00011292462471197298 0.017536637538553907 0 -0.00034880717732892988 0.016843941907047286 0 -2.9780212135500687e-05 0.016986268392580092 0 -0.0006773063405460418 0.01719798111668501 0 -0.00056876811870237279 0.017808936419258486 0 -0.0012252574944328974 0.017609454433702865 0 -0.00011292462471197298 0.017536637538553907 0 -0.0006773063405460418 0.01719798111668501 0 -0.00056876811870237279 0.017808936419258486 0 -0.0010963681637133492 0.018458155662231003 0 4.4349644072363427e-05 0.018251085606970377 0 -0.00056876811870237279 0.017808936419258486 0 -0.0010963681637133492 0.018458155662231003 0 -0.00056876811870237279 0.017808936419258486 0 -0.0012252574944328974 0.017609454433702865 0 -0.0010963681637133492 0.018458155662231003 0 -0.0012252574944328974 0.017609454433702865 0 -0.0020514638842393921 0.018096288385752078 0 -0.0012252574944328974 0.017609454433702865 0 -0.0012381640228051685 0.016821262440550339 0 -0.001834740966190574 0.017146117803597864 0 -0.0006773063405460418 0.01719798111668501 0 -0.0012252574944328974 0.017609454433702865 0 -0.0012381640228051685 0.016821262440550339 0 -0.0012381640228051685 0.016821262440550339 0 -0.0013473076623127889 0.016227217563625964 0 -0.0018793071268430328 0.016491410586323425 0 -0.0006773063405460418 0.01719798111668501 0 -0.0012381640228051685 0.016821262440550339 0 -0.00081427184959586348 0.016321414220576261 0 -0.0012381640228051685 0.016821262440550339 0 -0.00081427184959586348 0.016321414220576261 0 -0.0013473076623127889 0.016227217563625964 0 -0.00081427184959586348 0.016321414220576261 0 -0.0011745330958877558 0.015742887623276462 0 -0.00064383205186299914 0.015661958636882245 0 -0.00081427184959586348 0.016321414220576261 0 -0.0013473076623127889 0.016227217563625964 0 -0.0011745330958877558 0.015742887623276462 0 -0.0013473076623127889 0.016227217563625964 0 -0.0011745330958877558 0.015742887623276462 0 -0.001753650882259347 0.015879922071393569 0 -0.0010506182011053107 0.015262800835151226 0 -0.00010100610447422626 0.014594085048050398 0 -0.0023155889066019545 0.0150324538070338 0 -1.096749792451021e-05 0.014377093983140705 0 -0.0011029796770173042 0.013953783254460577 0 -0.0011745330958877558 0.015742887623276462 0 -0.001753650882259347 0.015879922071393569 0 -0.001606658781363014 0.015387868956369555 0 -1.1921205334585553e-06 0.014031187175724684 0 -0.00010100610447422626 0.014594085048050398 0 -6.5212902129643862e-06 0.012410459341091319 0 -0.0011745330958877558 0.015742887623276462 0 -0.0010506182011053107 0.015262800835151226 0 -0.001606658781363014 0.015387868956369555 0 -0.0010506182011053107 0.015262800835151226 0 -0.00048382415183978 0.015286354151735123 0 -0.00010100610447422626 0.014594085048050398 0 -0.0010506182011053107 0.015262800835151226 0 -0.00048382415183978 0.015286354151735123 0 -0.00064383205186299914 0.015661958636882245 0 -0.0011745330958877558 0.015742887623276462 0 -0.0010506182011053107 0.015262800835151226 0 -0.00064383205186299914 0.015661958636882245 0 -1.1921205334585553e-06 0.014031187175724684 0 -0.00010100610447422626 0.014594085048050398 0 4.8031883370402181e-07 0.015855515627621483 0 -0.00064383205186299914 0.015661958636882245 0 -0.00023015033319633054 0.015595853515214983 0 -0.00032253688469250274 0.016189214533580375 0 -0.00023015033319633054 0.015595853515214983 0 -0.00010100610447422626 0.014594085048050398 0 -3.6640482392063755e-05 0.015856088092413512 0 -0.00010100610447422626 0.014594085048050398 0 -3.6640482392063755e-05 0.015856088092413512 0 4.8031883370402181e-07 0.015855515627621483 0 -0.00048382415183978 0.015286354151735123 0 -0.00064383205186299914 0.015661958636882245 0 -0.00023015033319633054 0.015595853515214983 0 -0.00048382415183978 0.015286354151735123 0 -0.00023015033319633054 0.015595853515214983 0 -0.00010100610447422626 0.014594085048050398 0 -0.00023015033319633054 0.015595853515214983 0 -3.6640482392063755e-05 0.015856088092413512 0 -0.00032253688469250274 0.016189214533580375 0 -3.6640482392063755e-05 0.015856088092413512 0 -0.00032253688469250274 0.016189214533580375 0 -2.9780212135500687e-05 0.016986268392580092 0 -0.00081427184959586348 0.016321414220576261 0 -0.00064383205186299914 0.015661958636882245 0 -0.00032253688469250274 0.016189214533580375 0 -0.00081427184959586348 0.016321414220576261 0 -0.00032253688469250274 0.016189214533580375 0 -0.00034880717732892988 0.016843941907047286 0 -0.0006773063405460418 0.01719798111668501 0 -0.00081427184959586348 0.016321414220576261 0 -0.00034880717732892988 0.016843941907047286 0 -0.00032253688469250274 0.016189214533580375 0 -0.00034880717732892988 0.016843941907047286 0 -2.9780212135500687e-05 0.016986268392580092 0 -3.6640482392063755e-05 0.015856088092413512 0 -2.9780212135500687e-05 0.016986268392580092 0 0.0002104063872840063 0.016916329591716472 0 0.00025156338236915354 0.017492598896163714 0 -2.9780212135500687e-05 0.016986268392580092 0 0.0002104063872840063 0.016916329591716472 0 -3.6640482392063755e-05 0.015856088092413512 0 4.8031883370402181e-07 0.015855515627621483 0 0.0002104063872840063 0.016916329591716472 0 5.9862373095076439e-07 0.01767970822027292 0 4.8031883370402181e-07 0.015855515627621483 0 0.0002104063872840063 0.016916329591716472 0 0.00035991488995476388 0.017876011371743043 0 5.9862373095076439e-07 0.01767970822027292 0 0.0002104063872840063 0.016916329591716472 0 0.00035991488995476388 0.017876011371743043 0 0.00025156338236915354 0.017492598896163714 0 0.0002104063872840063 0.016916329591716472 0 -0.0015898153923788879 0.0069850352510323916 0 -0.00099445069826878721 0.0065400803044005527 0 -0.0020461295678740788 0.0060663662841716022 0 -0.0021927591330702209 0.0032752220014290023 0 -0.0030936701511417486 0.0026114379664412143 0 -0.0015898153923788879 0.0069850352510323916 0 -0.00099445069826878721 0.0065400803044005527 0 -0.00090572785458152886 0.007323730130986081 0 -0.0033789879259536059 0.00010471408453787018 0 -0.0031132080875429053 0.00030322096826793739 0 -0.0031439575349739698 0.00011259723045230018 0 -0.0021927591330702209 0.0032752220014290023 0 -0.0013279327356573224 0.0045967819093011581 0 -0.00099445069826878721 0.0065400803044005527 0 -0.00090572785458152886 0.007323730130986081 0 5.4433580188539594e-06 0.0070084379223073028 0 -0.0033789879259536059 0.00010471408453787018 0 -0.0032589054636893802 -6.9768791755709538e-05 0 -0.0031439575349739698 0.00011259723045230018 0 -0.0034525552985295079 -0.00021266775876212316 0 -0.0032636727021469977 -0.00027687551338308365 0 -0.0032589054636893802 -6.9768791755709538e-05 0 -0.0034525552985295079 -0.00021266775876212316 0 -0.0033789879259536059 0.00010471408453787018 0 -0.0032589054636893802 -6.9768791755709538e-05 0 -0.0035425356232162836 -0.00024185610890666245 0 -0.0034525552985295079 -0.00021266775876212316 0 -0.0035431917660762205 -9.2910105290160491e-05 0 -0.0034525552985295079 -0.00021266775876212316 0 -0.0033789879259536059 0.00010471408453787018 0 -0.0035431917660762205 -9.2910105290160491e-05 0 -0.0035425356232162836 -0.00024185610890666245 0 -0.0035431917660762205 -9.2910105290160491e-05 0 -0.0035603792203110773 -0.00022846909007218232 0 -0.0020461295678740788 0.0060663662841716022 0 -0.0030564540413237644 0.00559527183679988 0 -0.0023526826629155315 0.0069830833079152716 0 -0.0030936701511417486 0.0026114379664412143 0 -0.0025123055175896012 0.0063593239586524483 0 -0.0012252574944328974 0.017609454433702865 0 -0.0020514638842393921 0.018096288385752078 0 -0.001834740966190574 0.017146117803597864 0 -0.001834740966190574 0.017146117803597864 0 -0.0029543443967957779 0.016706185322567957 0 -0.0018793071268430328 0.016491410586323425 0 -0.0025123055175896012 0.0063593239586524483 0 -0.0026498614810029175 0.013036420205429503 0 -0.0020514638842393921 0.018096288385752078 0 -0.001834740966190574 0.017146117803597864 0 -0.0029543443967957779 0.016706185322567957 0 -0.0012381640228051685 0.016821262440550339 0 -0.001834740966190574 0.017146117803597864 0 -0.0018793071268430328 0.016491410586323425 0 -0.0015898153923788879 0.0069850352510323916 0 -0.0020461295678740788 0.0060663662841716022 0 -0.0023526826629155315 0.0069830833079152716 0 -0.0029543443967957779 0.016706185322567957 0 -0.0030200255683123741 0.015517845467588673 0 -0.003799058943421712 0.015083228964044498 0 -0.0029543443967957779 0.016706185322567957 0 -0.0023432305457612682 0.015907107921398062 0 -0.0030200255683123741 0.015517845467588673 0 -0.0026498614810029175 0.013036420205429503 0 -0.0015862974559689271 0.011190022163674242 0 -0.0029543443967957779 0.016706185322567957 0 -0.0018793071268430328 0.016491410586323425 0 -0.0023432305457612682 0.015907107921398062 0 -0.0013473076623127889 0.016227217563625964 0 -0.0018793071268430328 0.016491410586323425 0 -0.001753650882259347 0.015879922071393569 0 -0.0023432305457612682 0.015907107921398062 0 -0.001753650882259347 0.015879922071393569 0 -0.0020912522002555088 0.015512687019370803 0 -0.0018793071268430328 0.016491410586323425 0 -0.0023432305457612682 0.015907107921398062 0 -0.001753650882259347 0.015879922071393569 0 -1.1921205334585553e-06 0.014031187175724684 0 3.9306205688343836e-07 0.012204315054307432 0 -6.5212902129643862e-06 0.012410459341091319 0 -0.0010506182011053107 0.015262800835151226 0 -0.001606658781363014 0.015387868956369555 0 -0.0023155889066019545 0.0150324538070338 0 -0.001606658781363014 0.015387868956369555 0 -0.0020912522002555088 0.015512687019370803 0 -0.0023155889066019545 0.0150324538070338 0 -0.001753650882259347 0.015879922071393569 0 -0.001606658781363014 0.015387868956369555 0 -0.0020912522002555088 0.015512687019370803 0 -0.0024471928591060428 0.015492273099673796 0 -0.0023155889066019545 0.0150324538070338 0 -0.0030200255683123741 0.015517845467588673 0 -0.0020912522002555088 0.015512687019370803 0 -0.0024471928591060428 0.015492273099673796 0 -0.0023155889066019545 0.0150324538070338 0 -0.0023432305457612682 0.015907107921398062 0 -0.0020912522002555088 0.015512687019370803 0 -0.0024471928591060428 0.015492273099673796 0 -0.0011029796770173042 0.013953783254460577 0 -0.0015862974559689271 0.011190022163674242 0 3.9306205688343836e-07 0.012204315054307432 0 -6.5212902129643862e-06 0.012410459341091319 0 -1.399005443596714e-06 0.010725755380636205 0 -0.0023155889066019545 0.0150324538070338 0 -0.0030200255683123741 0.015517845467588673 0 -0.003799058943421712 0.015083228964044498 0 3.9306205688343836e-07 0.012204315054307432 0 -1.399005443596714e-06 0.010725755380636205 0 -3.0797203800000382e-07 0.010381473627365604 0 -0.0023432305457612682 0.015907107921398062 0 -0.0024471928591060428 0.015492273099673796 0 -0.0030200255683123741 0.015517845467588673 0 -3.0733798048083948e-05 0.01037369803995788 0 -6.0644500015323197e-07 0.010378673768000897 0 -6.6831857780390552e-05 0.0084281516190733118 0 -0.0016551275256470584 0.0084390138688787125 0 -0.0014845640299663958 0.007522066407599318 0 -0.00089079721892602729 0.00789195306880963 0 -0.0015862974559689271 0.011190022163674242 0 -2.0980120772274869e-06 0.010381287864228822 0 -0.0015898153923788879 0.0069850352510323916 0 -0.0023526826629155315 0.0069830833079152716 0 -0.0014845640299663958 0.007522066407599318 0 -0.0023526826629155315 0.0069830833079152716 0 -0.0016551275256470584 0.0084390138688787125 0 -0.0014845640299663958 0.007522066407599318 0 -0.0014845640299663958 0.007522066407599318 0 -0.00090572785458152886 0.007323730130986081 0 -0.00089079721892602729 0.00789195306880963 0 -0.0015898153923788879 0.0069850352510323916 0 -0.0014845640299663958 0.007522066407599318 0 -0.00090572785458152886 0.007323730130986081 0 -0.00090572785458152886 0.007323730130986081 0 -0.0002888924960077517 0.0075974457452439624 0 1.815656113064279e-06 0.0070695864213692946 0 -0.00057729068366925743 0.0074156609557768606 0 -0.0013279327356573224 0.0045967819093011581 0 -0.00090572785458152886 0.007323730130986081 0 -0.0002888924960077517 0.0075974457452439624 0 -0.00089079721892602729 0.00789195306880963 0 -0.0015862974559689271 0.011190022163674242 0 0.00035707092086478988 0.0081609380555916003 0 -6.0644500015323197e-07 0.010378673768000897 0 -6.6831857780390552e-05 0.0084281516190733118 0 1.7902457196795318e-07 0.0083292859169614483 0 -0.0016551275256470584 0.0084390138688787125 0 -0.00089079721892602729 0.00789195306880963 0 -6.6831857780390552e-05 0.0084281516190733118 0 -0.0002888924960077517 0.0075974457452439624 0 -0.00089079721892602729 0.00789195306880963 0 -6.6831857780390552e-05 0.0084281516190733118 0 -6.6831857780390552e-05 0.0084281516190733118 0 1.7902457196795318e-07 0.0083292859169614483 0 0.000139968497247695 0.0076061802933524176 0 -6.6831857780390552e-05 0.0084281516190733118 0 -2.3382845401542815e-05 0.0078738459242970703 0 0.000139968497247695 0.0076061802933524176 0 -0.0002888924960077517 0.0075974457452439624 0 -6.6831857780390552e-05 0.0084281516190733118 0 -2.3382845401542815e-05 0.0078738459242970703 0 -2.3382845401542815e-05 0.0078738459242970703 0 0.000139968497247695 0.0076061802933524176 0 0.00017198584194910488 0.0075785147397397961 0 1.7902457196795318e-07 0.0083292859169614483 0 0.000139968497247695 0.0076061802933524176 0 5.1533551825521955e-07 0.0062791826365940434 0 8.2090597211015783e-05 0.0069296385004869411 0 0.0001284797272338581 0.0072309948124455268 0 -4.6938598673706438e-05 0.0065711566873332093 0 0.000139968497247695 0.0076061802933524176 0 8.2090597211015783e-05 0.0069296385004869411 0 5.1533551825521955e-07 0.0062791826365940434 0 0.000139968497247695 0.0076061802933524176 0 0.0001284797272338581 0.0072309948124455268 0 0.00017198584194910488 0.0075785147397397961 0 0.000139968497247695 0.0076061802933524176 0 8.2090597211015783e-05 0.0069296385004869411 0 0.0001284797272338581 0.0072309948124455268 0 -0.0016491052584881134 0.0023558069346521298 0 -0.00082442041652334085 0.0021788879706013454 0 -0.0014296414701799112 0.0019357878809267632 0 -0.0016491052584881134 0.0023558069346521298 0 -0.00062331990835473084 0.0028382621842919526 0 -0.00082442041652334085 0.0021788879706013454 0 0.0001284797272338581 0.0072309948124455268 0 0.00016669079120455542 0.0075567089260473947 0 -4.6938598673706438e-05 0.0065711566873332093 0 -0.00073738509193842683 0.0050038140582776376 0 -0.00017941303705357219 0.0047742495620461288 0 0.0001284797272338581 0.0072309948124455268 0 0.00016669079120455542 0.0075567089260473947 0 0.00017198584194910488 0.0075785147397397961 0 -0.00073738509193842683 0.0050038140582776376 0 -0.0017483038279109276 0.0015687084617645561 0 -0.0012539211662516865 0.0037024686061585669 0 -0.0015739386028416184 0.003551818924080857 0 -0.0010927339160926957 0.0033938165665098039 0 0.00035053652117504548 0.0072460787296716525 0 1.815656113064279e-06 0.0070695864213692946 0 0.00017198584194910488 0.0075785147397397961 0 -0.00073738509193842683 0.0050038140582776376 0 -0.0013279327356573224 0.0045967819093011581 0 -0.0002888924960077517 0.0075974457452439624 0 -2.3382845401542815e-05 0.0078738459242970703 0 0.00017198584194910488 0.0075785147397397961 0 -0.0002888924960077517 0.0075974457452439624 0 1.815656113064279e-06 0.0070695864213692946 0 0.00017198584194910488 0.0075785147397397961 0 -0.00073738509193842683 0.0050038140582776376 0 -0.00055609762927704223 0.0073326695319504229 0 -0.00017941303705357219 0.0047742495620461288 0 -2.9962211819884314e-06 0.0033034668323102408 0 5.1533551825521955e-07 0.0062791826365940434 0 -8.6990578318328929e-07 0.0042302737867347144 0 -2.5191657741589008e-05 0.0043746465764114995 0 -0.00062331990835473084 0.0028382621842919526 0 0.00048162205021890712 0.0023343790161654567 0 0.00040996119843059544 0.0033278187182673035 0 -4.6938598673706438e-05 0.0065711566873332093 0 5.1533551825521955e-07 0.0062791826365940434 0 -2.5191657741589008e-05 0.0043746465764114995 0 8.2090597211015783e-05 0.0069296385004869411 0 -4.6938598673706438e-05 0.0065711566873332093 0 5.1533551825521955e-07 0.0062791826365940434 0 -0.00062331990835473084 0.0028382621842919526 0 -0.00082442041652334085 0.0021788879706013454 0 0.00010956194302370211 0.0018246254350734068 0 -0.00062331990835473084 0.0028382621842919526 0 0.00010956194302370211 0.0018246254350734068 0 0.00048162205021890712 0.0023343790161654567 0 -0.00092810487095315239 0.0012768245025329629 0 -0.00010162917133963283 -0.00076511681972768052 0 0.00010956194302370211 0.0018246254350734068 0 -0.00048003653439617367 0.0016225077834043616 0 0.00048316983588689088 0.0013006467533450469 0 -0.0013148099508402383 0.00064058883709567922 0 -0.0017102507858712836 -0.00011754054734810222 0 -0.0022749304222851601 0.00093986995638021956 0 -0.00082442041652334085 0.0021788879706013454 0 -0.00048003653439617367 0.0016225077834043616 0 -0.0014296414701799112 0.0019357878809267632 0 -0.00092810487095315239 0.0012768245025329629 0 -0.0017483038279109276 0.0015687084617645561 0 -0.00082442041652334085 0.0021788879706013454 0 0.00010956194302370211 0.0018246254350734068 0 -0.00048003653439617367 0.0016225077834043616 0 -0.0013148099508402383 0.00064058883709567922 0 -0.0017102507858712836 -0.00011754054734810222 0 -0.00094279861886733781 0.00014036777145425691 0 -0.0025392214293026667 0.00024463323273684874 0 -0.0019749888075022075 0.00043753002669224888 0 -0.0021525170413956443 0.00011481186773405275 0 -0.0022736196012959581 -0.00012791214193104422 0 -0.0014331186472913136 -0.00034392202700591875 0 -0.0022736196012959581 -0.00012791214193104422 0 -0.0024725608849771852 -0.00016692622570638424 0 -0.0013148099508402383 0.00064058883709567922 0 -0.00094279861886733781 0.00014036777145425691 0 -0.00034962591249747656 0.00033642664999676634 0 -0.0019749888075022075 0.00043753002669224888 0 -0.0016864933647959218 -1.1230764797793085e-05 0 -0.0021525170413956443 0.00011481186773405275 0 -0.0012357681344980767 -0.0012944439464483129 0 -0.00083791757599473886 -0.001940553248382084 0 -0.00074705061556935588 -0.0014575699954406732 0 -0.0014331186472913136 -0.00034392202700591875 0 -0.0013298615512157815 -0.00086126548196592447 0 -0.0012357681344980767 -0.0012944439464483129 0 -0.0006192378591129697 -0.0010889760234479267 0 -0.00074705061556935588 -0.0014575699954406732 0 -0.0014331186472913136 -0.00034392202700591875 0 -0.00010162917133963283 -0.00076511681972768052 0 -0.0031439575349739698 0.00011259723045230018 0 -0.0028872043603401414 0.00024224949312134862 0 -0.0030591332576168518 -4.1557056205929505e-06 0 -0.0013279327356573224 0.0045967819093011581 0 -0.0017483038279109276 0.0015687084617645561 0 -0.0031132080875429053 0.00030322096826793739 0 -0.0031439575349739698 0.00011259723045230018 0 -0.0028872043603401414 0.00024224949312134862 0 -0.0026707890468026007 -9.4092875877309422e-05 0 -0.0028872043603401414 0.00024224949312134862 0 -0.0029008288486048468 -8.4989056585091697e-05 0 -0.0028872043603401414 0.00024224949312134862 0 -0.0029008288486048468 -8.4989056585091697e-05 0 -0.0030591332576168518 -4.1557056205929505e-06 0 -0.0022736196012959581 -0.00012791214193104422 0 -0.0017483038279109276 0.0015687084617645561 0 -0.0027321277897843273 -0.00011197354940486783 0 -0.0029008288486048468 -8.4989056585091697e-05 0 -0.0028480049428689065 -0.00019093786304001767 0 -0.0026707890468026007 -9.4092875877309422e-05 0 -0.0027321277897843273 -0.00011197354940486783 0 -0.0029008288486048468 -8.4989056585091697e-05 0 -0.0029008288486048468 -8.4989056585091697e-05 0 -0.0031139130542314937 -0.00015880003151346451 0 -0.0030591332576168518 -4.1557056205929505e-06 0 -0.0032589054636893802 -6.9768791755709538e-05 0 -0.0031439575349739698 0.00011259723045230018 0 -0.0030591332576168518 -4.1557056205929505e-06 0 -0.0032636727021469977 -0.00027687551338308365 0 -0.0032589054636893802 -6.9768791755709538e-05 0 -0.0031139130542314937 -0.00015880003151346451 0 -0.0032589054636893802 -6.9768791755709538e-05 0 -0.0031139130542314937 -0.00015880003151346451 0 -0.0030591332576168518 -4.1557056205929505e-06 0 -0.0032636727021469977 -0.00027687551338308365 0 -0.0030152217896333333 -0.00028369658503859255 0 -0.0032373116461409503 -0.0004972416467770675 0 -0.0032636727021469977 -0.00027687551338308365 0 -0.0031139130542314937 -0.00015880003151346451 0 -0.0030152217896333333 -0.00028369658503859255 0 -0.0029008288486048468 -8.4989056585091697e-05 0 -0.0031139130542314937 -0.00015880003151346451 0 -0.0030152217896333333 -0.00028369658503859255 0 -0.0030152217896333333 -0.00028369658503859255 0 -0.0032373116461409503 -0.0004972416467770675 0 -0.002931284627020411 -0.0005484875508710795 0 -0.0032373116461409503 -0.0004972416467770675 0 -0.002931284627020411 -0.0005484875508710795 0 -0.0031450382533918554 -0.00090544742471987709 0 -0.002931284627020411 -0.0005484875508710795 0 -0.0026029181952557244 -0.00055245724769449004 0 -0.0026427820132216258 -0.0008796286909963499 0 -0.002931284627020411 -0.0005484875508710795 0 -0.0027449046457917528 -0.00029416151414888951 0 -0.0026029181952557244 -0.00055245724769449004 0 -0.0030152217896333333 -0.00028369658503859255 0 -0.002931284627020411 -0.0005484875508710795 0 -0.0027449046457917528 -0.00029416151414888951 0 -0.0030152217896333333 -0.00028369658503859255 0 -0.0027449046457917528 -0.00029416151414888951 0 -0.0028480049428689065 -0.00019093786304001767 0 -0.0029008288486048468 -8.4989056585091697e-05 0 -0.0030152217896333333 -0.00028369658503859255 0 -0.0028480049428689065 -0.00019093786304001767 0 -0.0027321277897843273 -0.00011197354940486783 0 -0.0027449046457917528 -0.00029416151414888951 0 -0.0028480049428689065 -0.00019093786304001767 0 -0.0025392214293026667 0.00024463323273684874 0 -0.0022822551573223829 -0.0002468006240074632 0 -0.0021525170413956443 0.00011481186773405275 0 -0.0026430914836190569 -7.3363305072726814e-05 0 -0.0027321277897843273 -0.00011197354940486783 0 -0.0027449046457917528 -0.00029416151414888951 0 -0.0026430914836190569 -7.3363305072726814e-05 0 -0.0027449046457917528 -0.00029416151414888951 0 -0.0023869943633539332 -0.00034982928576143059 0 -0.0022736196012959581 -0.00012791214193104422 0 -0.0023551670619668136 -0.0002677834510344239 0 -0.0027449046457917528 -0.00029416151414888951 0 -0.0023869943633539332 -0.00034982928576143059 0 -0.0026029181952557244 -0.00055245724769449004 0 -0.0022822551573223829 -0.0002468006240074632 0 -0.0016864933647959218 -1.1230764797793085e-05 0 -0.0018081925447607089 -0.00043193581869941533 0 -0.0022822551573223829 -0.0002468006240074632 0 -0.0016864933647959218 -1.1230764797793085e-05 0 -0.0021525170413956443 0.00011481186773405275 0 -0.0022822551573223829 -0.0002468006240074632 0 -0.0018081925447607089 -0.00043193581869941533 0 -0.0020417372338571113 -0.00076826845053186161 0 -0.0023551670619668136 -0.0002677834510344239 0 -0.0020659041718005325 -0.00074521707730552933 0 -0.0018081925447607089 -0.00043193581869941533 0 -0.0020417372338571113 -0.00076826845053186161 0 -0.0017191987600411003 -0.0009659247449515082 0 -0.0023869943633539332 -0.00034982928576143059 0 -0.0020417372338571113 -0.00076826845053186161 0 -0.0026029181952557244 -0.00055245724769449004 0 -0.0020417372338571113 -0.00076826845053186161 0 -0.0026029181952557244 -0.00055245724769449004 0 -0.0026427820132216258 -0.0008796286909963499 0 -0.0020417372338571113 -0.00076826845053186161 0 -0.0026427820132216258 -0.0008796286909963499 0 -0.0022341031410210012 -0.0011923773257086702 0 -0.0026427820132216258 -0.0008796286909963499 0 -0.0022341031410210012 -0.0011923773257086702 0 -0.0027115637860004017 -0.0013546759358803952 0 -0.0020417372338571113 -0.00076826845053186161 0 -0.0022341031410210012 -0.0011923773257086702 0 -0.0017191987600411003 -0.0009659247449515082 0 -0.0022341031410210012 -0.0011923773257086702 0 -0.0017191987600411003 -0.0009659247449515082 0 -0.0018577992441657738 -0.0014922451380200953 0 -0.0017191987600411003 -0.0009659247449515082 0 -0.0018577992441657738 -0.0014922451380200953 0 -0.0014249921502176338 -0.0014562889840851613 0 -0.0022341031410210012 -0.0011923773257086702 0 -0.0018577992441657738 -0.0014922451380200953 0 -0.0021885854860014572 -0.0018505751232319391 0 -0.0018577992441657738 -0.0014922451380200953 0 -0.0016682785692951048 -0.0019118737004936975 0 -0.0014249921502176338 -0.0014562889840851613 0 -0.0018577992441657738 -0.0014922451380200953 0 -0.0021885854860014572 -0.0018505751232319391 0 -0.0016682785692951048 -0.0019118737004936975 0 -0.0018483423165044602 -0.0023382376697937187 0 -0.0021885854860014572 -0.0018505751232319391 0 -0.0016682785692951048 -0.0019118737004936975 0 -0.0022341031410210012 -0.0011923773257086702 0 -0.0021885854860014572 -0.0018505751232319391 0 -0.0027115637860004017 -0.0013546759358803952 0 -0.0027542868279821667 -0.002006828741779041 0 -0.0021885854860014572 -0.0018505751232319391 0 -0.0027115637860004017 -0.0013546759358803952 0 -0.0027542868279821667 -0.002006828741779041 0 -0.0031420266586905097 -0.0014438459574968186 0 -0.0027115637860004017 -0.0013546759358803952 0 -0.0031420266586905097 -0.0014438459574968186 0 -0.0027115637860004017 -0.0013546759358803952 0 -0.0031450382533918554 -0.00090544742471987709 0 -0.0035779478001113176 -0.001046914092436361 0 -0.0031420266586905097 -0.0014438459574968186 0 -0.0031450382533918554 -0.00090544742471987709 0 -0.0034323329203583271 -0.00069386547388125791 0 -0.0032373116461409503 -0.0004972416467770675 0 -0.0031450382533918554 -0.00090544742471987709 0 -0.0035779478001113176 -0.001046914092436361 0 -0.0034323329203583271 -0.00069386547388125791 0 -0.0031450382533918554 -0.00090544742471987709 0 -0.002931284627020411 -0.0005484875508710795 0 -0.0026427820132216258 -0.0008796286909963499 0 -0.0031450382533918554 -0.00090544742471987709 0 -0.0026427820132216258 -0.0008796286909963499 0 -0.0027115637860004017 -0.0013546759358803952 0 -0.0031450382533918554 -0.00090544742471987709 0 0.001172441218750259 -0.0055829057056121876 0 0.00086598116825332906 -0.0052536630328005578 0 0.0011898332654541295 -0.0052414728498132732 0 0.001172441218750259 -0.0055829057056121876 0 0.0014422694263432991 -0.0054312433128001552 0 0.0011898332654541295 -0.0052414728498132732 0 0.001172441218750259 -0.0055829057056121876 0 0.0014422694263432991 -0.0054312433128001552 0 0.0015611520265161056 -0.0058124078437549846 0 0.0011435991413353487 -0.0060994119784274093 0 0.001172441218750259 -0.0055829057056121876 0 0.0015611520265161056 -0.0058124078437549846 0 0.0011435991413353487 -0.0060994119784274093 0 0.001172441218750259 -0.0055829057056121876 0 0.00080318134793621579 -0.0056339360392420514 0 -0.00085532897369858046 -0.0023560325542042854 0 0.00012583379121143469 -0.002568044944715278 0 -0.00066180986583896082 -0.001403176764093451 0 -0.00085532897369858046 -0.0023560325542042854 0 -0.0012522689305669249 -0.0019304587308228813 0 -0.00066180986583896082 -0.001403176764093451 0 0.00062746183834995939 -0.0043145585394322415 0 0.00011537636244623659 -0.0036235099524050702 0 -0.0012522689305669249 -0.0019304587308228813 0 -0.0014249921502176338 -0.0014562889840851613 0 -0.00066180986583896082 -0.001403176764093451 0 -0.0013858780049693222 -0.0024268234262164088 0 -0.0016682785692951048 -0.0019118737004936975 0 -0.0012522689305669249 -0.0019304587308228813 0 -0.0016682785692951048 -0.0019118737004936975 0 -0.0012522689305669249 -0.0019304587308228813 0 -0.0014249921502176338 -0.0014562889840851613 0 -0.0012714998150039983 -0.0010273260519698202 0 -0.00066180986583896082 -0.001403176764093451 0 -0.0013277543539244314 -0.00044045901570559186 0 -0.0014249921502176338 -0.0014562889840851613 0 -0.0012714998150039983 -0.0010273260519698202 0 -0.00066180986583896082 -0.001403176764093451 0 -0.0017191987600411003 -0.0009659247449515082 0 -0.0014249921502176338 -0.0014562889840851613 0 -0.0012714998150039983 -0.0010273260519698202 0 0.00011537636244623659 -0.0036235099524050702 0 -0.00062548880708791397 -0.002305721723938448 0 0.001172441218750259 -0.0055829057056121876 0 0.00080318134793621579 -0.0056339360392420514 0 0.00086598116825332906 -0.0052536630328005578 0 0.00086598116825332906 -0.0052536630328005578 0 0.00039962056929776713 -0.0051172149901014879 0 0.00068559718713989974 -0.0049755627680332769 0 0.00080318134793621579 -0.0056339360392420514 0 0.00086598116825332906 -0.0052536630328005578 0 0.00039962056929776713 -0.0051172149901014879 0 0.00086598116825332906 -0.0052536630328005578 0 0.00068559718713989974 -0.0049755627680332769 0 0.0010800469754453431 -0.0049366488061254642 0 -0.0018081925447607089 -0.00043193581869941533 0 -0.0017191987600411003 -0.0009659247449515082 0 -0.0013538120588756524 -0.00048212969358317129 0 -0.0017191987600411003 -0.0009659247449515082 0 -0.0012714998150039983 -0.0010273260519698202 0 -0.0013538120588756524 -0.00048212969358317129 0 -0.0012790149287734778 -0.00039555078127417572 0 -0.00062548880708791397 -0.002305721723938448 0 -0.00083791757599473886 -0.001940553248382084 0 -0.00044269790016261945 -0.0025751756156007278 0 -0.00049601468036729508 -0.0018506013257665003 0 0.00039962056929776713 -0.0051172149901014879 0 0.00031775736395603095 -0.0046882269073130478 0 0.00068559718713989974 -0.0049755627680332769 0 -0.00062548880708791397 -0.002305721723938448 0 -6.1099588528728388e-05 -0.0037142799087432426 0 -0.0016864933647959218 -1.1230764797793085e-05 0 -0.0018081925447607089 -0.00043193581869941533 0 -0.0013538120588756524 -0.00048212969358317129 0 -0.0013298615512157815 -0.00086126548196592447 0 -0.00062548880708791397 -0.002305721723938448 0 -0.00083791757599473886 -0.001940553248382084 0 -0.00049601468036729508 -0.0018506013257665003 0 -0.00074705061556935588 -0.0014575699954406732 0 0.00068559718713989974 -0.0049755627680332769 0 0.00068558578372368995 -0.0046449788569868028 0 0.0010800469754453431 -0.0049366488061254642 0 0.00068558578372368995 -0.0046449788569868028 0 0.0010800469754453431 -0.0049366488061254642 0 0.001012235678762026 -0.0044242416183192437 0 0.00031775736395603095 -0.0046882269073130478 0 0.00068559718713989974 -0.0049755627680332769 0 0.00068558578372368995 -0.0046449788569868028 0 0.0010567995244746625 -0.0048095040044484408 0 0.001064262077772826 -0.0048233178150684846 0 0.0010800469754453431 -0.0049366488061254642 0 0.0012807493992487008 -0.0048858069841586603 0 0.0010200519775384691 -0.0047375601865556416 0 0.0010800469754453431 -0.0049366488061254642 0 0.0014089617940892436 -0.0050749847432141251 0 0.0012807493992487008 -0.0048858069841586603 0 0.00086598116825332906 -0.0052536630328005578 0 0.0010800469754453431 -0.0049366488061254642 0 0.0011898332654541295 -0.0052414728498132732 0 0.0010800469754453431 -0.0049366488061254642 0 0.0011898332654541295 -0.0052414728498132732 0 0.0014089617940892436 -0.0050749847432141251 0 0.0014422694263432991 -0.0054312433128001552 0 0.0011898332654541295 -0.0052414728498132732 0 0.0014089617940892436 -0.0050749847432141251 0 0.0014422694263432991 -0.0054312433128001552 0 0.0014089617940892436 -0.0050749847432141251 0 0.001692211615668513 -0.005227201345121401 0 0.0014089617940892436 -0.0050749847432141251 0 0.0014483304055877568 -0.0048624690370337263 0 0.0016641644218039207 -0.0049431162378188271 0 0.0014089617940892436 -0.0050749847432141251 0 0.0012807493992487008 -0.0048858069841586603 0 0.0014483304055877568 -0.0048624690370337263 0 0.0014483304055877568 -0.0048624690370337263 0 0.0013372534398513928 -0.0046956304511227356 0 0.0015575935890487008 -0.0047157339610968737 0 0.0013372534398513928 -0.0046956304511227356 0 0.0014309854616129244 -0.0045696129651470315 0 0.0015575935890487008 -0.0047157339610968737 0 0.0013372534398513928 -0.0046956304511227356 0 0.0012007665890422176 -0.004563964521098824 0 0.0014309854616129244 -0.0045696129651470315 0 0.0012807493992487008 -0.0048858069841586603 0 0.0014483304055877568 -0.0048624690370337263 0 0.0013372534398513928 -0.0046956304511227356 0 0.0012807493992487008 -0.0048858069841586603 0 0.0013372534398513928 -0.0046956304511227356 0 0.0010200519775384691 -0.0047375601865556416 0 0.0010200519775384691 -0.0047375601865556416 0 0.0012007665890422176 -0.004563964521098824 0 0.00094622401179366832 -0.0044838803144973214 0 0.0013372534398513928 -0.0046956304511227356 0 0.0010200519775384691 -0.0047375601865556416 0 0.0012007665890422176 -0.004563964521098824 0 -0.00094446190116448804 -0.0023278018983489772 0 -0.001696829413633569 -0.0025762562833743104 0 -0.0014347461500340514 -0.0020652770095323171 0 0.0012007665890422176 -0.004563964521098824 0 0.0013686200332767658 -0.0043408724264644583 0 0.00094622401179366832 -0.0044838803144973214 0 -0.00057457674509087803 -0.0032109274277771866 0 0.00020844483407694687 -0.0028717156496072291 0 0.0013686200332767658 -0.0043408724264644583 0 0.0014309854616129244 -0.0045696129651470315 0 0.0017031524478109982 -0.004530673871950548 0 0.0012007665890422176 -0.004563964521098824 0 0.0013686200332767658 -0.0043408724264644583 0 0.0014309854616129244 -0.0045696129651470315 0 0.00031775736395603095 -0.0046882269073130478 0 0.00025333798526957645 -0.0041516514154753938 0 0.00050932392330675484 -0.0042702036774069901 0 -6.1099588528728388e-05 -0.0037142799087432426 0 -7.9012400874988486e-05 -0.0014456820641751893 0 -0.00049601468036729508 -0.0018506013257665003 0 -0.00054938619006091656 -0.0010655147383204458 0 -0.00074705061556935588 -0.0014575699954406732 0 -0.00054938619006091656 -0.0010655147383204458 0 -0.0006192378591129697 -0.0010889760234479267 0 -0.00074705061556935588 -0.0014575699954406732 0 -7.9012400874988486e-05 -0.0014456820641751893 0 -0.00010162917133963283 -0.00076511681972768052 0 0.00031775736395603095 -0.0046882269073130478 0 0.00068558578372368995 -0.0046449788569868028 0 0.00050932392330675484 -0.0042702036774069901 0 -7.9012400874988486e-05 -0.0014456820641751893 0 0.000907983120552919 -0.0033026066336759364 0 0.001064262077772826 -0.0048233178150684846 0 0.00020844483407694687 -0.0028717156496072291 0 0.00068558578372368995 -0.0046449788569868028 0 0.001012235678762026 -0.0044242416183192437 0 0.00050932392330675484 -0.0042702036774069901 0 0.00024696187480005279 -0.0041493706460929581 0 0.00050932392330675484 -0.0042702036774069901 0 0.00090161580730189843 -0.0039341309093110901 0 0.001012235678762026 -0.0044242416183192437 0 0.00050932392330675484 -0.0042702036774069901 0 0.00090161580730189843 -0.0039341309093110901 0 -0.00071477537773783728 -0.0016032597516749078 0 0.00090880631329989022 -0.0010525318499423032 0 -1.2264770692299233e-05 -0.00053566840827894895 0 0.00020844483407694687 -0.0028717156496072291 0 -0.00067377205369761645 -0.00082673773128950705 0 0.00090880631329989022 -0.0010525318499423032 0 -1.2264770692299233e-05 -0.00053566840827894895 0 0.00056860742174363779 0.00035329022631047717 0 -7.9012400874988486e-05 -0.0014456820641751893 0 0.00020844483407694687 -0.0028717156496072291 0 0.00010956194302370211 0.0018246254350734068 0 0.00055146043428292823 0.0013231560148903702 0 0.00048162205021890712 0.0023343790161654567 0 -0.00071477537773783728 -0.0016032597516749078 0 -1.2264770692299233e-05 -0.00053566840827894895 0 -0.00084181034986156476 0.00012259988991066516 0 -7.9012400874988486e-05 -0.0014456820641751893 0 -0.00020940182642284117 0.0013503083693198388 0 0.00010956194302370211 0.0018246254350734068 0 0.00055146043428292823 0.0013231560148903702 0 0.00048316983588689088 0.0013006467533450469 0 -1.2264770692299233e-05 -0.00053566840827894895 0 -0.00084181034986156476 0.00012259988991066516 0 0.00056860742174363779 0.00035329022631047717 0 -0.00084181034986156476 0.00012259988991066516 0 0.00056860742174363779 0.00035329022631047717 0 -0.00042290285586520852 0.0010498208829110658 0 -0.001696829413633569 -0.0025762562833743104 0 -0.0018342453992388678 -0.0020372917069228736 0 -0.0014347461500340514 -0.0020652770095323171 0 -0.0018342453992388678 -0.0020372917069228736 0 -0.0016316777493483399 -0.0018297884950824628 0 -0.0014347461500340514 -0.0020652770095323171 0 -0.00045915404308566376 0.0013055934057021536 0 -0.00069513227903567694 -0.00059523298597390485 0 -0.0016316777493483399 -0.0018297884950824628 0 -0.0019528906514743251 -0.0014873148977228451 0 -0.0013050869990111702 -0.0017323192794815629 0 -3.663784828082286e-07 0.0031440761812969753 0 -3.543396962164007e-05 0.0028875864497927184 0 -3.9042871395531428e-07 0.0012609847091892968 0 -0.0018342453992388678 -0.0020372917069228736 0 -0.0016316777493483399 -0.0018297884950824628 0 -0.0019528906514743251 -0.0014873148977228451 0 -0.00067377205369761645 -0.00082673773128950705 0 -0.00045915404308566376 0.0013055934057021536 0 0.00056860742174363779 0.00035329022631047717 0 0.00022615661168029759 0.0017642264824310075 0 -0.00042290285586520852 0.0010498208829110658 0 -1.9127094101793626e-06 0.0031426633597303826 0 -0.00045915404308566376 0.0013055934057021536 0 -0.00084181034986156476 0.00012259988991066516 0 -0.00042290285586520852 0.0010498208829110658 0 -0.00096497419874463496 0.0018569806269106474 0 -0.00020940182642284117 0.0013503083693198388 0 -2.9962211819884314e-06 0.0033034668323102408 0 -0.00045915404308566376 0.0013055934057021536 0 -0.00028184667981702579 0.0028843874390874396 0 -2.7230528731745763e-09 0.0031460072089867321 0 -7.9417179542234357e-07 0.0030856744087682927 0 -1.7416038632057293e-09 0.0038104191131691158 0 0.00022615661168029759 0.0017642264824310075 0 -0.00042290285586520852 0.0010498208829110658 0 -0.00046545582773375224 0.0017403695212501583 0 0.00022615661168029759 0.0017642264824310075 0 -0.00053580662540661679 0.0020148283914152381 0 -0.00046545582773375224 0.0017403695212501583 0 -0.00042290285586520852 0.0010498208829110658 0 -0.00046545582773375224 0.0017403695212501583 0 -0.00096497419874463496 0.0018569806269106474 0 -3.5464403828482485e-10 0.0038115645189723208 0 1.0919157417495601e-09 0.0042280747725134595 0 1.7672022794446293e-07 0.0042156012288098394 0 -0.00053580662540661679 0.0020148283914152381 0 -0.00046545582773375224 0.0017403695212501583 0 -0.00096497419874463496 0.0018569806269106474 0 -0.00028184667981702579 0.0028843874390874396 0 -2.9962211819884314e-06 0.0033034668323102408 0 -1.7060423181291867e-07 0.0042265499531493585 0 -2.9962211819884314e-06 0.0033034668323102408 0 -0.00097794983815362212 -0.0024208317845722401 0 -0.0010801846898043075 -0.0020437721494659016 0 -0.0005581241524417669 -0.0019473274794570821 0 -0.00097794983815362212 -0.0024208317845722401 0 -0.0010801846898043075 -0.0020437721494659016 0 -0.0014347461500340514 -0.0020652770095323171 0 -0.0010801846898043075 -0.0020437721494659016 0 -0.0013050869990111702 -0.0017323192794815629 0 -0.0005581241524417669 -0.0019473274794570821 0 -0.00057457674509087803 -0.0032109274277771866 0 -0.0016055269084216141 -0.0019471484388945508 0 -0.0016316777493483399 -0.0018297884950824628 0 -0.0014347461500340514 -0.0020652770095323171 0 -0.0013050869990111702 -0.0017323192794815629 0 -0.0010801846898043075 -0.0020437721494659016 0 -0.0014347461500340514 -0.0020652770095323171 0 -0.0013050869990111702 -0.0017323192794815629 0 -3.543396962164007e-05 0.0028875864497927184 0 -0.00012681258451037282 0.00087100484067595082 0 -3.9042871395531428e-07 0.0012609847091892968 0 -0.00012681258451037282 0.00087100484067595082 0 -3.9042871395531428e-07 0.0012609847091892968 0 -0.00021621618381001048 -0.00024262117721775213 0 -0.00069513227903567694 -0.00059523298597390485 0 -0.00033878427403987734 -0.0017063423220718542 0 -0.00012681258451037282 0.00087100484067595082 0 -0.00021621618381001048 -0.00024262117721775213 0 -0.0005581241524417669 -0.0019473274794570821 0 -3.9042871395531428e-07 0.0012609847091892968 0 -0.00021621618381001048 -0.00024262117721775213 0 -9.2057794828266471e-07 -0.0006235183467654049 0 -0.00021621618381001048 -0.00024262117721775213 0 -9.2057794828266471e-07 -0.0006235183467654049 0 -0.00023366179876388121 -0.0010660969806213117 0 -9.2057794828266471e-07 -0.0006235183467654049 0 -0.00022689351428532191 -0.0019899781035071585 0 -0.00023366179876388121 -0.0010660969806213117 0 -0.00021621618381001048 -0.00024262117721775213 0 -0.00023366179876388121 -0.0010660969806213117 0 -0.0005581241524417669 -0.0019473274794570821 0 -0.00022689351428532191 -0.0019899781035071585 0 -0.00023366179876388121 -0.0010660969806213117 0 -0.0005581241524417669 -0.0019473274794570821 0 -0.00057457674509087803 -0.0032109274277771866 0 -0.00098804930690067194 -0.0028026365310080889 0 -0.00097794983815362212 -0.0024208317845722401 0 -0.0005581241524417669 -0.0019473274794570821 0 -0.00051762660413640679 -0.0027823590062170849 0 -0.00022689351428532191 -0.0019899781035071585 0 -0.00051762660413640679 -0.0027823590062170849 0 -0.00014909447414352585 -0.0031195363167238204 0 -0.00022689351428532191 -0.0019899781035071585 0 -0.0005581241524417669 -0.0019473274794570821 0 -0.00051762660413640679 -0.0027823590062170849 0 -0.00014909447414352585 -0.0031195363167238204 0 9.595211308528699e-05 -0.004074877571950684 0 -0.00014349542586678172 -0.0042062397220168054 0 -0.00051762660413640679 -0.0027823590062170849 0 -0.00014909447414352585 -0.0031195363167238204 0 -0.00014349542586678172 -0.0042062397220168054 0 -0.00022689351428532191 -0.0019899781035071585 0 -0.00014909447414352585 -0.0031195363167238204 0 -2.324152250028694e-05 -0.0026413375701271509 0 -0.00014909447414352585 -0.0031195363167238204 0 -2.324152250028694e-05 -0.0026413375701271509 0 9.595211308528699e-05 -0.004074877571950684 0 -9.2057794828266471e-07 -0.0006235183467654049 0 -0.00022689351428532191 -0.0019899781035071585 0 -2.324152250028694e-05 -0.0026413375701271509 0 -9.2057794828266471e-07 -0.0006235183467654049 0 -2.324152250028694e-05 -0.0026413375701271509 0 1.217415294645604e-06 -0.0025057058203678331 0 1.217415294645604e-06 -0.0025057058203678331 0 0.00015879479474421995 -0.0036760356518073262 0 0.00056978069228667664 -0.0043996067073651295 0 -2.324152250028694e-05 -0.0026413375701271509 0 1.217415294645604e-06 -0.0025057058203678331 0 0.00015879479474421995 -0.0036760356518073262 0 -6.8000613327316586e-07 -0.0025071031630147533 0 -1.1593903783902596e-07 -0.0042058971022250922 0 -0.00016177411423581297 -0.0050249601581208248 0 5.3902908591303847e-08 -0.0025068298204755112 0 0.00019396913986672915 -0.0047599404907325334 0 -1.1593903783902596e-07 -0.0042058971022250922 0 -0.00016177411423581297 -0.0050249601581208248 0 3.7443603772649018e-05 -0.0051855489862850023 0 0.00015879479474421995 -0.0036760356518073262 0 0.00056978069228667664 -0.0043996067073651295 0 0.00029215620557019689 -0.0047543553908795926 0 0.00056978069228667664 -0.0043996067073651295 0 0.00035965176261051126 -0.0052192463401002677 0 0.00029397192479084961 -0.0058153569946527428 0 0.00056978069228667664 -0.0043996067073651295 0 0.00029215620557019689 -0.0047543553908795926 0 0.00035965176261051126 -0.0052192463401002677 0 0.00029215620557019689 -0.0047543553908795926 0 0.00035965176261051126 -0.0052192463401002677 0 0.00026738672053313396 -0.0057643028513645151 0 0.00035965176261051126 -0.0052192463401002677 0 0.00026738672053313396 -0.0057643028513645151 0 0.00029397192479084961 -0.0058153569946527428 0 -2.324152250028694e-05 -0.0026413375701271509 0 0.00015879479474421995 -0.0036760356518073262 0 9.595211308528699e-05 -0.004074877571950684 0 0.00015879479474421995 -0.0036760356518073262 0 0.00029215620557019689 -0.0047543553908795926 0 9.595211308528699e-05 -0.004074877571950684 0 0.00029215620557019689 -0.0047543553908795926 0 9.595211308528699e-05 -0.004074877571950684 0 0.00020752986689560754 -0.0051314403975619627 0 9.595211308528699e-05 -0.004074877571950684 0 0.00020752986689560754 -0.0051314403975619627 0 6.2917420159713412e-05 -0.0048733386146884257 0 9.595211308528699e-05 -0.004074877571950684 0 6.2917420159713412e-05 -0.0048733386146884257 0 -0.00014349542586678172 -0.0042062397220168054 0 0.00020752986689560754 -0.0051314403975619627 0 0.00014670135597567711 -0.0054149110153915115 0 6.2917420159713412e-05 -0.0048733386146884257 0 0.00014670135597567711 -0.0054149110153915115 0 6.2917420159713412e-05 -0.0048733386146884257 0 -3.4416714183779719e-05 -0.0054292838391825768 0 0.00029215620557019689 -0.0047543553908795926 0 0.00020752986689560754 -0.0051314403975619627 0 0.00026738672053313396 -0.0057643028513645151 0 0.00020752986689560754 -0.0051314403975619627 0 0.00026738672053313396 -0.0057643028513645151 0 0.00019435998877435369 -0.0057430459619468169 0 0.00020752986689560754 -0.0051314403975619627 0 0.00014670135597567711 -0.0054149110153915115 0 0.00019435998877435369 -0.0057430459619468169 0 0.00026738672053313396 -0.0057643028513645151 0 0.00019435998877435369 -0.0057430459619468169 0 0.00014718329263952603 -0.0061976852465773823 0 0.00014718329263952603 -0.0061976852465773823 0 0.00010027369266675042 -0.0063808578898391513 0 2.8711610441870175e-05 -0.0065961115314330495 0 0.00014718329263952603 -0.0061976852465773823 0 0.00016427828445883134 -0.0058739019820888173 0 0.00010027369266675042 -0.0063808578898391513 0 0.00014670135597567711 -0.0054149110153915115 0 0.00019435998877435369 -0.0057430459619468169 0 0.00016427828445883134 -0.0058739019820888173 0 0.00019435998877435369 -0.0057430459619468169 0 0.00014718329263952603 -0.0061976852465773823 0 0.00016427828445883134 -0.0058739019820888173 0 -0.00086873210842081008 -0.0068125287394548532 0 -0.00085296958265576649 -0.0097268909946232832 0 -0.00085296958265576649 -0.0097268909946232832 0 0.00091246995019977982 -0.0056671909987412554 0 0.0020527912467120015 -0.0047501353821700577 0 0.0020294379457130841 -0.0050530791132279021 0 0.0024817250964538165 -0.0050441912208081001 0 0.00065277327442018226 -0.0079928302690661975 0 -8.7648159701572304e-05 -0.0077018628695633912 0 0.00047229908942458538 -0.008072454876415289 0 0.00014670135597567711 -0.0054149110153915115 0 0.00016427828445883134 -0.0058739019820888173 0 -3.4416714183779719e-05 -0.0054292838391825768 0 0.00016427828445883134 -0.0058739019820888173 0 0.00023849412071853417 -0.0061384323269219722 0 -3.4416714183779719e-05 -0.0054292838391825768 0 0.00091246995019977982 -0.0056671909987412554 0 0.0016572207775601032 -0.0063266186745431306 0 0.0020527912467120015 -0.0047501353821700577 0 0.0019538602843215125 -0.0047142542554712416 0 0.0018841316495223229 -0.0048913678239234986 0 0.0020527912467120015 -0.0047501353821700577 0 0.0018841316495223229 -0.0048913678239234986 0 0.0020294379457130841 -0.0050530791132279021 0 0.00091246995019977982 -0.0056671909987412554 0 0.00049528327487369315 -0.0045695285993459303 0 0.0020477333147805865 -0.0047496018387438001 0 0.0019538602843215125 -0.0047142542554712416 0 0.0017031524478109982 -0.004530673871950548 0 0.00091246995019977982 -0.0056671909987412554 0 0.0015017259693928351 -0.005515578765407851 0 0.0019538602843215125 -0.0047142542554712416 0 0.0017496421723083052 -0.0047602700042124208 0 0.0017031524478109982 -0.004530673871950548 0 0.0019538602843215125 -0.0047142542554712416 0 0.0018841316495223229 -0.0048913678239234986 0 0.0017496421723083052 -0.0047602700042124208 0 0.0015575935890487008 -0.0047157339610968737 0 0.0017496421723083052 -0.0047602700042124208 0 0.0016641644218039207 -0.0049431162378188271 0 0.0014309854616129244 -0.0045696129651470315 0 0.0015575935890487008 -0.0047157339610968737 0 0.0017031524478109982 -0.004530673871950548 0 0.0018841316495223229 -0.0048913678239234986 0 0.0017496421723083052 -0.0047602700042124208 0 0.0016641644218039207 -0.0049431162378188271 0 0.0014483304055877568 -0.0048624690370337263 0 0.0015575935890487008 -0.0047157339610968737 0 0.0016641644218039207 -0.0049431162378188271 0 0.0015575935890487008 -0.0047157339610968737 0 0.0017496421723083052 -0.0047602700042124208 0 0.0017031524478109982 -0.004530673871950548 0 -0.0025471583377009686 -0.003466525174933858 0 -0.00051762660413640679 -0.0027823590062170849 0 -0.0007325458690381595 -0.0045351492350608653 0 -0.00057457674509087803 -0.0032109274277771866 0 0.00049528327487369315 -0.0045695285993459303 0 -0.00051762660413640679 -0.0027823590062170849 0 -0.0007325458690381595 -0.0045351492350608653 0 -0.00014349542586678172 -0.0042062397220168054 0 -3.4416714183779719e-05 -0.0054292838391825768 0 -0.0007325458690381595 -0.0045351492350608653 0 -0.00014349542586678172 -0.0042062397220168054 0 6.2917420159713412e-05 -0.0048733386146884257 0 -3.4416714183779719e-05 -0.0054292838391825768 0 -0.00014349542586678172 -0.0042062397220168054 0 -0.0010933162156064771 -0.0086407471328999192 0 -0.00094545387528286655 -0.0085700942194665355 0 -0.00091609855212929916 -0.0090443201702275992 0 -0.0010933162156064771 -0.0086407471328999192 0 -0.00094545387528286655 -0.0085700942194665355 0 -0.0010322622020883586 -0.0085079131504432835 0 -0.00094545387528286655 -0.0085700942194665355 0 -0.00077568028907542001 -0.0081982136216670609 0 -0.0010322622020883586 -0.0085079131504432835 0 -0.00094545387528286655 -0.0085700942194665355 0 -0.00091201127717029497 -0.0086503981381629968 0 -0.00077568028907542001 -0.0081982136216670609 0 -3.4228992649410266e-05 -0.0076889189491046919 0 -8.2678840019780109e-08 -0.007602913293722079 0 -1.71708319157967e-07 -0.0093021100211986042 0 -0.00091609855212929916 -0.0090443201702275992 0 -0.0010601362766954384 -0.0089539644047276767 0 -1.6078562173505893e-06 -0.0093050430001042767 0 -0.00043192172013633781 -0.0083060198813683581 0 -1.0954501864262343e-07 -0.0093020539936036224 0 -0.00091609855212929916 -0.0090443201702275992 0 -0.0010601362766954384 -0.0089539644047276767 0 -0.00091201127717029497 -0.0086503981381629968 0 -0.0010601362766954384 -0.0089539644047276767 0 -0.00091201127717029497 -0.0086503981381629968 0 -0.00070662540801979081 -0.0083432817208119164 0 -0.00094545387528286655 -0.0085700942194665355 0 -0.00091609855212929916 -0.0090443201702275992 0 -0.00091201127717029497 -0.0086503981381629968 0 -8.2678840019780109e-08 -0.007602913293722079 0 0.00010748932658384714 -0.006301849485731573 0 5.9586270792945848e-07 -0.0059044852213470007 0 -3.4228992649410266e-05 -0.0076889189491046919 0 -8.2678840019780109e-08 -0.007602913293722079 0 0.00010748932658384714 -0.006301849485731573 0 -0.00043192172013633781 -0.0083060198813683581 0 -0.00013362353222389284 -0.0071592829816751833 0 -0.0010601362766954384 -0.0089539644047276767 0 -0.00070662540801979081 -0.0083432817208119164 0 -0.00027438427933147795 -0.0080434176505542413 0 -0.00070662540801979081 -0.0083432817208119164 0 -0.00050224973869768177 -0.0078923508143762342 0 -0.00027438427933147795 -0.0080434176505542413 0 -0.00050224973869768177 -0.0078923508143762342 0 -0.00016798763143152003 -0.0073796367126615775 0 -0.00027438427933147795 -0.0080434176505542413 0 -0.00091201127717029497 -0.0086503981381629968 0 -0.00070662540801979081 -0.0083432817208119164 0 -0.00077568028907542001 -0.0081982136216670609 0 -0.00070662540801979081 -0.0083432817208119164 0 -0.00050224973869768177 -0.0078923508143762342 0 -0.00077568028907542001 -0.0081982136216670609 0 -0.00077568028907542001 -0.0081982136216670609 0 -0.00050044914570992571 -0.0077237211839453496 0 -0.0008172247154818789 -0.0081536408417327982 0 -0.00050224973869768177 -0.0078923508143762342 0 -0.00050044914570992571 -0.0077237211839453496 0 -0.00016798763143152003 -0.0073796367126615775 0 -0.00050224973869768177 -0.0078923508143762342 0 -0.00077568028907542001 -0.0081982136216670609 0 -0.00050044914570992571 -0.0077237211839453496 0 -0.00016798763143152003 -0.0073796367126615775 0 -0.00027438427933147795 -0.0080434176505542413 0 6.4292337550862045e-05 -0.0060295588432582696 0 6.2207587596684968e-05 -0.0067999943048290866 0 -0.00016798763143152003 -0.0073796367126615775 0 6.4292337550862045e-05 -0.0060295588432582696 0 -0.00050044914570992571 -0.0077237211839453496 0 -0.00016798763143152003 -0.0073796367126615775 0 -0.00018852640007200312 -0.007192587620765409 0 6.2207587596684968e-05 -0.0067999943048290866 0 -0.00016798763143152003 -0.0073796367126615775 0 -0.00018852640007200312 -0.007192587620765409 0 -0.00013362353222389284 -0.0071592829816751833 0 -4.4298118047634829e-06 -0.0063399063627354972 0 0.00010748932658384714 -0.006301849485731573 0 6.5615589274990282e-05 -0.0057578641432374207 0 6.4292337550862045e-05 -0.0060295588432582696 0 0.00010748932658384714 -0.006301849485731573 0 5.9586270792945848e-07 -0.0059044852213470007 0 6.5615589274990282e-05 -0.0057578641432374207 0 6.5615589274990282e-05 -0.0057578641432374207 0 3.7443603772649018e-05 -0.0051855489862850023 0 6.4292337550862045e-05 -0.0060295588432582696 0 -1.1593903783902596e-07 -0.0042058971022250922 0 5.9586270792945848e-07 -0.0059044852213470007 0 3.7443603772649018e-05 -0.0051855489862850023 0 5.9586270792945848e-07 -0.0059044852213470007 0 6.5615589274990282e-05 -0.0057578641432374207 0 3.7443603772649018e-05 -0.0051855489862850023 0 -0.00016177411423581297 -0.0050249601581208248 0 3.7443603772649018e-05 -0.0051855489862850023 0 6.4292337550862045e-05 -0.0060295588432582696 0 -0.00016177411423581297 -0.0050249601581208248 0 6.2207587596684968e-05 -0.0067999943048290866 0 6.4292337550862045e-05 -0.0060295588432582696 0 0.00056978069228667664 -0.0043996067073651295 0 6.2207587596684968e-05 -0.0067999943048290866 0 0.00029397192479084961 -0.0058153569946527428 0 0.00019396913986672915 -0.0047599404907325334 0 0.00013686185554153934 -0.0064355588387541088 0 6.2207587596684968e-05 -0.0067999943048290866 0 0.00029397192479084961 -0.0058153569946527428 0 0.00011370905851407827 -0.0065205505652516154 0 0.00026738672053313396 -0.0057643028513645151 0 0.00029397192479084961 -0.0058153569946527428 0 0.00011370905851407827 -0.0065205505652516154 0 0.00026738672053313396 -0.0057643028513645151 0 0.00011370905851407827 -0.0065205505652516154 0 0.0001397087247364259 -0.0063189287893477813 0 0.00011370905851407827 -0.0065205505652516154 0 0.0001397087247364259 -0.0063189287893477813 0 -1.3149297134651269e-05 -0.0067634744433337493 0 0.00011370905851407827 -0.0065205505652516154 0 -1.3149297134651269e-05 -0.0067634744433337493 0 -0.00017726673787290691 -0.0071262782231682215 0 0.00026738672053313396 -0.0057643028513645151 0 0.00014718329263952603 -0.0061976852465773823 0 0.0001397087247364259 -0.0063189287893477813 0 0.00014718329263952603 -0.0061976852465773823 0 0.0001397087247364259 -0.0063189287893477813 0 -1.3149297134651269e-05 -0.0067634744433337493 0 0.00014718329263952603 -0.0061976852465773823 0 2.8711610441870175e-05 -0.0065961115314330495 0 -1.3149297134651269e-05 -0.0067634744433337493 0 0.00010027369266675042 -0.0063808578898391513 0 -0.00010458474313258037 -0.0069357486037859928 0 -0.00031684280388753294 -0.007368052207435246 0 0.00010027369266675042 -0.0063808578898391513 0 2.8711610441870175e-05 -0.0065961115314330495 0 -0.00010458474313258037 -0.0069357486037859928 0 -0.00010458474313258037 -0.0069357486037859928 0 -1.3149297134651269e-05 -0.0067634744433337493 0 -0.00034704136982030716 -0.0074330988271227505 0 2.8711610441870175e-05 -0.0065961115314330495 0 -0.00010458474313258037 -0.0069357486037859928 0 -1.3149297134651269e-05 -0.0067634744433337493 0 -1.3149297134651269e-05 -0.0067634744433337493 0 -0.00034704136982030716 -0.0074330988271227505 0 -0.00017726673787290691 -0.0071262782231682215 0 -0.00034704136982030716 -0.0074330988271227505 0 -0.00071440438931626442 -0.0080642931406841745 0 -0.00031684280388753294 -0.007368052207435246 0 -0.00010458474313258037 -0.0069357486037859928 0 -0.00034704136982030716 -0.0074330988271227505 0 -0.00031684280388753294 -0.007368052207435246 0 -0.00034704136982030716 -0.0074330988271227505 0 -0.00053334088310177908 -0.0077218906035265746 0 -0.00071440438931626442 -0.0080642931406841745 0 -0.00034704136982030716 -0.0074330988271227505 0 -0.00017726673787290691 -0.0071262782231682215 0 -0.00053334088310177908 -0.0077218906035265746 0 -0.00017726673787290691 -0.0071262782231682215 0 -0.00018852640007200312 -0.007192587620765409 0 -0.00053334088310177908 -0.0077218906035265746 0 6.2207587596684968e-05 -0.0067999943048290866 0 0.00011370905851407827 -0.0065205505652516154 0 -0.00018852640007200312 -0.007192587620765409 0 0.00011370905851407827 -0.0065205505652516154 0 -0.00017726673787290691 -0.0071262782231682215 0 -0.00018852640007200312 -0.007192587620765409 0 -0.00050044914570992571 -0.0077237211839453496 0 -0.00018852640007200312 -0.007192587620765409 0 -0.00053334088310177908 -0.0077218906035265746 0 -0.00050044914570992571 -0.0077237211839453496 0 -0.0008172247154818789 -0.0081536408417327982 0 -0.00053334088310177908 -0.0077218906035265746 0 -0.0008172247154818789 -0.0081536408417327982 0 -0.00053334088310177908 -0.0077218906035265746 0 -0.00087053569313258548 -0.0083125574117448708 0 -0.00053334088310177908 -0.0077218906035265746 0 -0.00071440438931626442 -0.0080642931406841745 0 -0.00087053569313258548 -0.0083125574117448708 0 -0.00071440438931626442 -0.0080642931406841745 0 -0.00087053569313258548 -0.0083125574117448708 0 -0.0010506704746593089 -0.0087315712119231705 0 -0.0010506704746593089 -0.0087315712119231705 0 -0.001165763413919999 -0.0089211329185890972 0 -0.0012672816089147818 -0.009511591286801041 0 -0.00087053569313258548 -0.0083125574117448708 0 -0.0010506704746593089 -0.0087315712119231705 0 -0.001165763413919999 -0.0089211329185890972 0 -0.001165763413919999 -0.0089211329185890972 0 -0.0010322622020883586 -0.0085079131504432835 0 -0.0012234770778907075 -0.009070846548107676 0 -0.0010933162156064771 -0.0086407471328999192 0 -0.0010322622020883586 -0.0085079131504432835 0 -0.0012234770778907075 -0.009070846548107676 0 -0.0008172247154818789 -0.0081536408417327982 0 -0.001165763413919999 -0.0089211329185890972 0 -0.0010322622020883586 -0.0085079131504432835 0 -0.0008172247154818789 -0.0081536408417327982 0 -0.00087053569313258548 -0.0083125574117448708 0 -0.001165763413919999 -0.0089211329185890972 0 -0.00077568028907542001 -0.0081982136216670609 0 -0.0008172247154818789 -0.0081536408417327982 0 -0.0010322622020883586 -0.0085079131504432835 0 -0.0026133959465140838 -0.017213095365643992 0 -0.0027812629118176609 -0.017015097438829507 0 -0.0025302828097702283 -0.017092909220501579 0 -0.0027812629118176609 -0.017015097438829507 0 -0.0028168579033669874 -0.016787586785197903 0 -0.0025302828097702283 -0.017092909220501579 0 -0.0026133959465140838 -0.017213095365643992 0 -0.0027812629118176609 -0.017015097438829507 0 -0.0027368583448669406 -0.017227557297031858 0 -0.0012672816089147818 -0.009511591286801041 0 -0.0010760814711080428 -0.0087587462456400408 0 -0.0014458755987369364 -0.010661749533656548 0 -0.0018471998920001889 -0.012795906307035662 0 -0.0019065668762287978 -0.013903963638317494 0 -0.0010506704746593089 -0.0087315712119231705 0 -0.0012672816089147818 -0.009511591286801041 0 -0.0010760814711080428 -0.0087587462456400408 0 -0.00071440438931626442 -0.0080642931406841745 0 -0.0010760814711080428 -0.0087587462456400408 0 -0.00031684280388753294 -0.007368052207435246 0 -0.0028168579033669874 -0.016787586785197903 0 -0.0029612535531652663 -0.016864302608905493 0 -0.0031843260074238275 -0.016495720720348266 0 -0.0018471998920001889 -0.012795906307035662 0 -0.0018444012030010644 -0.012132969843421394 0 -0.00071440438931626442 -0.0080642931406841745 0 -0.0010506704746593089 -0.0087315712119231705 0 -0.0010760814711080428 -0.0087587462456400408 0 -0.0026559301080522554 -0.016026197737051887 0 -0.0027153346683198684 -0.017288334746484592 0 -0.0027812629118176609 -0.017015097438829507 0 -0.0029831215346891983 -0.017007489322584262 0 -0.0027368583448669406 -0.017227557297031858 0 -0.0027812629118176609 -0.017015097438829507 0 -0.0029612535531652663 -0.016864302608905493 0 -0.0029831215346891983 -0.017007489322584262 0 -0.0027920664476249659 -0.016720624257626906 0 -0.0026559301080522554 -0.016026197737051887 0 -0.0027812629118176609 -0.017015097438829507 0 -0.0028168579033669874 -0.016787586785197903 0 -0.0029612535531652663 -0.016864302608905493 0 -0.0026559301080522554 -0.016026197737051887 0 -0.00031072774178803877 -0.012215955604507766 0 -0.0029612535531652663 -0.016864302608905493 0 -0.002969762999920929 -0.016970695540179076 0 -0.0033702194290728639 -0.016571766251430687 0 -0.00026199360240241302 -0.012048423852047841 0 -0.00051419462182437437 -0.012007478040617872 0 -0.00074659802345268414 -0.011747455871489688 0 -0.0026559301080522554 -0.016026197737051887 0 1.5566895835237581e-05 -0.01069431592306651 0 0.0031195913784062496 -0.0056558489869469458 0 0.0031310969956612968 -0.0058741317670178957 0 0.0033769129586429629 -0.0059780516228361271 0 -0.00026199360240241302 -0.012048423852047841 0 -0.00051419462182437437 -0.012007478040617872 0 -0.00027817630662048718 -0.012261261170957514 0 0.00114160274212445 -0.0085869470156849665 0 -0.00031072774178803877 -0.012215955604507766 0 0.0031195913784062496 -0.0056558489869469458 0 0.0029737861961999811 -0.005800097095592289 0 0.0031310969956612968 -0.0058741317670178957 0 -0.0029612535531652663 -0.016864302608905493 0 -0.0031843260074238275 -0.016495720720348266 0 -0.0033702194290728639 -0.016571766251430687 0 -0.00085296958265576649 -0.0097268909946232832 0 -0.0018444012030010644 -0.012132969843421394 0 -0.0035821071686301829 -0.01621807235740046 0 -0.0031843260074238275 -0.016495720720348266 0 -0.0033702194290728639 -0.016571766251430687 0 -0.00085296958265576649 -0.0097268909946232832 0 1.5566895835237581e-05 -0.01069431592306651 0 0.0029737861961999811 -0.005800097095592289 0 0.0028468031746325018 -0.005621989193539222 0 0.0026378299609066832 -0.0058138800929154666 0 0.0028764016284557482 -0.0053542175311835534 0 0.0028468031746325018 -0.005621989193539222 0 0.0026153424213987636 -0.0054491557756881472 0 0.0031195913784062496 -0.0056558489869469458 0 0.0028764016284557482 -0.0053542175311835534 0 0.0028468031746325018 -0.005621989193539222 0 0.00114160274212445 -0.0085869470156849665 0 1.5566895835237581e-05 -0.01069431592306651 0 0.0031195913784062496 -0.0056558489869469458 0 0.0029737861961999811 -0.005800097095592289 0 0.0028468031746325018 -0.005621989193539222 0 0.002215037454166928 -0.0076731739471876661 0 0.0029437281472045598 -0.0054659758374386953 0 0.0028288801106171779 -0.0060895550671478263 0 0.0026378299609066832 -0.0058138800929154666 0 0.0026095577336479642 -0.0061636247658992593 0 0.0028288801106171779 -0.0060895550671478263 0 0.0030478730739399679 -0.0059771341885987705 0 0.0026378299609066832 -0.0058138800929154666 0 0.0029737861961999811 -0.005800097095592289 0 0.0031444320111658508 -0.0060472068460025721 0 0.0026378299609066832 -0.0058138800929154666 0 0.0028438230960269556 -0.0063149705210796721 0 0.0028288801106171779 -0.0060895550671478263 0 0.0026095577336479642 -0.0061636247658992593 0 0.0028438230960269556 -0.0063149705210796721 0 0.0026095577336479642 -0.0061636247658992593 0 0.002644959343909385 -0.0064112025171876568 0 0.0028438230960269556 -0.0063149705210796721 0 0.0028288801106171779 -0.0060895550671478263 0 0.0029987953410219796 -0.0061759748949995891 0 0.0028288801106171779 -0.0060895550671478263 0 0.0029987953410219796 -0.0061759748949995891 0 0.0030478730739399679 -0.0059771341885987705 0 0.0028438230960269556 -0.0063149705210796721 0 0.0029987953410219796 -0.0061759748949995891 0 0.0030409262685874546 -0.0063573730271660207 0 0.0029987953410219796 -0.0061759748949995891 0 0.0031999040094437209 -0.0062350095470254186 0 0.0030409262685874546 -0.0063573730271660207 0 0.002215037454166928 -0.0076731739471876661 0 0.001854504269995884 -0.011758881880452352 0 0.0029987953410219796 -0.0061759748949995891 0 0.0030478730739399679 -0.0059771341885987705 0 0.0031999040094437209 -0.0062350095470254186 0 0.0031444320111658508 -0.0060472068460025721 0 0.0032447846698160569 -0.0059870093209130242 0 0.0033601619885017808 -0.0061459200612699058 0 0.0012503852203154455 -0.0097614041083871322 0 0.0023692090948768041 -0.010074515329188032 0 0.0022570785474994005 -0.011320668754715858 0 0.002215037454166928 -0.0076731739471876661 0 0.00098022259707273088 -0.012221686799354368 0 0.0032447846698160569 -0.0059870093209130242 0 0.0033769129586429629 -0.0059780516228361271 0 0.0033601619885017808 -0.0061459200612699058 0 0.0031444320111658508 -0.0060472068460025721 0 0.0031644809177517733 -0.0059856574782908446 0 0.0031310969956612968 -0.0058741317670178957 0 0.0029737861961999811 -0.005800097095592289 0 0.0031444320111658508 -0.0060472068460025721 0 0.0031310969956612968 -0.0058741317670178957 0 0.0031310969956612968 -0.0058741317670178957 0 0.0032447846698160569 -0.0059870093209130242 0 0.0033769129586429629 -0.0059780516228361271 0 0.0031444320111658508 -0.0060472068460025721 0 0.0031644809177517733 -0.0059856574782908446 0 0.0032447846698160569 -0.0059870093209130242 0 0.0031644809177517733 -0.0059856574782908446 0 0.0031310969956612968 -0.0058741317670178957 0 0.0032447846698160569 -0.0059870093209130242 0 -0.002954444660482823 -0.017072812033533651 0 -0.0028535180134320803 -0.017250174350705173 0 -0.0027368583448669406 -0.017227557297031858 0 -0.002954444660482823 -0.017072812033533651 0 -0.00296836134276587 -0.017232907498291945 0 -0.0028535180134320803 -0.017250174350705173 0 -0.0028535180134320803 -0.017250174350705173 0 -0.0027798623746766197 -0.017309247524075685 0 -0.0027368583448669406 -0.017227557297031858 0 -0.00296836134276587 -0.017232907498291945 0 -0.0028535180134320803 -0.017250174350705173 0 -0.0028292691682947819 -0.017387813818077941 0 -0.0028535180134320803 -0.017250174350705173 0 -0.0028292691682947819 -0.017387813818077941 0 -0.0027798623746766197 -0.017309247524075685 0 -0.00048636129726274034 -0.01787047270837502 0 -0.00043274296147953879 -0.017848215393706568 0 -0.00044476874763364104 -0.017847447454037171 0 -0.00064568981752549204 -0.013255985755155152 0 0.00035521893533557112 -0.014282802573405601 0 -0.00071084895495600829 -0.013981146045242811 0 -0.00031072774178803877 -0.012215955604507766 0 -0.00072032505572496399 -0.016223820031665948 0 -0.00072032505572496399 -0.016223820031665948 0 0.00098022259707273088 -0.012221686799354368 0 -0.00031072774178803877 -0.012215955604507766 0 0.00098022259707273088 -0.012221686799354368 0 -0.00042479295995460551 -0.017848109100667326 0 -0.0004831207274523203 -0.017846971865646152 0 -0.00066843297886382837 -0.017771184327930355 0 0.00098022259707273088 -0.012221686799354368 0 0.001854504269995884 -0.011758881880452352 0 -0.00043274296147953879 -0.017848215393706568 0 -0.00044476874763364104 -0.017847447454037171 0 -0.00042996750917770321 -0.017833574252125096 0 -0.00042479295995460551 -0.017848109100667326 0 -0.00045467384683589557 -0.01792169033809074 0 -0.0004900399229456658 -0.017991316333466071 0 -0.00044476874763364104 -0.017847447454037171 0 -0.00044710415332896208 -0.017845853293576432 0 -0.0004831207274523203 -0.017846971865646152 0 -0.00044710415332896208 -0.017845853293576432 0 -0.00042479295995460551 -0.017848109100667326 0 -0.0004831207274523203 -0.017846971865646152 0 -0.00044476874763364104 -0.017847447454037171 0 -0.00044710415332896208 -0.017845853293576432 0 -0.00042996750917770321 -0.017833574252125096 0 -0.00042996750917770321 -0.017833574252125096 0 -0.00042479295995460551 -0.017848109100667326 0 -0.00042878063748191515 -0.017918738505763088 0 -0.00044710415332896208 -0.017845853293576432 0 -0.00042996750917770321 -0.017833574252125096 0 -0.00042479295995460551 -0.017848109100667326 0 -0.00042479295995460551 -0.017848109100667326 0 -0.00045467384683589557 -0.01792169033809074 0 -0.00044203518596992481 -0.017903548702305171 0 -0.00045467384683589557 -0.01792169033809074 0 -0.00046544109551323738 -0.017947279707244388 0 -0.00044807903656685885 -0.017920723523423904 0 -0.00045467384683589557 -0.01792169033809074 0 -0.00044203518596992481 -0.017903548702305171 0 -0.00044807903656685885 -0.017920723523423904 0 -0.00042479295995460551 -0.017848109100667326 0 -0.00044203518596992481 -0.017903548702305171 0 -0.00043590875453572474 -0.017904565316620061 0 -0.00048636129726274034 -0.01787047270837502 0 -0.00044476874763364104 -0.017847447454037171 0 -0.0004831207274523203 -0.017846971865646152 0 -0.00048636129726274034 -0.01787047270837502 0 -0.0004831207274523203 -0.017846971865646152 0 -0.00053615860084726161 -0.017848966432377985 0 -0.00072032505572496399 -0.016223820031665948 0 -0.000233909709292282 -0.017176872296251876 0 -0.00048314848814175659 -0.017859701277996083 0 -0.00052772780900844788 -0.017921805820472248 0 -0.00042479295995460551 -0.017848109100667326 0 -0.0004900399229456658 -0.017991316333466071 0 -0.00052563921897669143 -0.018063665699854799 0 -0.0004831207274523203 -0.017846971865646152 0 -0.00053615860084726161 -0.017848966432377985 0 -0.00066843297886382837 -0.017771184327930355 0 -0.00072032505572496399 -0.016223820031665948 0 -0.001813804560468876 -0.017661210907783411 0 -0.0028292691682947819 -0.017387813818077941 0 -0.0026139661285999134 -0.017472989990025736 0 -0.0027009411593601827 -0.01736829236591067 0 -0.00049103976935209134 -0.017890683902891696 0 -0.00053615860084726161 -0.017848966432377985 0 -0.00067878595082405545 -0.01784290163898666 0 -0.00045467384683589557 -0.01792169033809074 0 -0.0004900399229456658 -0.017991316333466071 0 -0.00046544109551323738 -0.017947279707244388 0 -0.0004900399229456658 -0.017991316333466071 0 -0.00046544109551323738 -0.017947279707244388 0 -0.00048638651961307658 -0.017952858708208133 0 -0.0004900399229456658 -0.017991316333466071 0 -0.00052563921897669143 -0.018063665699854799 0 -0.00053586867413890464 -0.017987962383895467 0 -0.00053615860084726161 -0.017848966432377985 0 -0.00066843297886382837 -0.017771184327930355 0 -0.00067878595082405545 -0.01784290163898666 0 -0.0026139661285999134 -0.017472989990025736 0 -0.002631770670509194 -0.017401749541838533 0 -0.0025902780077461068 -0.017423559586452121 0 -0.0027009411593601827 -0.01736829236591067 0 -0.0027368583448669406 -0.017227557297031858 0 -0.002590461380263062 -0.017355320470003394 0 -0.002631770670509194 -0.017401749541838533 0 -0.0027009411593601827 -0.01736829236591067 0 -0.002590461380263062 -0.017355320470003394 0 -0.0026139661285999134 -0.017472989990025736 0 -0.002631770670509194 -0.017401749541838533 0 -0.0027009411593601827 -0.01736829236591067 0 -0.0027798623746766197 -0.017309247524075685 0 -0.0027009411593601827 -0.01736829236591067 0 -0.0027368583448669406 -0.017227557297031858 0 -0.0028292691682947819 -0.017387813818077941 0 -0.0027798623746766197 -0.017309247524075685 0 -0.0027009411593601827 -0.01736829236591067 0 -0.0026133959465140838 -0.017213095365643992 0 -0.0027368583448669406 -0.017227557297031858 0 -0.002590461380263062 -0.017355320470003394 0 0.0019768333068037242 -0.0054886952119181046 0 0.0020301903248590583 -0.0050795406590772446 0 0.0019705210306328342 -0.0053293010036117982 0 0.001692211615668513 -0.005227201345121401 0 0.0018535063528236915 -0.0050978989177148512 0 0.0019705210306328342 -0.0053293010036117982 0 0.001692211615668513 -0.005227201345121401 0 0.0017357710978472196 -0.0054864460127067392 0 0.0014089617940892436 -0.0050749847432141251 0 0.001692211615668513 -0.005227201345121401 0 0.0016641644218039207 -0.0049431162378188271 0 0.001692211615668513 -0.005227201345121401 0 0.0016641644218039207 -0.0049431162378188271 0 0.0018535063528236915 -0.0050978989177148512 0 0.0018841316495223229 -0.0048913678239234986 0 0.0016641644218039207 -0.0049431162378188271 0 0.0018535063528236915 -0.0050978989177148512 0 0.0019705210306328342 -0.0053293010036117982 0 0.0018535063528236915 -0.0050978989177148512 0 0.0020294379457130841 -0.0050530791132279021 0 0.0018841316495223229 -0.0048913678239234986 0 0.0018535063528236915 -0.0050978989177148512 0 0.0020294379457130841 -0.0050530791132279021 0 0.0020294379457130841 -0.0050530791132279021 0 0.0024817250964538165 -0.0050441912208081001 0 0.002341683660717631 -0.0054930025438816024 0 0.0028764016284557482 -0.0053542175311835534 0 0.0024817250964538165 -0.0050441912208081001 0 0.0026153424213987636 -0.0054491557756881472 0 0.0024817250964538165 -0.0050441912208081001 0 0.0026153424213987636 -0.0054491557756881472 0 0.002341683660717631 -0.0054930025438816024 0 0.00065277327442018226 -0.0079928302690661975 0 0.0010388295473249599 -0.0084461826186877625 0 0.00047229908942458538 -0.008072454876415289 0 1.5566895835237581e-05 -0.01069431592306651 0 0.0016572207775601032 -0.0063266186745431306 0 0.0028468031746325018 -0.005621989193539222 0 0.0026153424213987636 -0.0054491557756881472 0 0.0026378299609066832 -0.0058138800929154666 0 0.0026153424213987636 -0.0054491557756881472 0 0.002341683660717631 -0.0054930025438816024 0 0.0026378299609066832 -0.0058138800929154666 0 0.001972233515746249 -0.0056648181249207442 0 0.0020294379457130841 -0.0050530791132279021 0 0.002341683660717631 -0.0054930025438816024 0 0.001972233515746249 -0.0056648181249207442 0 0.002341683660717631 -0.0054930025438816024 0 0.0022957801333260562 -0.0060274926488419036 0 0.002341683660717631 -0.0054930025438816024 0 0.0022957801333260562 -0.0060274926488419036 0 0.0026378299609066832 -0.0058138800929154666 0 0.0022957801333260562 -0.0060274926488419036 0 0.0026378299609066832 -0.0058138800929154666 0 0.0026095577336479642 -0.0061636247658992593 0 0.0022957801333260562 -0.0060274926488419036 0 0.0026095577336479642 -0.0061636247658992593 0 0.002428324822815406 -0.0063693790140792288 0 0.0022957801333260562 -0.0060274926488419036 0 0.0021623682382581459 -0.0063957339831559453 0 0.002428324822815406 -0.0063693790140792288 0 0.0022957801333260562 -0.0060274926488419036 0 0.0019680514939143939 -0.0061087921856140251 0 0.0021623682382581459 -0.0063957339831559453 0 0.0019705210306328342 -0.0053293010036117982 0 0.0019474550024155717 -0.0057385770479904414 0 0.0017357710978472196 -0.0054864460127067392 0 0.0019768333068037242 -0.0054886952119181046 0 0.0019566308697356715 -0.0059222604852995917 0 0.001972233515746249 -0.0056648181249207442 0 0.0022957801333260562 -0.0060274926488419036 0 0.0019680514939143939 -0.0061087921856140251 0 0.0014422694263432991 -0.0054312433128001552 0 0.0015611520265161056 -0.0058124078437549846 0 0.0017357710978472196 -0.0054864460127067392 0 0.0014422694263432991 -0.0054312433128001552 0 0.001692211615668513 -0.005227201345121401 0 0.0017357710978472196 -0.0054864460127067392 0 0.0015611520265161056 -0.0058124078437549846 0 0.0019474550024155717 -0.0057385770479904414 0 0.0019113544985930808 -0.0061881859130535908 0 0.0015611520265161056 -0.0058124078437549846 0 0.0019474550024155717 -0.0057385770479904414 0 0.0017357710978472196 -0.0054864460127067392 0 0.0015797325472157568 -0.0062430654080219885 0 0.0015611520265161056 -0.0058124078437549846 0 0.0019113544985930808 -0.0061881859130535908 0 0.0019680514939143939 -0.0061087921856140251 0 0.0019594305556837298 -0.0064446557560551712 0 0.0021623682382581459 -0.0063957339831559453 0 0.0019566308697356715 -0.0059222604852995917 0 0.0019288142085919398 -0.0063202745135687586 0 0.0019594305556837298 -0.0064446557560551712 0 0.0021550695165551965 -0.0066295440643712247 0 0.001869637417296894 -0.0066432648471263485 0 0.0019594305556837298 -0.0064446557560551712 0 0.0021623682382581459 -0.0063957339831559453 0 0.0021550695165551965 -0.0066295440643712247 0 0.0015797325472157568 -0.0062430654080219885 0 0.0019113544985930808 -0.0061881859130535908 0 0.001869637417296894 -0.0066432648471263485 0 0.0019288142085919398 -0.0063202745135687586 0 0.0018733743648741044 -0.0066286729109498611 0 0.0015370827283917399 -0.0065863712448137263 0 0.001869637417296894 -0.0066432648471263485 0 0.001830010820912437 -0.0067659125625662868 0 0.0021550695165551965 -0.0066295440643712247 0 0.001869637417296894 -0.0066432648471263485 0 0.0022185454583245555 -0.0068479665117307407 0 0.001869637417296894 -0.0066432648471263485 0 0.001830010820912437 -0.0067659125625662868 0 0.0022185454583245555 -0.0068479665117307407 0 0.001830010820912437 -0.0067659125625662868 0 0.0023119332270125732 -0.0071705882050579232 0 0.0022185454583245555 -0.0068479665117307407 0 0.0017869343632122238 -0.0040764071635405411 0 0.0031652409164251963 -0.01523003290686201 0 0.0025936331557633928 -0.0071235007025633968 0 0.002462812959039988 -0.0068358242257665642 0 0.0030171086542331088 -0.0072038451460872304 0 0.0025936331557633928 -0.0071235007025633968 0 0.0023119332270125732 -0.0071705882050579232 0 0.0022185454583245555 -0.0068479665117307407 0 0.0025936331557633928 -0.0071235007025633968 0 0.0022185454583245555 -0.0068479665117307407 0 0.002462812959039988 -0.0068358242257665642 0 0.0021550695165551965 -0.0066295440643712247 0 0.0022185454583245555 -0.0068479665117307407 0 0.002462812959039988 -0.0068358242257665642 0 0.002462812959039988 -0.0068358242257665642 0 0.0026969558030806333 -0.0069448225475000165 0 0.0028300163671716597 -0.0074150779724201383 0 0.002462812959039988 -0.0068358242257665642 0 0.0026969558030806333 -0.0069448225475000165 0 0.0025711045055032697 -0.0066524887613899891 0 0.0025711045055032697 -0.0066524887613899891 0 0.0023493857627100295 -0.0065766268157203657 0 0.002428324822815406 -0.0063693790140792288 0 0.002462812959039988 -0.0068358242257665642 0 0.0025711045055032697 -0.0066524887613899891 0 0.0023493857627100295 -0.0065766268157203657 0 0.0021623682382581459 -0.0063957339831559453 0 0.0021550695165551965 -0.0066295440643712247 0 0.0023493857627100295 -0.0065766268157203657 0 0.0021550695165551965 -0.0066295440643712247 0 0.002462812959039988 -0.0068358242257665642 0 0.0023493857627100295 -0.0065766268157203657 0 0.0021623682382581459 -0.0063957339831559453 0 0.0023493857627100295 -0.0065766268157203657 0 0.002428324822815406 -0.0063693790140792288 0 0.0025711045055032697 -0.0066524887613899891 0 0.002644959343909385 -0.0064112025171876568 0 0.0028003870014689397 -0.0065729734188517495 0 0.0025711045055032697 -0.0066524887613899891 0 0.002428324822815406 -0.0063693790140792288 0 0.002644959343909385 -0.0064112025171876568 0 0.0026095577336479642 -0.0061636247658992593 0 0.002428324822815406 -0.0063693790140792288 0 0.002644959343909385 -0.0064112025171876568 0 0.0028438230960269556 -0.0063149705210796721 0 0.002644959343909385 -0.0064112025171876568 0 0.0028003870014689397 -0.0065729734188517495 0 0.0028438230960269556 -0.0063149705210796721 0 0.0028003870014689397 -0.0065729734188517495 0 0.0029867665548956547 -0.0065498753444103329 0 0.001854504269995884 -0.011758881880452352 0 0.0027447476675458988 -0.0083508795214678414 0 0.0028438230960269556 -0.0063149705210796721 0 0.0030409262685874546 -0.0063573730271660207 0 0.0029867665548956547 -0.0065498753444103329 0 0.0031999040094437209 -0.0062350095470254186 0 0.0030409262685874546 -0.0063573730271660207 0 0.0031723438637655745 -0.0065110291712654235 0 0.0030409262685874546 -0.0063573730271660207 0 0.0031723438637655745 -0.0065110291712654235 0 0.0029867665548956547 -0.0065498753444103329 0 0.0027447476675458988 -0.0083508795214678414 0 0.0028728062785648781 -0.013175318478078688 0 0.0029867665548956547 -0.0065498753444103329 0 0.0031425130714493126 -0.0068077743381196945 0 0.002963941310947803 -0.0067418699504000071 0 0.0031723438637655745 -0.0065110291712654235 0 0.0029867665548956547 -0.0065498753444103329 0 0.0031425130714493126 -0.0068077743381196945 0 0.0028728062785648781 -0.013175318478078688 0 0.0030394495244447672 -0.014304728553352334 0 0.0023929656770507071 -0.014822468523426169 0 0.0023503050713813839 -0.015346663392132691 0 0.0019968759772028256 -0.01541085307818056 0 0.0028728062785648781 -0.013175318478078688 0 0.0033540891776162899 -0.019377646585880849 0 0.002963941310947803 -0.0067418699504000071 0 0.0028216889734400349 -0.0067677705698896071 0 0.0030596077456654454 -0.006920898459439417 0 0.0031425130714493126 -0.0068077743381196945 0 0.002963941310947803 -0.0067418699504000071 0 0.0030596077456654454 -0.006920898459439417 0 0.0026969558030806333 -0.0069448225475000165 0 0.0025711045055032697 -0.0066524887613899891 0 0.0028216889734400349 -0.0067677705698896071 0 0.0025711045055032697 -0.0066524887613899891 0 0.0028003870014689397 -0.0065729734188517495 0 0.0028216889734400349 -0.0067677705698896071 0 0.0028003870014689397 -0.0065729734188517495 0 0.0029867665548956547 -0.0065498753444103329 0 0.002963941310947803 -0.0067418699504000071 0 0.0028003870014689397 -0.0065729734188517495 0 0.002963941310947803 -0.0067418699504000071 0 0.0028216889734400349 -0.0067677705698896071 0 -0.00046383161875154918 -0.017905601057204866 0 -0.00042878063748191515 -0.017918738505763088 0 -0.00046522217203722382 -0.017782730878884854 0 -0.00052765104948441209 -0.017906162921676842 0 -0.00053586867413890464 -0.017987962383895467 0 -0.00048638651961307658 -0.017952858708208133 0 -0.00052765104948441209 -0.017906162921676842 0 -0.00053586867413890464 -0.017987962383895467 0 -0.00061075440067662992 -0.017958248246475093 0 -0.0004900399229456658 -0.017991316333466071 0 -0.00053586867413890464 -0.017987962383895467 0 -0.00048638651961307658 -0.017952858708208133 0 -0.00046544109551323738 -0.017947279707244388 0 -0.00045333610983069856 -0.017929089107118261 0 -0.00044807903656685885 -0.017920723523423904 0 -0.00046544109551323738 -0.017947279707244388 0 -0.00048638651961307658 -0.017952858708208133 0 -0.00045333610983069856 -0.017929089107118261 0 -0.00048638651961307658 -0.017952858708208133 0 -0.00045333610983069856 -0.017929089107118261 0 -0.00046383161875154918 -0.017905601057204866 0 -0.00052765104948441209 -0.017906162921676842 0 -0.00048638651961307658 -0.017952858708208133 0 -0.00046383161875154918 -0.017905601057204866 0 0.0021322406030148239 -0.012229710746261358 0 0.0021154613920875811 -0.012562805763623267 0 0.0023478812606949149 -0.012205868035975637 0 0.0021516508134199991 -0.011904196363439401 0 0.0021322406030148239 -0.012229710746261358 0 0.0023478812606949149 -0.012205868035975637 0 -0.00042479295995460551 -0.017848109100667326 0 -0.00043590875453572474 -0.017904565316620061 0 -0.00042878063748191515 -0.017918738505763088 0 -0.00045333610983069856 -0.017929089107118261 0 -0.00044226188719651542 -0.017917254575813727 0 -0.00042878063748191515 -0.017918738505763088 0 -0.00045333610983069856 -0.017929089107118261 0 -0.00046383161875154918 -0.017905601057204866 0 -0.00042878063748191515 -0.017918738505763088 0 -0.00045333610983069856 -0.017929089107118261 0 -0.00044226188719651542 -0.017917254575813727 0 -0.00044807903656685885 -0.017920723523423904 0 -0.00044226188719651542 -0.017917254575813727 0 -0.00044807903656685885 -0.017920723523423904 0 -0.00043590875453572474 -0.017904565316620061 0 -0.00044203518596992481 -0.017903548702305171 0 -0.00044807903656685885 -0.017920723523423904 0 -0.00043590875453572474 -0.017904565316620061 0 -0.00044226188719651542 -0.017917254575813727 0 -0.00043590875453572474 -0.017904565316620061 0 -0.00042878063748191515 -0.017918738505763088 0 0.001854504269995884 -0.011758881880452352 0 0.0013628198566690277 -0.015235339953576964 0 0.002431124443184194 -0.022685104718353194 0 0.0033540891776162899 -0.019377646585880849 0 0.0021705625716434604 -0.017937483737978672 0 0.0027311395937503376 -0.017105480056155437 0 0.003318341378239211 -0.018040365059026162 0 0.0028728062785648781 -0.013175318478078688 0 0.0013628198566690277 -0.015235339953576964 0 0.0021705625716434604 -0.017937483737978672 0 0.003318341378239211 -0.018040365059026162 0 0.0021477164876190563 -0.018223708548392847 0 0.0013628198566690277 -0.015235339953576964 0 0.002431124443184194 -0.022685104718353194 0 -0.00052765104948441209 -0.017906162921676842 0 -0.00046383161875154918 -0.017905601057204866 0 -0.00046522217203722382 -0.017782730878884854 0 -0.00052765104948441209 -0.017906162921676842 0 -0.00046522217203722382 -0.017782730878884854 0 -0.00063851511182972981 -0.017885046968422452 0 0.0039606059212719718 -0.026393917554921233 0 0.004025203010557434 -0.02611278237241111 0 0.0042007889805001346 -0.026208292624952771 0 0.0039606059212719718 -0.026393917554921233 0 0.004025203010557434 -0.02611278237241111 0 0.003728237655642095 -0.026193527063572686 0 0.002431124443184194 -0.022685104718353194 0 0.0040562211115893407 -0.027757620112328692 0 0.0039606059212719718 -0.026393917554921233 0 0.0042007889805001346 -0.026208292624952771 0 0.0044843353302237918 -0.026222423157317567 0 0.004025203010557434 -0.02611278237241111 0 0.0042007889805001346 -0.026208292624952771 0 0.0043090056025367985 -0.026015160969005923 0 0.0042007889805001346 -0.026208292624952771 0 0.0043769680549646398 -0.026111691082313357 0 0.0044843353302237918 -0.026222423157317567 0 0.0042007889805001346 -0.026208292624952771 0 0.0043769680549646398 -0.026111691082313357 0 0.0043090056025367985 -0.026015160969005923 0 0.0043769680549646398 -0.026111691082313357 0 0.0043090056025367985 -0.026015160969005923 0 0.0045190916218357524 -0.025985679865607805 0 0.0042348052433359646 -0.025874337524057683 0 0.0045091142208883552 -0.025821833773153544 0 0.0045826505735275013 -0.025540964708383046 0 0.0043090056025367985 -0.026015160969005923 0 0.0042348052433359646 -0.025874337524057683 0 0.0045091142208883552 -0.025821833773153544 0 0.004025203010557434 -0.02611278237241111 0 0.0043090056025367985 -0.026015160969005923 0 0.0042348052433359646 -0.025874337524057683 0 0.004025203010557434 -0.02611278237241111 0 0.0042348052433359646 -0.025874337524057683 0 0.0038597615804380025 -0.025938400736722718 0 0.004025203010557434 -0.02611278237241111 0 0.0038597615804380025 -0.025938400736722718 0 0.003728237655642095 -0.026193527063572686 0 0.0026969558030806333 -0.0069448225475000165 0 0.0028216889734400349 -0.0067677705698896071 0 0.0030596077456654454 -0.006920898459439417 0 0.0030394495244447672 -0.014304728553352334 0 0.0031652409164251963 -0.01523003290686201 0 0.0026969558030806333 -0.0069448225475000165 0 0.0031607991786748468 -0.0069740386951201057 0 0.0028300163671716597 -0.0074150779724201383 0 0.0030298743231473501 -0.0054996538485504644 0 0.0030394495244447672 -0.014304728553352334 0 0.0045599252576811423 -0.02613474657616012 0 0.0045190916218357524 -0.025985679865607805 0 0.0048184623822214818 -0.025728421971870419 0 0.0045057579277521338 -0.02613216401236048 0 0.0045599252576811423 -0.02613474657616012 0 0.0045017139700208753 -0.026097590528453347 0 0.0033540891776162899 -0.019377646585880849 0 0.0030394495244447672 -0.014304728553352334 0 0.0043769680549646398 -0.026111691082313357 0 0.0044843353302237918 -0.026222423157317567 0 0.0045017139700208753 -0.026097590528453347 0 0.0033540891776162899 -0.019377646585880849 0 0.003387019579080895 -0.023716477919646352 0 0.0045599252576811423 -0.02613474657616012 0 0.0045017139700208753 -0.026097590528453347 0 0.0045190916218357524 -0.025985679865607805 0 0.0043769680549646398 -0.026111691082313357 0 0.0045017139700208753 -0.026097590528453347 0 0.0045190916218357524 -0.025985679865607805 0 0.0045190916218357524 -0.025985679865607805 0 0.0045091142208883552 -0.025821833773153544 0 0.0048184623822214818 -0.025728421971870419 0 0.0045091142208883552 -0.025821833773153544 0 0.0048184623822214818 -0.025728421971870419 0 0.0045826505735275013 -0.025540964708383046 0 0.0043090056025367985 -0.026015160969005923 0 0.0045190916218357524 -0.025985679865607805 0 0.0045091142208883552 -0.025821833773153544 0 0.0024808223612749012 -0.01866989197396186 0 0.0023698259147704255 -0.017786581043058698 0 0.0030340549946420363 -0.017885294871884873 0 0.0024808223612749012 -0.01866989197396186 0 0.0018081935132668191 -0.018134840883075265 0 0.0023698259147704255 -0.017786581043058698 0 0.0031652409164251963 -0.01523003290686201 0 0.003679513405804313 -0.022884583440089142 0 0.0018081935132668191 -0.018134840883075265 0 0.0011331028139410688 -0.017588080462733715 0 0.0018684075653098179 -0.01727535735905876 0 0.0018081935132668191 -0.018134840883075265 0 0.0023698259147704255 -0.017786581043058698 0 0.0018684075653098179 -0.01727535735905876 0 0.0023698259147704255 -0.017786581043058698 0 0.0027780851437575541 -0.016979726080693241 0 0.0030340549946420363 -0.017885294871884873 0 0.0042348052433359646 -0.025874337524057683 0 0.0038597615804380025 -0.025938400736722718 0 0.0042309036430485574 -0.025587293803108105 0 0.0038597615804380025 -0.025938400736722718 0 0.0042309036430485574 -0.025587293803108105 0 0.0035834252173126782 -0.025640136856252813 0 0.0042348052433359646 -0.025874337524057683 0 0.0045826505735275013 -0.025540964708383046 0 0.0042309036430485574 -0.025587293803108105 0 0.003679513405804313 -0.022884583440089142 0 0.0026312826690781748 -0.021155730224280501 0 0.0045826505735275013 -0.025540964708383046 0 0.0042309036430485574 -0.025587293803108105 0 0.0044055548130754567 -0.025161717835692061 0 0.0042309036430485574 -0.025587293803108105 0 0.0044055548130754567 -0.025161717835692061 0 0.0039698123258338153 -0.025009463481130121 0 0.0042309036430485574 -0.025587293803108105 0 0.0039698123258338153 -0.025009463481130121 0 0.0035834252173126782 -0.025640136856252813 0 0.0044055548130754567 -0.025161717835692061 0 0.0039698123258338153 -0.025009463481130121 0 0.004212016245710392 -0.023980496822585344 0 0.0011331028139410688 -0.017588080462733715 0 0.00052891769867219904 -0.01711788398883566 0 0.00085726361179182698 -0.016848476832005101 0 0.0026312826690781748 -0.021155730224280501 0 0.0023366662777869738 -0.020508874546621311 0 0.0011331028139410688 -0.017588080462733715 0 0.0013155574524571592 -0.016723651088087647 0 0.0018684075653098179 -0.01727535735905876 0 0.0011331028139410688 -0.017588080462733715 0 0.0013155574524571592 -0.016723651088087647 0 0.00085726361179182698 -0.016848476832005101 0 0.0013155574524571592 -0.016723651088087647 0 0.00085726361179182698 -0.016848476832005101 0 0.00090659547015411448 -0.016182805738789004 0 0.00085726361179182698 -0.016848476832005101 0 0.00045714318685839559 -0.016650441703348878 0 0.00090659547015411448 -0.016182805738789004 0 0.00052891769867219904 -0.01711788398883566 0 0.00085726361179182698 -0.016848476832005101 0 0.00045714318685839559 -0.016650441703348878 0 0.0023698259147704255 -0.017786581043058698 0 0.0018684075653098179 -0.01727535735905876 0 0.0027780851437575541 -0.016979726080693241 0 0.0018684075653098179 -0.01727535735905876 0 0.0020744033159261995 -0.016364545327389991 0 0.0027780851437575541 -0.016979726080693241 0 0.0013155574524571592 -0.016723651088087647 0 0.0018684075653098179 -0.01727535735905876 0 0.0020744033159261995 -0.016364545327389991 0 0.0013155574524571592 -0.016723651088087647 0 0.0020744033159261995 -0.016364545327389991 0 0.0014344699922436016 -0.015970272429590416 0 0.0020744033159261995 -0.016364545327389991 0 0.0027780851437575541 -0.016979726080693241 0 0.0032059309312847512 -0.015806826147196053 0 0.0027780851437575541 -0.016979726080693241 0 0.0034905249125023268 -0.01646949162702185 0 0.0032059309312847512 -0.015806826147196053 0 0.0027780851437575541 -0.016979726080693241 0 0.0036300895524886767 -0.017051704242265292 0 0.0030340549946420363 -0.017885294871884873 0 0.0027780851437575541 -0.016979726080693241 0 0.0036300895524886767 -0.017051704242265292 0 0.0034905249125023268 -0.01646949162702185 0 0.0031486372248039148 -0.012586814356854123 0 0.002869740297606191 -0.013443219341506893 0 0.0036300895524886767 -0.017051704242265292 0 0.0034905249125023268 -0.01646949162702185 0 0.0042115672850965699 -0.016190059993001212 0 0.0034905249125023268 -0.01646949162702185 0 0.0042115672850965699 -0.016190059993001212 0 0.0032059309312847512 -0.015806826147196053 0 0.0021459041193312408 -0.0090739561754636117 0 0.0016391447218558522 -0.0088831770020737985 0 0.0020073593926433187 -0.008363866662542168 0 0.002869740297606191 -0.013443219341506893 0 0.0013794796384580474 -0.010620910818994961 0 0.0026165263916743272 -0.012803283957044448 0 0.001805070314213641 -0.01304969476798757 0 0.0015942355602915526 -0.012413693118267573 0 0.0011081349993999948 -0.012477348814858007 0 0.0015942355602915526 -0.012413693118267573 0 0.0012862095071102264 -0.013158837846349476 0 0.001805070314213641 -0.01304969476798757 0 0.0015942355602915526 -0.012413693118267573 0 0.0012862095071102264 -0.013158837846349476 0 0.0011081349993999948 -0.012477348814858007 0 0.00088623261067034668 -0.012081790191874 0 0.0015942355602915526 -0.012413693118267573 0 0.0009315681042682 -0.010994602019773925 0 0.0013794796384580474 -0.010620910818994961 0 0.0015383513204408499 -0.0084442414965861922 0 0.0020073593926433187 -0.008363866662542168 0 0.0017756094570196763 -0.0078626154779700037 0 0.0012540594819955341 -0.0081162981341487694 0 0.0015383513204408499 -0.0084442414965861922 0 0.0017756094570196763 -0.0078626154779700037 0 0.0012540594819955341 -0.0081162981341487694 0 0.0011221024422917929 -0.0087281261142375215 0 0.0015383513204408499 -0.0084442414965861922 0 0.0011221024422917929 -0.0087281261142375215 0 0.0016391447218558522 -0.0088831770020737985 0 0.0015383513204408499 -0.0084442414965861922 0 0.0016391447218558522 -0.0088831770020737985 0 0.0015383513204408499 -0.0084442414965861922 0 0.0020073593926433187 -0.008363866662542168 0 0.0025675227124457101 -0.0082932329526867413 0 0.0021459041193312408 -0.0090739561754636117 0 0.0020073593926433187 -0.008363866662542168 0 0.0025675227124457101 -0.0082932329526867413 0 0.0020073593926433187 -0.008363866662542168 0 0.0022978718431313342 -0.0077135368989714424 0 0.0020073593926433187 -0.008363866662542168 0 0.0022978718431313342 -0.0077135368989714424 0 0.0017756094570196763 -0.0078626154779700037 0 0.0022978718431313342 -0.0077135368989714424 0 0.0017756094570196763 -0.0078626154779700037 0 0.0019659879386238403 -0.0073811452001344485 0 0.0017756094570196763 -0.0078626154779700037 0 0.0013733402259078183 -0.0075208634447847256 0 0.0019659879386238403 -0.0073811452001344485 0 0.0012540594819955341 -0.0081162981341487694 0 0.0017756094570196763 -0.0078626154779700037 0 0.0013733402259078183 -0.0075208634447847256 0 0.001830010820912437 -0.0067659125625662868 0 0.0013733402259078183 -0.0075208634447847256 0 0.0019659879386238403 -0.0073811452001344485 0 0.0023119332270125732 -0.0071705882050579232 0 0.0022978718431313342 -0.0077135368989714424 0 0.0019659879386238403 -0.0073811452001344485 0 0.001830010820912437 -0.0067659125625662868 0 0.0023119332270125732 -0.0071705882050579232 0 0.0019659879386238403 -0.0073811452001344485 0 0.0025936331557633928 -0.0071235007025633968 0 0.0023119332270125732 -0.0071705882050579232 0 0.0028039686101199606 -0.0076446888410301997 0 0.0023119332270125732 -0.0071705882050579232 0 0.0022978718431313342 -0.0077135368989714424 0 0.0028039686101199606 -0.0076446888410301997 0 0.0025936331557633928 -0.0071235007025633968 0 0.0030171086542331088 -0.0072038451460872304 0 0.0028039686101199606 -0.0076446888410301997 0 0.0031652409164251963 -0.01523003290686201 0 0.0029505127003655747 -0.012401879538054477 0 0.0031486372248039148 -0.012586814356854123 0 0.0029505127003655747 -0.012401879538054477 0 0.0025675227124457101 -0.0082932329526867413 0 0.0022978718431313342 -0.0077135368989714424 0 0.0028039686101199606 -0.0076446888410301997 0 0.00036220800857966724 -0.026342988183600233 0 0.00028826418558260434 -0.026872923869943572 0 -0.00021750985020073759 -0.026825244177992147 0 0.00036220800857966724 -0.026342988183600233 0 -0.00021750985020073759 -0.026825244177992147 0 -6.1983127682911315e-05 -0.026219059579069733 0 0.00036220800857966724 -0.026342988183600233 0 0.00088566844213381864 -0.02649303830669255 0 0.00081559798966450913 -0.025918383015994455 0 0.00036220800857966724 -0.026342988183600233 0 0.00088566844213381864 -0.02649303830669255 0 0.00028826418558260434 -0.026872923869943572 0 0.00088566844213381864 -0.02649303830669255 0 0.0008836103726211316 -0.027122909767356113 0 0.00028826418558260434 -0.026872923869943572 0 0.0008836103726211316 -0.027122909767356113 0 0.00028826418558260434 -0.026872923869943572 0 0.00024457864417013435 -0.027419697364909824 0 0.00028826418558260434 -0.026872923869943572 0 -0.00040133483044172427 -0.02748733809308718 0 -0.00021750985020073759 -0.026825244177992147 0 0.00028826418558260434 -0.026872923869943572 0 -0.00040133483044172427 -0.02748733809308718 0 0.00024457864417013435 -0.027419697364909824 0 -0.00040133483044172427 -0.02748733809308718 0 -0.0010894442018836768 -0.027734731052479197 0 -0.0007319011704436262 -0.027077878469207103 0 -0.00040133483044172427 -0.02748733809308718 0 -0.00021750985020073759 -0.026825244177992147 0 -0.0007319011704436262 -0.027077878469207103 0 -0.0010894442018836768 -0.027734731052479197 0 -0.0011954570217576059 -0.02710443950241739 0 -0.0007319011704436262 -0.027077878469207103 0 -0.0008446867743772755 -0.026665533934003123 0 -0.0011954570217576059 -0.02710443950241739 0 -0.0007319011704436262 -0.027077878469207103 0 -0.0008446867743772755 -0.026665533934003123 0 -0.0011954570217576059 -0.02710443950241739 0 -0.0011238702816992654 -0.026601079530529568 0 -0.00021750985020073759 -0.026825244177992147 0 -0.0007319011704436262 -0.027077878469207103 0 -0.0005067349365971926 -0.026523800295768604 0 -0.0008446867743772755 -0.026665533934003123 0 -0.0007319011704436262 -0.027077878469207103 0 -0.0005067349365971926 -0.026523800295768604 0 -0.00021750985020073759 -0.026825244177992147 0 -0.0005067349365971926 -0.026523800295768604 0 -6.1983127682911315e-05 -0.026219059579069733 0 -0.0005067349365971926 -0.026523800295768604 0 -0.00034733340573086808 -0.026049775132596324 0 -6.1983127682911315e-05 -0.026219059579069733 0 -0.00079275658457668788 -0.026239882852437623 0 -0.0010384418339741759 -0.025973033658507248 0 -0.00030026098391563397 -0.025484584058318691 0 -0.0005067349365971926 -0.026523800295768604 0 -0.00034733340573086808 -0.026049775132596324 0 -0.00079275658457668788 -0.026239882852437623 0 -0.0008446867743772755 -0.026665533934003123 0 -0.0005067349365971926 -0.026523800295768604 0 -0.00079275658457668788 -0.026239882852437623 0 -0.00034733340573086808 -0.026049775132596324 0 -0.00079275658457668788 -0.026239882852437623 0 -0.00030026098391563397 -0.025484584058318691 0 -0.00034733340573086808 -0.026049775132596324 0 -0.00030026098391563397 -0.025484584058318691 0 7.9149788139655668e-05 -0.02557895059668449 0 -0.0011238702816992654 -0.026601079530529568 0 -0.00093085875506339463 -0.026120415208637379 0 -0.0019860543939297826 -0.026852841698622457 0 -0.0008446867743772755 -0.026665533934003123 0 -0.0011238702816992654 -0.026601079530529568 0 -0.00079275658457668788 -0.026239882852437623 0 -0.0011238702816992654 -0.026601079530529568 0 -0.00079275658457668788 -0.026239882852437623 0 -0.00093085875506339463 -0.026120415208637379 0 -0.00093283753038703697 -0.026075749064782619 0 -0.0014840659785941548 -0.025467250352870868 0 -0.0020242030458314034 -0.022665957838248544 0 -0.0020587407585786147 -0.022746682258878007 0 -0.0019175228044141684 -0.022775630452748368 0 -0.0014840659785941548 -0.025467250352870868 0 -0.0020237978688181241 -0.023904425043300946 0 -0.0014840659785941548 -0.025467250352870868 0 -0.00088411018625712281 -0.024013951207962122 0 -0.0020242030458314034 -0.022665957838248544 0 -0.0020587407585786147 -0.022746682258878007 0 -0.0021361238069533346 -0.0226888448100429 0 -0.0020587407585786147 -0.022746682258878007 0 -0.0021361238069533346 -0.0226888448100429 0 -0.0021501599762704729 -0.022755845809969984 0 -0.00030026098391563397 -0.025484584058318691 0 0.00035001024720577521 -0.025043034194173482 0 7.9149788139655668e-05 -0.02557895059668449 0 -0.0021361238069533346 -0.0226888448100429 0 -0.0022204951092354556 -0.02272461734620225 0 -0.0022615360850233887 -0.022711416904371676 0 -0.0021361238069533346 -0.0226888448100429 0 -0.0022204951092354556 -0.02272461734620225 0 -0.0021501599762704729 -0.022755845809969984 0 -0.00088411018625712281 -0.024013951207962122 0 -0.003236735716017217 -0.021943626908114151 0 -0.0024412299237859523 -0.022285012150711613 0 -0.003236735716017217 -0.021943626908114151 0 7.9149788139655668e-05 -0.02557895059668449 0 0.00049389158303990942 -0.025487776006643148 0 0.00040889424481699754 -0.025230380840415661 0 0.00035001024720577521 -0.025043034194173482 0 7.9149788139655668e-05 -0.02557895059668449 0 0.00040889424481699754 -0.025230380840415661 0 -0.003236735716017217 -0.021943626908114151 0 -0.001921081801211864 -0.024292260289157975 0 -0.00034733340573086808 -0.026049775132596324 0 7.9149788139655668e-05 -0.02557895059668449 0 -6.1983127682911315e-05 -0.026219059579069733 0 7.9149788139655668e-05 -0.02557895059668449 0 0.00041437757731328166 -0.025831232613727346 0 0.00049389158303990942 -0.025487776006643148 0 7.9149788139655668e-05 -0.02557895059668449 0 -6.1983127682911315e-05 -0.026219059579069733 0 0.00041437757731328166 -0.025831232613727346 0 0.00036220800857966724 -0.026342988183600233 0 -6.1983127682911315e-05 -0.026219059579069733 0 0.00041437757731328166 -0.025831232613727346 0 0.00081559798966450913 -0.025918383015994455 0 0.00082178395119102794 -0.025489344512676915 0 0.0012299647222375055 -0.025484259696589292 0 0.00081559798966450913 -0.025918383015994455 0 0.00041437757731328166 -0.025831232613727346 0 0.00082178395119102794 -0.025489344512676915 0 0.00036220800857966724 -0.026342988183600233 0 0.00081559798966450913 -0.025918383015994455 0 0.00041437757731328166 -0.025831232613727346 0 0.00049389158303990942 -0.025487776006643148 0 0.00082178395119102794 -0.025489344512676915 0 0.00067322200678635795 -0.02525435521216593 0 0.00041437757731328166 -0.025831232613727346 0 0.00049389158303990942 -0.025487776006643148 0 0.00082178395119102794 -0.025489344512676915 0 0.00082178395119102794 -0.025489344512676915 0 0.00067322200678635795 -0.02525435521216593 0 0.0012987050316228537 -0.025009682762948678 0 -0.003236735716017217 -0.021943626908114151 0 -0.0051760587897803096 -0.018093939737513658 0 -0.003236735716017217 -0.021943626908114151 0 -0.0014422981091878648 -0.023093219800325207 0 0.0003411329330517233 -0.025047510055466089 0 0.00067322200678635795 -0.02525435521216593 0 0.0012987050316228537 -0.025009682762948678 0 -0.0078000294804192209 -0.02005419787650509 0 -0.0040416714336076968 -0.021019723434684768 0 -0.0038970232710555078 -0.018505465654096599 0 0.0003411329330517233 -0.025047510055466089 0 0.00067322200678635795 -0.02525435521216593 0 0.00040889424481699754 -0.025230380840415661 0 0.00049389158303990942 -0.025487776006643148 0 0.00067322200678635795 -0.02525435521216593 0 0.00040889424481699754 -0.025230380840415661 0 -0.0040416714336076968 -0.021019723434684768 0 -0.0031335953508877523 -0.019519896334069867 0 -0.0038970232710555078 -0.018505465654096599 0 -0.0040416714336076968 -0.021019723434684768 0 -0.0031335953508877523 -0.019519896334069867 0 -0.0018726347296105506 -0.020015324253630284 0 -0.0040416714336076968 -0.021019723434684768 0 -0.0018726347296105506 -0.020015324253630284 0 -0.0003619653510116824 -0.022477357995958958 0 -0.0014422981091878648 -0.023093219800325207 0 0.001102404842025036 -0.02366634015419886 0 0.0016522757880108041 -0.025579674187514837 0 0.0023283503146090015 -0.024809984496562278 0 0.0022257524876602252 -0.02554549169479578 0 0.0012987050316228537 -0.025009682762948678 0 0.0016522757880108041 -0.025579674187514837 0 0.0023283503146090015 -0.024809984496562278 0 0.0012987050316228537 -0.025009682762948678 0 0.0016522757880108041 -0.025579674187514837 0 0.0012299647222375055 -0.025484259696589292 0 0.00081559798966450913 -0.025918383015994455 0 0.0016522757880108041 -0.025579674187514837 0 0.0012299647222375055 -0.025484259696589292 0 0.00082178395119102794 -0.025489344512676915 0 0.0012987050316228537 -0.025009682762948678 0 0.0012299647222375055 -0.025484259696589292 0 0.0023366662777869738 -0.020508874546621311 0 0.00073605529034021021 -0.018631217414386995 0 0.00052891769867219904 -0.01711788398883566 0 0.00045714318685839559 -0.016650441703348878 0 -0.00011357724939540746 -0.016887209759004755 0 0.0018553530255667121 -0.020419714070538605 0 -0.0003619653510116824 -0.022477357995958958 0 0.0034256265839927697 -0.024317887622291767 0 -0.0018726347296105506 -0.020015324253630284 0 0.0018553530255667121 -0.020419714070538605 0 -0.0003619653510116824 -0.022477357995958958 0 0.0023283503146090015 -0.024809984496562278 0 0.0027610933782101512 -0.025147135231519579 0 0.0034256265839927697 -0.024317887622291767 0 0.0023283503146090015 -0.024809984496562278 0 0.0027610933782101512 -0.025147135231519579 0 0.0022257524876602252 -0.02554549169479578 0 0.001102404842025036 -0.02366634015419886 0 0.0033532862624014556 -0.024286611449627668 0 0.004212016245710392 -0.023980496822585344 0 0.0018553530255667121 -0.020419714070538605 0 0.0034256265839927697 -0.024317887622291767 0 0.0027610933782101512 -0.025147135231519579 0 0.0034256265839927697 -0.024317887622291767 0 0.0032735969992380761 -0.025212188330764957 0 0.0039698123258338153 -0.025009463481130121 0 0.0034256265839927697 -0.024317887622291767 0 0.0032735969992380761 -0.025212188330764957 0 0.0039698123258338153 -0.025009463481130121 0 0.004212016245710392 -0.023980496822585344 0 0.0034256265839927697 -0.024317887622291767 0 0.0032735969992380761 -0.025212188330764957 0 0.0026613096932443267 -0.025931494360190935 0 0.0035834252173126782 -0.025640136856252813 0 0.0039698123258338153 -0.025009463481130121 0 0.0032735969992380761 -0.025212188330764957 0 0.0035834252173126782 -0.025640136856252813 0 0.0027610933782101512 -0.025147135231519579 0 0.0032735969992380761 -0.025212188330764957 0 0.0026613096932443267 -0.025931494360190935 0 0.0027610933782101512 -0.025147135231519579 0 0.0026613096932443267 -0.025931494360190935 0 0.0022257524876602252 -0.02554549169479578 0 0.0027519953388181104 -0.025990422345269361 0 0.0030838939007360672 -0.026304139043143101 0 0.0026613096932443267 -0.025931494360190935 0 0.0031257702903482718 -0.026965129418517503 0 0.002334285732169831 -0.02700920192071617 0 0.0038597615804380025 -0.025938400736722718 0 0.0035834252173126782 -0.025640136856252813 0 0.0033211046485060163 -0.02603620979995144 0 0.0026613096932443267 -0.025931494360190935 0 0.0035834252173126782 -0.025640136856252813 0 0.0033211046485060163 -0.02603620979995144 0 0.00088566844213381864 -0.02649303830669255 0 0.0016522757880108041 -0.025579674187514837 0 0.0016502169289127416 -0.026400202763096681 0 0.00088566844213381864 -0.02649303830669255 0 0.00081559798966450913 -0.025918383015994455 0 0.0016522757880108041 -0.025579674187514837 0 0.0026613096932443267 -0.025931494360190935 0 0.0022257524876602252 -0.02554549169479578 0 0.0016502169289127416 -0.026400202763096681 0 0.0016522757880108041 -0.025579674187514837 0 0.0022257524876602252 -0.02554549169479578 0 0.0016502169289127416 -0.026400202763096681 0 0.0016502169289127416 -0.026400202763096681 0 0.0015943543467963569 -0.027291434782692178 0 0.002334285732169831 -0.02700920192071617 0 0.0026613096932443267 -0.025931494360190935 0 0.0016502169289127416 -0.026400202763096681 0 0.002334285732169831 -0.02700920192071617 0 0.0008836103726211316 -0.027122909767356113 0 0.0016502169289127416 -0.026400202763096681 0 0.0015943543467963569 -0.027291434782692178 0 0.00088566844213381864 -0.02649303830669255 0 0.0008836103726211316 -0.027122909767356113 0 0.0016502169289127416 -0.026400202763096681 0 0.0015943543467963569 -0.027291434782692178 0 0.0011387723771723928 -0.02770465568518822 0 0.001616716479534598 -0.027986454865307379 0 0.0008836103726211316 -0.027122909767356113 0 0.0015943543467963569 -0.027291434782692178 0 0.0011387723771723928 -0.02770465568518822 0 0.0015943543467963569 -0.027291434782692178 0 0.0022493649755229691 -0.027806277100339165 0 0.001616716479534598 -0.027986454865307379 0 0.0015943543467963569 -0.027291434782692178 0 0.0022493649755229691 -0.027806277100339165 0 0.002334285732169831 -0.02700920192071617 0 0.0022493649755229691 -0.027806277100339165 0 0.001616716479534598 -0.027986454865307379 0 0.0019026596379845245 -0.028823352618148293 0 0.0011387723771723928 -0.02770465568518822 0 0.0013077325988968228 -0.028427914551165685 0 0.00053090871962853793 -0.028282451794865455 0 0.0011387723771723928 -0.02770465568518822 0 0.001616716479534598 -0.027986454865307379 0 0.0013077325988968228 -0.028427914551165685 0 0.0030838939007360672 -0.026304139043143101 0 0.0040562211115893407 -0.027757620112328692 0 0.0038597615804380025 -0.025938400736722718 0 0.0033211046485060163 -0.02603620979995144 0 0.003728237655642095 -0.026193527063572686 0 0.0031257702903482718 -0.026965129418517503 0 0.0029046754120352707 -0.027620314479376545 0 0.0035009665104818299 -0.027715661114463698 0 0.0022493649755229691 -0.027806277100339165 0 0.002334285732169831 -0.02700920192071617 0 0.0029046754120352707 -0.027620314479376545 0 0.0031257702903482718 -0.026965129418517503 0 0.002334285732169831 -0.02700920192071617 0 0.0029046754120352707 -0.027620314479376545 0 0.0022493649755229691 -0.027806277100339165 0 0.0029046754120352707 -0.027620314479376545 0 0.0029560579529652091 -0.0285994176880594 0 0.0039177661902123732 -0.02836532419840429 0 0.0035009665104818299 -0.027715661114463698 0 0.0029560579529652091 -0.0285994176880594 0 0.0029046754120352707 -0.027620314479376545 0 0.0035009665104818299 -0.027715661114463698 0 0.0029560579529652091 -0.0285994176880594 0 0.002431124443184194 -0.022685104718353194 0 0.00092578989470810816 -0.023227867272955078 0 -0.00046522217203722382 -0.017782730878884854 0 -0.00075171392966614798 -0.017757978443384267 0 -0.00063851511182972981 -0.017885046968422452 0 -0.00075171392966614798 -0.017757978443384267 0 -0.00077838234114619939 -0.017918711794040518 0 -0.00063851511182972981 -0.017885046968422452 0 0.0022493649755229691 -0.027806277100339165 0 0.0029560579529652091 -0.0285994176880594 0 0.0019026596379845245 -0.028823352618148293 0 -0.00075171392966614798 -0.017757978443384267 0 -0.00099486384151077265 -0.017945100931237263 0 -0.0012147999184220796 -0.017773744134106359 0 0.00092578989470810816 -0.023227867272955078 0 0.00042327127493608694 -0.023355467464633087 0 -0.00097751587353680082 -0.01807226272232304 0 -0.00084076168773295141 -0.018032384525445203 0 -0.00091716072236199377 -0.018211772217842367 0 -0.00099486384151077265 -0.017945100931237263 0 -0.00097751587353680082 -0.01807226272232304 0 -0.0011651067300707525 -0.018105047595860901 0 -0.00099486384151077265 -0.017945100931237263 0 -0.00097751587353680082 -0.01807226272232304 0 -0.00084076168773295141 -0.018032384525445203 0 -0.00084076168773295141 -0.018032384525445203 0 -0.00077838234114619939 -0.017918711794040518 0 -0.00069860030965658755 -0.017978465219455207 0 -0.00099486384151077265 -0.017945100931237263 0 -0.00084076168773295141 -0.018032384525445203 0 -0.00077838234114619939 -0.017918711794040518 0 -0.00075171392966614798 -0.017757978443384267 0 -0.00099486384151077265 -0.017945100931237263 0 -0.00077838234114619939 -0.017918711794040518 0 -0.00077838234114619939 -0.017918711794040518 0 -0.00069860030965658755 -0.017978465219455207 0 -0.00063851511182972981 -0.017885046968422452 0 -0.00084076168773295141 -0.018032384525445203 0 -0.00067732449824929901 -0.018044631437056053 0 -0.00069860030965658755 -0.017978465219455207 0 -0.00067732449824929901 -0.018044631437056053 0 -0.00069860030965658755 -0.017978465219455207 0 -0.00061075440067662992 -0.017958248246475093 0 -0.00053586867413890464 -0.017987962383895467 0 -0.00067732449824929901 -0.018044631437056053 0 -0.00061075440067662992 -0.017958248246475093 0 -0.00052765104948441209 -0.017906162921676842 0 -0.00061075440067662992 -0.017958248246475093 0 -0.00063851511182972981 -0.017885046968422452 0 -0.00069860030965658755 -0.017978465219455207 0 -0.00061075440067662992 -0.017958248246475093 0 -0.00063851511182972981 -0.017885046968422452 0 0.0013077325988968228 -0.028427914551165685 0 0.0019026596379845245 -0.028823352618148293 0 0.00090381714144289712 -0.028981622351769556 0 -0.0012147999184220796 -0.017773744134106359 0 -0.0015938950819708703 -0.017878681539374441 0 -0.0017487722332327623 -0.017856431619945323 0 0.00042327127493608694 -0.023355467464633087 0 -0.00072244924211438031 -0.022705909495675067 0 0.001616716479534598 -0.027986454865307379 0 0.0013077325988968228 -0.028427914551165685 0 0.0019026596379845245 -0.028823352618148293 0 -0.0012147999184220796 -0.017773744134106359 0 -0.0013320193465218228 -0.01798550633764865 0 -0.0015938950819708703 -0.017878681539374441 0 -0.00099486384151077265 -0.017945100931237263 0 -0.0012147999184220796 -0.017773744134106359 0 -0.0013320193465218228 -0.01798550633764865 0 -0.00099486384151077265 -0.017945100931237263 0 -0.0013320193465218228 -0.01798550633764865 0 -0.0011651067300707525 -0.018105047595860901 0 -0.0013320193465218228 -0.01798550633764865 0 -0.0011651067300707525 -0.018105047595860901 0 -0.0014682699498462252 -0.018268148207485051 0 -0.0013320193465218228 -0.01798550633764865 0 -0.0015339586124909596 -0.01802750647171562 0 -0.0014682699498462252 -0.018268148207485051 0 -0.0013320193465218228 -0.01798550633764865 0 -0.0015339586124909596 -0.01802750647171562 0 -0.0015938950819708703 -0.017878681539374441 0 -0.0015339586124909596 -0.01802750647171562 0 -0.0015938950819708703 -0.017878681539374441 0 -0.0017319515921266002 -0.018041998178544363 0 -0.0015938950819708703 -0.017878681539374441 0 -0.0017319515921266002 -0.018041998178544363 0 -0.0017626511307085922 -0.017854880801335626 0 -0.0019099132718172855 -0.020730560309075861 0 -0.00072244924211438031 -0.022705909495675067 0 -0.0015339586124909596 -0.01802750647171562 0 -0.0017319515921266002 -0.018041998178544363 0 -0.0014682699498462252 -0.018268148207485051 0 -0.00072244924211438031 -0.022705909495675067 0 -0.0015374945340377677 -0.020865300982901829 0 -0.0019444601963511971 -0.018000473655570205 0 -0.0017626511307085922 -0.017854880801335626 0 -0.0021243589695560789 -0.017930205974607781 0 -0.0017319515921266002 -0.018041998178544363 0 -0.0019444601963511971 -0.018000473655570205 0 -0.002067450197677114 -0.018161551399410631 0 -0.0010485991776083075 -0.024315094236359591 0 -0.0011531242678208603 -0.024364782691161921 0 -0.0011617553688244879 -0.024341855760974467 0 -0.0017319515921266002 -0.018041998178544363 0 -0.0019444601963511971 -0.018000473655570205 0 -0.0017626511307085922 -0.017854880801335626 0 -0.0011531242678208603 -0.024364782691161921 0 -0.0011617553688244879 -0.024341855760974467 0 -0.00124140315179945 -0.024388884700935316 0 -0.0021622078014256582 -0.018122612297345436 0 -0.0021243589695560789 -0.017930205974607781 0 -0.0024633225790442097 -0.018037575509679285 0 -0.0019444601963511971 -0.018000473655570205 0 -0.0021622078014256582 -0.018122612297345436 0 -0.0021243589695560789 -0.017930205974607781 0 -0.0019444601963511971 -0.018000473655570205 0 -0.0021622078014256582 -0.018122612297345436 0 -0.002067450197677114 -0.018161551399410631 0 3.8301607558413171e-05 -0.028814556262992633 0 0.00053090871962853793 -0.028282451794865455 0 -0.00027505930882646958 -0.02834213243779958 0 0.00090381714144289712 -0.028981622351769556 0 3.8301607558413171e-05 -0.028814556262992633 0 0.00053090871962853793 -0.028282451794865455 0 -0.00072244924211438031 -0.022705909495675067 0 -0.00035568453968690253 -0.02682605947925739 0 0.0013077325988968228 -0.028427914551165685 0 0.00090381714144289712 -0.028981622351769556 0 0.00053090871962853793 -0.028282451794865455 0 0.0011387723771723928 -0.02770465568518822 0 0.00053090871962853793 -0.028282451794865455 0 0.00056018113441807745 -0.027714304528133418 0 0.00053090871962853793 -0.028282451794865455 0 -4.3764115678627481e-05 -0.02787584093718511 0 0.00056018113441807745 -0.027714304528133418 0 0.00053090871962853793 -0.028282451794865455 0 -4.3764115678627481e-05 -0.02787584093718511 0 -0.00027505930882646958 -0.02834213243779958 0 -4.3764115678627481e-05 -0.02787584093718511 0 0.00024457864417013435 -0.027419697364909824 0 0.00056018113441807745 -0.027714304528133418 0 -0.00040133483044172427 -0.02748733809308718 0 -4.3764115678627481e-05 -0.02787584093718511 0 0.00024457864417013435 -0.027419697364909824 0 0.0008836103726211316 -0.027122909767356113 0 0.00024457864417013435 -0.027419697364909824 0 0.00056018113441807745 -0.027714304528133418 0 0.0008836103726211316 -0.027122909767356113 0 0.0011387723771723928 -0.02770465568518822 0 0.00056018113441807745 -0.027714304528133418 0 -0.00040133483044172427 -0.02748733809308718 0 -0.0010894442018836768 -0.027734731052479197 0 -0.00083811704552334127 -0.027972989674829168 0 -0.001251309802947525 -0.02865334458467092 0 -0.0015446501691253195 -0.028491864301357053 0 -0.0015991188743582202 -0.028701864028244272 0 -0.0010894442018836768 -0.027734731052479197 0 -0.001251309802947525 -0.02865334458467092 0 -0.0015446501691253195 -0.028491864301357053 0 -0.0011156234068666478 -0.027668426117413124 0 -0.0010176667469121228 -0.02846846440001043 0 -0.00040133483044172427 -0.02748733809308718 0 -4.3764115678627481e-05 -0.02787584093718511 0 -0.00083811704552334127 -0.027972989674829168 0 -0.00083811704552334127 -0.027972989674829168 0 -0.00027505930882646958 -0.02834213243779958 0 -0.00070093953347548572 -0.028658201323008444 0 -4.3764115678627481e-05 -0.02787584093718511 0 -0.00083811704552334127 -0.027972989674829168 0 -0.00027505930882646958 -0.02834213243779958 0 -0.001251309802947525 -0.02865334458467092 0 -0.0014418404006635241 -0.028788992222004067 0 -0.0012883283419277487 -0.02893119790509855 0 -0.001251309802947525 -0.02865334458467092 0 -0.0014418404006635241 -0.028788992222004067 0 -0.0015991188743582202 -0.028701864028244272 0 -0.0010176667469121228 -0.02846846440001043 0 -0.0010824637267609326 -0.027980876443708339 0 -0.0014418404006635241 -0.028788992222004067 0 -0.0012883283419277487 -0.02893119790509855 0 -0.0016719905546099389 -0.028755797382928196 0 -0.0010824637267609326 -0.027980876443708339 0 -0.0018551670357148818 -0.028949475977373983 0 -0.0019309869888512042 -0.028690989946925264 0 -0.0019823386606030425 -0.028451859444357411 0 -0.0017011682895465121 -0.02869523222331288 0 -0.00035568453968690253 -0.02682605947925739 0 -0.0010824637267609326 -0.027980876443708339 0 3.8301607558413171e-05 -0.028814556262992633 0 -0.00027505930882646958 -0.02834213243779958 0 -0.00070093953347548572 -0.028658201323008444 0 -0.0011617553688244879 -0.024341855760974467 0 -0.0012454275958637996 -0.024360210873027401 0 -0.00124140315179945 -0.024388884700935316 0 -0.0010824637267609326 -0.027980876443708339 0 -0.0028120773542399937 -0.022841047735998474 0 -0.0015374945340377677 -0.020865300982901829 0 -0.0028120773542399937 -0.022841047735998474 0 -0.0021243589695560789 -0.017930205974607781 0 -0.00265229327736325 -0.017956195249539581 0 -0.0024633225790442097 -0.018037575509679285 0 -0.0028120773542399937 -0.022841047735998474 0 -0.0035338088513567662 -0.019801060535182387 0 -0.0028812652444146873 -0.022571209772071568 0 -0.0020933421454943516 -0.021330025775786056 0 -0.0015663136374614935 -0.022271311510807263 0 -0.0028120773542399937 -0.022841047735998474 0 -0.0031405055567340686 -0.02365032598727803 0 -0.0062692198792348173 -0.025113463167763344 0 -0.0034376499881362487 -0.026504771768653724 0 -0.0040885671347020303 -0.024620300531178505 0 -0.0028120773542399937 -0.022841047735998474 0 -0.0026826519391013664 -0.028079211474791956 0 -0.0020933421454943516 -0.021330025775786056 0 -0.0019251989236806566 -0.020549176216913087 0 -0.002609941397987457 -0.019298077280880038 0 -0.001757797729394983 -0.021682831537016677 0 -0.0020933421454943516 -0.021330025775786056 0 -0.0015663136374614935 -0.022271311510807263 0 -0.001757797729394983 -0.021682831537016677 0 -0.0019251989236806566 -0.020549176216913087 0 -0.0015546829375896129 -0.022340208905400817 0 -0.001757797729394983 -0.021682831537016677 0 -0.0020933421454943516 -0.021330025775786056 0 -0.0019251989236806566 -0.020549176216913087 0 -0.0019251989236806566 -0.020549176216913087 0 -0.0023396732111946542 -0.018596448253195209 0 -0.0014792620722804046 -0.018705383160783941 0 -0.0019251989236806566 -0.020549176216913087 0 -0.0014792620722804046 -0.018705383160783941 0 -0.0015314966444470726 -0.021013559090518077 0 -0.0019251989236806566 -0.020549176216913087 0 -0.002609941397987457 -0.019298077280880038 0 -0.0023396732111946542 -0.018596448253195209 0 -0.002609941397987457 -0.019298077280880038 0 -0.0023396732111946542 -0.018596448253195209 0 -0.0022204901725627578 -0.017749785720741956 0 -0.0028812652444146873 -0.022571209772071568 0 -0.0020933421454943516 -0.021330025775786056 0 -0.002609941397987457 -0.019298077280880038 0 -0.0029766921359238693 -0.017808862915150436 0 -0.0024633225790442097 -0.018037575509679285 0 -0.002609941397987457 -0.019298077280880038 0 -0.0028120773542399937 -0.022841047735998474 0 -0.0028124130322325575 -0.01833842869228661 0 -0.0024633225790442097 -0.018037575509679285 0 -0.002609941397987457 -0.019298077280880038 0 -0.0021335819589197043 -0.01840189155219905 0 -0.0021335819589197043 -0.01840189155219905 0 -0.002067450197677114 -0.018161551399410631 0 -0.0020360597486386509 -0.017603339996163571 0 -0.0021622078014256582 -0.018122612297345436 0 -0.0024633225790442097 -0.018037575509679285 0 -0.0021335819589197043 -0.01840189155219905 0 -0.002609941397987457 -0.019298077280880038 0 -0.0021335819589197043 -0.01840189155219905 0 -0.0020360597486386509 -0.017603339996163571 0 -0.0021622078014256582 -0.018122612297345436 0 -0.0021335819589197043 -0.01840189155219905 0 -0.002067450197677114 -0.018161551399410631 0 -0.0020292667061545845 -0.018129866894789678 0 -0.0019042111865831901 -0.01800896003238537 0 -0.0017319515921266002 -0.018041998178544363 0 -0.002067450197677114 -0.018161551399410631 0 -0.0014682699498462252 -0.018268148207485051 0 -0.002067450197677114 -0.018161551399410631 0 -0.002231526807935666 -0.017726324727918144 0 -0.0020360597486386509 -0.017603339996163571 0 -0.002067450197677114 -0.018161551399410631 0 -0.002231526807935666 -0.017726324727918144 0 -0.002369407627717516 -0.017730747701493597 0 -0.002231526807935666 -0.017726324727918144 0 -0.0020360597486386509 -0.017603339996163571 0 -0.0023144261713357291 -0.017527397602622324 0 -0.0020360597486386509 -0.017603339996163571 0 -0.0012402419129032159 -0.015974483695677645 0 -0.00069661705726436183 -0.015103078842502716 0 -0.0018053430269205912 -0.017389799865268743 0 -0.0014371439547853089 -0.016392043737041881 0 -0.002609941397987457 -0.019298077280880038 0 -0.0020360597486386509 -0.017603339996163571 0 -0.0022204901725627578 -0.017749785720741956 0 -0.0020360597486386509 -0.017603339996163571 0 -0.0022204901725627578 -0.017749785720741956 0 -0.0017392181117045777 -0.016540295328667701 0 -0.0022204901725627578 -0.017749785720741956 0 -0.0017392181117045777 -0.016540295328667701 0 -0.0021324805261066673 -0.017281967339553502 0 -0.0022204901725627578 -0.017749785720741956 0 -0.0021324805261066673 -0.017281967339553502 0 -0.0022574250247190649 -0.017786663446322171 0 -0.0012402419129032159 -0.015974483695677645 0 -0.0017392181117045777 -0.016540295328667701 0 -0.00045337850240467851 -0.014747691578352847 0 -0.0020360597486386509 -0.017603339996163571 0 -0.0012402419129032159 -0.015974483695677645 0 -0.0017392181117045777 -0.016540295328667701 0 -0.0017392181117045777 -0.016540295328667701 0 -0.0015966647795214288 -0.017554661257874898 0 -0.0021324805261066673 -0.017281967339553502 0 -0.0017392181117045777 -0.016540295328667701 0 -0.0015966647795214288 -0.017554661257874898 0 -0.00045337850240467851 -0.014747691578352847 0 -0.00044787957810193458 -0.014517635452804319 0 -0.00057645670983054247 -0.01492828481346729 0 -0.0015966647795214288 -0.017554661257874898 0 -0.0021324805261066673 -0.017281967339553502 0 -0.0021446670197662826 -0.017558342650492793 0 -0.0021324805261066673 -0.017281967339553502 0 -0.0022400948542953335 -0.017607610007918342 0 -0.0022574250247190649 -0.017786663446322171 0 -0.0021324805261066673 -0.017281967339553502 0 -0.0021446670197662826 -0.017558342650492793 0 -0.0022400948542953335 -0.017607610007918342 0 -0.0021446670197662826 -0.017558342650492793 0 -0.0022400948542953335 -0.017607610007918342 0 -0.002166809670643107 -0.017496045317905991 0 -0.0022400948542953335 -0.017607610007918342 0 -0.002166809670643107 -0.017496045317905991 0 -0.0021662904846719709 -0.017999241363923186 0 -0.0023509664840011863 -0.019641882346897059 0 -0.0016969425144888022 -0.020369323967042167 0 -0.0018078229573115544 -0.021521209948531562 0 -0.0019673535729905749 -0.021122564020071028 0 -0.0015080901678037727 -0.021418528623254687 0 -0.0024166678727400711 -0.02130953433107239 0 -0.0018078229573115544 -0.021521209948531562 0 -0.0017379889633783834 -0.022040449823694654 0 -0.002166809670643107 -0.017496045317905991 0 -0.0014792620722804046 -0.018705383160783941 0 -0.0021662904846719709 -0.017999241363923186 0 -0.0024166678727400711 -0.02130953433107239 0 -0.0018078229573115544 -0.021521209948531562 0 -0.0019673535729905749 -0.021122564020071028 0 -0.0023396732111946542 -0.018596448253195209 0 -0.0014792620722804046 -0.018705383160783941 0 -0.0021662904846719709 -0.017999241363923186 0 -0.0023396732111946542 -0.018596448253195209 0 -0.0022204901725627578 -0.017749785720741956 0 -0.0022574250247190649 -0.017786663446322171 0 -0.0022400948542953335 -0.017607610007918342 0 -0.0022574250247190649 -0.017786663446322171 0 -0.0021662904846719709 -0.017999241363923186 0 -0.0023396732111946542 -0.018596448253195209 0 -0.0022574250247190649 -0.017786663446322171 0 -0.0021662904846719709 -0.017999241363923186 0 -0.0026133959465140838 -0.017213095365643992 0 -0.0024905679209486931 -0.017344392504164412 0 -0.002590461380263062 -0.017355320470003394 0 -0.0024905679209486931 -0.017344392504164412 0 -0.002590461380263062 -0.017355320470003394 0 -0.0025284216514738886 -0.017461833278857607 0 -0.0024905679209486931 -0.017344392504164412 0 -0.0025284216514738886 -0.017461833278857607 0 -0.0024541494881419588 -0.017491694558858586 0 -0.002590461380263062 -0.017355320470003394 0 -0.0025902780077461068 -0.017423559586452121 0 -0.0025284216514738886 -0.017461833278857607 0 -0.002631770670509194 -0.017401749541838533 0 -0.002590461380263062 -0.017355320470003394 0 -0.0025902780077461068 -0.017423559586452121 0 -0.00066843297886382837 -0.017771184327930355 0 -0.00067878595082405545 -0.01784290163898666 0 -0.00098193878857899845 -0.017768735854586343 0 -0.0026139661285999134 -0.017472989990025736 0 -0.0025902780077461068 -0.017423559586452121 0 -0.0025284216514738886 -0.017461833278857607 0 -0.00052563921897669143 -0.018063665699854799 0 -0.00067732449824929901 -0.018044631437056053 0 -0.00080208248406400207 -0.018180697237698943 0 -0.0026139661285999134 -0.017472989990025736 0 -0.0025284216514738886 -0.017461833278857607 0 -0.0024721478156378451 -0.017545825770198087 0 -0.001813804560468876 -0.017661210907783411 0 -0.0013974391532433636 -0.017812445470219443 0 -0.00052772780900844788 -0.017921805820472248 0 -0.0013974391532433636 -0.017812445470219443 0 -0.00052563921897669143 -0.018063665699854799 0 -0.00053586867413890464 -0.017987962383895467 0 -0.00067732449824929901 -0.018044631437056053 0 -0.0025284216514738886 -0.017461833278857607 0 -0.0024541494881419588 -0.017491694558858586 0 -0.0024721478156378451 -0.017545825770198087 0 -0.0024541494881419588 -0.017491694558858586 0 -0.0024721478156378451 -0.017545825770198087 0 -0.0024396430123367033 -0.017557252857350564 0 -0.00067732449824929901 -0.018044631437056053 0 -0.00080208248406400207 -0.018180697237698943 0 -0.00091716072236199377 -0.018211772217842367 0 -0.00084076168773295141 -0.018032384525445203 0 -0.00067732449824929901 -0.018044631437056053 0 -0.00091716072236199377 -0.018211772217842367 0 -0.0013974391532433636 -0.017812445470219443 0 -0.001670235230180819 -0.017871154141671609 0 -0.00097751587353680082 -0.01807226272232304 0 -0.0011651067300707525 -0.018105047595860901 0 -0.00091716072236199377 -0.018211772217842367 0 -0.0024541494881419588 -0.017491694558858586 0 -0.0024396430123367033 -0.017557252857350564 0 -0.0024113330510757286 -0.017556634740182989 0 -0.0024905679209486931 -0.017344392504164412 0 -0.0024198619664833115 -0.017458197058818809 0 -0.0023950805287777793 -0.017347228820179403 0 -0.0024541494881419588 -0.017491694558858586 0 -0.0024198619664833115 -0.017458197058818809 0 -0.0024113330510757286 -0.017556634740182989 0 -0.0024905679209486931 -0.017344392504164412 0 -0.0024541494881419588 -0.017491694558858586 0 -0.0024198619664833115 -0.017458197058818809 0 -0.0023755405036557263 -0.017541570850308712 0 -0.0023144261713357291 -0.017527397602622324 0 -0.0023950805287777793 -0.017347228820179403 0 -0.0024198619664833115 -0.017458197058818809 0 -0.0023755405036557263 -0.017541570850308712 0 -0.0023950805287777793 -0.017347228820179403 0 -0.0024198619664833115 -0.017458197058818809 0 -0.0023755405036557263 -0.017541570850308712 0 -0.0024113330510757286 -0.017556634740182989 0 -0.001670235230180819 -0.017871154141671609 0 -0.0019042111865831901 -0.01800896003238537 0 -0.0011651067300707525 -0.018105047595860901 0 -0.00091716072236199377 -0.018211772217842367 0 -0.0014682699498462252 -0.018268148207485051 0 -0.0024396430123367033 -0.017557252857350564 0 -0.0024113330510757286 -0.017556634740182989 0 -0.002369407627717516 -0.017730747701493597 0 -0.0023755405036557263 -0.017541570850308712 0 -0.0024113330510757286 -0.017556634740182989 0 -0.002369407627717516 -0.017730747701493597 0 -0.0023755405036557263 -0.017541570850308712 0 -0.002369407627717516 -0.017730747701493597 0 -0.0023305253261762236 -0.017631460674549855 0 -0.002231526807935666 -0.017726324727918144 0 -0.002369407627717516 -0.017730747701493597 0 -0.0023305253261762236 -0.017631460674549855 0 -0.002231526807935666 -0.017726324727918144 0 -0.0023305253261762236 -0.017631460674549855 0 -0.0023144261713357291 -0.017527397602622324 0 -0.0023755405036557263 -0.017541570850308712 0 -0.0023305253261762236 -0.017631460674549855 0 -0.0023144261713357291 -0.017527397602622324 0 -0.00069661705726436183 -0.015103078842502716 0 -0.00045337850240467851 -0.014747691578352847 0 -0.0012228363876174303 -0.012791471138119577 0 -0.0012402419129032159 -0.015974483695677645 0 -0.00069661705726436183 -0.015103078842502716 0 -0.00045337850240467851 -0.014747691578352847 0 -0.00045337850240467851 -0.014747691578352847 0 -0.00021950801016958088 -0.012444311852469253 0 -0.00086483887672891314 -0.012054149032982468 0 0.0006141354632435539 -0.011957797432982016 0 -0.00045337850240467851 -0.014747691578352847 0 -0.00021950801016958088 -0.012444311852469253 0 -0.00021950801016958088 -0.012444311852469253 0 -0.00086483887672891314 -0.012054149032982468 0 2.0691466965546057e-05 -0.011519040986947636 0 -0.00045337850240467851 -0.014747691578352847 0 -0.00086483887672891314 -0.012054149032982468 0 -0.0012228363876174303 -0.012791471138119577 0 -0.0014371439547853089 -0.016392043737041881 0 -0.0017157854058839411 -0.015090743090136983 0 -0.0017157854058839411 -0.015090743090136983 0 -0.0019065668762287978 -0.013903963638317494 0 -0.0024905679209486931 -0.017344392504164412 0 -0.0023950805287777793 -0.017347228820179403 0 -0.0025302828097702283 -0.017092909220501579 0 -0.00086483887672891314 -0.012054149032982468 0 -0.0012228363876174303 -0.012791471138119577 0 -0.0012956020792727163 -0.010347645283736313 0 -0.0012228363876174303 -0.012791471138119577 0 -0.0014458755987369364 -0.010661749533656548 0 -0.0012956020792727163 -0.010347645283736313 0 -0.0012672816089147818 -0.009511591286801041 0 -0.0014458755987369364 -0.010661749533656548 0 -0.0012956020792727163 -0.010347645283736313 0 -0.0026133959465140838 -0.017213095365643992 0 -0.0024905679209486931 -0.017344392504164412 0 -0.0025302828097702283 -0.017092909220501579 0 -0.00086483887672891314 -0.012054149032982468 0 -0.0012956020792727163 -0.010347645283736313 0 -0.00078152174735663228 -0.0097026231088930808 0 -0.001165763413919999 -0.0089211329185890972 0 -0.0012234770778907075 -0.009070846548107676 0 -0.0012956020792727163 -0.010347645283736313 0 -0.001165763413919999 -0.0089211329185890972 0 -0.0012672816089147818 -0.009511591286801041 0 -0.0012956020792727163 -0.010347645283736313 0 -0.0012234770778907075 -0.009070846548107676 0 -0.00078152174735663228 -0.0097026231088930808 0 -0.0011529754157644089 -0.0087437243491690839 0 -0.0012234770778907075 -0.009070846548107676 0 -0.0012956020792727163 -0.010347645283736313 0 -0.00078152174735663228 -0.0097026231088930808 0 -0.00086483887672891314 -0.012054149032982468 0 -0.00078152174735663228 -0.0097026231088930808 0 2.0691466965546057e-05 -0.011519040986947636 0 0.0002754798266581545 -0.011731820616438132 0 2.0691466965546057e-05 -0.011519040986947636 0 0.00025671663721209644 -0.011809593916195016 0 -0.00028209090697751661 -0.010712608090897972 0 7.3333471576143592e-08 -0.011396769011186464 0 0.0006141354632435539 -0.011957797432982016 0 -0.00021950801016958088 -0.012444311852469253 0 2.0691466965546057e-05 -0.011519040986947636 0 2.0691466965546057e-05 -0.011519040986947636 0 0.00010940677548564413 -0.01173229957596535 0 8.6960324149131738e-05 -0.011701636476951638 0 2.0691466965546057e-05 -0.011519040986947636 0 0.00025671663721209644 -0.011809593916195016 0 0.00010940677548564413 -0.01173229957596535 0 0.00025671663721209644 -0.011809593916195016 0 0.00010940677548564413 -0.01173229957596535 0 8.2868168466185643e-05 -0.011960002426239923 0 0.00025671663721209644 -0.011809593916195016 0 0.00013584145707103463 -0.01234401101876784 0 8.2868168466185643e-05 -0.011960002426239923 0 0.00025671663721209644 -0.011809593916195016 0 0.00013584145707103463 -0.01234401101876784 0 0.00021379484323006073 -0.01199851007058938 0 0.00013584145707103463 -0.01234401101876784 0 0.00021379484323006073 -0.01199851007058938 0 1.1304005255120071e-07 -0.013334252542212549 0 0.00021379484323006073 -0.01199851007058938 0 1.1540829811473662e-06 -0.0113184694303515 0 1.1304005255120071e-07 -0.013334252542212549 0 0.00021379484323006073 -0.01199851007058938 0 1.1540829811473662e-06 -0.0113184694303515 0 0.00023328103062769353 -0.011391037283745338 0 0.00025671663721209644 -0.011809593916195016 0 0.00021379484323006073 -0.01199851007058938 0 0.00023328103062769353 -0.011391037283745338 0 0.0002754798266581545 -0.011731820616438132 0 0.00025671663721209644 -0.011809593916195016 0 0.00023328103062769353 -0.011391037283745338 0 0.0002754798266581545 -0.011731820616438132 0 0.00023328103062769353 -0.011391037283745338 0 -8.8603156156371612e-05 -0.010991842237428618 0 -0.00028209090697751661 -0.010712608090897972 0 -0.00059800965072769117 -0.0098671751547852113 0 1.1540829811473662e-06 -0.0113184694303515 0 0.00023328103062769353 -0.011391037283745338 0 -1.6078562173505893e-06 -0.0093050430001042767 0 0.00023328103062769353 -0.011391037283745338 0 -1.6078562173505893e-06 -0.0093050430001042767 0 -8.8603156156371612e-05 -0.010991842237428618 0 -0.00091609855212929916 -0.0090443201702275992 0 -1.6078562173505893e-06 -0.0093050430001042767 0 -8.8603156156371612e-05 -0.010991842237428618 0 -0.00088289979584417141 -0.0091770359665513147 0 -0.00059800965072769117 -0.0098671751547852113 0 -0.0010933162156064771 -0.0086407471328999192 0 -0.0012234770778907075 -0.009070846548107676 0 -0.0011529754157644089 -0.0087437243491690839 0 -0.0010933162156064771 -0.0086407471328999192 0 -0.00091609855212929916 -0.0090443201702275992 0 -0.0011529754157644089 -0.0087437243491690839 0 -0.001454557808530926 -0.019726427942523002 0 -0.00075802195827553423 -0.020008653778832292 0 -0.0020199328504095977 -0.020103111745365426 0 -0.0015980765326857223 -0.016271885392151512 0 -0.0011972258341392855 -0.01574101451647367 0 -0.0015688923270620178 -0.020373869489064951 0 -0.0018741963543618962 -0.017615261903037301 0 -0.001454557808530926 -0.019726427942523002 0 -0.0020702211548148195 -0.020032985815185037 0 -0.0013688227309952617 -0.019057512647550241 0 -0.001454557808530926 -0.019726427942523002 0 -0.00075802195827553423 -0.020008653778832292 0 -0.00068220624574014317 -0.019428291039888884 0 -0.00075802195827553423 -0.020008653778832292 0 -0.00068220624574014317 -0.019428291039888884 0 -0.00021879229168155412 -0.019561066696804585 0 -0.0019698108140116148 -0.020125110533788779 0 -0.0019673535729905749 -0.021122564020071028 0 -0.0023281700062018026 -0.020907434075047363 0 -0.0019698108140116148 -0.020125110533788779 0 -0.0019673535729905749 -0.021122564020071028 0 -0.0014460429572981564 -0.020555767945421764 0 -0.0024166678727400711 -0.02130953433107239 0 -0.0019673535729905749 -0.021122564020071028 0 -0.0023281700062018026 -0.020907434075047363 0 -0.0023509664840011863 -0.019641882346897059 0 -0.0018741963543618962 -0.017615261903037301 0 -0.0024166678727400711 -0.02130953433107239 0 -0.0026102894185181602 -0.020563873326836568 0 -0.003317320850432689 -0.020252402981232823 0 -0.0024166678727400711 -0.02130953433107239 0 -0.0023281700062018026 -0.020907434075047363 0 -0.0026102894185181602 -0.020563873326836568 0 -0.0019698108140116148 -0.020125110533788779 0 -0.0026102894185181602 -0.020563873326836568 0 -0.003317320850432689 -0.020252402981232823 0 -0.002166809670643107 -0.017496045317905991 0 -0.0020934331856090715 -0.017727368284545689 0 -0.0021171016058597236 -0.017865187434961197 0 -0.0021446670197662826 -0.017558342650492793 0 -0.002166809670643107 -0.017496045317905991 0 -0.0020934331856090715 -0.017727368284545689 0 -0.0019698108140116148 -0.020125110533788779 0 -0.0023281700062018026 -0.020907434075047363 0 -0.0026102894185181602 -0.020563873326836568 0 -0.00044787957810193458 -0.014517635452804319 0 -0.001395342471074095 -0.016300690844732003 0 -0.0015966647795214288 -0.017554661257874898 0 -0.0020934331856090715 -0.017727368284545689 0 -0.0020630515170160565 -0.017879315383257599 0 0.0006141354632435539 -0.011957797432982016 0 -0.00020061688529472675 -0.011735716384332531 0 2.5966037568830735e-05 -0.011771748000068258 0 -0.0015966647795214288 -0.017554661257874898 0 -0.0021446670197662826 -0.017558342650492793 0 -0.0020934331856090715 -0.017727368284545689 0 -0.0020934331856090715 -0.017727368284545689 0 -0.0021171016058597236 -0.017865187434961197 0 -0.0020630515170160565 -0.017879315383257599 0 0.0006141354632435539 -0.011957797432982016 0 8.6960324149131738e-05 -0.011701636476951638 0 2.5966037568830735e-05 -0.011771748000068258 0 0.0006141354632435539 -0.011957797432982016 0 2.0691466965546057e-05 -0.011519040986947636 0 8.6960324149131738e-05 -0.011701636476951638 0 8.6960324149131738e-05 -0.011701636476951638 0 2.5966037568830735e-05 -0.011771748000068258 0 -0.00012266586247582466 -0.01188743549480668 0 8.6960324149131738e-05 -0.011701636476951638 0 -7.6463449299039206e-05 -0.012007387923766379 0 -0.00012266586247582466 -0.01188743549480668 0 8.6960324149131738e-05 -0.011701636476951638 0 -7.6463449299039206e-05 -0.012007387923766379 0 8.2868168466185643e-05 -0.011960002426239923 0 0.00010940677548564413 -0.01173229957596535 0 8.6960324149131738e-05 -0.011701636476951638 0 8.2868168466185643e-05 -0.011960002426239923 0 -0.00044335258728337156 -0.011699363635071781 0 -0.00039403060824560603 -0.012145307002542325 0 -0.001228800006761089 -0.012515326654465139 0 -0.001454557808530926 -0.019726427942523002 0 -0.0020199328504095977 -0.020103111745365426 0 -0.0020702211548148195 -0.020032985815185037 0 -0.00023014843855949398 -0.011777593783303683 0 -0.00022291094827349287 -0.011797283532651037 0 -0.00028870733828139516 -0.011839996409399983 0 -0.0015980765326857223 -0.016271885392151512 0 -0.0019549864520738178 -0.014495782030810632 0 -0.0018741963543618962 -0.017615261903037301 0 -0.001395342471074095 -0.016300690844732003 0 -0.0021580352922446196 -0.017153125091943527 0 -0.0018695146503372288 -0.017497257443345314 0 -0.0015539862706674562 -0.017098391829130113 0 -0.0018741963543618962 -0.017615261903037301 0 -0.0015980765326857223 -0.016271885392151512 0 -0.00023014843855949398 -0.011777593783303683 0 -0.00020061688529472675 -0.011735716384332531 0 -0.00022291094827349287 -0.011797283532651037 0 -0.0015980765326857223 -0.016271885392151512 0 -0.001395342471074095 -0.016300690844732003 0 -0.00020061688529472675 -0.011735716384332531 0 -0.00014188685166328197 -0.011777484196949259 0 2.5966037568830735e-05 -0.011771748000068258 0 2.5966037568830735e-05 -0.011771748000068258 0 -0.00013814754720515316 -0.011817511511772363 0 -0.00012266586247582466 -0.01188743549480668 0 -0.00014188685166328197 -0.011777484196949259 0 -0.00022291094827349287 -0.011797283532651037 0 -0.00013814754720515316 -0.011817511511772363 0 -0.00020061688529472675 -0.011735716384332531 0 -0.00014188685166328197 -0.011777484196949259 0 -0.00022291094827349287 -0.011797283532651037 0 -0.00014188685166328197 -0.011777484196949259 0 2.5966037568830735e-05 -0.011771748000068258 0 -0.00013814754720515316 -0.011817511511772363 0 -0.00013814754720515316 -0.011817511511772363 0 -0.00028870733828139516 -0.011839996409399983 0 -0.00012266586247582466 -0.01188743549480668 0 -0.00022291094827349287 -0.011797283532651037 0 -0.00013814754720515316 -0.011817511511772363 0 -0.00028870733828139516 -0.011839996409399983 0 -7.6463449299039206e-05 -0.012007387923766379 0 -0.00039403060824560603 -0.012145307002542325 0 -0.00012266586247582466 -0.01188743549480668 0 -0.00028870733828139516 -0.011839996409399983 0 -0.00039403060824560603 -0.012145307002542325 0 -0.00012266586247582466 -0.01188743549480668 0 -0.00044335258728337156 -0.011699363635071781 0 -0.00028870733828139516 -0.011839996409399983 0 -0.00039403060824560603 -0.012145307002542325 0 -0.00039403060824560603 -0.012145307002542325 0 -0.00062080288102906367 -0.012620734141393994 0 -0.001228800006761089 -0.012515326654465139 0 -0.00039403060824560603 -0.012145307002542325 0 -0.00062080288102906367 -0.012620734141393994 0 -0.00016349786814330163 -0.012383744031200889 0 -0.00062080288102906367 -0.012620734141393994 0 -0.00016349786814330163 -0.012383744031200889 0 -0.00039942845981968538 -0.012875818272582388 0 0.00013584145707103463 -0.01234401101876784 0 8.2868168466185643e-05 -0.011960002426239923 0 -0.00016349786814330163 -0.012383744031200889 0 -7.6463449299039206e-05 -0.012007387923766379 0 8.2868168466185643e-05 -0.011960002426239923 0 -0.00016349786814330163 -0.012383744031200889 0 -7.6463449299039206e-05 -0.012007387923766379 0 -0.00039403060824560603 -0.012145307002542325 0 -0.00016349786814330163 -0.012383744031200889 0 0.00013584145707103463 -0.01234401101876784 0 -0.00016349786814330163 -0.012383744031200889 0 -4.6702315638787189e-05 -0.013111095426446388 0 1.1304005255120071e-07 -0.013334252542212549 0 -4.6702315638787189e-05 -0.013111095426446388 0 -2.9159997622731104e-07 -0.015350890452092642 0 0.00013584145707103463 -0.01234401101876784 0 1.1304005255120071e-07 -0.013334252542212549 0 -4.6702315638787189e-05 -0.013111095426446388 0 -0.00016349786814330163 -0.012383744031200889 0 -4.6702315638787189e-05 -0.013111095426446388 0 -0.00039942845981968538 -0.012875818272582388 0 -4.6702315638787189e-05 -0.013111095426446388 0 -1.4877386541672311e-05 -0.015391209992128141 0 -2.9159997622731104e-07 -0.015350890452092642 0 -4.6702315638787189e-05 -0.013111095426446388 0 -0.00039942845981968538 -0.012875818272582388 0 -0.00091385828802095065 -0.013123575497586845 0 4.8900340879126388e-05 -0.013281298067335422 0 -0.00031057794344579049 -0.014240013600634552 0 -0.00062080288102906367 -0.012620734141393994 0 -0.00073400226949794001 -0.012860461401538228 0 -0.00039942845981968538 -0.012875818272582388 0 -0.00073400226949794001 -0.012860461401538228 0 -0.00039942845981968538 -0.012875818272582388 0 -0.00091385828802095065 -0.013123575497586845 0 -0.00062080288102906367 -0.012620734141393994 0 -0.00073400226949794001 -0.012860461401538228 0 -0.00095529992348637174 -0.012827192217968587 0 -1.4877386541672311e-05 -0.015391209992128141 0 -2.9159997622731104e-07 -0.015350890452092642 0 2.3978134889872503e-08 -0.017345812579025743 0 -0.00091385828802095065 -0.013123575497586845 0 -0.0011242365264918707 -0.012929471006801377 0 -0.0013683691218511331 -0.013082262520049334 0 -0.0011242365264918707 -0.012929471006801377 0 -0.001228800006761089 -0.012515326654465139 0 -0.0013683691218511331 -0.013082262520049334 0 -0.00073400226949794001 -0.012860461401538228 0 -0.00091385828802095065 -0.013123575497586845 0 -0.00095529992348637174 -0.012827192217968587 0 -0.00091385828802095065 -0.013123575497586845 0 -0.0011242365264918707 -0.012929471006801377 0 -0.00095529992348637174 -0.012827192217968587 0 -0.00062080288102906367 -0.012620734141393994 0 -0.00095529992348637174 -0.012827192217968587 0 -0.001228800006761089 -0.012515326654465139 0 -0.0011242365264918707 -0.012929471006801377 0 -0.00095529992348637174 -0.012827192217968587 0 -0.001228800006761089 -0.012515326654465139 0 -0.001454557808530926 -0.019726427942523002 0 -0.0013688227309952617 -0.019057512647550241 0 -0.00068220624574014317 -0.019428291039888884 0 -0.00068220624574014317 -0.019428291039888884 0 -0.00049174742505624688 -0.018768193353047177 0 -0.00014442541946082596 -0.019129581182702034 0 -0.0013688227309952617 -0.019057512647550241 0 -0.00068220624574014317 -0.019428291039888884 0 -0.00049174742505624688 -0.018768193353047177 0 -0.00049174742505624688 -0.018768193353047177 0 -0.00010946964555023109 -0.01836298979033223 0 -0.00014442541946082596 -0.019129581182702034 0 -0.00031057794344579049 -0.014240013600634552 0 -0.0010920014034219291 -0.015048297363706482 0 -0.0011972258341392855 -0.01574101451647367 0 -0.0010920014034219291 -0.015048297363706482 0 -0.001228800006761089 -0.012515326654465139 0 -0.0013683691218511331 -0.013082262520049334 0 -0.0018395595802696933 -0.013337391746591111 0 -0.0013688227309952617 -0.019057512647550241 0 -0.00049174742505624688 -0.018768193353047177 0 -1.6264530458463069e-06 -0.017348458658543162 0 -0.00091385828802095065 -0.013123575497586845 0 -0.0013683691218511331 -0.013082262520049334 0 -0.0018395595802696933 -0.013337391746591111 0 -0.00049174742505624688 -0.018768193353047177 0 -1.6264530458463069e-06 -0.017348458658543162 0 -0.00010946964555023109 -0.01836298979033223 0 3.4242725132500089e-07 -0.017497481647235264 0 -1.6264530458463069e-06 -0.017348458658543162 0 -0.00010946964555023109 -0.01836298979033223 0 3.4242725132500089e-07 -0.017497481647235264 0 0.00010637862261566602 -0.018928115559098371 0 5.9744587970877851e-07 -0.019253223876903702 0 3.4242725132500089e-07 -0.017497481647235264 0 0.00010637862261566602 -0.018928115559098371 0 -0.00010946964555023109 -0.01836298979033223 0 0.00010637862261566602 -0.018928115559098371 0 5.9744587970877851e-07 -0.019253223876903702 0 0.00017419886982745291 -0.019668538884209264 0 5.9744587970877851e-07 -0.019253223876903702 0 0.00017419886982745291 -0.019668538884209264 0 0.00015740329872211619 -0.020026249244513378 0 0.00010637862261566602 -0.018928115559098371 0 0.00017419886982745291 -0.019668538884209264 0 0.00011265151945052204 -0.019496726248873164 0 0.00017419886982745291 -0.019668538884209264 0 0.00011265151945052204 -0.019496726248873164 0 0.00015063258772958794 -0.019763679466596625 0 0.00010637862261566602 -0.018928115559098371 0 -0.00010946964555023109 -0.01836298979033223 0 -0.00014442541946082596 -0.019129581182702034 0 0.00010637862261566602 -0.018928115559098371 0 0.00011265151945052204 -0.019496726248873164 0 -0.00014442541946082596 -0.019129581182702034 0 0.00011265151945052204 -0.019496726248873164 0 -0.00014442541946082596 -0.019129581182702034 0 -0.00021879229168155412 -0.019561066696804585 0 -0.00068220624574014317 -0.019428291039888884 0 -0.00014442541946082596 -0.019129581182702034 0 -0.00021879229168155412 -0.019561066696804585 0 -0.00075802195827553423 -0.020008653778832292 0 -0.00021879229168155412 -0.019561066696804585 0 0.00016742242399586855 -0.019758715639457528 0 -0.0019698108140116148 -0.020125110533788779 0 -0.00063956405077024512 -0.02000445999466997 0 -0.0014460429572981564 -0.020555767945421764 0 -0.0015688923270620178 -0.020373869489064951 0 -0.00020707342401736167 -0.019861520560259846 0 0.00011265151945052204 -0.019496726248873164 0 -0.00021879229168155412 -0.019561066696804585 0 0.00016742242399586855 -0.019758715639457528 0 0.00011265151945052204 -0.019496726248873164 0 0.00015063258772958794 -0.019763679466596625 0 0.00016742242399586855 -0.019758715639457528 0 -0.00020707342401736167 -0.019861520560259846 0 2.7951534975427937e-05 -0.019935582538853924 0 0.00015063258772958794 -0.019763679466596625 0 0.00016742242399586855 -0.019758715639457528 0 4.4097780939859717e-05 -0.019945632415790924 0 -0.00063956405077024512 -0.02000445999466997 0 -0.000758855001767563 -0.020577662668510608 0 -2.9996357579297192e-05 -0.020078017261601681 0 -0.0010234161226846347 -0.02123456888181945 0 -0.0013346724533689245 -0.021119314407760291 0 -0.001196687718044116 -0.021389678804964563 0 -0.0010234161226846347 -0.02123456888181945 0 -0.0013346724533689245 -0.021119314407760291 0 -0.000886766073977057 -0.02103654822632978 0 -0.0010872439296182568 -0.020847777328884341 0 -0.00047713864541030473 -0.02056680682136167 0 -0.0013346724533689245 -0.021119314407760291 0 -0.0015080901678037727 -0.021418528623254687 0 -0.001196687718044116 -0.021389678804964563 0 -0.0019673535729905749 -0.021122564020071028 0 -0.0013346724533689245 -0.021119314407760291 0 -0.0015080901678037727 -0.021418528623254687 0 -0.0019673535729905749 -0.021122564020071028 0 -0.0014460429572981564 -0.020555767945421764 0 -0.000758855001767563 -0.020577662668510608 0 -0.0019180535574419941 -0.021115627917464311 0 -0.0010872439296182568 -0.020847777328884341 0 -0.00063956405077024512 -0.02000445999466997 0 -0.0014460429572981564 -0.020555767945421764 0 -0.000758855001767563 -0.020577662668510608 0 -0.0006682676996687413 -0.021101065238007314 0 -0.00050326629130753044 -0.021111961502578498 0 -0.00058978701480108986 -0.021282459902319844 0 -0.00050326629130753044 -0.021111961502578498 0 -0.00058978701480108986 -0.021282459902319844 0 -0.00040943386278235089 -0.021267739203646479 0 -0.0006682676996687413 -0.021101065238007314 0 -0.00058978701480108986 -0.021282459902319844 0 -0.0007963266749305782 -0.021228553717061168 0 -0.0010234161226846347 -0.02123456888181945 0 -0.0007963266749305782 -0.021228553717061168 0 -0.00091287239332621926 -0.021426120161830084 0 -0.0010234161226846347 -0.02123456888181945 0 -0.0007963266749305782 -0.021228553717061168 0 -0.000886766073977057 -0.02103654822632978 0 -0.0006682676996687413 -0.021101065238007314 0 -0.0007963266749305782 -0.021228553717061168 0 -0.000886766073977057 -0.02103654822632978 0 -0.00063956405077024512 -0.02000445999466997 0 -2.9996357579297192e-05 -0.020078017261601681 0 4.4097780939859717e-05 -0.019945632415790924 0 0.00015063258772958794 -0.019763679466596625 0 4.4097780939859717e-05 -0.019945632415790924 0 0.0001037242352832167 -0.019905198754003876 0 4.4097780939859717e-05 -0.019945632415790924 0 -1.1526956486726483e-05 -0.020056143874084342 0 0.0001037242352832167 -0.019905198754003876 0 -0.0006682676996687413 -0.021101065238007314 0 -0.000886766073977057 -0.02103654822632978 0 -0.00055256733478178054 -0.020879680423755896 0 -2.9996357579297192e-05 -0.020078017261601681 0 4.4097780939859717e-05 -0.019945632415790924 0 -4.1288603900759229e-05 -0.02002204714552399 0 4.4097780939859717e-05 -0.019945632415790924 0 -4.1288603900759229e-05 -0.02002204714552399 0 -1.1526956486726483e-05 -0.020056143874084342 0 -0.00047713864541030473 -0.02056680682136167 0 -0.00027482152582758695 -0.020468117354018499 0 -0.0006682676996687413 -0.021101065238007314 0 -0.00050326629130753044 -0.021111961502578498 0 -0.00055256733478178054 -0.020879680423755896 0 -1.1526956486726483e-05 -0.020056143874084342 0 -6.8125355165609802e-05 -0.020196788947197543 0 -0.00016953597757796241 -0.020303465154692647 0 -4.1288603900759229e-05 -0.02002204714552399 0 -1.1526956486726483e-05 -0.020056143874084342 0 -0.00016953597757796241 -0.020303465154692647 0 -1.1526956486726483e-05 -0.020056143874084342 0 -6.8125355165609802e-05 -0.020196788947197543 0 0.0001037242352832167 -0.019905198754003876 0 0.00017419886982745291 -0.019668538884209264 0 0.00015063258772958794 -0.019763679466596625 0 0.0001037242352832167 -0.019905198754003876 0 -6.8125355165609802e-05 -0.020196788947197543 0 0.0001037242352832167 -0.019905198754003876 0 0.00015740329872211619 -0.020026249244513378 0 0.00017419886982745291 -0.019668538884209264 0 0.0001037242352832167 -0.019905198754003876 0 0.00015740329872211619 -0.020026249244513378 0 5.9744587970877851e-07 -0.019253223876903702 0 0.00015740329872211619 -0.020026249244513378 0 -1.5439782136425936e-07 -0.021003159174031782 0 -6.8125355165609802e-05 -0.020196788947197543 0 -1.5439782136425936e-07 -0.021003159174031782 0 -0.00027904103879326992 -0.020457697709486553 0 7.8504746793748731e-07 -0.02100628504224367 0 -0.0010453390351410755 -0.023652346554188589 0 -6.8125355165609802e-05 -0.020196788947197543 0 0.00015740329872211619 -0.020026249244513378 0 -1.5439782136425936e-07 -0.021003159174031782 0 -6.8125355165609802e-05 -0.020196788947197543 0 -0.00030403863151549459 -0.020417308169712361 0 -0.00027904103879326992 -0.020457697709486553 0 -1.5167096103598614e-07 -0.02100729506220406 0 1.0063011980043881e-07 -0.022908298948353042 0 -6.927057910800221e-06 -0.022582136680532654 0 -0.0016637610726335063 -0.023593140146539279 0 -0.0010453390351410755 -0.023652346554188589 0 1.0063011980043881e-07 -0.022908298948353042 0 -6.927057910800221e-06 -0.022582136680532654 0 5.2643518286801947e-06 -0.02380766051596769 0 -0.0032349165005916107 -0.027462593894501192 0 -0.0035344303548588444 -0.027338954719170503 0 -0.0025646814521447705 -0.027276201761517606 0 1.0063011980043881e-07 -0.022908298948353042 0 5.2643518286801947e-06 -0.02380766051596769 0 -3.6928194966421805e-08 -0.024809999070871683 0 -0.0032349165005916107 -0.027462593894501192 0 -0.0025646814521447705 -0.027276201761517606 0 -0.0019061892605119653 -0.028069746550598174 0 -0.0016637610726335063 -0.023593140146539279 0 -0.001147599216297872 -0.025747591346716035 0 -0.0010453390351410755 -0.023652346554188589 0 -0.0013605857249837238 -0.025620124044093435 0 -0.00030403863151549459 -0.020417308169712361 0 -0.00020288071387100954 -0.020577565717811771 0 0.00011749081425262052 -0.020486210999036841 0 -0.00030403863151549459 -0.020417308169712361 0 -0.00020288071387100954 -0.020577565717811771 0 -0.00016953597757796241 -0.020303465154692647 0 -6.8125355165609802e-05 -0.020196788947197543 0 -0.00030403863151549459 -0.020417308169712361 0 -0.00016953597757796241 -0.020303465154692647 0 -0.000614556576854302 -0.026155223866365596 0 2.742895523364929e-08 -0.026711876888187519 0 -0.00092318225914635242 -0.027543901327507041 0 -0.0015436742238992527 -0.027112133966048477 0 -1.5382597189478493e-06 -0.026715244217032683 0 -3.6819753771485272e-06 -0.02526492666941519 0 -3.6928194966421805e-08 -0.024809999070871683 0 -2.668789370273429e-08 -0.02671199397671218 0 -0.0009616719019625823 -0.027984942907984724 0 -0.00092318225914635242 -0.027543901327507041 0 -0.00027925273956658995 -0.028121785151033085 0 -0.00092318225914635242 -0.027543901327507041 0 -0.0015436742238992527 -0.027112133966048477 0 -0.0017039563902796527 -0.027641846119952573 0 -0.0009616719019625823 -0.027984942907984724 0 -0.00092318225914635242 -0.027543901327507041 0 -0.0017039563902796527 -0.027641846119952573 0 -0.0009616719019625823 -0.027984942907984724 0 -0.0017039563902796527 -0.027641846119952573 0 -0.0019061892605119653 -0.028069746550598174 0 5.2643518286801947e-06 -0.02380766051596769 0 -3.6819753771485272e-06 -0.02526492666941519 0 -3.6928194966421805e-08 -0.024809999070871683 0 -0.0025646814521447705 -0.027276201761517606 0 -0.0017039563902796527 -0.027641846119952573 0 -0.0019061892605119653 -0.028069746550598174 0 -0.0025646814521447705 -0.027276201761517606 0 -0.0015436742238992527 -0.027112133966048477 0 -0.0017039563902796527 -0.027641846119952573 0 -0.0013605857249837238 -0.025620124044093435 0 -0.000614556576854302 -0.026155223866365596 0 -0.00020288071387100954 -0.020577565717811771 0 0.00011749081425262052 -0.020486210999036841 0 0.00014603020726950674 -0.02080955746462285 0 -0.0009616719019625823 -0.027984942907984724 0 -0.0019061892605119653 -0.028069746550598174 0 -0.00032266278126181754 -0.028732655083355499 0 -0.00098743057436770387 -0.028436200911921141 0 -0.00032266278126181754 -0.028732655083355499 0 -0.00041103591557739187 -0.029024047189174982 0 -0.001147599216297872 -0.025747591346716035 0 0.00019581452756089785 -0.024755738942002611 0 0.00011749081425262052 -0.020486210999036841 0 0.00014603020726950674 -0.02080955746462285 0 0.00062683630313365628 -0.020921948577945788 0 -0.001147599216297872 -0.025747591346716035 0 -0.00035606160857086185 -0.0293587371510435 0 0.00032155777848490017 -0.021125316512553845 0 0.00014603020726950674 -0.02080955746462285 0 0.00062683630313365628 -0.020921948577945788 0 0.00050982809060577477 -0.021198246354528279 0 0.00032155777848490017 -0.021125316512553845 0 0.00062683630313365628 -0.020921948577945788 0 -0.00020288071387100954 -0.020577565717811771 0 0.00014603020726950674 -0.02080955746462285 0 -8.7245779948945082e-06 -0.020905511066793524 0 0.00032155777848490017 -0.021125316512553845 0 0.00016786499356870695 -0.021017559131668775 0 0.00014603020726950674 -0.02080955746462285 0 0.00016786499356870695 -0.021017559131668775 0 0.00010822495900445279 -0.021108310766877136 0 -8.7245779948945082e-06 -0.020905511066793524 0 0.00016786499356870695 -0.021017559131668775 0 0.00014603020726950674 -0.02080955746462285 0 -8.7245779948945082e-06 -0.020905511066793524 0 0.00010822495900445279 -0.021108310766877136 0 -8.7245779948945082e-06 -0.020905511066793524 0 -2.0579312259892464e-05 -0.021157951310167032 0 0.00010822495900445279 -0.021108310766877136 0 0.0001611284294649435 -0.021259518234349881 0 -2.0579312259892464e-05 -0.021157951310167032 0 0.0001611284294649435 -0.021259518234349881 0 -2.0579312259892464e-05 -0.021157951310167032 0 3.9416382851719406e-05 -0.021330301996199702 0 0.0001611284294649435 -0.021259518234349881 0 0.00029248201650146084 -0.021290309674678782 0 0.00023219456728920115 -0.021389843215872176 0 0.0001611284294649435 -0.021259518234349881 0 0.00022311604823979512 -0.021171814090816941 0 0.00029248201650146084 -0.021290309674678782 0 0.00010822495900445279 -0.021108310766877136 0 0.0001611284294649435 -0.021259518234349881 0 0.00022311604823979512 -0.021171814090816941 0 0.00032155777848490017 -0.021125316512553845 0 0.00016786499356870695 -0.021017559131668775 0 0.00022311604823979512 -0.021171814090816941 0 0.00016786499356870695 -0.021017559131668775 0 0.00010822495900445279 -0.021108310766877136 0 0.00022311604823979512 -0.021171814090816941 0 0.00050982809060577477 -0.021198246354528279 0 -0.00050781110083537796 -0.022662548419089053 0 0.00029065663185097977 -0.022312621728475954 0 0.00050982809060577477 -0.021198246354528279 0 0.00032155777848490017 -0.021125316512553845 0 0.00029248201650146084 -0.021290309674678782 0 0.00042710021007898733 -0.021257880715426433 0 5.9747933266501781e-05 -0.022060902247852968 0 0.00032155777848490017 -0.021125316512553845 0 0.00022311604823979512 -0.021171814090816941 0 0.00029248201650146084 -0.021290309674678782 0 0.00029065663185097977 -0.022312621728475954 0 0.00027774059810560704 -0.023038073139999265 0 0.00087424972855404219 -0.022342080207174094 0 -0.00050781110083537796 -0.022662548419089053 0 0.00029065663185097977 -0.022312621728475954 0 0.00027774059810560704 -0.023038073139999265 0 0.00050982809060577477 -0.021198246354528279 0 0.00029065663185097977 -0.022312621728475954 0 0.00087424972855404219 -0.022342080207174094 0 -0.00050326629130753044 -0.021111961502578498 0 -0.00055256733478178054 -0.020879680423755896 0 -0.00028206419871711525 -0.021083818781573362 0 -0.00027482152582758695 -0.020468117354018499 0 -0.0001779183530826725 -0.020532368945371735 0 -0.00055256733478178054 -0.020879680423755896 0 -0.00020288071387100954 -0.020577565717811771 0 -0.00028206419871711525 -0.021083818781573362 0 -4.1288603900759229e-05 -0.02002204714552399 0 -0.00020288071387100954 -0.020577565717811771 0 -0.00016953597757796241 -0.020303465154692647 0 -0.00020288071387100954 -0.020577565717811771 0 -8.7245779948945082e-06 -0.020905511066793524 0 -0.00028206419871711525 -0.021083818781573362 0 -8.7245779948945082e-06 -0.020905511066793524 0 -2.0579312259892464e-05 -0.021157951310167032 0 -0.00028206419871711525 -0.021083818781573362 0 -0.00011236581835796628 -0.02130057560152496 0 -0.00028206419871711525 -0.021083818781573362 0 -0.00023909284777061876 -0.0214055260802096 0 -2.0579312259892464e-05 -0.021157951310167032 0 -0.00011236581835796628 -0.02130057560152496 0 3.9416382851719406e-05 -0.021330301996199702 0 -2.0579312259892464e-05 -0.021157951310167032 0 -0.00011236581835796628 -0.02130057560152496 0 -0.00028206419871711525 -0.021083818781573362 0 -0.00028206419871711525 -0.021083818781573362 0 -0.00040943386278235089 -0.021267739203646479 0 -0.00023909284777061876 -0.0214055260802096 0 -0.00050326629130753044 -0.021111961502578498 0 -0.00028206419871711525 -0.021083818781573362 0 -0.00040943386278235089 -0.021267739203646479 0 -0.00040943386278235089 -0.021267739203646479 0 -0.00047292899682149087 -0.021444111209141702 0 -0.00023909284777061876 -0.0214055260802096 0 0.00090853166856971995 -0.022411245989723879 0 0.00051935064279382947 -0.021894788666667792 0 -0.00023909284777061876 -0.0214055260802096 0 -4.6109863278676654e-05 -0.021511617424519923 0 -0.0004240299197175207 -0.021670445051620732 0 -0.00047292899682149087 -0.021444111209141702 0 -0.00023909284777061876 -0.0214055260802096 0 -0.0004240299197175207 -0.021670445051620732 0 -0.00047615112045818739 -0.021366568317398683 0 0.00090853166856971995 -0.022411245989723879 0 -0.00011236581835796628 -0.02130057560152496 0 -0.00023909284777061876 -0.0214055260802096 0 -7.3263286476414591e-05 -0.021494035720235196 0 -0.00011236581835796628 -0.02130057560152496 0 -7.3263286476414591e-05 -0.021494035720235196 0 3.9416382851719406e-05 -0.021330301996199702 0 0.00068149497905766918 -0.02626672956443004 0 0.0021534579089224209 -0.02652271635454629 0 0.0031731704713132019 -0.021666008328303003 0 0.0030862812595834604 -0.022781731569078246 0 0.0020607488229625547 -0.023160497175120597 0 0.0030862812595834604 -0.022781731569078246 0 0.0041099070387250365 -0.022200345582936151 0 0.0030480821855169839 -0.024057878669824655 0 0.0031731704713132019 -0.021666008328303003 0 0.0030862812595834604 -0.022781731569078246 0 0.0041099070387250365 -0.022200345582936151 0 0.0030862812595834604 -0.022781731569078246 0 0.0020607488229625547 -0.023160497175120597 0 0.0030480821855169839 -0.024057878669824655 0 0.0020607488229625547 -0.023160497175120597 0 0.0011317131189201176 -0.022354499409114232 0 0.0010062148822424491 -0.024118388531274525 0 0.0031731704713132019 -0.021666008328303003 0 0.0020607488229625547 -0.023160497175120597 0 0.0011317131189201176 -0.022354499409114232 0 0.00024123554092198219 -0.02387613474280478 0 0.00027774059810560704 -0.023038073139999265 0 0.0011805304362022991 -0.023638938375660355 0 0.00024123554092198219 -0.02387613474280478 0 0.00027774059810560704 -0.023038073139999265 0 -0.00042175063157253768 -0.023496615940305571 0 -0.00050781110083537796 -0.022662548419089053 0 0.00027774059810560704 -0.023038073139999265 0 -0.00042175063157253768 -0.023496615940305571 0 -0.00050781110083537796 -0.022662548419089053 0 -0.00042175063157253768 -0.023496615940305571 0 -0.00088686955848612994 -0.023273702792626694 0 5.9747933266501781e-05 -0.022060902247852968 0 -4.7346582520062108e-06 -0.022965730419966947 0 -0.00042175063157253768 -0.023496615940305571 0 -0.00015994105988724971 -0.024106017724996744 0 -0.0013915145201872754 -0.024069843176880826 0 0.00024123554092198219 -0.02387613474280478 0 -0.00042175063157253768 -0.023496615940305571 0 -0.00015994105988724971 -0.024106017724996744 0 0.00027470602248478253 -0.023910608616380918 0 0.000206079895846641 -0.023928726831474807 0 0.00025373196228412748 -0.023913903359795482 0 0.00090853166856971995 -0.022411245989723879 0 -4.7346582520062108e-06 -0.022965730419966947 0 -7.3263286476414591e-05 -0.021494035720235196 0 0.00023219456728920115 -0.021389843215872176 0 3.9416382851719406e-05 -0.021330301996199702 0 -0.00051951706859006401 -0.025284073018774361 0 -4.7346582520062108e-06 -0.022965730419966947 0 -0.00042175063157253768 -0.023496615940305571 0 -0.0013915145201872754 -0.024069843176880826 0 -0.00088686955848612994 -0.023273702792626694 0 0.0001611284294649435 -0.021259518234349881 0 0.00023219456728920115 -0.021389843215872176 0 3.9416382851719406e-05 -0.021330301996199702 0 0.00022505639786728944 -0.023903617185057402 0 0.000206079895846641 -0.023928726831474807 0 0.00025373196228412748 -0.023913903359795482 0 0.00090853166856971995 -0.022411245989723879 0 0.00068149497905766918 -0.02626672956443004 0 0.00027470602248478253 -0.023910608616380918 0 0.00025373196228412748 -0.023913903359795482 0 0.00024008643804869254 -0.023904566566330613 0 -0.00051951706859006401 -0.025284073018774361 0 -6.0051454788017607e-05 -0.024671934303078364 0 0.00023306826539954862 -0.023914798774347948 0 0.00025373196228412748 -0.023913903359795482 0 0.00024008643804869254 -0.023904566566330613 0 -0.00051951706859006401 -0.025284073018774361 0 0.00068149497905766918 -0.02626672956443004 0 0.00032882432275316937 -0.030016806938792568 0 0.00019114046508982179 -0.029718897662183032 0 -0.0001502299851191879 -0.029615314178303227 0 -0.0012319940600896103 -0.029622432894294694 0 -0.0013258043194983333 -0.029765817965195146 0 -0.00056562669060426763 -0.030287666063642291 0 0.00032882432275316937 -0.030016806938792568 0 0.00019114046508982179 -0.029718897662183032 0 0.00090235858643755479 -0.029233989635472767 0 -0.0012319940600896103 -0.029622432894294694 0 -0.00056562669060426763 -0.030287666063642291 0 -0.00032170086630716409 -0.030108453860151273 0 0.00019114046508982179 -0.029718897662183032 0 -0.0001502299851191879 -0.029615314178303227 0 2.0881734645695455e-05 -0.029599949126178235 0 -0.00051951706859006401 -0.025284073018774361 0 0.00015505087833460912 -0.027768186630470731 0 0.00068149497905766918 -0.02626672956443004 0 -0.00040034867808479764 -0.030394490346130357 0 -0.00015994105988724971 -0.024106017724996744 0 -0.0013915145201872754 -0.024069843176880826 0 0.00093062652533021676 -0.024975667780874535 0 0.00024123554092198219 -0.02387613474280478 0 -0.00015994105988724971 -0.024106017724996744 0 0.00093062652533021676 -0.024975667780874535 0 -8.182643745783043e-05 -0.029554732873760703 0 -0.00010394266160449446 -0.02974752288119175 0 -6.3119618860023316e-05 -0.029786713814133437 0 -0.0001502299851191879 -0.029615314178303227 0 -8.182643745783043e-05 -0.029554732873760703 0 -6.3119618860023316e-05 -0.029786713814133437 0 2.0881734645695455e-05 -0.029599949126178235 0 -8.182643745783043e-05 -0.029554732873760703 0 0.00017802364358187036 -0.029474063523586874 0 -0.0001502299851191879 -0.029615314178303227 0 2.0881734645695455e-05 -0.029599949126178235 0 -8.182643745783043e-05 -0.029554732873760703 0 -8.182643745783043e-05 -0.029554732873760703 0 2.7575008387409354e-05 -0.02920616074491101 0 -0.00010394266160449446 -0.02974752288119175 0 0.00019114046508982179 -0.029718897662183032 0 0.00017802364358187036 -0.029474063523586874 0 0.00090235858643755479 -0.029233989635472767 0 0.00044637561652916647 -0.028465916424845965 0 2.7575008387409354e-05 -0.02920616074491101 0 0.00090235858643755479 -0.029233989635472767 0 0.00017802364358187036 -0.029474063523586874 0 2.7575008387409354e-05 -0.02920616074491101 0 0.00090235858643755479 -0.029233989635472767 0 -8.182643745783043e-05 -0.029554732873760703 0 0.00017802364358187036 -0.029474063523586874 0 2.7575008387409354e-05 -0.02920616074491101 0 0.00019114046508982179 -0.029718897662183032 0 2.0881734645695455e-05 -0.029599949126178235 0 0.00017802364358187036 -0.029474063523586874 0 0.00046145342079821644 -0.028632346107729606 0 0.00020689780465090851 -0.029404514451413469 0 0.00044637561652916647 -0.028465916424845965 0 2.7575008387409354e-05 -0.02920616074491101 0 -0.00024759166089222693 -0.030222403180017222 0 2.7575008387409354e-05 -0.02920616074491101 0 -0.00010394266160449446 -0.02974752288119175 0 -0.00024759166089222693 -0.030222403180017222 0 0.0010062148822424491 -0.024118388531274525 0 0.0030480821855169839 -0.024057878669824655 0 0.001449572064439643 -0.02671943020128454 0 0.0020607488229625547 -0.023160497175120597 0 0.0010062148822424491 -0.024118388531274525 0 0.0030480821855169839 -0.024057878669824655 0 0.00044637561652916647 -0.028465916424845965 0 0.00090235858643755479 -0.029233989635472767 0 0.001449572064439643 -0.02671943020128454 0 0.00044637561652916647 -0.028465916424845965 0 0.001449572064439643 -0.02671943020128454 0 0.00094764639382529596 -0.027723472165122331 0 0.0021534579089224209 -0.02652271635454629 0 0.0014209867755018842 -0.026865045264144655 0 0.0010062148822424491 -0.024118388531274525 0 0.001449572064439643 -0.02671943020128454 0 0.00041947969962480601 -0.026167612536387063 0 0.0010062148822424491 -0.024118388531274525 0 -0.00039234661355018019 -0.024059156459187808 0 0.00041947969962480601 -0.026167612536387063 0 0.0010062148822424491 -0.024118388531274525 0 -0.00039234661355018019 -0.024059156459187808 0 -0.00046685836716476881 -0.022774517779813364 0 -0.00039234661355018019 -0.024059156459187808 0 -0.00098036183585976889 -0.022999471483267239 0 -0.00046685836716476881 -0.022774517779813364 0 -0.00039234661355018019 -0.024059156459187808 0 -0.00070783439440767054 -0.025110104877264897 0 0.00041947969962480601 -0.026167612536387063 0 -0.00039234661355018019 -0.024059156459187808 0 -0.0011829856910301852 -0.023356049786084371 0 -0.00070783439440767054 -0.025110104877264897 0 -0.0011829856910301852 -0.023356049786084371 0 -0.0015546829375896129 -0.022340208905400817 0 -0.0016026198725600943 -0.023950901101176893 0 -0.00039234661355018019 -0.024059156459187808 0 -0.0011829856910301852 -0.023356049786084371 0 -0.00098036183585976889 -0.022999471483267239 0 -0.0011829856910301852 -0.023356049786084371 0 -0.0016026198725600943 -0.023950901101176893 0 -0.00070783439440767054 -0.025110104877264897 0 -0.0011829856910301852 -0.023356049786084371 0 -0.0015546829375896129 -0.022340208905400817 0 -0.0011905620369457263 -0.022266685220316856 0 -0.0015546829375896129 -0.022340208905400817 0 -0.0015663136374614935 -0.022271311510807263 0 -0.0016026198725600943 -0.023950901101176893 0 -0.001757797729394983 -0.021682831537016677 0 -0.0015546829375896129 -0.022340208905400817 0 -0.0015663136374614935 -0.022271311510807263 0 -0.0015546829375896129 -0.022340208905400817 0 -0.0015314966444470726 -0.021013559090518077 0 -0.0011905620369457263 -0.022266685220316856 0 -0.0019251989236806566 -0.020549176216913087 0 -0.0015546829375896129 -0.022340208905400817 0 -0.0015314966444470726 -0.021013559090518077 0 -0.0016969425144888022 -0.020369323967042167 0 -0.001198254684226404 -0.021991732426905518 0 -0.0017379889633783834 -0.022040449823694654 0 -0.0011905620369457263 -0.022266685220316856 0 -0.0012733881089938941 -0.022319675085398203 0 -0.0014792620722804046 -0.018705383160783941 0 -0.0015314966444470726 -0.021013559090518077 0 -0.0011905620369457263 -0.022266685220316856 0 -0.001257627023504996 -0.022368955275230043 0 -0.00069499360961713572 -0.022348541420730839 0 -0.00098036183585976889 -0.022999471483267239 0 -0.0012733881089938941 -0.022319675085398203 0 -0.00046685836716476881 -0.022774517779813364 0 -0.0011829856910301852 -0.023356049786084371 0 -0.00098036183585976889 -0.022999471483267239 0 -0.0011905620369457263 -0.022266685220316856 0 -0.00098036183585976889 -0.022999471483267239 0 -0.0011905620369457263 -0.022266685220316856 0 -0.0012733881089938941 -0.022319675085398203 0 -0.0012733881089938941 -0.022319675085398203 0 -0.0011475613600705613 -0.021905657419993747 0 -0.00077779430846270346 -0.021918849856274455 0 -0.0012733881089938941 -0.022319675085398203 0 -0.0011475613600705613 -0.021905657419993747 0 -0.0013879100721600301 -0.021922285881340639 0 -0.0011475613600705613 -0.021905657419993747 0 -0.0013879100721600301 -0.021922285881340639 0 -0.0012741627046613674 -0.021660145992707609 0 -0.0011475613600705613 -0.021905657419993747 0 -0.0012741627046613674 -0.021660145992707609 0 -0.00098734893899777893 -0.021642416979419189 0 -0.0017379889633783834 -0.022040449823694654 0 -0.0012733881089938941 -0.022319675085398203 0 -0.0013879100721600301 -0.021922285881340639 0 -0.0013879100721600301 -0.021922285881340639 0 -0.0015402488336122002 -0.021717244802518951 0 -0.0012741627046613674 -0.021660145992707609 0 -0.0018078229573115544 -0.021521209948531562 0 -0.0017379889633783834 -0.022040449823694654 0 -0.0015402488336122002 -0.021717244802518951 0 -0.0017379889633783834 -0.022040449823694654 0 -0.0013879100721600301 -0.021922285881340639 0 -0.0015402488336122002 -0.021717244802518951 0 -0.0018078229573115544 -0.021521209948531562 0 -0.0015402488336122002 -0.021717244802518951 0 -0.0015080901678037727 -0.021418528623254687 0 -0.0015402488336122002 -0.021717244802518951 0 -0.0015080901678037727 -0.021418528623254687 0 -0.0012741627046613674 -0.021660145992707609 0 -0.0012741627046613674 -0.021660145992707609 0 -0.001196687718044116 -0.021389678804964563 0 -0.00098734893899777893 -0.021642416979419189 0 -0.0015080901678037727 -0.021418528623254687 0 -0.0012741627046613674 -0.021660145992707609 0 -0.001196687718044116 -0.021389678804964563 0 -0.0010234161226846347 -0.02123456888181945 0 -0.001196687718044116 -0.021389678804964563 0 -0.00091287239332621926 -0.021426120161830084 0 -0.001196687718044116 -0.021389678804964563 0 -0.00091287239332621926 -0.021426120161830084 0 -0.00098734893899777893 -0.021642416979419189 0 -0.00091287239332621926 -0.021426120161830084 0 -0.00098734893899777893 -0.021642416979419189 0 -0.00069431022759448889 -0.021542023903229388 0 -0.0007963266749305782 -0.021228553717061168 0 -0.00091287239332621926 -0.021426120161830084 0 -0.00069431022759448889 -0.021542023903229388 0 -0.00058978701480108986 -0.021282459902319844 0 -0.0007963266749305782 -0.021228553717061168 0 -0.00069431022759448889 -0.021542023903229388 0 -0.00047292899682149087 -0.021444111209141702 0 -0.0004240299197175207 -0.021670445051620732 0 -0.00069431022759448889 -0.021542023903229388 0 -0.00058978701480108986 -0.021282459902319844 0 -0.00040943386278235089 -0.021267739203646479 0 -0.00047292899682149087 -0.021444111209141702 0 -0.00058978701480108986 -0.021282459902319844 0 -0.00047292899682149087 -0.021444111209141702 0 -0.00069431022759448889 -0.021542023903229388 0 -0.0004240299197175207 -0.021670445051620732 0 -0.00069431022759448889 -0.021542023903229388 0 -0.00077779430846270346 -0.021918849856274455 0 0.0011317131189201176 -0.022354499409114232 0 0.0010062148822424491 -0.024118388531274525 0 -0.00046685836716476881 -0.022774517779813364 0 0.00051935064279382947 -0.021894788666667792 0 -0.00069499360961713572 -0.022348541420730839 0 -0.00098734893899777893 -0.021642416979419189 0 -0.00069431022759448889 -0.021542023903229388 0 -0.00077779430846270346 -0.021918849856274455 0 -0.0011475613600705613 -0.021905657419993747 0 -0.00098734893899777893 -0.021642416979419189 0 -0.00077779430846270346 -0.021918849856274455 0 3.8624672354599073e-06 -0.034894024362872728 0 1.2354737363515886e-06 -0.03499670400250908 0 -5.9883228968612952e-07 -0.035000819997125482 0 3.8624672354599073e-06 -0.034894024362872728 0 -3.9685932586410306e-06 -0.034661833318037065 0 1.2354737363515886e-06 -0.03499670400250908 0 0.00019442815850029261 -0.032945119755143283 0 -0.0004726267030404739 -0.031907397173304659 0 -0.00080304698474034447 -0.029241228699949627 0 -0.00070483830389530232 -0.02951928340695124 0 -0.00048759867841214883 -0.029275792868737854 0 1.2354737363515886e-06 -0.03499670400250908 0 -8.1920384081842775e-05 -0.033905728057068207 0 -1.9000058137589172e-06 -0.031641752259976556 0 -3.9685932586410306e-06 -0.034661833318037065 0 1.2354737363515886e-06 -0.03499670400250908 0 -8.1920384081842775e-05 -0.033905728057068207 0 -0.0004726267030404739 -0.031907397173304659 0 -0.00027866446456005809 -0.032039779558617996 0 -0.00027866446456005809 -0.032039779558617996 0 -8.469809222523703e-08 -0.031636399044798875 0 -0.00067933680655899689 -0.030016254249038192 0 -1.5090885211078551e-06 -0.031632363836431227 0 9.9718906186606029e-05 -0.029918516543302229 0 -1.5090885211078551e-06 -0.031632363836431227 0 9.9718906186606029e-05 -0.029918516543302229 0 7.8428290912018645e-07 -0.02999551310226355 0 -0.00067933680655899689 -0.030016254249038192 0 9.9718906186606029e-05 -0.029918516543302229 0 -0.00029042693129415896 -0.029465241841013678 0 9.9718906186606029e-05 -0.029918516543302229 0 -0.00029042693129415896 -0.029465241841013678 0 0.00015268819819120542 -0.029365019258808193 0 -0.00070483830389530232 -0.02951928340695124 0 -0.00029042693129415896 -0.029465241841013678 0 -0.00048759867841214883 -0.029275792868737854 0 -0.00070483830389530232 -0.02951928340695124 0 -0.00067933680655899689 -0.030016254249038192 0 -0.00029042693129415896 -0.029465241841013678 0 -0.00029042693129415896 -0.029465241841013678 0 -0.00048759867841214883 -0.029275792868737854 0 -0.00018544131803987894 -0.029172714813094292 0 -0.00029042693129415896 -0.029465241841013678 0 0.00015268819819120542 -0.029365019258808193 0 -0.00018544131803987894 -0.029172714813094292 0 0.00010437452025373649 -0.029180669509260012 0 0.00015268819819120542 -0.029365019258808193 0 -0.00018544131803987894 -0.029172714813094292 0 0.00010437452025373649 -0.029180669509260012 0 0.00016020374926334333 -0.029194103406704832 0 0.00012100826968328551 -0.029236175043693489 0 0.00010437452025373649 -0.029180669509260012 0 0.00016020374926334333 -0.029194103406704832 0 0.00015268819819120542 -0.029365019258808193 0 0.00016020374926334333 -0.029194103406704832 0 0.00015268819819120542 -0.029365019258808193 0 0.0001902493950938049 -0.029013473547787886 0 9.9718906186606029e-05 -0.029918516543302229 0 0.00015268819819120542 -0.029365019258808193 0 0.00019604387188649081 -0.029397535627987088 0 9.9718906186606029e-05 -0.029918516543302229 0 0.00019604387188649081 -0.029397535627987088 0 7.8428290912018645e-07 -0.02999551310226355 0 0.00019604387188649081 -0.029397535627987088 0 0.0001902493950938049 -0.029013473547787886 0 8.0747116175841657e-07 -0.028353054833068981 0 0.00019604387188649081 -0.029397535627987088 0 7.8428290912018645e-07 -0.02999551310226355 0 8.0747116175841657e-07 -0.028353054833068981 0 0.00015268819819120542 -0.029365019258808193 0 0.00019604387188649081 -0.029397535627987088 0 0.0001902493950938049 -0.029013473547787886 0 0.0001902493950938049 -0.029013473547787886 0 1.1476222242224351e-05 -0.028781647458500054 0 2.0660791471002109e-05 -0.029044032634949219 0 0.0001902493950938049 -0.029013473547787886 0 1.1476222242224351e-05 -0.028781647458500054 0 8.3258717181426559e-05 -0.028270618826363916 0 8.0747116175841657e-07 -0.028353054833068981 0 8.3258717181426559e-05 -0.028270618826363916 0 -1.5382597189478493e-06 -0.026715244217032683 0 0.0001902493950938049 -0.029013473547787886 0 8.0747116175841657e-07 -0.028353054833068981 0 8.3258717181426559e-05 -0.028270618826363916 0 8.3258717181426559e-05 -0.028270618826363916 0 -1.5382597189478493e-06 -0.026715244217032683 0 -0.00027925273956658995 -0.028121785151033085 0 -0.00092318225914635242 -0.027543901327507041 0 -1.5382597189478493e-06 -0.026715244217032683 0 -0.00027925273956658995 -0.028121785151033085 0 -0.0009616719019625823 -0.027984942907984724 0 -0.00027925273956658995 -0.028121785151033085 0 -0.00032266278126181754 -0.028732655083355499 0 1.1476222242224351e-05 -0.028781647458500054 0 8.3258717181426559e-05 -0.028270618826363916 0 -0.00027925273956658995 -0.028121785151033085 0 1.1476222242224351e-05 -0.028781647458500054 0 -0.00027925273956658995 -0.028121785151033085 0 -0.00032266278126181754 -0.028732655083355499 0 1.1476222242224351e-05 -0.028781647458500054 0 -0.00032266278126181754 -0.028732655083355499 0 2.0660791471002109e-05 -0.029044032634949219 0 -0.00032266278126181754 -0.028732655083355499 0 -0.00041103591557739187 -0.029024047189174982 0 2.0660791471002109e-05 -0.029044032634949219 0 -0.00041103591557739187 -0.029024047189174982 0 2.0660791471002109e-05 -0.029044032634949219 0 0.00012100826968328551 -0.029236175043693489 0 0.00050982809060577477 -0.021198246354528279 0 0.00062683630313365628 -0.020921948577945788 0 0.00087424972855404219 -0.022342080207174094 0 0.00016020374926334333 -0.029194103406704832 0 0.0001902493950938049 -0.029013473547787886 0 2.0660791471002109e-05 -0.029044032634949219 0 0.00016020374926334333 -0.029194103406704832 0 2.0660791471002109e-05 -0.029044032634949219 0 0.00012100826968328551 -0.029236175043693489 0 0.00062683630313365628 -0.020921948577945788 0 0.0023985806007269968 -0.022786703578156691 0 0.00087424972855404219 -0.022342080207174094 0 0.00019581452756089785 -0.024755738942002611 0 0.0012289373922129262 -0.026118312508631808 0 0.0023985806007269968 -0.022786703578156691 0 0.00087424972855404219 -0.022342080207174094 0 0.0011805304362022991 -0.023638938375660355 0 0.00024123554092198219 -0.02387613474280478 0 0.0011805304362022991 -0.023638938375660355 0 0.00093062652533021676 -0.024975667780874535 0 0.00027774059810560704 -0.023038073139999265 0 0.00087424972855404219 -0.022342080207174094 0 0.0011805304362022991 -0.023638938375660355 0 0.0012289373922129262 -0.026118312508631808 0 0.0022041608068199704 -0.026345653510239701 0 0.0023985806007269968 -0.022786703578156691 0 0.0023433586623384556 -0.024390887309024493 0 0.0040355849061294007 -0.024660745258235205 0 0.0023985806007269968 -0.022786703578156691 0 0.0011805304362022991 -0.023638938375660355 0 0.0023433586623384556 -0.024390887309024493 0 0.00015505087833460912 -0.027768186630470731 0 0.0019086954805552837 -0.028037910016497723 0 0.0023433586623384556 -0.024390887309024493 0 0.00093062652533021676 -0.024975667780874535 0 0.0031252625039103195 -0.025861294223137436 0 0.0023433586623384556 -0.024390887309024493 0 0.0031252625039103195 -0.025861294223137436 0 0.0040355849061294007 -0.024660745258235205 0 -0.00056562669060426763 -0.030287666063642291 0 -0.00032170086630716409 -0.030108453860151273 0 0.00012522238049078027 -0.030761616394317341 0 0.0011805304362022991 -0.023638938375660355 0 0.0023433586623384556 -0.024390887309024493 0 0.00093062652533021676 -0.024975667780874535 0 -6.3119618860023316e-05 -0.029786713814133437 0 3.496654726277993e-05 -0.030173807515296067 0 0.00020573419832747297 -0.029941903662438464 0 -0.00040034867808479764 -0.030394490346130357 0 0.00013173334997065137 -0.030325460534972096 0 -0.0001502299851191879 -0.029615314178303227 0 -6.3119618860023316e-05 -0.029786713814133437 0 0.00020573419832747297 -0.029941903662438464 0 -0.00010394266160449446 -0.02974752288119175 0 -6.3119618860023316e-05 -0.029786713814133437 0 3.496654726277993e-05 -0.030173807515296067 0 3.496654726277993e-05 -0.030173807515296067 0 0.0002257183478537174 -0.030797146500827176 0 -0.00024759166089222693 -0.030222403180017222 0 -0.00010394266160449446 -0.02974752288119175 0 3.496654726277993e-05 -0.030173807515296067 0 -0.00024759166089222693 -0.030222403180017222 0 0.00035149670242227613 -0.030650549483222666 0 0.00020573419832747297 -0.029941903662438464 0 0.0006994165013705652 -0.031096501560070315 0 0.00013173334997065137 -0.030325460534972096 0 0.00066323633022473589 -0.030991419272080815 0 0.00035149670242227613 -0.030650549483222666 0 0.00057043175058249225 -0.031205566051801022 0 0.0002257183478537174 -0.030797146500827176 0 3.496654726277993e-05 -0.030173807515296067 0 0.00035149670242227613 -0.030650549483222666 0 0.0002257183478537174 -0.030797146500827176 0 3.496654726277993e-05 -0.030173807515296067 0 0.00035149670242227613 -0.030650549483222666 0 0.00020573419832747297 -0.029941903662438464 0 0.00012522238049078027 -0.030761616394317341 0 0.000454571268956077 -0.030588399808890714 0 0.0006994165013705652 -0.031096501560070315 0 -0.00032170086630716409 -0.030108453860151273 0 0.00012522238049078027 -0.030761616394317341 0 0.000454571268956077 -0.030588399808890714 0 0.000454571268956077 -0.030588399808890714 0 0.0006994165013705652 -0.031096501560070315 0 0.00086122424351110533 -0.031211359284914524 0 0.000454571268956077 -0.030588399808890714 0 0.00086122424351110533 -0.031211359284914524 0 0.0010503606683504099 -0.031061442261543025 0 0.0019086954805552837 -0.028037910016497723 0 0.0024279436530878144 -0.03011808043060446 0 0.0031252625039103195 -0.025861294223137436 0 0.0043278127976550977 -0.025874636249169324 0 0.0051872239367761145 -0.026734699407099657 0 0.00035149670242227613 -0.030650549483222666 0 0.0006994165013705652 -0.031096501560070315 0 0.00057043175058249225 -0.031205566051801022 0 0.0006994165013705652 -0.031096501560070315 0 0.00081731853788041548 -0.031519865456590176 0 0.00086122424351110533 -0.031211359284914524 0 0.0006994165013705652 -0.031096501560070315 0 0.00081731853788041548 -0.031519865456590176 0 0.00057043175058249225 -0.031205566051801022 0 0.00092603967625803257 -0.03159152597410015 0 0.00081731853788041548 -0.031519865456590176 0 0.00096541362111637148 -0.031965571272337866 0 0.00092603967625803257 -0.03159152597410015 0 0.00081731853788041548 -0.031519865456590176 0 0.00086122424351110533 -0.031211359284914524 0 0.00086122424351110533 -0.031211359284914524 0 0.00090378907414370496 -0.031395045824238084 0 0.0009131410176817299 -0.031397864472693569 0 0.00089420792149389784 -0.031290401021568374 0 0.0024279436530878144 -0.03011808043060446 0 0.00092603967625803257 -0.03159152597410015 0 0.00090378907414370496 -0.031395045824238084 0 0.00094271863818496792 -0.031425764556950939 0 0.00092603967625803257 -0.03159152597410015 0 0.00086122424351110533 -0.031211359284914524 0 0.00090378907414370496 -0.031395045824238084 0 0.001753733241479722 -0.030266285500471207 0 0.0024279436530878144 -0.03011808043060446 0 0.0043278127976550977 -0.025874636249169324 0 0.0051872239367761145 -0.026734699407099657 0 0.0055981464539738447 -0.026406338081217524 0 0.00094271863818496792 -0.031425764556950939 0 0.00078409725375828108 -0.031356712426960885 0 0.00098285749150892293 -0.031205270636090885 0 0.00090378907414370496 -0.031395045824238084 0 0.00094271863818496792 -0.031425764556950939 0 0.0009131410176817299 -0.031397864472693569 0 0.0024279436530878144 -0.03011808043060446 0 0.001393648949172615 -0.030515453620814641 0 -5.3820426540421882e-05 -0.028780665394489036 0 -5.1442143360821762e-05 -0.029015540749378815 0 0.00013795845502128146 -0.029028346667470801 0 0.001393648949172615 -0.030515453620814641 0 0.0022041608068199704 -0.026345653510239701 0 0.0043278127976550977 -0.025874636249169324 0 0.0055981464539738447 -0.026406338081217524 0 0.0040355849061294007 -0.024660745258235205 0 0.0031252625039103195 -0.025861294223137436 0 0.0043278127976550977 -0.025874636249169324 0 0.0040355849061294007 -0.024660745258235205 0 0.00010437452025373649 -0.029180669509260012 0 0.00012100826968328551 -0.029236175043693489 0 0.00013795845502128146 -0.029028346667470801 0 0.00010437452025373649 -0.029180669509260012 0 -5.1442143360821762e-05 -0.029015540749378815 0 -0.00018544131803987894 -0.029172714813094292 0 0.00010437452025373649 -0.029180669509260012 0 -5.1442143360821762e-05 -0.029015540749378815 0 0.00013795845502128146 -0.029028346667470801 0 -5.1442143360821762e-05 -0.029015540749378815 0 -0.00018544131803987894 -0.029172714813094292 0 -0.00026831556995058958 -0.028905457976768873 0 -0.00048759867841214883 -0.029275792868737854 0 -0.00018544131803987894 -0.029172714813094292 0 -0.0005322628096987612 -0.029046047533499528 0 -0.00018544131803987894 -0.029172714813094292 0 -0.00026831556995058958 -0.028905457976768873 0 -0.0005322628096987612 -0.029046047533499528 0 0.0001455873725153143 -0.032194443621751806 0 9.8640887704938082e-06 -0.032073184617671037 0 0.00094766122495074958 -0.035084415004026426 0 0.00064524095054395176 -0.034947962762464278 0 0.0005206629412893714 -0.035255353941486496 0 -5.3820426540421882e-05 -0.028780665394489036 0 -5.1442143360821762e-05 -0.029015540749378815 0 -0.00026831556995058958 -0.028905457976768873 0 0.001393648949172615 -0.030515453620814641 0 0.0001455873725153143 -0.032194443621751806 0 0.0013648934279653158 -0.034789790623613662 0 0.0011115377267113407 -0.034414730505735104 0 0.0010111550678541788 -0.034778122351869493 0 0.0013648934279653158 -0.034789790623613662 0 0.00094766122495074958 -0.035084415004026426 0 0.0010111550678541788 -0.034778122351869493 0 0.00094271863818496792 -0.031425764556950939 0 0.0010383007536416333 -0.03192003594958559 0 0.0012582995997527336 -0.032051989717189186 0 0.00094271863818496792 -0.031425764556950939 0 0.00098285749150892293 -0.031205270636090885 0 0.0012582995997527336 -0.032051989717189186 0 0.00092603967625803257 -0.03159152597410015 0 0.00094271863818496792 -0.031425764556950939 0 0.0010383007536416333 -0.03192003594958559 0 0.001393648949172615 -0.030515453620814641 0 0.0012242126117148827 -0.033602718672634709 0 0.00092603967625803257 -0.03159152597410015 0 0.0010383007536416333 -0.03192003594958559 0 0.00096541362111637148 -0.031965571272337866 0 0.0011115377267113407 -0.034414730505735104 0 0.0010111550678541788 -0.034778122351869493 0 0.00047471698188004626 -0.03470804547918499 0 0.0011115377267113407 -0.034414730505735104 0 0.00047471698188004626 -0.03470804547918499 0 0.00080173351788668048 -0.033605458654504664 0 0.0010111550678541788 -0.034778122351869493 0 0.00064524095054395176 -0.034947962762464278 0 0.00047471698188004626 -0.03470804547918499 0 0.00094766122495074958 -0.035084415004026426 0 0.0010111550678541788 -0.034778122351869493 0 0.00064524095054395176 -0.034947962762464278 0 0.00064524095054395176 -0.034947962762464278 0 0.00047471698188004626 -0.03470804547918499 0 0.00029599081845741582 -0.034997119521755826 0 0.00047471698188004626 -0.03470804547918499 0 1.0384057965971977e-07 -0.034999879515668401 0 0.00026930554346827576 -0.034410485974555011 0 0.00047471698188004626 -0.03470804547918499 0 1.0384057965971977e-07 -0.034999879515668401 0 0.00029599081845741582 -0.034997119521755826 0 1.0384057965971977e-07 -0.034999879515668401 0 2.3897021129895604e-07 -0.035000607476878338 0 0.00029599081845741582 -0.034997119521755826 0 2.3897021129895604e-07 -0.035000607476878338 0 0.00029599081845741582 -0.034997119521755826 0 0.0005206629412893714 -0.035255353941486496 0 0.00064524095054395176 -0.034947962762464278 0 0.00029599081845741582 -0.034997119521755826 0 0.0005206629412893714 -0.035255353941486496 0 -0.00080304698474034447 -0.029241228699949627 0 -0.00048759867841214883 -0.029275792868737854 0 -0.0005322628096987612 -0.029046047533499528 0 0.00019442815850029261 -0.032945119755143283 0 9.8640887704938082e-06 -0.032073184617671037 0 0.00021463805819713544 -0.035424265154053114 0 2.3897021129895604e-07 -0.035000607476878338 0 0.0005206629412893714 -0.035255353941486496 0 0.00019442815850029261 -0.032945119755143283 0 9.4522857819858368e-07 -0.035002430744897818 0 1.7900749733964232e-08 -0.034999458370222294 0 0.00018769030391636328 -0.034479776041447342 0 1.4707154308781502e-07 -0.034999297254090247 0 0.00024819189529678808 -0.034356197697754803 0 1.7900749733964232e-08 -0.034999458370222294 0 0.00018769030391636328 -0.034479776041447342 0 0.00024819189529678808 -0.034356197697754803 0 0.00060568532239013121 -0.033662493611233135 0 0.00018769030391636328 -0.034479776041447342 0 0.00024819189529678808 -0.034356197697754803 0 0.00014620565833719606 -0.034666986405552394 0 0.00035580453276664177 -0.034383497096608089 0 0.00024819189529678808 -0.034356197697754803 0 0.00014620565833719606 -0.034666986405552394 0 1.7900749733964232e-08 -0.034999458370222294 0 0.00014620565833719606 -0.034666986405552394 0 1.7900749733964232e-08 -0.034999458370222294 0 -1.2719541469701996e-08 -0.035000102678848261 0 2.3459036182056393e-07 -0.034999627435364104 0 0.00050819142149074201 -0.034104499153037697 0 0.00014620565833719606 -0.034666986405552394 0 -1.2719541469701996e-08 -0.035000102678848261 0 0.00018482935373554684 -0.034786119266414978 0 -5.4349968731517607e-09 -0.034997469128517651 0 0.00026930554346827576 -0.034410485974555011 0 0.00067535690311863121 -0.033431055866130231 0 1.0384057965971977e-07 -0.034999879515668401 0 -5.4349968731517607e-09 -0.034997469128517651 0 0.00026930554346827576 -0.034410485974555011 0 0.00047471698188004626 -0.03470804547918499 0 0.00026930554346827576 -0.034410485974555011 0 0.00080173351788668048 -0.033605458654504664 0 0.00026930554346827576 -0.034410485974555011 0 0.00080173351788668048 -0.033605458654504664 0 0.00067535690311863121 -0.033431055866130231 0 0.00014620565833719606 -0.034666986405552394 0 0.00018482935373554684 -0.034786119266414978 0 0.00035580453276664177 -0.034383497096608089 0 0.00067535690311863121 -0.033431055866130231 0 0.0010890682932098107 -0.032745145264307336 0 0.0011052611228345288 -0.032514919825579164 0 0.00018482935373554684 -0.034786119266414978 0 0.00070975955288276682 -0.034471583439115307 0 0.00035580453276664177 -0.034383497096608089 0 0.00050819142149074201 -0.034104499153037697 0 0.00086850098534659113 -0.033626794413767605 0 0.00080173351788668048 -0.033605458654504664 0 0.00067535690311863121 -0.033431055866130231 0 0.0010890682932098107 -0.032745145264307336 0 0.0012582995997527336 -0.032051989717189186 0 0.00080173351788668048 -0.033605458654504664 0 0.0010890682932098107 -0.032745145264307336 0 0.0012242126117148827 -0.033602718672634709 0 0.0007375893019626055 -0.033320168974129469 0 0.0010383007536416333 -0.03192003594958559 0 0.0010890682932098107 -0.032745145264307336 0 0.00096541362111637148 -0.031965571272337866 0 0.0010890682932098107 -0.032745145264307336 0 0.00099821282636677259 -0.03217745928700938 0 0.00096541362111637148 -0.031965571272337866 0 0.0010383007536416333 -0.03192003594958559 0 0.0012582995997527336 -0.032051989717189186 0 0.0010890682932098107 -0.032745145264307336 0 0.0010890682932098107 -0.032745145264307336 0 0.0011052611228345288 -0.032514919825579164 0 0.00099821282636677259 -0.03217745928700938 0 0.00086850098534659113 -0.033626794413767605 0 0.0016120986207796121 -0.032317522756611178 0 0.00070975955288276682 -0.034471583439115307 0 0.00084084317365719233 -0.033583881294673282 0 0.0019825095550991328 -0.034138512183089956 0 0.00084084317365719233 -0.033583881294673282 0 0.00035580453276664177 -0.034383497096608089 0 0.00051053551695051961 -0.033975321032905542 0 0.00070975955288276682 -0.034471583439115307 0 0.00084084317365719233 -0.033583881294673282 0 0.00035580453276664177 -0.034383497096608089 0 0.00024819189529678808 -0.034356197697754803 0 0.00035580453276664177 -0.034383497096608089 0 0.00051053551695051961 -0.033975321032905542 0 0.00084084317365719233 -0.033583881294673282 0 0.00051053551695051961 -0.033975321032905542 0 0.00060568532239013121 -0.033662493611233135 0 0.00024819189529678808 -0.034356197697754803 0 0.00051053551695051961 -0.033975321032905542 0 0.00060568532239013121 -0.033662493611233135 0 0.00060568532239013121 -0.033662493611233135 0 0.0010162061961002309 -0.032789392231800933 0 0.00090254042686969428 -0.032858763904326682 0 0.00084084317365719233 -0.033583881294673282 0 0.00060568532239013121 -0.033662493611233135 0 0.0010162061961002309 -0.032789392231800933 0 0.0010162061961002309 -0.032789392231800933 0 0.0011411737192910333 -0.032081024710313377 0 0.00090254042686969428 -0.032858763904326682 0 0.0011411737192910333 -0.032081024710313377 0 0.0011079059264411213 -0.032425983697990518 0 0.0013173832563114177 -0.031076632226386947 0 0.0016120986207796121 -0.032317522756611178 0 0.001560661517929048 -0.031024205771615659 0 0.00084084317365719233 -0.033583881294673282 0 0.0010162061961002309 -0.032789392231800933 0 0.0011079059264411213 -0.032425983697990518 0 0.00091273195264776597 -0.033660373348565274 0 0.0016120986207796121 -0.032317522756611178 0 0.0010162061961002309 -0.032789392231800933 0 0.0011411737192910333 -0.032081024710313377 0 0.0011079059264411213 -0.032425983697990518 0 0.00087019167735914726 -0.032297857510803142 0 0.00099821282636677259 -0.03217745928700938 0 0.00076503407348871213 -0.031780677730052588 0 0.0011052611228345288 -0.032514919825579164 0 0.00087019167735914726 -0.032297857510803142 0 0.00099821282636677259 -0.03217745928700938 0 0.00099821282636677259 -0.03217745928700938 0 0.00089305867307416071 -0.031861841494487703 0 0.00076503407348871213 -0.031780677730052588 0 0.00099821282636677259 -0.03217745928700938 0 0.00089305867307416071 -0.031861841494487703 0 0.00096541362111637148 -0.031965571272337866 0 0.00081731853788041548 -0.031519865456590176 0 0.00089305867307416071 -0.031861841494487703 0 0.00076503407348871213 -0.031780677730052588 0 0.00081731853788041548 -0.031519865456590176 0 0.00089305867307416071 -0.031861841494487703 0 0.00096541362111637148 -0.031965571272337866 0 0.00057043175058249225 -0.031205566051801022 0 0.00076503407348871213 -0.031780677730052588 0 0.00031248433472798678 -0.031587494042574896 0 0.00081731853788041548 -0.031519865456590176 0 0.00057043175058249225 -0.031205566051801022 0 0.00076503407348871213 -0.031780677730052588 0 0.0016120986207796121 -0.032317522756611178 0 0.00089631065817321774 -0.030407587001183789 0 0.0032465173411871957 -0.030662281337824605 0 0.0012947661565271707 -0.029507908148749137 0 0.0013173832563114177 -0.031076632226386947 0 0.00087019167735914726 -0.032297857510803142 0 0.00076503407348871213 -0.031780677730052588 0 0.00031248433472798678 -0.031587494042574896 0 0.0012947661565271707 -0.029507908148749137 0 0.00084721819273748413 -0.029854134116922941 0 0.0013173832563114177 -0.031076632226386947 0 0.00057043175058249225 -0.031205566051801022 0 0.00031248433472798678 -0.031587494042574896 0 0.0002257183478537174 -0.030797146500827176 0 0.00089631065817321774 -0.030407587001183789 0 0.00020689780465090851 -0.029404514451413469 0 0.00031248433472798678 -0.031587494042574896 0 0.0002257183478537174 -0.030797146500827176 0 -0.00024759166089222693 -0.030222403180017222 0 0.00084721819273748413 -0.029854134116922941 0 0.00053390964099661131 -0.028549649124768157 0 0.00051321872676482114 -0.029641221109701476 0 0.0012947661565271707 -0.029507908148749137 0 0.00084721819273748413 -0.029854134116922941 0 0.00053390964099661131 -0.028549649124768157 0 0.00084721819273748413 -0.029854134116922941 0 0.00080390136375459219 -0.030601132869352093 0 0.00051321872676482114 -0.029641221109701476 0 0.00084721819273748413 -0.029854134116922941 0 0.00080390136375459219 -0.030601132869352093 0 0.0013173832563114177 -0.031076632226386947 0 0.00080390136375459219 -0.030601132869352093 0 0.0013173832563114177 -0.031076632226386947 0 0.0010382808259203214 -0.031411468830480703 0 0.0011411737192910333 -0.032081024710313377 0 0.0010382808259203214 -0.031411468830480703 0 0.00097753627411002004 -0.031924986421805919 0 0.0010382808259203214 -0.031411468830480703 0 0.00074023338961505948 -0.031131193926604982 0 0.00097753627411002004 -0.031924986421805919 0 0.0011411737192910333 -0.032081024710313377 0 0.0013173832563114177 -0.031076632226386947 0 0.0010382808259203214 -0.031411468830480703 0 0.00080390136375459219 -0.030601132869352093 0 0.00074023338961505948 -0.031131193926604982 0 0.00030439510810625973 -0.030118218464007647 0 0.00080390136375459219 -0.030601132869352093 0 0.0010382808259203214 -0.031411468830480703 0 0.00074023338961505948 -0.031131193926604982 0 0.00074023338961505948 -0.031131193926604982 0 0.00079484961830907899 -0.03164776479096474 0 0.00097753627411002004 -0.031924986421805919 0 0.00074023338961505948 -0.031131193926604982 0 0.00079484961830907899 -0.03164776479096474 0 0.00058802424311991497 -0.031294045747783938 0 0.00079484961830907899 -0.03164776479096474 0 0.00097753627411002004 -0.031924986421805919 0 0.00088360441135568646 -0.031995862430836915 0 0.00088360441135568646 -0.031995862430836915 0 0.00075911330851021288 -0.031858803100834679 0 0.0009556405994953144 -0.032523255274478469 0 -0.00050350498159151109 -0.031885019861175035 0 -7.2402109754964356e-05 -0.032707161213908612 0 0.00029225113639596407 -0.032790667852297652 0 0.00097753627411002004 -0.031924986421805919 0 0.00088360441135568646 -0.031995862430836915 0 0.0009556405994953144 -0.032523255274478469 0 0.00013018357666931782 -0.031866552599743116 0 0.00060854708627791133 -0.032673114960204606 0 -0.00050350498159151109 -0.031885019861175035 0 -0.00052457196996213192 -0.031958264118934217 0 -0.00035255704989893067 -0.032352931312753345 0 0.00079484961830907899 -0.03164776479096474 0 0.00088360441135568646 -0.031995862430836915 0 0.00075911330851021288 -0.031858803100834679 0 0.00079484961830907899 -0.03164776479096474 0 0.00058802424311991497 -0.031294045747783938 0 0.00075911330851021288 -0.031858803100834679 0 -0.00050350498159151109 -0.031885019861175035 0 -0.00052457196996213192 -0.031958264118934217 0 -0.00042385870873220117 -0.03140805210179639 0 -0.00052457196996213192 -0.031958264118934217 0 -0.00053448984839719752 -0.032423095637410866 0 -0.00078843071819359629 -0.032580266872306647 0 -0.00052457196996213192 -0.031958264118934217 0 -0.00078843071819359629 -0.032580266872306647 0 -0.0011247955861639397 -0.032713328758971073 0 -0.00035255704989893067 -0.032352931312753345 0 -0.00050190276210132425 -0.0327595195074055 0 -7.2402109754964356e-05 -0.032707161213908612 0 -0.00035255704989893067 -0.032352931312753345 0 -0.00053448984839719752 -0.032423095637410866 0 -0.00050190276210132425 -0.0327595195074055 0 -0.00050350498159151109 -0.031885019861175035 0 -0.00035255704989893067 -0.032352931312753345 0 -7.2402109754964356e-05 -0.032707161213908612 0 -0.00052457196996213192 -0.031958264118934217 0 -0.00035255704989893067 -0.032352931312753345 0 -0.00053448984839719752 -0.032423095637410866 0 -0.00050190276210132425 -0.0327595195074055 0 -0.00078843071819359629 -0.032580266872306647 0 -0.00083236336909843294 -0.03293432264194112 0 -0.00053448984839719752 -0.032423095637410866 0 -0.00050190276210132425 -0.0327595195074055 0 -0.00078843071819359629 -0.032580266872306647 0 -0.00037182905621636208 -0.033286849412435149 0 -4.0147740579381173e-05 -0.033135303540550845 0 -0.00050190276210132425 -0.0327595195074055 0 -0.00083236336909843294 -0.03293432264194112 0 -0.00075757427968397456 -0.033283867524621105 0 -0.00050190276210132425 -0.0327595195074055 0 -0.00075757427968397456 -0.033283867524621105 0 -2.0241420160098419e-05 -0.033127061597619044 0 -2.5354104115177208e-05 -0.033256564507155535 0 -2.0241420160098419e-05 -0.033127061597619044 0 4.7949772446822371e-05 -0.033317224808967628 0 0.00014823352243518504 -0.033322390500617437 0 -2.0241420160098419e-05 -0.033127061597619044 0 4.7949772446822371e-05 -0.033317224808967628 0 0.00014823352243518504 -0.033322390500617437 0 -2.0241420160098419e-05 -0.033127061597619044 0 0.00022312106334842493 -0.033206083369149236 0 -2.0241420160098419e-05 -0.033127061597619044 0 -7.2402109754964356e-05 -0.032707161213908612 0 0.00022312106334842493 -0.033206083369149236 0 -7.2402109754964356e-05 -0.032707161213908612 0 0.00022312106334842493 -0.033206083369149236 0 0.00029225113639596407 -0.032790667852297652 0 -0.00050190276210132425 -0.0327595195074055 0 -2.0241420160098419e-05 -0.033127061597619044 0 -7.2402109754964356e-05 -0.032707161213908612 0 0.00022312106334842493 -0.033206083369149236 0 0.00037664190346753238 -0.033479664902160963 0 0.00029225113639596407 -0.032790667852297652 0 0.00022312106334842493 -0.033206083369149236 0 0.00037664190346753238 -0.033479664902160963 0 0.00026383723264962109 -0.033451988771922618 0 0.00014823352243518504 -0.033322390500617437 0 0.00022312106334842493 -0.033206083369149236 0 0.00026383723264962109 -0.033451988771922618 0 0.00037664190346753238 -0.033479664902160963 0 0.0003132650652092408 -0.033596968276413078 0 0.00026383723264962109 -0.033451988771922618 0 0.00037664190346753238 -0.033479664902160963 0 0.00029225113639596407 -0.032790667852297652 0 0.00055067146607237468 -0.033383511627556421 0 0.0009556405994953144 -0.032523255274478469 0 0.00090254042686969428 -0.032858763904326682 0 0.00066043573361663046 -0.033333428683900226 0 0.0009556405994953144 -0.032523255274478469 0 0.00066043573361663046 -0.033333428683900226 0 0.00055067146607237468 -0.033383511627556421 0 0.00060854708627791133 -0.032673114960204606 0 0.00059438762156457969 -0.033265419384190809 0 0.0011411737192910333 -0.032081024710313377 0 0.001004525914287148 -0.032365281266446784 0 0.00090254042686969428 -0.032858763904326682 0 0.0009556405994953144 -0.032523255274478469 0 0.001004525914287148 -0.032365281266446784 0 0.00090254042686969428 -0.032858763904326682 0 0.00097753627411002004 -0.031924986421805919 0 0.0009556405994953144 -0.032523255274478469 0 0.001004525914287148 -0.032365281266446784 0 0.0011411737192910333 -0.032081024710313377 0 0.00097753627411002004 -0.031924986421805919 0 0.001004525914287148 -0.032365281266446784 0 0.00060568532239013121 -0.033662493611233135 0 0.00090254042686969428 -0.032858763904326682 0 0.00066043573361663046 -0.033333428683900226 0 0.00060568532239013121 -0.033662493611233135 0 0.00035105867819709246 -0.034119146754395403 0 0.00018769030391636328 -0.034479776041447342 0 0.00060568532239013121 -0.033662493611233135 0 0.00066043573361663046 -0.033333428683900226 0 0.00035105867819709246 -0.034119146754395403 0 0.00066043573361663046 -0.033333428683900226 0 0.00038628081504926692 -0.033940368690173223 0 0.00035105867819709246 -0.034119146754395403 0 0.00066043573361663046 -0.033333428683900226 0 0.00055067146607237468 -0.033383511627556421 0 0.00038628081504926692 -0.033940368690173223 0 0.00055067146607237468 -0.033383511627556421 0 0.00026423448370979484 -0.03386540044986968 0 0.00038628081504926692 -0.033940368690173223 0 0.00037664190346753238 -0.033479664902160963 0 0.00055067146607237468 -0.033383511627556421 0 0.00026423448370979484 -0.03386540044986968 0 0.00037664190346753238 -0.033479664902160963 0 0.00026423448370979484 -0.03386540044986968 0 0.0003132650652092408 -0.033596968276413078 0 0.00026423448370979484 -0.03386540044986968 0 0.00031722693200876724 -0.034184047147375732 0 0.00038628081504926692 -0.033940368690173223 0 0.00031722693200876724 -0.034184047147375732 0 0.00038628081504926692 -0.033940368690173223 0 0.00028672146492295792 -0.034427828077975488 0 0.00031722693200876724 -0.034184047147375732 0 0.00028672146492295792 -0.034427828077975488 0 0.00030110117402480495 -0.034437209680155616 0 0.00038628081504926692 -0.033940368690173223 0 0.00022658746090018539 -0.034495167363692146 0 0.00028672146492295792 -0.034427828077975488 0 0.00038628081504926692 -0.033940368690173223 0 0.00022658746090018539 -0.034495167363692146 0 0.00035105867819709246 -0.034119146754395403 0 0.00022658746090018539 -0.034495167363692146 0 0.00028672146492295792 -0.034427828077975488 0 2.2519455729096175e-07 -0.034999600207479144 0 0.00028672146492295792 -0.034427828077975488 0 2.2519455729096175e-07 -0.034999600207479144 0 0.00020932706043725612 -0.034680569506667827 0 0.00022658746090018539 -0.034495167363692146 0 2.2519455729096175e-07 -0.034999600207479144 0 1.2725866362043801e-07 -0.034999285892677492 0 1.2725866362043801e-07 -0.034999285892677492 0 0.00035105867819709246 -0.034119146754395403 0 0.00018769030391636328 -0.034479776041447342 0 0.00022658746090018539 -0.034495167363692146 0 1.2725866362043801e-07 -0.034999285892677492 0 0.00035105867819709246 -0.034119146754395403 0 1.2725866362043801e-07 -0.034999285892677492 0 0.00018769030391636328 -0.034479776041447342 0 1.4707154308781502e-07 -0.034999297254090247 0 -0.0012892169641474116 -0.028698976713954605 0 -0.001685703278778064 -0.0287385192401577 0 -0.0016763574401112676 -0.028669840392646254 0 -0.0007570526017649697 -0.028713498642601538 0 -0.0013952010565323641 -0.028138893099893623 0 -0.0012892169641474116 -0.028698976713954605 0 -0.0016491327100596031 -0.028922300403064007 0 -0.0010327017972648913 -0.029573649915161735 0 -0.0012892169641474116 -0.028698976713954605 0 -0.00039026153042919128 -0.029415160452894086 0 -0.0010327017972648913 -0.029573649915161735 0 -0.0012892169641474116 -0.028698976713954605 0 -0.0016491327100596031 -0.028922300403064007 0 -0.001685703278778064 -0.0287385192401577 0 -0.0016491327100596031 -0.028922300403064007 0 -0.0017912042925315329 -0.02868933218167621 0 -0.001685703278778064 -0.0287385192401577 0 -0.0016491327100596031 -0.028922300403064007 0 -0.0017912042925315329 -0.02868933218167621 0 -0.0020959946992572362 -0.0285948978493673 0 -0.0017912042925315329 -0.02868933218167621 0 -0.0015446501691253195 -0.028491864301357053 0 -0.0015991188743582202 -0.028701864028244272 0 -0.0017912042925315329 -0.02868933218167621 0 -0.0015446501691253195 -0.028491864301357053 0 -0.0020959946992572362 -0.0285948978493673 0 -0.0017912042925315329 -0.02868933218167621 0 -0.0015991188743582202 -0.028701864028244272 0 -0.0017149793293919603 -0.028713499613123368 0 -0.0015991188743582202 -0.028701864028244272 0 -0.0017149793293919603 -0.028713499613123368 0 -0.0016719905546099389 -0.028755797382928196 0 -0.0014418404006635241 -0.028788992222004067 0 -0.0015991188743582202 -0.028701864028244272 0 -0.0016719905546099389 -0.028755797382928196 0 -0.0017149793293919603 -0.028713499613123368 0 -0.0016763574401112676 -0.028669840392646254 0 -0.0016719905546099389 -0.028755797382928196 0 -0.0017912042925315329 -0.02868933218167621 0 -0.001685703278778064 -0.0287385192401577 0 -0.0017149793293919603 -0.028713499613123368 0 -0.001685703278778064 -0.0287385192401577 0 -0.0017149793293919603 -0.028713499613123368 0 -0.0016763574401112676 -0.028669840392646254 0 -0.0013952010565323641 -0.028138893099893623 0 -0.0026826519391013664 -0.028079211474791956 0 -0.0011190237020108156 -0.027722188706946663 0 -0.0034376499881362487 -0.026504771768653724 0 -0.0015424541347852667 -0.026132110987570685 0 -0.0019309869888512042 -0.028690989946925264 0 -0.0017011682895465121 -0.02869523222331288 0 -0.0016719905546099389 -0.028755797382928196 0 -0.0016763574401112676 -0.028669840392646254 0 -0.0017011682895465121 -0.02869523222331288 0 -0.0016719905546099389 -0.028755797382928196 0 -0.0034376499881362487 -0.026504771768653724 0 -0.0026707355129876841 -0.025349179940128346 0 -0.0015424541347852667 -0.026132110987570685 0 -0.0034376499881362487 -0.026504771768653724 0 -0.0026707355129876841 -0.025349179940128346 0 -0.0040885671347020303 -0.024620300531178505 0 -0.0026707355129876841 -0.025349179940128346 0 -0.0040885671347020303 -0.024620300531178505 0 -0.0016026198725600943 -0.023950901101176893 0 -0.0031405055567340686 -0.02365032598727803 0 -0.0014576207845587938 -0.023704603090028024 0 -0.0026707355129876841 -0.025349179940128346 0 -0.0015424541347852667 -0.026132110987570685 0 -0.0016026198725600943 -0.023950901101176893 0 -0.0015424541347852667 -0.026132110987570685 0 -0.0016026198725600943 -0.023950901101176893 0 -0.00070783439440767054 -0.025110104877264897 0 -0.0015424541347852667 -0.026132110987570685 0 -0.00070783439440767054 -0.025110104877264897 0 -0.00021546146763316707 -0.027237718420666232 0 -0.00070783439440767054 -0.025110104877264897 0 -0.00021546146763316707 -0.027237718420666232 0 0.00041947969962480601 -0.026167612536387063 0 -0.0011190237020108156 -0.027722188706946663 0 -0.0015424541347852667 -0.026132110987570685 0 -0.00021546146763316707 -0.027237718420666232 0 -0.00025676681746251431 -0.028594256547076244 0 -0.0011190237020108156 -0.027722188706946663 0 -0.00021546146763316707 -0.027237718420666232 0 -0.00025676681746251431 -0.028594256547076244 0 -0.00021546146763316707 -0.027237718420666232 0 -0.00013862283399832624 -0.028554546962375818 0 -0.00021546146763316707 -0.027237718420666232 0 0.00041947969962480601 -0.026167612536387063 0 0.0011068840923730814 -0.027618788045280653 0 -0.00023844905126009118 -0.027371346813354614 0 0.00041838741423944314 -0.028050078176289031 0 0.001449572064439643 -0.02671943020128454 0 0.00094764639382529596 -0.027723472165122331 0 0.0011068840923730814 -0.027618788045280653 0 0.001449572064439643 -0.02671943020128454 0 0.00041947969962480601 -0.026167612536387063 0 0.0011068840923730814 -0.027618788045280653 0 0.00041838741423944314 -0.028050078176289031 0 0.00036494583998909768 -0.028786263376665028 0 0.00094764639382529596 -0.027723472165122331 0 0.0011068840923730814 -0.027618788045280653 0 0.00064382743660840018 -0.028228493603693391 0 0.00044637561652916647 -0.028465916424845965 0 0.00053390964099661131 -0.028549649124768157 0 0.00048483890522165243 -0.028337814552247518 0 0.00044637561652916647 -0.028465916424845965 0 0.00094764639382529596 -0.027723472165122331 0 0.00048483890522165243 -0.028337814552247518 0 0.00094764639382529596 -0.027723472165122331 0 0.00048483890522165243 -0.028337814552247518 0 0.00064382743660840018 -0.028228493603693391 0 0.00048483890522165243 -0.028337814552247518 0 0.00064382743660840018 -0.028228493603693391 0 0.00051321872676482114 -0.029641221109701476 0 0.00053390964099661131 -0.028549649124768157 0 0.00048483890522165243 -0.028337814552247518 0 0.00051321872676482114 -0.029641221109701476 0 0.00036494583998909768 -0.028786263376665028 0 0.00057080784345854259 -0.029487454949511265 0 0.00080390136375459219 -0.030601132869352093 0 0.00030439510810625973 -0.030118218464007647 0 0.00051321872676482114 -0.029641221109701476 0 -1.0820653459279281e-05 -0.029250716727056425 0 0.00030439510810625973 -0.030118218464007647 0 0.00051321872676482114 -0.029641221109701476 0 -1.0820653459279281e-05 -0.029250716727056425 0 0.00030439510810625973 -0.030118218464007647 0 -8.5246172608141149e-05 -0.029571183808605715 0 0.0001283235451419357 -0.03017765724965922 0 -8.5246172608141149e-05 -0.029571183808605715 0 -7.3845742254096222e-05 -0.030303141520339926 0 0.0001283235451419357 -0.03017765724965922 0 0.00031639691325925347 -0.030715395953169914 0 -7.3845742254096222e-05 -0.030303141520339926 0 0.00030439510810625973 -0.030118218464007647 0 0.0001283235451419357 -0.03017765724965922 0 -8.5246172608141149e-05 -0.029571183808605715 0 0.00030439510810625973 -0.030118218464007647 0 0.0001283235451419357 -0.03017765724965922 0 0.00031639691325925347 -0.030715395953169914 0 0.00074023338961505948 -0.031131193926604982 0 0.00030439510810625973 -0.030118218464007647 0 0.00031639691325925347 -0.030715395953169914 0 -0.00025676681746251431 -0.028594256547076244 0 -0.00013862283399832624 -0.028554546962375818 0 -0.00039026153042919128 -0.029415160452894086 0 -0.00013862283399832624 -0.028554546962375818 0 -8.5246172608141149e-05 -0.029571183808605715 0 -0.00039026153042919128 -0.029415160452894086 0 -0.00013862283399832624 -0.028554546962375818 0 -1.0820653459279281e-05 -0.029250716727056425 0 -8.5246172608141149e-05 -0.029571183808605715 0 -8.5246172608141149e-05 -0.029571183808605715 0 -0.00039026153042919128 -0.029415160452894086 0 -7.3845742254096222e-05 -0.030303141520339926 0 -0.0007570526017649697 -0.028713498642601538 0 -0.00035915571801448858 -0.029311706712352465 0 -0.00039026153042919128 -0.029415160452894086 0 -0.00048010394794515185 -0.030357323194969126 0 -0.0010327017972648913 -0.029573649915161735 0 -0.00039026153042919128 -0.029415160452894086 0 -0.00048010394794515185 -0.030357323194969126 0 -7.3845742254096222e-05 -0.030303141520339926 0 -0.00048010394794515185 -0.030357323194969126 0 -7.3845742254096222e-05 -0.030303141520339926 0 0.00018903652264808809 -0.031116749495124583 0 -0.00048010394794515185 -0.030357323194969126 0 -0.00060283386373164208 -0.030592191395331411 0 -0.00040106936991485454 -0.030819613840912776 0 -0.00048010394794515185 -0.030357323194969126 0 -0.00034559174149211388 -0.031038212925522505 0 -0.00040106936991485454 -0.030819613840912776 0 -0.00046432473616862688 -0.030468582889028969 0 -9.5005924598617385e-05 -0.031070102969421639 0 -0.00048010394794515185 -0.030357323194969126 0 -0.00060283386373164208 -0.030592191395331411 0 -0.00091731161730092107 -0.030284241353863622 0 -0.00048010394794515185 -0.030357323194969126 0 -0.00091731161730092107 -0.030284241353863622 0 -0.0010327017972648913 -0.029573649915161735 0 0.00074023338961505948 -0.031131193926604982 0 0.00058802424311991497 -0.031294045747783938 0 0.00031639691325925347 -0.030715395953169914 0 0.00058802424311991497 -0.031294045747783938 0 0.00031639691325925347 -0.030715395953169914 0 0.00018903652264808809 -0.031116749495124583 0 0.00031639691325925347 -0.030715395953169914 0 -7.3845742254096222e-05 -0.030303141520339926 0 0.00018903652264808809 -0.031116749495124583 0 -0.00034559174149211388 -0.031038212925522505 0 -0.00034915110994768541 -0.031067439913690514 0 -0.00040106936991485454 -0.030819613840912776 0 0.00013018357666931782 -0.031866552599743116 0 -9.5005924598617385e-05 -0.031070102969421639 0 -0.00050350498159151109 -0.031885019861175035 0 -0.00034559174149211388 -0.031038212925522505 0 -0.00042385870873220117 -0.03140805210179639 0 0.00058802424311991497 -0.031294045747783938 0 0.00075911330851021288 -0.031858803100834679 0 0.00018903652264808809 -0.031116749495124583 0 -0.00034559174149211388 -0.031038212925522505 0 -0.00042385870873220117 -0.03140805210179639 0 -0.00034915110994768541 -0.031067439913690514 0 -0.00052457196996213192 -0.031958264118934217 0 -0.00042385870873220117 -0.03140805210179639 0 -0.00040397611377766216 -0.030993918776360964 0 -0.00053523137494082714 -0.031892843763510287 0 -0.00080454547948523574 -0.031888494554886383 0 -0.00052457196996213192 -0.031958264118934217 0 -0.0011247955861639397 -0.032713328758971073 0 -0.0013073812505558931 -0.032780498386603706 0 -0.00078843071819359629 -0.032580266872306647 0 -0.00083236336909843294 -0.03293432264194112 0 -0.0011247955861639397 -0.032713328758971073 0 -0.00042385870873220117 -0.03140805210179639 0 -0.00040397611377766216 -0.030993918776360964 0 -0.00034915110994768541 -0.031067439913690514 0 -0.00040397611377766216 -0.030993918776360964 0 -0.00036990937888410641 -0.030959468630797425 0 -0.00034915110994768541 -0.031067439913690514 0 -0.00036990937888410641 -0.030959468630797425 0 -0.00034915110994768541 -0.031067439913690514 0 -0.00040106936991485454 -0.030819613840912776 0 -0.00036990937888410641 -0.030959468630797425 0 -0.00040106936991485454 -0.030819613840912776 0 -0.0004245013399081191 -0.030899834859335777 0 -0.0013073812505558931 -0.032780498386603706 0 -0.0015082918113546073 -0.033000201877583381 0 -0.001376274210334556 -0.033046569899165976 0 -0.00040397611377766216 -0.030993918776360964 0 -0.00036990937888410641 -0.030959468630797425 0 -0.0003780106470348837 -0.0309750500679075 0 -0.00080454547948523574 -0.031888494554886383 0 -0.00097715544872945827 -0.032033956054395171 0 -0.00036990937888410641 -0.030959468630797425 0 -0.0003780106470348837 -0.0309750500679075 0 -0.0004245013399081191 -0.030899834859335777 0 -0.0011247955861639397 -0.032713328758971073 0 -0.0013073812505558931 -0.032780498386603706 0 -0.001376274210334556 -0.033046569899165976 0 -2.5354104115177208e-05 -0.033256564507155535 0 -2.1828348003055706e-05 -0.033303633915506281 0 -5.0984669412538779e-05 -0.033287054365962715 0 -0.001283552093806088 -0.032966477977080404 0 -0.0010089361293470003 -0.032785199159959109 0 -0.00037182905621636208 -0.033286849412435149 0 -0.0010089361293470003 -0.032785199159959109 0 -0.00083236336909843294 -0.03293432264194112 0 -0.0011247955861639397 -0.032713328758971073 0 -0.0015209625685569878 -0.033552116435763918 0 -0.00083236336909843294 -0.03293432264194112 0 -0.00075757427968397456 -0.033283867524621105 0 -0.0015209625685569878 -0.033552116435763918 0 -0.00074720767328798315 -0.030721718449917407 0 -0.0010375757452927865 -0.030649579596150344 0 -0.00091731161730092107 -0.030284241353863622 0 -0.00074720767328798315 -0.030721718449917407 0 -0.00060283386373164208 -0.030592191395331411 0 -0.00052879667614272839 -0.030807459876137939 0 -0.00074720767328798315 -0.030721718449917407 0 -0.00060283386373164208 -0.030592191395331411 0 -0.00091731161730092107 -0.030284241353863622 0 -0.00060283386373164208 -0.030592191395331411 0 -0.00040106936991485454 -0.030819613840912776 0 -0.00052879667614272839 -0.030807459876137939 0 -0.00040106936991485454 -0.030819613840912776 0 -0.00052879667614272839 -0.030807459876137939 0 -0.0004245013399081191 -0.030899834859335777 0 -0.00052879667614272839 -0.030807459876137939 0 -0.00049015935631297673 -0.030925382608236601 0 -0.00067725922065917804 -0.030870937016645221 0 -0.00052879667614272839 -0.030807459876137939 0 -0.00049015935631297673 -0.030925382608236601 0 -0.0004245013399081191 -0.030899834859335777 0 -0.0003780106470348837 -0.0309750500679075 0 -0.00049015935631297673 -0.030925382608236601 0 -0.0004245013399081191 -0.030899834859335777 0 -0.0003780106470348837 -0.0309750500679075 0 -0.00049015935631297673 -0.030925382608236601 0 -0.00051087003057542551 -0.030998476551526266 0 -0.0003780106470348837 -0.0309750500679075 0 -0.00051087003057542551 -0.030998476551526266 0 -0.00055875829963443154 -0.031082844462237094 0 -0.00049015935631297673 -0.030925382608236601 0 -0.00062981023874628843 -0.03100583953048229 0 -0.00067725922065917804 -0.030870937016645221 0 -0.00049015935631297673 -0.030925382608236601 0 -0.00051087003057542551 -0.030998476551526266 0 -0.00062981023874628843 -0.03100583953048229 0 -0.00051087003057542551 -0.030998476551526266 0 -0.00062981023874628843 -0.03100583953048229 0 -0.00055875829963443154 -0.031082844462237094 0 -0.00062981023874628843 -0.03100583953048229 0 -0.00076871159565518766 -0.03097325393898857 0 -0.00067725922065917804 -0.030870937016645221 0 -0.00062981023874628843 -0.03100583953048229 0 -0.00076871159565518766 -0.03097325393898857 0 -0.00075130065073926867 -0.031078482118993687 0 -0.00074720767328798315 -0.030721718449917407 0 -0.00052879667614272839 -0.030807459876137939 0 -0.00067725922065917804 -0.030870937016645221 0 -0.00074720767328798315 -0.030721718449917407 0 -0.00067725922065917804 -0.030870937016645221 0 -0.00089257795687096113 -0.030853509021505653 0 -0.00074720767328798315 -0.030721718449917407 0 -0.00089257795687096113 -0.030853509021505653 0 -0.0010375757452927865 -0.030649579596150344 0 -0.00076871159565518766 -0.03097325393898857 0 -0.00089257795687096113 -0.030853509021505653 0 -0.0009077313390976336 -0.031067296004750118 0 -0.00076871159565518766 -0.03097325393898857 0 -0.00067725922065917804 -0.030870937016645221 0 -0.00089257795687096113 -0.030853509021505653 0 -0.00089257795687096113 -0.030853509021505653 0 -0.00109937195294237 -0.030921866179172492 0 -0.0009077313390976336 -0.031067296004750118 0 -0.00109937195294237 -0.030921866179172492 0 -0.0013253467855359291 -0.031000214343857503 0 -0.0013155852474793113 -0.030744909741533169 0 -0.00109937195294237 -0.030921866179172492 0 -0.0013155852474793113 -0.030744909741533169 0 -0.0010375757452927865 -0.030649579596150344 0 -0.00089257795687096113 -0.030853509021505653 0 -0.00109937195294237 -0.030921866179172492 0 -0.0010375757452927865 -0.030649579596150344 0 -0.0016168386017191411 -0.030937285125669751 0 -0.0013253467855359291 -0.031000214343857503 0 -0.0013155852474793113 -0.030744909741533169 0 -0.0016168386017191411 -0.030937285125669751 0 -0.0013155852474793113 -0.030744909741533169 0 -0.0015781748379491705 -0.030532310430043327 0 -0.0016168386017191411 -0.030937285125669751 0 -0.0015781748379491705 -0.030532310430043327 0 -0.001816821639563194 -0.030608830163174162 0 -0.0015781748379491705 -0.030532310430043327 0 -0.0016147684480018647 -0.030075465437185402 0 -0.0018062137900902455 -0.030361259558709584 0 -0.0015781748379491705 -0.030532310430043327 0 -0.0018062137900902455 -0.030361259558709584 0 -0.001816821639563194 -0.030608830163174162 0 -0.0013155852474793113 -0.030744909741533169 0 -0.0015781748379491705 -0.030532310430043327 0 -0.0012970563412500558 -0.030338485755504092 0 -0.0015781748379491705 -0.030532310430043327 0 -0.0012970563412500558 -0.030338485755504092 0 -0.0016147684480018647 -0.030075465437185402 0 -0.0012970563412500558 -0.030338485755504092 0 -0.0010375757452927865 -0.030649579596150344 0 -0.00091731161730092107 -0.030284241353863622 0 -0.0013155852474793113 -0.030744909741533169 0 -0.0012970563412500558 -0.030338485755504092 0 -0.0010375757452927865 -0.030649579596150344 0 -0.0012970563412500558 -0.030338485755504092 0 -0.00091731161730092107 -0.030284241353863622 0 -0.0013976199688143611 -0.029602019932280555 0 -0.00091731161730092107 -0.030284241353863622 0 -0.0013976199688143611 -0.029602019932280555 0 -0.0010327017972648913 -0.029573649915161735 0 -0.0012970563412500558 -0.030338485755504092 0 -0.0016147684480018647 -0.030075465437185402 0 -0.0013976199688143611 -0.029602019932280555 0 -0.0016147684480018647 -0.030075465437185402 0 -0.0013976199688143611 -0.029602019932280555 0 -0.0020959946992572362 -0.0285948978493673 0 -0.0016491327100596031 -0.028922300403064007 0 -0.0013976199688143611 -0.029602019932280555 0 -0.0020959946992572362 -0.0285948978493673 0 -0.0016491327100596031 -0.028922300403064007 0 -0.0013976199688143611 -0.029602019932280555 0 -0.0010327017972648913 -0.029573649915161735 0 -0.0010894442018836768 -0.027734731052479197 0 -0.0020959946992572362 -0.0285948978493673 0 -0.001670790733273526 -0.027502771520778874 0 -0.0010894442018836768 -0.027734731052479197 0 -0.0015446501691253195 -0.028491864301357053 0 -0.0020959946992572362 -0.0285948978493673 0 -0.0016147684480018647 -0.030075465437185402 0 -0.0020959946992572362 -0.0285948978493673 0 -0.0022025354692887596 -0.030140537427555455 0 -0.0021401585439936315 -0.028627298060328848 0 -0.0022259866256918058 -0.028371872351689541 0 -0.0020959946992572362 -0.0285948978493673 0 -0.001670790733273526 -0.027502771520778874 0 -0.0023354659364734557 -0.026812639420139703 0 -0.001670790733273526 -0.027502771520778874 0 -0.0019860543939297826 -0.026852841698622457 0 -0.0023354659364734557 -0.026812639420139703 0 -0.0011954570217576059 -0.02710443950241739 0 -0.001670790733273526 -0.027502771520778874 0 -0.0019860543939297826 -0.026852841698622457 0 -0.0010894442018836768 -0.027734731052479197 0 -0.0011954570217576059 -0.02710443950241739 0 -0.001670790733273526 -0.027502771520778874 0 -0.0014840659785941548 -0.025467250352870868 0 -0.0018190241765809175 -0.027008594272536272 0 -0.0011954570217576059 -0.02710443950241739 0 -0.0011238702816992654 -0.026601079530529568 0 -0.0019860543939297826 -0.026852841698622457 0 -0.0012235532719507393 -0.026496552602415534 0 -0.001830576424467299 -0.026555898130945832 0 -0.0017661960711374599 -0.026336519211519676 0 -0.0012235532719507393 -0.026496552602415534 0 -0.0019860543939297826 -0.026852841698622457 0 -0.001830576424467299 -0.026555898130945832 0 -0.0019860543939297826 -0.026852841698622457 0 -0.001830576424467299 -0.026555898130945832 0 -0.0020521527053420658 -0.02665896290195394 0 -0.001830576424467299 -0.026555898130945832 0 -0.00210358021524364 -0.026437603263576932 0 -0.0020521527053420658 -0.02665896290195394 0 -0.001830576424467299 -0.026555898130945832 0 -0.00210358021524364 -0.026437603263576932 0 -0.0017661960711374599 -0.026336519211519676 0 -0.0022259866256918058 -0.028371872351689541 0 -0.0021110109792537432 -0.028967112242342444 0 -0.0023354659364734557 -0.026812639420139703 0 -0.00210358021524364 -0.026437603263576932 0 -0.0022306608367778404 -0.026085826493078602 0 -0.0016147684480018647 -0.030075465437185402 0 -0.0022025354692887596 -0.030140537427555455 0 -0.0018062137900902455 -0.030361259558709584 0 -0.0019860543939297826 -0.026852841698622457 0 -0.0023354659364734557 -0.026812639420139703 0 -0.0020521527053420658 -0.02665896290195394 0 -0.0023354659364734557 -0.026812639420139703 0 -0.00210358021524364 -0.026437603263576932 0 -0.0020521527053420658 -0.02665896290195394 0 -0.0022025354692887596 -0.030140537427555455 0 -0.0018062137900902455 -0.030361259558709584 0 -0.001816821639563194 -0.030608830163174162 0 -0.0022025354692887596 -0.030140537427555455 0 -0.001816821639563194 -0.030608830163174162 0 -0.0019388011210181022 -0.030885861204253292 0 -0.00210358021524364 -0.026437603263576932 0 -0.0022306608367778404 -0.026085826493078602 0 -0.0019643381244519864 -0.026198193739196338 0 -0.0016168386017191411 -0.030937285125669751 0 -0.001816821639563194 -0.030608830163174162 0 -0.0019388011210181022 -0.030885861204253292 0 -0.0022306608367778404 -0.026085826493078602 0 -0.0019643381244519864 -0.026198193739196338 0 -0.0017553839084049512 -0.025947323018940757 0 -0.0012235532719507393 -0.026496552602415534 0 -0.0017661960711374599 -0.026336519211519676 0 -0.0017553839084049512 -0.025947323018940757 0 -0.00210358021524364 -0.026437603263576932 0 -0.0017661960711374599 -0.026336519211519676 0 -0.0019643381244519864 -0.026198193739196338 0 -0.0017661960711374599 -0.026336519211519676 0 -0.0019643381244519864 -0.026198193739196338 0 -0.0017553839084049512 -0.025947323018940757 0 -0.0020237978688181241 -0.023904425043300946 0 -0.0018296743220712502 -0.02603294833741503 0 -0.0019175228044141684 -0.022775630452748368 0 -0.0017924367706560528 -0.022914291686874113 0 -0.0018728845379348354 -0.022952791421547051 0 -0.0022306608367778404 -0.026085826493078602 0 -0.0017553839084049512 -0.025947323018940757 0 -0.002239741154475641 -0.0254380107302641 0 -0.0016168386017191411 -0.030937285125669751 0 -0.0019388011210181022 -0.030885861204253292 0 -0.0018228292620269609 -0.03134074589628226 0 -0.0021110109792537432 -0.028967112242342444 0 -0.0018296743220712502 -0.02603294833741503 0 -0.0017924367706560528 -0.022914291686874113 0 -0.0018728845379348354 -0.022952791421547051 0 -0.0017927246564302301 -0.023023422681425348 0 -0.0017927624739838756 -0.023045731849566372 0 -0.0017927246564302301 -0.023023422681425348 0 -0.0017536053289897782 -0.023043180010166798 0 -0.0018296743220712502 -0.02603294833741503 0 -0.0015107117327004915 -0.027508044915228392 0 -0.0018296743220712502 -0.02603294833741503 0 -0.0018386292915012054 -0.022269203104659557 0 -0.0019175228044141684 -0.022775630452748368 0 -0.0018728845379348354 -0.022952791421547051 0 -0.0019696576780693443 -0.022930444623834503 0 -0.0018728845379348354 -0.022952791421547051 0 -0.0018615175211909043 -0.023045558152764888 0 -0.0019696576780693443 -0.022930444623834503 0 -0.0018615175211909043 -0.023045558152764888 0 -0.0019696576780693443 -0.022930444623834503 0 -0.0020219606073789815 -0.023056715792928808 0 -0.0018615175211909043 -0.023045558152764888 0 -0.0017751248485993218 -0.023069274758110481 0 -0.0017719830139465212 -0.0231203575088825 0 -0.0018615175211909043 -0.023045558152764888 0 -0.0017927246564302301 -0.023023422681425348 0 -0.0017751248485993218 -0.023069274758110481 0 -0.0018728845379348354 -0.022952791421547051 0 -0.0018615175211909043 -0.023045558152764888 0 -0.0017927246564302301 -0.023023422681425348 0 -0.0017927246564302301 -0.023023422681425348 0 -0.0017751248485993218 -0.023069274758110481 0 -0.0017536053289897782 -0.023043180010166798 0 -0.0015322445319644012 -0.022512714461194662 0 -0.0015961311405733643 -0.022499566879692422 0 -0.0015344030489130925 -0.02255502738135208 0 -0.0018615175211909043 -0.023045558152764888 0 -0.0017719830139465212 -0.0231203575088825 0 -0.0018723489759650566 -0.023132986879090718 0 -0.0017125904216710266 -0.022835477772821255 0 -0.0017676618231758446 -0.019259183423857164 0 -0.0018615175211909043 -0.023045558152764888 0 -0.0018723489759650566 -0.023132986879090718 0 -0.0020219606073789815 -0.023056715792928808 0 -0.001548183781460362 -0.015355540679776332 0 -0.0013860729711910752 -0.015279764372235792 0 -0.0011796946872994958 -0.015546944459203153 0 -0.0017676618231758446 -0.019259183423857164 0 -0.0012780654136328518 -0.019509738832506479 0 -0.0017676618231758446 -0.019259183423857164 0 -0.00079446255971611928 -0.016577905820054775 0 -0.00077297338285011656 -0.0285439229901179 0 -0.00044327607137866279 -0.028905751449371072 0 -0.00084051132719021573 -0.029076348848457858 0 -0.0014175133195071781 -0.022566142811361711 0 -0.0014835493001214635 -0.022551163608140239 0 -0.0014649428914682322 -0.022521186249031124 0 -0.001359378741619791 -0.025230490278157377 0 -0.0011934264547162406 -0.026336837132881756 0 -0.0015322445319644012 -0.022512714461194662 0 -0.0014835493001214635 -0.022551163608140239 0 -0.0014649428914682322 -0.022521186249031124 0 -0.0017125904216710266 -0.022835477772821255 0 -0.0011934264547162406 -0.026336837132881756 0 -0.0015322445319644012 -0.022512714461194662 0 -0.0014835493001214635 -0.022551163608140239 0 -0.0015344030489130925 -0.02255502738135208 0 -0.0015107117327004915 -0.027508044915228392 0 -0.0011934264547162406 -0.026336837132881756 0 -0.0017751248485993218 -0.023069274758110481 0 -0.0017536053289897782 -0.023043180010166798 0 -0.0016845423465609995 -0.023119385603953296 0 -0.0017751248485993218 -0.023069274758110481 0 -0.0017719830139465212 -0.0231203575088825 0 -0.0016845423465609995 -0.023119385603953296 0 -0.0015028319494990959 -0.031559488488260116 0 -0.0014177499489209276 -0.031545771301460961 0 -0.0014481048151667503 -0.031548139789424015 0 -0.0014211674345797497 -0.03153873113774814 0 -0.0013940138473411132 -0.031518745705067998 0 -0.0014481048151667503 -0.031548139789424015 0 -0.001252668497166786 -0.031561205639485619 0 -0.0014196242860385702 -0.031545899230471047 0 -0.0014211674345797497 -0.03153873113774814 0 -0.0014177499489209276 -0.031545771301460961 0 -0.0014481048151667503 -0.031548139789424015 0 -0.0011934264547162406 -0.026336837132881756 0 -0.0012899186433792556 -0.030279935776788065 0 -0.0014211674345797497 -0.03153873113774814 0 -0.0014177499489209276 -0.031545771301460961 0 -0.0013830779487908808 -0.031537645766303461 0 -0.0014211674345797497 -0.03153873113774814 0 -0.0013940138473411132 -0.031518745705067998 0 -0.0013830779487908808 -0.031537645766303461 0 -0.0010835196532447996 -0.031591103117222408 0 -0.0010699181053447238 -0.03148814467416361 0 -0.0012163959011873018 -0.031471313283936403 0 -0.0010835196532447996 -0.031591103117222408 0 -0.0012163959011873018 -0.031471313283936403 0 -0.0014481048151667503 -0.031548139789424015 0 -0.0012163959011873018 -0.031471313283936403 0 -0.0012512955616468154 -0.031346477128015443 0 -0.0013816509907559509 -0.031418390305897104 0 -0.0010699181053447238 -0.03148814467416361 0 -0.0012163959011873018 -0.031471313283936403 0 -0.0010698051425256639 -0.031400643350285751 0 -0.0012163959011873018 -0.031471313283936403 0 -0.0012512955616468154 -0.031346477128015443 0 -0.0010698051425256639 -0.031400643350285751 0 -0.0018228292620269609 -0.03134074589628226 0 -0.0015268304669825926 -0.03141360225442736 0 -0.0014457631401100686 -0.031233671517486603 0 -0.0015028319494990959 -0.031559488488260116 0 -0.0014481048151667503 -0.031548139789424015 0 -0.0015268304669825926 -0.03141360225442736 0 -0.0018228292620269609 -0.03134074589628226 0 -0.0015028319494990959 -0.031559488488260116 0 -0.0015268304669825926 -0.03141360225442736 0 -0.0012163959011873018 -0.031471313283936403 0 -0.0014481048151667503 -0.031548139789424015 0 -0.0013816509907559509 -0.031418390305897104 0 -0.0014481048151667503 -0.031548139789424015 0 -0.0013816509907559509 -0.031418390305897104 0 -0.0015268304669825926 -0.03141360225442736 0 -0.0013816509907559509 -0.031418390305897104 0 -0.0015268304669825926 -0.03141360225442736 0 -0.0014457631401100686 -0.031233671517486603 0 -0.0012512955616468154 -0.031346477128015443 0 -0.0013816509907559509 -0.031418390305897104 0 -0.0014457631401100686 -0.031233671517486603 0 -0.0016168386017191411 -0.030937285125669751 0 -0.0018228292620269609 -0.03134074589628226 0 -0.0014457631401100686 -0.031233671517486603 0 -0.0016168386017191411 -0.030937285125669751 0 -0.0013253467855359291 -0.031000214343857503 0 -0.0014457631401100686 -0.031233671517486603 0 -0.0012512955616468154 -0.031346477128015443 0 -0.0010698051425256639 -0.031400643350285751 0 -0.0011456687631444203 -0.031178358780783857 0 -0.0010698051425256639 -0.031400643350285751 0 -0.0011456687631444203 -0.031178358780783857 0 -0.00091141669637095576 -0.031237278528111687 0 -0.0012512955616468154 -0.031346477128015443 0 -0.0014457631401100686 -0.031233671517486603 0 -0.0011456687631444203 -0.031178358780783857 0 -0.0013253467855359291 -0.031000214343857503 0 -0.0014457631401100686 -0.031233671517486603 0 -0.0011456687631444203 -0.031178358780783857 0 -0.00109937195294237 -0.030921866179172492 0 -0.0013253467855359291 -0.031000214343857503 0 -0.0011456687631444203 -0.031178358780783857 0 -0.0011456687631444203 -0.031178358780783857 0 -0.0009077313390976336 -0.031067296004750118 0 -0.00091141669637095576 -0.031237278528111687 0 -0.00109937195294237 -0.030921866179172492 0 -0.0011456687631444203 -0.031178358780783857 0 -0.0009077313390976336 -0.031067296004750118 0 -0.0009077313390976336 -0.031067296004750118 0 -0.00091141669637095576 -0.031237278528111687 0 -0.00077607611853522016 -0.031172916001385251 0 -0.00076871159565518766 -0.03097325393898857 0 -0.0009077313390976336 -0.031067296004750118 0 -0.00075130065073926867 -0.031078482118993687 0 -0.0009077313390976336 -0.031067296004750118 0 -0.00077607611853522016 -0.031172916001385251 0 -0.00075130065073926867 -0.031078482118993687 0 -0.0010698051425256639 -0.031400643350285751 0 -0.00091141669637095576 -0.031237278528111687 0 -0.00067073345208063786 -0.031279245089101675 0 -0.0010698051425256639 -0.031400643350285751 0 -0.00096119251620943537 -0.031451190417164487 0 -0.0009912782841951461 -0.031445742684096001 0 -0.00092335388065331798 -0.031384135536656262 0 -0.001030609087180301 -0.031878542059670563 0 -0.00091141669637095576 -0.031237278528111687 0 -0.00067073345208063786 -0.031279245089101675 0 -0.00077607611853522016 -0.031172916001385251 0 -0.00067073345208063786 -0.031279245089101675 0 -0.00067515204217323641 -0.031121533190409278 0 -0.00077607611853522016 -0.031172916001385251 0 -0.0009681117992411519 -0.031457181554081962 0 -0.0009912782841951461 -0.031445742684096001 0 -0.00096908500532885699 -0.031467140214268954 0 -0.0009681117992411519 -0.031457181554081962 0 -0.00095285663407124145 -0.031475237433134809 0 -0.00096908500532885699 -0.031467140214268954 0 -0.001030609087180301 -0.031878542059670563 0 -0.00092118973343548443 -0.031698070209758504 0 -0.00067073345208063786 -0.031279245089101675 0 -0.00067515204217323641 -0.031121533190409278 0 -0.00055875829963443154 -0.031082844462237094 0 -0.00067515204217323641 -0.031121533190409278 0 -0.00077607611853522016 -0.031172916001385251 0 -0.00075130065073926867 -0.031078482118993687 0 -0.00062981023874628843 -0.03100583953048229 0 -0.00067515204217323641 -0.031121533190409278 0 -0.00075130065073926867 -0.031078482118993687 0 -0.0015082918113546073 -0.033000201877583381 0 -0.0015152544356444571 -0.033020581326774372 0 -0.0015087301211722925 -0.03302276330291825 0 -0.0009681117992411519 -0.031457181554081962 0 -0.00092629085578729126 -0.031487287346550895 0 -0.00094028268867266476 -0.031480480101150739 0 -0.0003780106470348837 -0.0309750500679075 0 -0.00067073345208063786 -0.031279245089101675 0 -0.00055875829963443154 -0.031082844462237094 0 -0.001030609087180301 -0.031878542059670563 0 -0.0012626388956161309 -0.032269850534033265 0 -0.00097715544872945827 -0.032033956054395171 0 -0.001030609087180301 -0.031878542059670563 0 -0.00062981023874628843 -0.03100583953048229 0 -0.00067515204217323641 -0.031121533190409278 0 -0.00055875829963443154 -0.031082844462237094 0 -0.00092629085578729126 -0.031487287346550895 0 -0.00094028268867266476 -0.031480480101150739 0 -0.0009282028962382758 -0.031488896304320016 0 -0.0009681117992411519 -0.031457181554081962 0 -0.00094028268867266476 -0.031480480101150739 0 -0.00095285663407124145 -0.031475237433134809 0 -0.00095285663407124145 -0.031475237433134809 0 -0.00095622374197339849 -0.031487468548833303 0 -0.00096908500532885699 -0.031467140214268954 0 -0.00093792247761903828 -0.031508517040254168 0 -0.00091550357742755729 -0.031513824120301945 0 -0.00094802413044464294 -0.031549651273319469 0 -0.00095285663407124145 -0.031475237433134809 0 -0.00095622374197339849 -0.031487468548833303 0 -0.00093687414448298284 -0.031489720729770486 0 -0.00094028268867266476 -0.031480480101150739 0 -0.00095285663407124145 -0.031475237433134809 0 -0.00093687414448298284 -0.031489720729770486 0 -0.00095622374197339849 -0.031487468548833303 0 -0.00093687414448298284 -0.031489720729770486 0 -0.00093792247761903828 -0.031508517040254168 0 -0.0009282028962382758 -0.031488896304320016 0 -0.00093687414448298284 -0.031489720729770486 0 -0.00092512822584009423 -0.031498528617395868 0 -0.00094028268867266476 -0.031480480101150739 0 -0.0009282028962382758 -0.031488896304320016 0 -0.00093687414448298284 -0.031489720729770486 0 -0.00093687414448298284 -0.031489720729770486 0 -0.00092512822584009423 -0.031498528617395868 0 -0.00093792247761903828 -0.031508517040254168 0 -0.00092512822584009423 -0.031498528617395868 0 -0.00093792247761903828 -0.031508517040254168 0 -0.00091550357742755729 -0.031513824120301945 0 -0.00095622374197339849 -0.031487468548833303 0 -0.00093792247761903828 -0.031508517040254168 0 -0.00096364049153697105 -0.031507912941153141 0 -0.00093792247761903828 -0.031508517040254168 0 -0.00096364049153697105 -0.031507912941153141 0 -0.00094802413044464294 -0.031549651273319469 0 -0.00096364049153697105 -0.031507912941153141 0 -0.0010074822486673309 -0.031515799052328014 0 -0.00094802413044464294 -0.031549651273319469 0 -0.00096364049153697105 -0.031507912941153141 0 -0.0010074822486673309 -0.031515799052328014 0 -0.0009854757499037066 -0.031477929447251404 0 -0.0010835196532447996 -0.031591103117222408 0 -0.0010699181053447238 -0.03148814467416361 0 -0.0010074822486673309 -0.031515799052328014 0 -0.0010699181053447238 -0.03148814467416361 0 -0.0010074822486673309 -0.031515799052328014 0 -0.0010210045766362388 -0.031463585202972363 0 -0.0010074822486673309 -0.031515799052328014 0 -0.0010210045766362388 -0.031463585202972363 0 -0.0009854757499037066 -0.031477929447251404 0 -0.0010698051425256639 -0.031400643350285751 0 -0.0010210045766362388 -0.031463585202972363 0 -0.0009912782841951461 -0.031445742684096001 0 -0.0010699181053447238 -0.03148814467416361 0 -0.0010698051425256639 -0.031400643350285751 0 -0.0010210045766362388 -0.031463585202972363 0 -0.0009912782841951461 -0.031445742684096001 0 -0.00096908500532885699 -0.031467140214268954 0 -0.0009854757499037066 -0.031477929447251404 0 -0.00095622374197339849 -0.031487468548833303 0 -0.00096908500532885699 -0.031467140214268954 0 -0.0009854757499037066 -0.031477929447251404 0 -0.00095622374197339849 -0.031487468548833303 0 -0.00096364049153697105 -0.031507912941153141 0 -0.0009854757499037066 -0.031477929447251404 0 -0.0010210045766362388 -0.031463585202972363 0 -0.0009912782841951461 -0.031445742684096001 0 -0.0009854757499037066 -0.031477929447251404 0 -3.6701814567868276e-05 -0.033316755600840062 0 -7.2422756234345658e-05 -0.033325730377725564 0 4.43581760055777e-07 -0.033356043820561974 0 -2.1828348003055706e-05 -0.033303633915506281 0 4.43581760055777e-07 -0.033356043820561974 0 2.3408477311799718e-05 -0.033330314786786996 0 -2.1828348003055706e-05 -0.033303633915506281 0 -3.6701814567868276e-05 -0.033316755600840062 0 4.43581760055777e-07 -0.033356043820561974 0 -2.1828348003055706e-05 -0.033303633915506281 0 -5.0984669412538779e-05 -0.033287054365962715 0 -3.6701814567868276e-05 -0.033316755600840062 0 -0.00092629085578729126 -0.031487287346550895 0 -0.00093197586171909249 -0.031509711126655314 0 -0.00092366659524259021 -0.031492355207676299 0 -0.0012626388956161309 -0.032269850534033265 0 -0.0010089361293470003 -0.032785199159959109 0 -0.0015082918113546073 -0.033000201877583381 0 -0.0015087301211722925 -0.03302276330291825 0 -0.001376274210334556 -0.033046569899165976 0 -5.0984669412538779e-05 -0.033287054365962715 0 -3.6701814567868276e-05 -0.033316755600840062 0 -7.2422756234345658e-05 -0.033325730377725564 0 -0.0010089361293470003 -0.032785199159959109 0 -0.00046016132683513285 -0.032327760177150937 0 -0.00092629085578729126 -0.031487287346550895 0 -0.0009282028962382758 -0.031488896304320016 0 -0.00092366659524259021 -0.031492355207676299 0 -7.2422756234345658e-05 -0.033325730377725564 0 -0.00010181530053670059 -0.03337710147448672 0 4.43581760055777e-07 -0.033356043820561974 0 -6.0815150359841378e-05 -0.0333720265851878 0 -1.992274750194773e-05 -0.033383124706635445 0 4.43581760055777e-07 -0.033356043820561974 0 -0.00035073526961585928 -0.032544101955253028 0 4.8602572292776672e-05 -0.033538323969553425 0 -0.00046016132683513285 -0.032327760177150937 0 -0.00035073526961585928 -0.032544101955253028 0 -0.00092512822584009423 -0.031498528617395868 0 -0.00092366659524259021 -0.031492355207676299 0 -0.00091550357742755729 -0.031513824120301945 0 -0.0009282028962382758 -0.031488896304320016 0 -0.00092512822584009423 -0.031498528617395868 0 -0.00092366659524259021 -0.031492355207676299 0 4.43581760055777e-07 -0.033356043820561974 0 2.2012935116079814e-05 -0.033422594201362663 0 7.3915310668166417e-05 -0.033384407378644052 0 -1.992274750194773e-05 -0.033383124706635445 0 4.43581760055777e-07 -0.033356043820561974 0 2.2012935116079814e-05 -0.033422594201362663 0 0.00063698547001780057 -0.033593818312474294 0 6.6281181829940723e-05 -0.031701163837505403 0 0.00087298253347734304 -0.033285654563657278 0 0.0013375383306894414 -0.032872133714561699 0 0.0016964123193795009 -0.033341146846424384 0 -6.0815150359841378e-05 -0.0333720265851878 0 -1.992274750194773e-05 -0.033383124706635445 0 -7.3930709224942479e-05 -0.033388932349393732 0 -1.992274750194773e-05 -0.033383124706635445 0 2.2012935116079814e-05 -0.033422594201362663 0 -7.3930709224942479e-05 -0.033388932349393732 0 -0.00035073526961585928 -0.032544101955253028 0 6.6281181829940723e-05 -0.031701163837505403 0 0.0013375383306894414 -0.032872133714561699 0 0.0012664747509337484 -0.032295425181492178 0 0.0006161561661254273 -0.03278049763678504 0 0.00087298253347734304 -0.033285654563657278 0 0.0013375383306894414 -0.032872133714561699 0 0.0006161561661254273 -0.03278049763678504 0 -0.0010835196532447996 -0.031591103117222408 0 -0.0010074822486673309 -0.031515799052328014 0 -0.00094802413044464294 -0.031549651273319469 0 -0.0013940138473411132 -0.031518745705067998 0 -0.0013830779487908808 -0.031537645766303461 0 -0.001330554775878446 -0.03151390349491584 0 -0.001252668497166786 -0.031561205639485619 0 -0.001082153232877165 -0.031146013954705076 0 -0.0011249184894536583 -0.028929338486579498 0 -0.00084051132719021573 -0.029076348848457858 0 -0.0012424642864064892 -0.029249506095538971 0 -0.0012899186433792556 -0.030279935776788065 0 -0.001082153232877165 -0.031146013954705076 0 -0.00035073526961585928 -0.032544101955253028 0 -0.001082153232877165 -0.031146013954705076 0 6.6281181829940723e-05 -0.031701163837505403 0 0.00025492281478546884 -0.031063754076768348 0 -0.001082153232877165 -0.031146013954705076 0 6.6281181829940723e-05 -0.031701163837505403 0 -0.0011249184894536583 -0.028929338486579498 0 -0.0012424642864064892 -0.029249506095538971 0 -0.0015918363301192962 -0.029222029558973617 0 -0.00034083939910199826 -0.031676231696731158 0 -0.00069682643031656602 -0.031796274720170874 0 -0.00041872002850178972 -0.031832955901793032 0 -0.0011249184894536583 -0.028929338486579498 0 -0.0015918363301192962 -0.029222029558973617 0 -0.0013536830575732312 -0.028694942829168357 0 0.0013375383306894414 -0.032872133714561699 0 0.0016964123193795009 -0.033341146846424384 0 0.0019827204003119115 -0.032770280927789205 0 0.0013375383306894414 -0.032872133714561699 0 0.0019827204003119115 -0.032770280927789205 0 0.0017748488780843237 -0.032364675139921979 0 -0.00077297338285011656 -0.0285439229901179 0 -0.0011249184894536583 -0.028929338486579498 0 -0.0013536830575732312 -0.028694942829168357 0 -0.00077297338285011656 -0.0285439229901179 0 -0.0011249184894536583 -0.028929338486579498 0 -0.00084051132719021573 -0.029076348848457858 0 -0.0014175133195071781 -0.022566142811361711 0 -0.0014111153227363306 -0.022613904815951498 0 -0.001364464570463014 -0.022626250309173604 0 -0.001359378741619791 -0.025230490278157377 0 -0.00031636632439068711 -0.027380930569549048 0 -0.00077297338285011656 -0.0285439229901179 0 -0.0013536830575732312 -0.028694942829168357 0 -0.0011089335555765243 -0.028170090024554176 0 -0.0014111153227363306 -0.022613904815951498 0 -0.001364464570463014 -0.022626250309173604 0 -0.0013892941448667882 -0.022653321288147225 0 0.00025492281478546884 -0.031063754076768348 0 -0.00031636632439068711 -0.027380930569549048 0 0.0017748488780843237 -0.032364675139921979 0 0.0019737337194787987 -0.031821321594766312 0 0.0012664747509337484 -0.032295425181492178 0 0.0019827204003119115 -0.032770280927789205 0 0.002270583819394649 -0.032145218166889686 0 0.0017748488780843237 -0.032364675139921979 0 0.002270583819394649 -0.032145218166889686 0 0.0017748488780843237 -0.032364675139921979 0 0.0019737337194787987 -0.031821321594766312 0 0.0013058901384820475 -0.027352232428881219 0 0.00046918257377534783 -0.023450845924666737 0 -0.00031636632439068711 -0.027380930569549048 0 0.0013058901384820475 -0.027352232428881219 0 0.0002105008712980268 -0.023698910811566012 0 0.00023118277759914257 -0.023686560064088914 0 0.00023232920917119052 -0.023670116542608033 0 0.0002105008712980268 -0.023698910811566012 0 0.00023118277759914257 -0.023686560064088914 0 0.00024426402753257887 -0.023695608592186189 0 0.00024426402753257887 -0.023695608592186189 0 0.0002483776189708064 -0.02369564420310254 0 0.00023779639754565755 -0.02368786907476678 0 0.00023118277759914257 -0.023686560064088914 0 0.00024426402753257887 -0.023695608592186189 0 0.00023779639754565755 -0.02368786907476678 0 0.00024548641210627868 -0.023696836318498199 0 0.0002483776189708064 -0.02369564420310254 0 0.00024795343402863901 -0.02369862521872803 0 0.00046918257377534783 -0.023450845924666737 0 -0.0010625824165604863 -0.020608712992929608 0 0.00046918257377534783 -0.023450845924666737 0 0.00040218597641311638 -0.023495504448024705 0 -0.00031636632439068711 -0.027380930569549048 0 -0.0010625824165604863 -0.020608712992929608 0 0.00011464840883917156 -0.025482739637483615 0 0.00016372669159108052 -0.0244462482957074 0 0.00052576056153629653 -0.024613926594095524 0 0.00011464840883917156 -0.025482739637483615 0 -0.00049187163263560878 -0.02481855300251801 0 0.00016372669159108052 -0.0244462482957074 0 0.0022009679448459882 -0.029445696421243169 0 0.001578882395476126 -0.029119042439552292 0 0.001364629966465702 -0.029907540045928414 0 0.0022009679448459882 -0.029445696421243169 0 0.0020008622221312539 -0.028961684059904787 0 0.001578882395476126 -0.029119042439552292 0 0.001855654300392725 -0.031235254437531057 0 0.00099503863812907688 -0.031299756334740511 0 0.0013375383306894414 -0.032872133714561699 0 0.0017748488780843237 -0.032364675139921979 0 0.0012664747509337484 -0.032295425181492178 0 0.0013058901384820475 -0.027352232428881219 0 0.001855654300392725 -0.031235254437531057 0 0.0022009679448459882 -0.029445696421243169 0 0.0023773298369469125 -0.028748575518824242 0 0.0020008622221312539 -0.028961684059904787 0 0.0031487238827180128 -0.028918245206114333 0 0.0022009679448459882 -0.029445696421243169 0 0.0023773298369469125 -0.028748575518824242 0 0.0031487238827180128 -0.028918245206114333 0 0.0023773298369469125 -0.028748575518824242 0 0.0023334474311709512 -0.027984157502136186 0 0.0018262437289810213 -0.028542848125237118 0 0.001578882395476126 -0.029119042439552292 0 0.0011207066628864267 -0.028482402923631175 0 0.0020008622221312539 -0.028961684059904787 0 0.0018262437289810213 -0.028542848125237118 0 0.001578882395476126 -0.029119042439552292 0 0.0023773298369469125 -0.028748575518824242 0 0.0020008622221312539 -0.028961684059904787 0 0.0018262437289810213 -0.028542848125237118 0 0.0018262437289810213 -0.028542848125237118 0 0.0014953308856903676 -0.027957756568816192 0 0.0023334474311709512 -0.027984157502136186 0 0.0018262437289810213 -0.028542848125237118 0 0.0014953308856903676 -0.027957756568816192 0 0.0011207066628864267 -0.028482402923631175 0 0.00039338449277204711 -0.023559605948921127 0 0.00023232920917119052 -0.023670116542608033 0 0.00021557246244128305 -0.023712810388744215 0 0.0023773298369469125 -0.028748575518824242 0 0.0018262437289810213 -0.028542848125237118 0 0.0023334474311709512 -0.027984157502136186 0 0.00039338449277204711 -0.023559605948921127 0 0.000171096599499109 -0.023895475993729289 0 0.00021557246244128305 -0.023712810388744215 0 0.00039338449277204711 -0.023559605948921127 0 0.000171096599499109 -0.023895475993729289 0 0.00060158863693014037 -0.024711453968546643 0 0.001478428664669722 -0.025628839639217135 0 0.0011086491225482361 -0.02587208068271997 0 0.0014953308856903676 -0.027957756568816192 0 0.0023334474311709512 -0.027984157502136186 0 0.0014619107981011775 -0.027001247136613012 0 0.00039338449277204711 -0.023559605948921127 0 0.0016109827188190028 -0.024714285478006394 0 0.00060158863693014037 -0.024711453968546643 0 0.00024795343402863901 -0.02369862521872803 0 0.00027513719072492929 -0.023681404695009723 0 0.00034971312705182878 -0.023656346258736718 0 0.0002483776189708064 -0.02369564420310254 0 0.00027513719072492929 -0.023681404695009723 0 0.00023779639754565755 -0.02368786907476678 0 0.0002483776189708064 -0.02369564420310254 0 0.00024795343402863901 -0.02369862521872803 0 0.00027513719072492929 -0.023681404695009723 0 0.00027513719072492929 -0.023681404695009723 0 0.00022617085745674792 -0.023699651698070066 0 0.00025121240953869718 -0.023681357925660364 0 0.00027513719072492929 -0.023681404695009723 0 0.00023779639754565755 -0.02368786907476678 0 0.00022617085745674792 -0.023699651698070066 0 0.0013058901384820475 -0.027352232428881219 0 0.001478428664669722 -0.025628839639217135 0 0.00023779639754565755 -0.02368786907476678 0 0.00023232920917119052 -0.023670116542608033 0 0.00022617085745674792 -0.023699651698070066 0 0.0002105008712980268 -0.023698910811566012 0 0.00039338449277204711 -0.023559605948921127 0 0.00023232920917119052 -0.023670116542608033 0 0.00023118277759914257 -0.023686560064088914 0 0.00023779639754565755 -0.02368786907476678 0 0.00023232920917119052 -0.023670116542608033 0 0.00021557246244128305 -0.023712810388744215 0 0.00022617085745674792 -0.023699651698070066 0 0.00020804630044520529 -0.023748116467899639 0 0.00023232920917119052 -0.023670116542608033 0 0.00021557246244128305 -0.023712810388744215 0 0.00022617085745674792 -0.023699651698070066 0 0.000171096599499109 -0.023895475993729289 0 0.00023261328712012943 -0.023687333414963676 0 0.00017292574705119216 -0.023624025129994786 0 0.00020804630044520529 -0.023748116467899639 0 0.00023261328712012943 -0.023687333414963676 0 0.00025121240953869718 -0.023681357925660364 0 0.00022617085745674792 -0.023699651698070066 0 0.00020804630044520529 -0.023748116467899639 0 0.00025121240953869718 -0.023681357925660364 0 0.000171096599499109 -0.023895475993729289 0 0.00020804630044520529 -0.023748116467899639 0 0.00023261328712012943 -0.023687333414963676 0 0.000171096599499109 -0.023895475993729289 0 0.00021557246244128305 -0.023712810388744215 0 0.00020804630044520529 -0.023748116467899639 0 0.00027513719072492929 -0.023681404695009723 0 0.00025121240953869718 -0.023681357925660364 0 0.00029449491992570551 -0.023610556572694064 0 0.00023261328712012943 -0.023687333414963676 0 0.00025121240953869718 -0.023681357925660364 0 0.00029449491992570551 -0.023610556572694064 0 0.00027513719072492929 -0.023681404695009723 0 0.00034971312705182878 -0.023656346258736718 0 0.00029449491992570551 -0.023610556572694064 0 -0.0021085448086946719 -0.014615034380863564 0 -0.0016391738785983478 -0.014469265610509 0 -0.0019146910916522338 -0.014191288525125478 0 -0.0021085448086946719 -0.014615034380863564 0 -0.0018996945493154056 -0.014845992863691595 0 -0.0016391738785983478 -0.014469265610509 0 -0.0010625824165604863 -0.020608712992929608 0 -0.0008269938635643132 -0.018864092234288993 0 -0.0022866606907818126 -0.015047320189564659 0 -0.0021085448086946719 -0.014615034380863564 0 -0.0018996945493154056 -0.014845992863691595 0 -0.0016391738785983478 -0.014469265610509 0 -0.0013574141498849124 -0.014229653689934381 0 -0.0012215884537616969 -0.014434369554210812 0 -0.0016391738785983478 -0.014469265610509 0 -0.0013749092091833192 -0.01469986753083978 0 -0.0012215884537616969 -0.014434369554210812 0 -0.0013749092091833192 -0.01469986753083978 0 -0.001621075084658527 -0.01479350231219528 0 -0.0013928318102878153 -0.014897319417908433 0 -0.0018996945493154056 -0.014845992863691595 0 -0.0016391738785983478 -0.014469265610509 0 -0.001621075084658527 -0.01479350231219528 0 -0.0016391738785983478 -0.014469265610509 0 -0.0013749092091833192 -0.01469986753083978 0 -0.001621075084658527 -0.01479350231219528 0 -0.001621075084658527 -0.01479350231219528 0 -0.0015591058314316749 -0.015031976535170364 0 -0.0017718718451732345 -0.015007836935410914 0 -0.001621075084658527 -0.01479350231219528 0 -0.0015591058314316749 -0.015031976535170364 0 -0.0013928318102878153 -0.014897319417908433 0 -0.0013749092091833192 -0.01469986753083978 0 -0.0013928318102878153 -0.014897319417908433 0 -0.0011890619369289788 -0.014884650520988935 0 -0.0015591058314316749 -0.015031976535170364 0 -0.0013928318102878153 -0.014897319417908433 0 -0.0013505801073452253 -0.015079725800131122 0 -0.0015591058314316749 -0.015031976535170364 0 -0.0013505801073452253 -0.015079725800131122 0 -0.0014831358298653609 -0.015185025089608707 0 -0.0015086588564427704 -0.015333906839763406 0 -0.0014831358298653609 -0.015185025089608707 0 -0.0013860729711910752 -0.015279764372235792 0 -0.0013505801073452253 -0.015079725800131122 0 -0.0014831358298653609 -0.015185025089608707 0 -0.0013860729711910752 -0.015279764372235792 0 -0.0015591058314316749 -0.015031976535170364 0 -0.0014831358298653609 -0.015185025089608707 0 -0.0017595634937785536 -0.015226203453476151 0 -0.0017676618231758446 -0.019259183423857164 0 -0.0015821590222664 -0.018902340770234061 0 -0.0015086588564427704 -0.015333906839763406 0 -0.0014831358298653609 -0.015185025089608707 0 -0.0017595634937785536 -0.015226203453476151 0 -0.0015591058314316749 -0.015031976535170364 0 -0.0017595634937785536 -0.015226203453476151 0 -0.0017718718451732345 -0.015007836935410914 0 -0.0014835493001214635 -0.022551163608140239 0 -0.0015344030489130925 -0.02255502738135208 0 -0.001466629941931236 -0.022606005400848016 0 -0.0015821590222664 -0.018902340770234061 0 -0.0019743242573403998 -0.018687730139343078 0 -0.0017595634937785536 -0.015226203453476151 0 -0.0020182283463706951 -0.015134890963485546 0 -0.0017718718451732345 -0.015007836935410914 0 -0.0014175133195071781 -0.022566142811361711 0 -0.0014835493001214635 -0.022551163608140239 0 -0.001466629941931236 -0.022606005400848016 0 -0.0014175133195071781 -0.022566142811361711 0 -0.0014111153227363306 -0.022613904815951498 0 -0.001466629941931236 -0.022606005400848016 0 -0.0014111153227363306 -0.022613904815951498 0 -0.0013892941448667882 -0.022653321288147225 0 -0.001466629941931236 -0.022606005400848016 0 -0.0010625824165604863 -0.020608712992929608 0 -0.0019743242573403998 -0.018687730139343078 0 -0.0022866606907818126 -0.015047320189564659 0 -0.0018996945493154056 -0.014845992863691595 0 -0.0020182283463706951 -0.015134890963485546 0 -0.0018996945493154056 -0.014845992863691595 0 -0.0020182283463706951 -0.015134890963485546 0 -0.0017718718451732345 -0.015007836935410914 0 -0.0018996945493154056 -0.014845992863691595 0 -0.001621075084658527 -0.01479350231219528 0 -0.0017718718451732345 -0.015007836935410914 0 -0.0014949918475993761 -0.033524919167067443 0 -0.001302865415228958 -0.033175741231860054 0 -4.5657698668072608e-09 -0.034999983578260827 0 -3.9630936141578735e-06 -0.03499515626093698 0 -4.0470349076694729e-06 -0.034990779714360043 0 -0.0022849645841881028 -0.031930912756504636 0 -0.0017996563511498882 -0.031298399562747756 0 -0.0024835019158001006 -0.030663091027865845 0 -0.002879197638463696 -0.03207485023003722 0 -0.0022849645841881028 -0.031930912756504636 0 -0.0026249630353409243 -0.031464267306376754 0 -0.0023176997297674248 -0.031818537579472089 0 -0.002400610216085361 -0.031131923268825922 0 -0.002879197638463696 -0.03207485023003722 0 -0.0022849645841881028 -0.031930912756504636 0 -0.0024952642178044625 -0.032516454215731058 0 -0.0022849645841881028 -0.031930912756504636 0 -0.0024952642178044625 -0.032516454215731058 0 -0.0016495591822772129 -0.032694781453709569 0 -0.002879197638463696 -0.03207485023003722 0 -0.0024952642178044625 -0.032516454215731058 0 -0.0031361414797067368 -0.032932453904081394 0 -3.9630936141578735e-06 -0.03499515626093698 0 -9.8286701349326617e-09 -0.034999988008341872 0 -1.5319970008841453e-06 -0.034998614259936611 0 -4.5657698668072608e-09 -0.034999983578260827 0 -3.9630936141578735e-06 -0.03499515626093698 0 -9.8286701349326617e-09 -0.034999988008341872 0 -0.0014949918475993761 -0.033524919167067443 0 -0.00088531020965016967 -0.034227066518537491 0 -0.00088531020965016967 -0.034227066518537491 0 -0.0011709223956175622 -0.033833410244451807 0 4.3646976397527306e-05 -0.034666130713936372 0 0.00015049503258571413 -0.034747197935513958 0 0.00027391995222841967 -0.03459819604840525 0 -9.7913448265805737e-07 -0.034998070385443579 0 -0.00088531020965016967 -0.034227066518537491 0 -3.4435521457145564e-09 -0.034999993797073095 0 -1.1566321743249232e-06 -0.034999080916913665 0 -1.4753521819327619e-10 -0.035000000168269291 0 -0.00088531020965016967 -0.034227066518537491 0 -4.4584279113417276e-07 -0.034999945063747394 0 4.3646976397527306e-05 -0.034666130713936372 0 0.00015049503258571413 -0.034747197935513958 0 5.7939925971434175e-08 -0.034998968748713478 0 2.2519455729096175e-07 -0.034999600207479144 0 5.7939925971434175e-08 -0.034998968748713478 0 0.00020932706043725612 -0.034680569506667827 0 0.00015049503258571413 -0.034747197935513958 0 5.7939925971434175e-08 -0.034998968748713478 0 0.00020932706043725612 -0.034680569506667827 0 0.00028672146492295792 -0.034427828077975488 0 0.00030110117402480495 -0.034437209680155616 0 0.00020932706043725612 -0.034680569506667827 0 0.00020932706043725612 -0.034680569506667827 0 0.00029548788051054478 -0.034515091177477211 0 0.00027391995222841967 -0.03459819604840525 0 0.00030110117402480495 -0.034437209680155616 0 0.00020932706043725612 -0.034680569506667827 0 0.00029548788051054478 -0.034515091177477211 0 -0.0024952642178044625 -0.032516454215731058 0 -0.0031361414797067368 -0.032932453904081394 0 -0.0023486961918660677 -0.033148360752521179 0 -0.0024952642178044625 -0.032516454215731058 0 -0.0023486961918660677 -0.033148360752521179 0 -0.0016495591822772129 -0.032694781453709569 0 0.00015049503258571413 -0.034747197935513958 0 0.00020932706043725612 -0.034680569506667827 0 0.00027391995222841967 -0.03459819604840525 0 -0.0023486961918660677 -0.033148360752521179 0 -0.0014830290390445587 -0.033374876608855006 0 -0.0016495591822772129 -0.032694781453709569 0 0.00029548788051054478 -0.034515091177477211 0 0.00027391995222841967 -0.03459819604840525 0 0.00028862248777277572 -0.034470240430764375 0 -0.0014830290390445587 -0.033374876608855006 0 -0.0011537093450903965 -0.033205665215573756 0 -0.0016495591822772129 -0.032694781453709569 0 0.00027391995222841967 -0.03459819604840525 0 0.00028753596325708857 -0.034457403066945197 0 0.00028862248777277572 -0.034470240430764375 0 -0.0011709223956175622 -0.033833410244451807 0 -0.00052235044364909965 -0.033782672488600375 0 -0.00052235044364909965 -0.033782672488600375 0 -0.00034226100985842051 -0.033818181499646251 0 0.00030110117402480495 -0.034437209680155616 0 0.00029548788051054478 -0.034515091177477211 0 0.00029946146981219853 -0.034388021852672514 0 0.00029548788051054478 -0.034515091177477211 0 0.00029946146981219853 -0.034388021852672514 0 0.00028862248777277572 -0.034470240430764375 0 0.00025245153143726897 -0.034506278545682376 0 0.00028862248777277572 -0.034470240430764375 0 0.00025089337991540716 -0.034326289248886102 0 0.00029946146981219853 -0.034388021852672514 0 0.00028862248777277572 -0.034470240430764375 0 0.00025089337991540716 -0.034326289248886102 0 0.00026423448370979484 -0.03386540044986968 0 0.00031722693200876724 -0.034184047147375732 0 0.00025089337991540716 -0.034326289248886102 0 0.00031722693200876724 -0.034184047147375732 0 0.00029946146981219853 -0.034388021852672514 0 0.00025089337991540716 -0.034326289248886102 0 0.00031722693200876724 -0.034184047147375732 0 0.00030110117402480495 -0.034437209680155616 0 0.00029946146981219853 -0.034388021852672514 0 0.00026423448370979484 -0.03386540044986968 0 0.00025089337991540716 -0.034326289248886102 0 7.0907592603701791e-05 -0.034495763746875678 0 0.00024412683792068772 -0.033954405436731547 0 -0.00012059935982923375 -0.033842912767080825 0 0.00026423448370979484 -0.03386540044986968 0 0.00018699263629302557 -0.033507631090256999 0 0.0003132650652092408 -0.033596968276413078 0 0.00025245153143726897 -0.034506278545682376 0 0.00025089337991540716 -0.034326289248886102 0 7.0907592603701791e-05 -0.034495763746875678 0 0.00018699263629302557 -0.033507631090256999 0 0.00025362547580957251 -0.033525664662595378 0 0.0003132650652092408 -0.033596968276413078 0 0.00025362547580957251 -0.033525664662595378 0 0.00020420976104749115 -0.033473828810799792 0 0.00025027868185894571 -0.033488397468133362 0 -0.00053016593874830021 -0.033460130044255056 0 -0.00052892118871581881 -0.033460077892106206 0 -0.00052952954436784815 -0.03345801345183308 0 0.00018699263629302557 -0.033507631090256999 0 0.00025362547580957251 -0.033525664662595378 0 0.00020420976104749115 -0.033473828810799792 0 -0.00052235044364909965 -0.033782672488600375 0 -0.00012059935982923375 -0.033842912767080825 0 -0.00052235044364909965 -0.033782672488600375 0 -0.00068401356671131169 -0.032804037150680525 0 -0.00012059935982923375 -0.033842912767080825 0 -0.00068401356671131169 -0.032804037150680525 0 -0.0011708405258046032 -0.031433164446916732 0 -0.0012164727502899718 -0.030447297946241621 0 -0.00026824230339289861 -0.030920542303761445 0 -0.0011537093450903965 -0.033205665215573756 0 -0.0011622363602115486 -0.032126601876267903 0 -0.0016495591822772129 -0.032694781453709569 0 -0.00068401356671131169 -0.032804037150680525 0 -0.0012388392739111416 -0.031171236567577847 0 -0.0022849645841881028 -0.031930912756504636 0 -0.0011622363602115486 -0.032126601876267903 0 -0.0016495591822772129 -0.032694781453709569 0 -0.0011622363602115486 -0.032126601876267903 0 -0.0017996563511498882 -0.031298399562747756 0 -0.0011240894362036368 -0.030751941209367441 0 -0.0022849645841881028 -0.031930912756504636 0 -0.0011622363602115486 -0.032126601876267903 0 -0.0017996563511498882 -0.031298399562747756 0 -0.0012164727502899718 -0.030447297946241621 0 -0.00035294778047469648 -0.030049180466121886 0 -0.0012676996527847448 -0.029481014865086651 0 -0.0012388392739111416 -0.031171236567577847 0 -0.0011950918134684334 -0.030135250746759591 0 -0.00035294778047469648 -0.030049180466121886 0 0.00059095336740135171 -0.0303966545279497 0 0.00038981160593561776 -0.02967000255285349 0 0.00022829133716136915 -0.033449381373015549 0 0.00016772643941804347 -0.033420729210892716 0 8.4655124825993287e-05 -0.03332544901986511 0 -0.00035294778047469648 -0.030049180466121886 0 -0.00026824230339289861 -0.030920542303761445 0 0.00059095336740135171 -0.0303966545279497 0 2.9708656624713679e-05 -0.032119576990790585 0 0.00033847426495688175 -0.031866809925683699 0 -0.0012164727502899718 -0.030447297946241621 0 -0.00035294778047469648 -0.030049180466121886 0 -0.00026824230339289861 -0.030920542303761445 0 -0.00068401356671131169 -0.032804037150680525 0 2.9708656624713679e-05 -0.032119576990790585 0 0.00020420976104749115 -0.033473828810799792 0 0.00022829133716136915 -0.033449381373015549 0 0.00025027868185894571 -0.033488397468133362 0 0.00022829133716136915 -0.033449381373015549 0 0.00024682849682222148 -0.033463934995172098 0 0.00025027868185894571 -0.033488397468133362 0 0.00024682849682222148 -0.033463934995172098 0 0.00025027868185894571 -0.033488397468133362 0 0.0003132650652092408 -0.033596968276413078 0 0.00024682849682222148 -0.033463934995172098 0 0.0003132650652092408 -0.033596968276413078 0 0.00026383723264962109 -0.033451988771922618 0 0.00025362547580957251 -0.033525664662595378 0 0.00025027868185894571 -0.033488397468133362 0 0.0003132650652092408 -0.033596968276413078 0 0.00014823352243518504 -0.033322390500617437 0 0.00026383723264962109 -0.033451988771922618 0 0.00015614631828086268 -0.033399230737713982 0 0.00024682849682222148 -0.033463934995172098 0 0.00026383723264962109 -0.033451988771922618 0 0.00019578861796300771 -0.033434862205922004 0 0.00026383723264962109 -0.033451988771922618 0 0.00019578861796300771 -0.033434862205922004 0 0.00015614631828086268 -0.033399230737713982 0 0.00019578861796300771 -0.033434862205922004 0 0.00015050669957373492 -0.033414301695012964 0 0.00015614631828086268 -0.033399230737713982 0 0.00024682849682222148 -0.033463934995172098 0 0.00019578861796300771 -0.033434862205922004 0 0.00016772643941804347 -0.033420729210892716 0 0.00022829133716136915 -0.033449381373015549 0 0.00024682849682222148 -0.033463934995172098 0 0.00016772643941804347 -0.033420729210892716 0 0.00019578861796300771 -0.033434862205922004 0 0.00016772643941804347 -0.033420729210892716 0 0.00015050669957373492 -0.033414301695012964 0 0.00016772643941804347 -0.033420729210892716 0 0.00012709716600132118 -0.033402441656076441 0 0.00015050669957373492 -0.033414301695012964 0 0.00012709716600132118 -0.033402441656076441 0 7.3915310668166417e-05 -0.033384407378644052 0 0.00010840144788520918 -0.033387068870053334 0 0.00012709716600132118 -0.033402441656076441 0 0.00010162028660868711 -0.033386116723749477 0 6.7931662512274517e-05 -0.033372256439715635 0 0.00012709716600132118 -0.033402441656076441 0 0.00015050669957373492 -0.033414301695012964 0 0.00010162028660868711 -0.033386116723749477 0 0.00015050669957373492 -0.033414301695012964 0 0.00015614631828086268 -0.033399230737713982 0 0.00010162028660868711 -0.033386116723749477 0 0.00015614631828086268 -0.033399230737713982 0 0.00010162028660868711 -0.033386116723749477 0 4.7949772446822371e-05 -0.033317224808967628 0 0.00010162028660868711 -0.033386116723749477 0 4.7949772446822371e-05 -0.033317224808967628 0 2.3408477311799718e-05 -0.033330314786786996 0 0.00014823352243518504 -0.033322390500617437 0 0.00015614631828086268 -0.033399230737713982 0 4.7949772446822371e-05 -0.033317224808967628 0 -2.5354104115177208e-05 -0.033256564507155535 0 -2.1828348003055706e-05 -0.033303633915506281 0 2.3408477311799718e-05 -0.033330314786786996 0 -2.5354104115177208e-05 -0.033256564507155535 0 4.7949772446822371e-05 -0.033317224808967628 0 2.3408477311799718e-05 -0.033330314786786996 0 0.00010162028660868711 -0.033386116723749477 0 2.3408477311799718e-05 -0.033330314786786996 0 6.7931662512274517e-05 -0.033372256439715635 0 4.43581760055777e-07 -0.033356043820561974 0 2.3408477311799718e-05 -0.033330314786786996 0 6.7931662512274517e-05 -0.033372256439715635 0 4.43581760055777e-07 -0.033356043820561974 0 6.7931662512274517e-05 -0.033372256439715635 0 7.3915310668166417e-05 -0.033384407378644052 0 0.00012709716600132118 -0.033402441656076441 0 6.7931662512274517e-05 -0.033372256439715635 0 7.3915310668166417e-05 -0.033384407378644052 0 2.2012935116079814e-05 -0.033422594201362663 0 0.00010840144788520918 -0.033387068870053334 0 0.00015055380207573563 -0.033359096428463471 0 0.00063698547001780057 -0.033593818312474294 0 6.3457515637802827e-05 -0.033285381333780839 0 2.2012935116079814e-05 -0.033422594201362663 0 7.3915310668166417e-05 -0.033384407378644052 0 0.00010840144788520918 -0.033387068870053334 0 0.00010840144788520918 -0.033387068870053334 0 0.0001344372178636339 -0.033389908695161966 0 0.00015055380207573563 -0.033359096428463471 0 0.00012709716600132118 -0.033402441656076441 0 0.00010840144788520918 -0.033387068870053334 0 0.0001344372178636339 -0.033389908695161966 0 0.00016772643941804347 -0.033420729210892716 0 0.00012709716600132118 -0.033402441656076441 0 0.0001344372178636339 -0.033389908695161966 0 0.00016772643941804347 -0.033420729210892716 0 0.0001344372178636339 -0.033389908695161966 0 8.4655124825993287e-05 -0.03332544901986511 0 0.0001344372178636339 -0.033389908695161966 0 0.00015055380207573563 -0.033359096428463471 0 8.4655124825993287e-05 -0.03332544901986511 0 0.00059095336740135171 -0.0303966545279497 0 0.001364629966465702 -0.029907540045928414 0 0.00038981160593561776 -0.02967000255285349 0 0.00033847426495688175 -0.031866809925683699 0 0.00099503863812907688 -0.031299756334740511 0 0.00015055380207573563 -0.033359096428463471 0 8.4655124825993287e-05 -0.03332544901986511 0 0.0006161561661254273 -0.03278049763678504 0 0.00087298253347734304 -0.033285654563657278 0 0.00015055380207573563 -0.033359096428463471 0 0.0006161561661254273 -0.03278049763678504 0 0.001578882395476126 -0.029119042439552292 0 0.001364629966465702 -0.029907540045928414 0 0.00088496221269145808 -0.029177628599519286 0 0.001364629966465702 -0.029907540045928414 0 0.00088496221269145808 -0.029177628599519286 0 0.00038981160593561776 -0.02967000255285349 0 0.00088496221269145808 -0.029177628599519286 0 0.00015464276433454618 -0.029067129031662347 0 0.00038981160593561776 -0.02967000255285349 0 0.00088496221269145808 -0.029177628599519286 0 0.0012701433989699726 -0.028663608938662488 0 0.00055278294557314174 -0.028631716359071035 0 0.00088496221269145808 -0.029177628599519286 0 0.00055278294557314174 -0.028631716359071035 0 0.00015464276433454618 -0.029067129031662347 0 0.001578882395476126 -0.029119042439552292 0 0.00088496221269145808 -0.029177628599519286 0 0.0012701433989699726 -0.028663608938662488 0 0.0015179401248249908 -0.029038146434561068 0 0.0012365589172473024 -0.02862828028126984 0 0.0014953308856903676 -0.027957756568816192 0 0.0011207066628864267 -0.028482402923631175 0 0.0006992652061021511 -0.02785122351443645 0 0.0012365589172473024 -0.02862828028126984 0 0.00078850019089126897 -0.027653082668440798 0 0.00078850019089126897 -0.027653082668440798 0 0.0011086491225482361 -0.02587208068271997 0 0.0014953308856903676 -0.027957756568816192 0 0.0006992652061021511 -0.02785122351443645 0 0.0014619107981011775 -0.027001247136613012 0 0.00052951282117030449 -0.02613893920314142 0 0.00050078812322971935 -0.026401349331120805 0 0.00079097230435688543 -0.026081947475135554 0 0.0013259688879326502 -0.027884818639143414 0 0.00042436367506920011 -0.027798431505727368 0 0.00074460968114624577 -0.026946061657336561 0 0.00052951282117030449 -0.02613893920314142 0 0.00050078812322971935 -0.026401349331120805 0 0.00030080249132470078 -0.02607447696404977 0 0.00078850019089126897 -0.027653082668440798 0 0.00050021772466825169 -0.026413852187327766 0 0.0012701433989699726 -0.028663608938662488 0 0.00095457822255431957 -0.028184802744720197 0 0.00055278294557314174 -0.028631716359071035 0 0.0013259688879326502 -0.027884818639143414 0 0.00076218954397006097 -0.028486641906239642 0 0.00042436367506920011 -0.027798431505727368 0 0.00078850019089126897 -0.027653082668440798 0 0.00064546010873465262 -0.02857441266339384 0 0.00076218954397006097 -0.028486641906239642 0 7.4387602957152988e-05 -0.028389327565003158 0 0.00042436367506920011 -0.027798431505727368 0 7.4387602957152988e-05 -0.028389327565003158 0 0.00042436367506920011 -0.027798431505727368 0 -0.00030313224960571859 -0.027885030592764981 0 0.00042436367506920011 -0.027798431505727368 0 -3.2808831723859511e-05 -0.027171660404441147 0 -0.00030313224960571859 -0.027885030592764981 0 0.00042436367506920011 -0.027798431505727368 0 -3.2808831723859511e-05 -0.027171660404441147 0 0.00074460968114624577 -0.026946061657336561 0 -3.2808831723859511e-05 -0.027171660404441147 0 -0.00030313224960571859 -0.027885030592764981 0 -0.00074879424636825533 -0.027313371881995074 0 -0.00030313224960571859 -0.027885030592764981 0 -0.0008851147754535628 -0.027952127746066296 0 -0.00074879424636825533 -0.027313371881995074 0 -0.00030313224960571859 -0.027885030592764981 0 -0.00059277639919883159 -0.028656452301870125 0 -0.0008851147754535628 -0.027952127746066296 0 7.4387602957152988e-05 -0.028389327565003158 0 -0.00030313224960571859 -0.027885030592764981 0 -0.00059277639919883159 -0.028656452301870125 0 -0.00059277639919883159 -0.028656452301870125 0 0.00015464276433454618 -0.029067129031662347 0 -0.00038188221268748909 -0.029342417773471786 0 7.4387602957152988e-05 -0.028389327565003158 0 -0.00059277639919883159 -0.028656452301870125 0 0.00015464276433454618 -0.029067129031662347 0 0.00064546010873465262 -0.02857441266339384 0 0.00022016756398571616 -0.029009333724272626 0 0.00076218954397006097 -0.028486641906239642 0 7.4387602957152988e-05 -0.028389327565003158 0 0.00015464276433454618 -0.029067129031662347 0 0.00015464276433454618 -0.029067129031662347 0 0.00038981160593561776 -0.02967000255285349 0 -0.00038188221268748909 -0.029342417773471786 0 -0.00035294778047469648 -0.030049180466121886 0 0.00038981160593561776 -0.02967000255285349 0 -0.00038188221268748909 -0.029342417773471786 0 -0.00035294778047469648 -0.030049180466121886 0 -0.00038188221268748909 -0.029342417773471786 0 -0.0012676996527847448 -0.029481014865086651 0 -0.0017996563511498882 -0.031298399562747756 0 -0.0011240894362036368 -0.030751941209367441 0 -0.0018024748148907255 -0.029994965055289782 0 -0.0017996563511498882 -0.031298399562747756 0 -0.0018024748148907255 -0.029994965055289782 0 -0.0024835019158001006 -0.030663091027865845 0 -0.0011240894362036368 -0.030751941209367441 0 -0.0018024748148907255 -0.029994965055289782 0 -0.0011941573026121989 -0.029099265889740617 0 -0.0018024748148907255 -0.029994965055289782 0 -0.0018991828188218089 -0.029248128664643158 0 -0.0025975208085784506 -0.02927597243029641 0 -0.0018024748148907255 -0.029994965055289782 0 -0.0018991828188218089 -0.029248128664643158 0 -0.0011941573026121989 -0.029099265889740617 0 -0.00059277639919883159 -0.028656452301870125 0 -0.0012676996527847448 -0.029481014865086651 0 -0.0013400635395953708 -0.028456673356880381 0 -0.0011950918134684334 -0.030135250746759591 0 -0.0012776838986621175 -0.028757465847179055 0 -0.00059277639919883159 -0.028656452301870125 0 -0.00038188221268748909 -0.029342417773471786 0 -0.0012676996527847448 -0.029481014865086651 0 -0.0013400635395953708 -0.028456673356880381 0 -0.0008851147754535628 -0.027952127746066296 0 -0.0014169242992257336 -0.027428183110921021 0 -0.00059277639919883159 -0.028656452301870125 0 -0.0013400635395953708 -0.028456673356880381 0 -0.0008851147754535628 -0.027952127746066296 0 -0.0012776838986621175 -0.028757465847179055 0 -0.0013935382498772944 -0.027522245126561259 0 -0.0008851147754535628 -0.027952127746066296 0 -0.00074879424636825533 -0.027313371881995074 0 -0.0014169242992257336 -0.027428183110921021 0 -0.0014169242992257336 -0.027428183110921021 0 -0.0020139721728130084 -0.027807973762850675 0 -0.0024801460307659691 -0.027425824856585648 0 -0.0014169242992257336 -0.027428183110921021 0 -0.0020139721728130084 -0.027807973762850675 0 -0.0019790063744377106 -0.028523185795156208 0 -0.0020139721728130084 -0.027807973762850675 0 -0.0019790063744377106 -0.028523185795156208 0 -0.0026241598055068292 -0.027877283912475424 0 -0.0011941573026121989 -0.029099265889740617 0 -0.0014169242992257336 -0.027428183110921021 0 -0.0019790063744377106 -0.028523185795156208 0 -0.0018991828188218089 -0.029248128664643158 0 -0.0011941573026121989 -0.029099265889740617 0 -0.0019790063744377106 -0.028523185795156208 0 -0.0018991828188218089 -0.029248128664643158 0 -0.0019790063744377106 -0.028523185795156208 0 -0.0025975208085784506 -0.02927597243029641 0 -0.0015590907365029604 -0.03120410829381598 0 -0.001247613341387952 -0.0333494908460754 0 -0.0015590907365029604 -0.03120410829381598 0 -0.0025291900052600231 -0.029789986762651936 0 -0.0019790063744377106 -0.028523185795156208 0 -0.0026241598055068292 -0.027877283912475424 0 -0.0025975208085784506 -0.02927597243029641 0 -0.0023313474748664909 -0.030781420825003371 0 -0.002456729509320152 -0.031077933162073568 0 -0.002357767549987596 -0.031063519942108785 0 1.2934410514107992e-05 -0.034936030091792782 0 -6.049535314454779e-06 -0.03498529350773253 0 -8.6339542811495275e-07 -0.034983678288167633 0 -0.0010731872161185109 -0.032119086060922425 0 2.9307903198626841e-06 -0.035447021588948087 0 -0.0020139721728130084 -0.027807973762850675 0 -0.0026241598055068292 -0.027877283912475424 0 -0.0024801460307659691 -0.027425824856585648 0 1.2934410514107992e-05 -0.034936030091792782 0 9.6565962473877078e-06 -0.034913393939373712 0 -6.049535314454779e-06 -0.03498529350773253 0 -0.0015590907365029604 -0.03120410829381598 0 -0.0010731872161185109 -0.032119086060922425 0 -0.0015590907365029604 -0.03120410829381598 0 -0.00091339845989772488 -0.030393745258492144 0 -0.0015072869635810021 -0.031231037711571961 0 -0.0015252348091149585 -0.031329776403025082 0 -0.0015010189026840278 -0.031313498255328531 0 -0.00091339845989772488 -0.030393745258492144 0 -0.0010731872161185109 -0.032119086060922425 0 -8.4313466539946339e-09 -0.034999945988984038 0 -5.340010126297651e-06 -0.034986046651140155 0 -6.049535314454779e-06 -0.03498529350773253 0 -1.1305785489308807e-05 -0.034969117977092477 0 -5.340010126297651e-06 -0.034986046651140155 0 -6.049535314454779e-06 -0.03498529350773253 0 -8.4313466539946339e-09 -0.034999945988984038 0 -6.049535314454779e-06 -0.03498529350773253 0 -6.8681535780509659e-09 -0.034999982456606175 0 -6.049535314454779e-06 -0.03498529350773253 0 -6.8681535780509659e-09 -0.034999982456606175 0 -8.6339542811495275e-07 -0.034983678288167633 0 -6.8681535780509659e-09 -0.034999982456606175 0 -8.6339542811495275e-07 -0.034983678288167633 0 -4.0470349076694729e-06 -0.034990779714360043 0 -0.001247613341387952 -0.0333494908460754 0 -0.001302865415228958 -0.033175741231860054 0 -0.002456729509320152 -0.031077933162073568 0 -0.002357767549987596 -0.031063519942108785 0 -0.0023468974168906879 -0.031429284345411403 0 -0.0018024748148907255 -0.029994965055289782 0 -0.0025975208085784506 -0.02927597243029641 0 -0.0024835019158001006 -0.030663091027865845 0 -0.0025291900052600231 -0.029789986762651936 0 -0.002400610216085361 -0.031131923268825922 0 -0.002456729509320152 -0.031077933162073568 0 -0.0023468974168906879 -0.031429284345411403 0 -0.0026249630353409243 -0.031464267306376754 0 -0.0022849645841881028 -0.031930912756504636 0 -0.0023468974168906879 -0.031429284345411403 0 -0.0026249630353409243 -0.031464267306376754 0 -4.5657698668072608e-09 -0.034999983578260827 0 -6.8681535780509659e-09 -0.034999982456606175 0 -4.0470349076694729e-06 -0.034990779714360043 0 -5.3104103472252228e-09 -0.034999960664226372 0 -6.656010705860835e-06 -0.034965598837979221 0 -1.9992915855540931e-09 -0.03499996178997148 0 -0.0012044579206576408 -0.028319447042786178 0 -0.0010488121220060896 -0.028088524727015979 0 -0.0011470027882132655 -0.027935277510483709 0 -6.7574621047026958e-06 -0.0349662789832801 0 -5.3104103472252228e-09 -0.034999960664226372 0 -6.656010705860835e-06 -0.034965598837979221 0 -0.00060815530029548843 -0.031659174893320187 0 -0.00057721772649715181 -0.031402195652689882 0 -0.00060815530029548843 -0.031659174893320187 0 -0.00057144437304563578 -0.031819623090818941 0 -6.7574621047026958e-06 -0.0349662789832801 0 -4.0039256186230879e-06 -0.034983739008225455 0 -8.3613100442068356e-06 -0.034968170596163278 0 -6.7574621047026958e-06 -0.0349662789832801 0 -5.3104103472252228e-09 -0.034999960664226372 0 -4.0039256186230879e-06 -0.034983739008225455 0 -5.3104103472252228e-09 -0.034999960664226372 0 -4.0039256186230879e-06 -0.034983739008225455 0 -5.187830026771063e-09 -0.034999971307899808 0 -4.0039256186230879e-06 -0.034983739008225455 0 -5.187830026771063e-09 -0.034999971307899808 0 -8.3613100442068356e-06 -0.034968170596163278 0 -5.340010126297651e-06 -0.034986046651140155 0 -5.187830026771063e-09 -0.034999971307899808 0 -8.3613100442068356e-06 -0.034968170596163278 0 -8.4313466539946339e-09 -0.034999945988984038 0 -5.340010126297651e-06 -0.034986046651140155 0 -5.187830026771063e-09 -0.034999971307899808 0 -0.0011947296909213193 -0.029099959129507604 0 -0.0012273747573342503 -0.02912357305276983 0 -0.0012259974513604995 -0.028702440399151301 0 -0.0010731872161185109 -0.032119086060922425 0 -0.00057144437304563578 -0.031819623090818941 0 -1.1305785489308807e-05 -0.034969117977092477 0 -5.340010126297651e-06 -0.034986046651140155 0 -8.3613100442068356e-06 -0.034968170596163278 0 -0.0012044579206576408 -0.028319447042786178 0 -0.0012259974513604995 -0.028702440399151301 0 -0.00096295925141467304 -0.028544128586298317 0 -0.0012259974513604995 -0.028702440399151301 0 -0.00096295925141467304 -0.028544128586298317 0 -0.00082507394111368813 -0.028799459891368385 0 -0.00091339845989772488 -0.030393745258492144 0 -0.0011134206224048689 -0.027413745578656525 0 -0.0014169242992257336 -0.027428183110921021 0 -0.0024801460307659691 -0.027425824856585648 0 -0.0012207168259794428 -0.026595188115447872 0 -0.0011947296909213193 -0.029099959129507604 0 -0.0012259974513604995 -0.028702440399151301 0 -0.00082507394111368813 -0.028799459891368385 0 -0.00074879424636825533 -0.027313371881995074 0 -0.0014169242992257336 -0.027428183110921021 0 -0.0012207168259794428 -0.026595188115447872 0 -0.00074879424636825533 -0.027313371881995074 0 -0.0012207168259794428 -0.026595188115447872 0 -0.00053678237705494811 -0.026810466358350049 0 -0.00096295925141467304 -0.028544128586298317 0 -0.00073254297571035212 -0.02853680494541002 0 -0.00082876378855262678 -0.028380776772680007 0 -0.00082507394111368813 -0.028799459891368385 0 -0.00073254297571035212 -0.02853680494541002 0 -0.00048979064752432532 -0.028495800009829139 0 -0.00096295925141467304 -0.028544128586298317 0 -0.00082507394111368813 -0.028799459891368385 0 -0.00073254297571035212 -0.02853680494541002 0 -0.00082876378855262678 -0.028380776772680007 0 -0.00086653152534785845 -0.028153475177680274 0 -0.00063325695285650638 -0.028215688595512916 0 -0.00073254297571035212 -0.02853680494541002 0 -0.00082876378855262678 -0.028380776772680007 0 -0.0006358714036490135 -0.028396400925213651 0 -0.00082876378855262678 -0.028380776772680007 0 -0.00063325695285650638 -0.028215688595512916 0 -0.0006358714036490135 -0.028396400925213651 0 -0.0012044579206576408 -0.028319447042786178 0 -0.00096295925141467304 -0.028544128586298317 0 -0.00082876378855262678 -0.028380776772680007 0 -0.0012044579206576408 -0.028319447042786178 0 -0.00082876378855262678 -0.028380776772680007 0 -0.00086653152534785845 -0.028153475177680274 0 -0.0012044579206576408 -0.028319447042786178 0 -0.0010488121220060896 -0.028088524727015979 0 -0.00086653152534785845 -0.028153475177680274 0 -0.0010488121220060896 -0.028088524727015979 0 -0.00086653152534785845 -0.028153475177680274 0 -0.00090984095978694217 -0.027971721649933858 0 -0.00086653152534785845 -0.028153475177680274 0 -0.00063325695285650638 -0.028215688595512916 0 -0.00070885237362066603 -0.027991718226002202 0 -0.00086653152534785845 -0.028153475177680274 0 -0.00070885237362066603 -0.027991718226002202 0 -0.00090984095978694217 -0.027971721649933858 0 -0.00063325695285650638 -0.028215688595512916 0 -0.00049354130624476101 -0.027994572017431885 0 -0.00070885237362066603 -0.027991718226002202 0 -0.00063325695285650638 -0.028215688595512916 0 -0.00041542702815598048 -0.028150701046813994 0 -0.00049354130624476101 -0.027994572017431885 0 -0.00041542702815598048 -0.028150701046813994 0 -0.00028407080905516795 -0.027977245903207035 0 -0.00049354130624476101 -0.027994572017431885 0 -0.00041542702815598048 -0.028150701046813994 0 -0.00017992262623867981 -0.028236295229937109 0 -0.00028407080905516795 -0.027977245903207035 0 -5.4401381930754482e-05 -0.025807425630442513 0 0.00010336550649780634 -0.025908751046862327 0 0.00042766742209491459 -0.025547615966675364 0 -0.00048897959647418955 -0.028330059635825532 0 -0.00048979064752432532 -0.028495800009829139 0 -0.00017992262623867981 -0.028236295229937109 0 -0.00041542702815598048 -0.028150701046813994 0 -0.00048897959647418955 -0.028330059635825532 0 -0.00017992262623867981 -0.028236295229937109 0 -0.00027288401615385032 -0.027184376266515094 0 0.0001426195470229861 -0.027022799921731268 0 -0.00063325695285650638 -0.028215688595512916 0 -0.00041542702815598048 -0.028150701046813994 0 -0.00048897959647418955 -0.028330059635825532 0 -0.00048897959647418955 -0.028330059635825532 0 -0.0006358714036490135 -0.028396400925213651 0 -0.00048979064752432532 -0.028495800009829139 0 -0.00063325695285650638 -0.028215688595512916 0 -0.00048897959647418955 -0.028330059635825532 0 -0.0006358714036490135 -0.028396400925213651 0 -0.0011134206224048689 -0.027413745578656525 0 -0.00027288401615385032 -0.027184376266515094 0 -0.0012207168259794428 -0.026595188115447872 0 -5.4401381930754482e-05 -0.025807425630442513 0 -0.00017905913932901138 -0.026428837269853754 0 -0.00073254297571035212 -0.02853680494541002 0 -0.0006358714036490135 -0.028396400925213651 0 -0.00048979064752432532 -0.028495800009829139 0 -5.4401381930754482e-05 -0.025807425630442513 0 -0.00017905913932901138 -0.026428837269853754 0 0.00010336550649780634 -0.025908751046862327 0 -3.2808831723859511e-05 -0.027171660404441147 0 -0.00074879424636825533 -0.027313371881995074 0 -0.00053678237705494811 -0.026810466358350049 0 -0.0012207168259794428 -0.026595188115447872 0 -0.00017905913932901138 -0.026428837269853754 0 -0.00053678237705494811 -0.026810466358350049 0 -3.2808831723859511e-05 -0.027171660404441147 0 -0.00017905913932901138 -0.026428837269853754 0 -0.00053678237705494811 -0.026810466358350049 0 -3.2808831723859511e-05 -0.027171660404441147 0 -0.00017905913932901138 -0.026428837269853754 0 0.00074460968114624577 -0.026946061657336561 0 0.00014115737694573804 -0.025971866201575086 0 0.00050021772466825169 -0.026413852187327766 0 -0.00017905913932901138 -0.026428837269853754 0 0.00010336550649780634 -0.025908751046862327 0 0.00074460968114624577 -0.026946061657336561 0 0.00010336550649780634 -0.025908751046862327 0 0.00036284357994789164 -0.025856514580553658 0 0.00030080249132470078 -0.02607447696404977 0 0.00010336550649780634 -0.025908751046862327 0 0.00036284357994789164 -0.025856514580553658 0 0.00042766742209491459 -0.025547615966675364 0 0.00036284357994789164 -0.025856514580553658 0 0.00057172046152147626 -0.025851585374133863 0 0.00053580468063153927 -0.025705622771494623 0 0.00036284357994789164 -0.025856514580553658 0 0.00030080249132470078 -0.02607447696404977 0 0.00057172046152147626 -0.025851585374133863 0 0.00052951282117030449 -0.02613893920314142 0 0.00030080249132470078 -0.02607447696404977 0 0.00057172046152147626 -0.025851585374133863 0 0.00052951282117030449 -0.02613893920314142 0 0.00057172046152147626 -0.025851585374133863 0 0.00079097230435688543 -0.026081947475135554 0 0.00054988337664998229 -0.025819469257421051 0 0.0011086491225482361 -0.02587208068271997 0 0.00057172046152147626 -0.025851585374133863 0 0.00067795983465281573 -0.025893162312883564 0 0.00067343158672176617 -0.025760611317228007 0 0.00057172046152147626 -0.025851585374133863 0 0.00064965871207561668 -0.025684649430232243 0 0.00067343158672176617 -0.025760611317228007 0 0.00057172046152147626 -0.025851585374133863 0 0.00053580468063153927 -0.025705622771494623 0 0.00064965871207561668 -0.025684649430232243 0 0.00053580468063153927 -0.025705622771494623 0 0.00064965871207561668 -0.025684649430232243 0 0.00061545570575664821 -0.02559869191345392 0 0.00053580468063153927 -0.025705622771494623 0 0.00061545570575664821 -0.02559869191345392 0 0.00042766742209491459 -0.025547615966675364 0 0.00064965871207561668 -0.025684649430232243 0 0.00061545570575664821 -0.02559869191345392 0 0.00072689888349633492 -0.025575381069333523 0 0.00036284357994789164 -0.025856514580553658 0 0.00053580468063153927 -0.025705622771494623 0 0.00042766742209491459 -0.025547615966675364 0 -0.00017992262623867981 -0.028236295229937109 0 -9.6051655589121028e-05 -0.027996892573807101 0 -0.00028407080905516795 -0.027977245903207035 0 0.0001426195470229861 -0.027022799921731268 0 0.00015209366268105313 -0.025860092906815568 0 -0.00017992262623867981 -0.028236295229937109 0 -9.6051655589121028e-05 -0.027996892573807101 0 0.00015859077962375651 -0.027988205128032517 0 0.00061545570575664821 -0.02559869191345392 0 0.00042766742209491459 -0.025547615966675364 0 0.00067810857717613281 -0.025427528699931003 0 -9.6051655589121028e-05 -0.027996892573807101 0 3.3620450700972582e-05 -0.02791392878446294 0 0.00015859077962375651 -0.027988205128032517 0 -9.6051655589121028e-05 -0.027996892573807101 0 -2.5697629197490636e-05 -0.027865134971216201 0 -0.0001376153985026598 -0.027763298649121523 0 0.00010332294314392103 -0.027827550898296943 0 -2.5697629197490636e-05 -0.027865134971216201 0 -0.0001376153985026598 -0.027763298649121523 0 0.00018156649290578395 -0.02592934229188263 0 0.00015209366268105313 -0.025860092906815568 0 0.00011931973254290719 -0.027882735525814165 0 3.3620450700972582e-05 -0.02791392878446294 0 0.00015859077962375651 -0.027988205128032517 0 0.00010332294314392103 -0.027827550898296943 0 0.00011931973254290719 -0.027882735525814165 0 3.3620450700972582e-05 -0.02791392878446294 0 0.00010332294314392103 -0.027827550898296943 0 3.3620450700972582e-05 -0.02791392878446294 0 -2.5697629197490636e-05 -0.027865134971216201 0 0.00024602171343327049 -0.027298856867767115 0 0.00018156649290578395 -0.02592934229188263 0 -9.6051655589121028e-05 -0.027996892573807101 0 3.3620450700972582e-05 -0.02791392878446294 0 -2.5697629197490636e-05 -0.027865134971216201 0 -0.00028407080905516795 -0.027977245903207035 0 -0.0001376153985026598 -0.027763298649121523 0 -0.00035837830061303161 -0.02776178927973318 0 -9.6051655589121028e-05 -0.027996892573807101 0 -0.00028407080905516795 -0.027977245903207035 0 -0.0001376153985026598 -0.027763298649121523 0 -0.0001376153985026598 -0.027763298649121523 0 -0.00026624324993090138 -0.02760076578262495 0 -0.00011150593452954657 -0.027390049253372337 0 -0.0001376153985026598 -0.027763298649121523 0 -0.00026624324993090138 -0.02760076578262495 0 -0.00035837830061303161 -0.02776178927973318 0 0.00024602171343327049 -0.027298856867767115 0 -0.00014037765504640898 -0.02754505891386156 0 0.00010332294314392103 -0.027827550898296943 0 -0.0001376153985026598 -0.027763298649121523 0 -0.00011150593452954657 -0.027390049253372337 0 -1.8167747138312973e-05 -0.027513708803021199 0 -0.00011150593452954657 -0.027390049253372337 0 5.9301597245510691e-05 -0.027439840063846831 0 -0.00011150593452954657 -0.027390049253372337 0 -9.0111159626859235e-05 -0.027220597054296716 0 -0.00027302678628857917 -0.027272249682596821 0 -0.00011150593452954657 -0.027390049253372337 0 -9.0111159626859235e-05 -0.027220597054296716 0 4.638860797147664e-05 -0.027346169447857345 0 -4.2021769236253522e-05 -0.027015612462736503 0 -0.00025727561007404446 -0.027068487504898972 0 -9.0111159626859235e-05 -0.027220597054296716 0 -0.00025727561007404446 -0.027068487504898972 0 -9.0111159626859235e-05 -0.027220597054296716 0 -0.00027302678628857917 -0.027272249682596821 0 -0.00025727561007404446 -0.027068487504898972 0 -0.00027302678628857917 -0.027272249682596821 0 -0.00044214588733498193 -0.027219851697858909 0 -0.00011150593452954657 -0.027390049253372337 0 -0.00027302678628857917 -0.027272249682596821 0 -0.00038431283156152444 -0.02746503981832453 0 -0.00026624324993090138 -0.02760076578262495 0 -0.00011150593452954657 -0.027390049253372337 0 -0.00038431283156152444 -0.02746503981832453 0 -0.00038431283156152444 -0.02746503981832453 0 -0.00044214588733498193 -0.027219851697858909 0 -0.00062081577334381253 -0.027459959033932863 0 -0.00027302678628857917 -0.027272249682596821 0 -0.00038431283156152444 -0.02746503981832453 0 -0.00044214588733498193 -0.027219851697858909 0 -0.00044214588733498193 -0.027219851697858909 0 -0.0006765079490449814 -0.027221937535792991 0 -0.00062081577334381253 -0.027459959033932863 0 -0.00038431283156152444 -0.02746503981832453 0 -0.00062081577334381253 -0.027459959033932863 0 -0.00058127712997064433 -0.027731114381673524 0 -0.00062081577334381253 -0.027459959033932863 0 -0.00058127712997064433 -0.027731114381673524 0 -0.00072192967887582866 -0.027635153748301177 0 -0.00038431283156152444 -0.02746503981832453 0 -0.00058127712997064433 -0.027731114381673524 0 -0.00035837830061303161 -0.02776178927973318 0 -0.00026624324993090138 -0.02760076578262495 0 -0.00038431283156152444 -0.02746503981832453 0 -0.00035837830061303161 -0.02776178927973318 0 -0.00058127712997064433 -0.027731114381673524 0 -0.00035837830061303161 -0.02776178927973318 0 -0.00049354130624476101 -0.027994572017431885 0 -0.00028407080905516795 -0.027977245903207035 0 -0.00035837830061303161 -0.02776178927973318 0 -0.00049354130624476101 -0.027994572017431885 0 -0.00058127712997064433 -0.027731114381673524 0 -0.00070885237362066603 -0.027991718226002202 0 -0.0007885613194443667 -0.027812222429708443 0 -0.00058127712997064433 -0.027731114381673524 0 -0.00049354130624476101 -0.027994572017431885 0 -0.00070885237362066603 -0.027991718226002202 0 -0.00090984095978694217 -0.027971721649933858 0 -0.00096010999755627793 -0.027840767925497317 0 -0.0007885613194443667 -0.027812222429708443 0 -0.00070885237362066603 -0.027991718226002202 0 -0.00090984095978694217 -0.027971721649933858 0 -0.0007885613194443667 -0.027812222429708443 0 -0.0010488121220060896 -0.028088524727015979 0 -0.0010482028855739408 -0.027943033535419579 0 -0.0011470027882132655 -0.027935277510483709 0 -0.0010488121220060896 -0.028088524727015979 0 -0.00090984095978694217 -0.027971721649933858 0 -0.0010482028855739408 -0.027943033535419579 0 -0.0010482028855739408 -0.027943033535419579 0 -0.00096010999755627793 -0.027840767925497317 0 -0.0011137916064856354 -0.027930136958767376 0 -0.00090984095978694217 -0.027971721649933858 0 -0.0010482028855739408 -0.027943033535419579 0 -0.00096010999755627793 -0.027840767925497317 0 -0.00096010999755627793 -0.027840767925497317 0 -0.0010082254214186018 -0.027709916981090155 0 -0.0011137916064856354 -0.027930136958767376 0 -0.00096010999755627793 -0.027840767925497317 0 -0.0010082254214186018 -0.027709916981090155 0 -0.00087046883592990744 -0.027654611611766376 0 -0.00087046883592990744 -0.027654611611766376 0 -0.0007885613194443667 -0.027812222429708443 0 -0.00072192967887582866 -0.027635153748301177 0 -0.00058127712997064433 -0.027731114381673524 0 -0.0007885613194443667 -0.027812222429708443 0 -0.00072192967887582866 -0.027635153748301177 0 -0.00096010999755627793 -0.027840767925497317 0 -0.00087046883592990744 -0.027654611611766376 0 -0.0007885613194443667 -0.027812222429708443 0 -0.00062081577334381253 -0.027459959033932863 0 -0.00072192967887582866 -0.027635153748301177 0 -0.00078721316059511082 -0.027464808744399261 0 -0.00087046883592990744 -0.027654611611766376 0 -0.00072192967887582866 -0.027635153748301177 0 -0.00078721316059511082 -0.027464808744399261 0 -0.00087507406142184666 -0.027148680301410578 0 -0.0006765079490449814 -0.027221937535792991 0 -0.00088037687333035442 -0.027341389448848109 0 -0.0006765079490449814 -0.027221937535792991 0 -0.00078721316059511082 -0.027464808744399261 0 -0.00088037687333035442 -0.027341389448848109 0 -0.0006765079490449814 -0.027221937535792991 0 -0.00062081577334381253 -0.027459959033932863 0 -0.00078721316059511082 -0.027464808744399261 0 -0.00087507406142184666 -0.027148680301410578 0 -0.00088037687333035442 -0.027341389448848109 0 -0.0011139663585566441 -0.027343242248703884 0 -0.00088037687333035442 -0.027341389448848109 0 -0.00096831594050998974 -0.027506867594883709 0 -0.0011139663585566441 -0.027343242248703884 0 -0.00078721316059511082 -0.027464808744399261 0 -0.00088037687333035442 -0.027341389448848109 0 -0.00096831594050998974 -0.027506867594883709 0 -0.0010082254214186018 -0.027709916981090155 0 -0.00087046883592990744 -0.027654611611766376 0 -0.00096831594050998974 -0.027506867594883709 0 -0.00087046883592990744 -0.027654611611766376 0 -0.00078721316059511082 -0.027464808744399261 0 -0.00096831594050998974 -0.027506867594883709 0 -0.0010082254214186018 -0.027709916981090155 0 -0.00096831594050998974 -0.027506867594883709 0 -0.0011396967730254088 -0.027570418859707416 0 -0.0011590263745199468 -0.027381466270009282 0 -0.00067663835910632315 -0.030449526282378458 0 -0.00096831594050998974 -0.027506867594883709 0 -0.0011396967730254088 -0.027570418859707416 0 -0.0011139663585566441 -0.027343242248703884 0 -0.00067663835910632315 -0.030449526282378458 0 -0.00050634142530999967 -0.031785392582993989 0 -0.0010637350060330182 -0.028134266571684715 0 -0.00096147422286784433 -0.028477289854724541 0 -0.0010460744024239279 -0.028039687325687231 0 -9.4504460459384907e-06 -0.034964875576947559 0 -1.1493934056933545e-08 -0.034999953420117726 0 -7.4397658308140345e-06 -0.034965542480464851 0 2.2220943218319658e-08 -0.034999980775247845 0 -4.3117188658833629e-06 -0.034983738061962297 0 -1.1493934056933545e-08 -0.034999953420117726 0 -4.3117188658833629e-06 -0.034983738061962297 0 -9.4504460459384907e-06 -0.034964875576947559 0 -1.1493934056933545e-08 -0.034999953420117726 0 -1.1493934056933545e-08 -0.034999953420117726 0 -7.4397658308140345e-06 -0.034965542480464851 0 -1.9992915855540931e-09 -0.03499996178997148 0 -0.00050634142530999967 -0.031785392582993989 0 -0.00057721772649715181 -0.031402195652689882 0 -0.0010637350060330182 -0.028134266571684715 0 -0.0010460744024239279 -0.028039687325687231 0 -0.0011137916064856354 -0.027930136958767376 0 -0.0010082254214186018 -0.027709916981090155 0 -0.0011396967730254088 -0.027570418859707416 0 -0.0011137916064856354 -0.027930136958767376 0 -0.0010460744024239279 -0.028039687325687231 0 -0.0011137916064856354 -0.027930136958767376 0 -0.0011470027882132655 -0.027935277510483709 0 -0.0011590263745199468 -0.027381466270009282 0 -0.0010865944616458754 -0.028087855006788537 0 -7.4397658308140345e-06 -0.034965542480464851 0 -6.656010705860835e-06 -0.034965598837979221 0 -1.9992915855540931e-09 -0.03499996178997148 0 -0.0010482028855739408 -0.027943033535419579 0 -0.0011137916064856354 -0.027930136958767376 0 -0.0011470027882132655 -0.027935277510483709 0 0.00043622588892127713 -0.023133482758945331 0 0.00076526702215216381 -0.023117387930815383 0 0.00052703646092467141 -0.023476232744151924 0 0.00043622588892127713 -0.023133482758945331 0 0.00022746401429080056 -0.02282967618840067 0 0.00046940614163931314 -0.02273215954232171 0 0.00043622588892127713 -0.023133482758945331 0 0.00068340986840977253 -0.022821304502373293 0 0.00046940614163931314 -0.02273215954232171 0 0.00043622588892127713 -0.023133482758945331 0 0.00068340986840977253 -0.022821304502373293 0 0.00076526702215216381 -0.023117387930815383 0 -0.00047150894786225715 -0.018449753759684228 0 -0.00022266299051118202 -0.017899226643891215 0 0.00068340986840977253 -0.022821304502373293 0 0.00076526702215216381 -0.023117387930815383 0 0.0010595987191008292 -0.022582774566550445 0 -0.0012925289307577012 -0.013618443348291006 0 -0.0017127690714157128 -0.013779063116327674 0 -0.0015086716159126371 -0.01337646208460185 0 -0.0012925289307577012 -0.013618443348291006 0 -0.0017127690714157128 -0.013779063116327674 0 -0.0013082896858794112 -0.013940352996014007 0 -0.0017127690714157128 -0.013779063116327674 0 -0.001607137963439461 -0.014098908471365922 0 -0.0019146910916522338 -0.014191288525125478 0 -0.0017127690714157128 -0.013779063116327674 0 -0.001607137963439461 -0.014098908471365922 0 -0.0013082896858794112 -0.013940352996014007 0 -0.001607137963439461 -0.014098908471365922 0 -0.0013082896858794112 -0.013940352996014007 0 -0.0013574141498849124 -0.014229653689934381 0 -0.0016391738785983478 -0.014469265610509 0 -0.001607137963439461 -0.014098908471365922 0 -0.0013574141498849124 -0.014229653689934381 0 -0.0016391738785983478 -0.014469265610509 0 -0.001607137963439461 -0.014098908471365922 0 -0.0019146910916522338 -0.014191288525125478 0 -0.00047150894786225715 -0.018449753759684228 0 -0.00070825326361242513 -0.018884935514244115 0 0.00043622588892127713 -0.023133482758945331 0 0.00052703646092467141 -0.023476232744151924 0 0.00028293664780063498 -0.023430933897905359 0 0.00034971312705182878 -0.023656346258736718 0 0.00052703646092467141 -0.023476232744151924 0 0.00029449491992570551 -0.023610556572694064 0 0.00052703646092467141 -0.023476232744151924 0 0.00029449491992570551 -0.023610556572694064 0 0.00028293664780063498 -0.023430933897905359 0 -0.0008269938635643132 -0.018864092234288993 0 -0.00070825326361242513 -0.018884935514244115 0 0.00023261328712012943 -0.023687333414963676 0 0.00029449491992570551 -0.023610556572694064 0 0.00023582394857624654 -0.023546336558622059 0 0.00029449491992570551 -0.023610556572694064 0 0.00023582394857624654 -0.023546336558622059 0 0.00028293664780063498 -0.023430933897905359 0 0.00023261328712012943 -0.023687333414963676 0 0.00023582394857624654 -0.023546336558622059 0 0.00021129568051738584 -0.023612688955448081 0 0.00023261328712012943 -0.023687333414963676 0 0.00021129568051738584 -0.023612688955448081 0 0.00017292574705119216 -0.023624025129994786 0 0.00021129568051738584 -0.023612688955448081 0 0.00018181829582645457 -0.023528886753534296 0 0.00017292574705119216 -0.023624025129994786 0 0.00023582394857624654 -0.023546336558622059 0 0.00021129568051738584 -0.023612688955448081 0 0.00018181829582645457 -0.023528886753534296 0 0.00023582394857624654 -0.023546336558622059 0 0.00018181829582645457 -0.023528886753534296 0 0.00017796599405023756 -0.023430672798110071 0 0.00018181829582645457 -0.023528886753534296 0 0.00017796599405023756 -0.023430672798110071 0 0.00015064903052873916 -0.023449812267536282 0 0.00017796599405023756 -0.023430672798110071 0 0.00015064903052873916 -0.023449812267536282 0 0.00015375505347926078 -0.023394354053586343 0 0.00017796599405023756 -0.023430672798110071 0 0.00028293664780063498 -0.023430933897905359 0 0.00013787566837445065 -0.02330196941265918 0 0.00023582394857624654 -0.023546336558622059 0 0.00017796599405023756 -0.023430672798110071 0 0.00028293664780063498 -0.023430933897905359 0 0.0016109827188190028 -0.024714285478006394 0 0.00060158863693014037 -0.024711453968546643 0 0.00078358160548613605 -0.02565436928440273 0 0.00071456883593827472 -0.025739514095555409 0 0.00067795983465281573 -0.025893162312883564 0 0.00078358160548613605 -0.02565436928440273 0 0.0011086491225482361 -0.02587208068271997 0 0.00090317645735418577 -0.025494722671546944 0 0.00071456883593827472 -0.025739514095555409 0 0.00067795983465281573 -0.025893162312883564 0 0.00067343158672176617 -0.025760611317228007 0 0.00017304640314207324 -0.023930574788399786 0 0.00039825369827392403 -0.024582570300307315 0 0.000171096599499109 -0.023895475993729289 0 0.00060158863693014037 -0.024711453968546643 0 0.00069012026027811277 -0.025680248466139855 0 0.000171096599499109 -0.023895475993729289 0 0.00017292574705119216 -0.023624025129994786 0 6.527694905186222e-05 -0.023465598222169409 0 0.00060158863693014037 -0.024711453968546643 0 0.00069012026027811277 -0.025680248466139855 0 0.00078358160548613605 -0.02565436928440273 0 0.00018181829582645457 -0.023528886753534296 0 0.00017292574705119216 -0.023624025129994786 0 0.00014081811276330349 -0.023502124394747446 0 0.00017292574705119216 -0.023624025129994786 0 0.00014081811276330349 -0.023502124394747446 0 6.527694905186222e-05 -0.023465598222169409 0 0.00012998822898537427 -0.023436034609284159 0 6.527694905186222e-05 -0.023465598222169409 0 0.00015732382575945605 -0.023423146512431964 0 0.00018181829582645457 -0.023528886753534296 0 0.00014081811276330349 -0.023502124394747446 0 0.00015064903052873916 -0.023449812267536282 0 0.00014081811276330349 -0.023502124394747446 0 0.00012357879741306679 -0.023460934350972379 0 0.00015064903052873916 -0.023449812267536282 0 0.00015064903052873916 -0.023449812267536282 0 0.00012998822898537427 -0.023436034609284159 0 0.00015375505347926078 -0.023394354053586343 0 0.00012357879741306679 -0.023460934350972379 0 0.00015064903052873916 -0.023449812267536282 0 0.00012998822898537427 -0.023436034609284159 0 0.00012357879741306679 -0.023460934350972379 0 0.00012998822898537427 -0.023436034609284159 0 6.527694905186222e-05 -0.023465598222169409 0 0.00014081811276330349 -0.023502124394747446 0 0.00012357879741306679 -0.023460934350972379 0 6.527694905186222e-05 -0.023465598222169409 0 0.00069012026027811277 -0.025680248466139855 0 0.00071979406702623921 -0.025678768092681808 0 0.00072689888349633492 -0.025575381069333523 0 0.00039825369827392403 -0.024582570300307315 0 0.00040302584050574085 -0.024374799047048087 0 0.00071456883593827472 -0.025739514095555409 0 0.00078358160548613605 -0.02565436928440273 0 0.00071979406702623921 -0.025678768092681808 0 0.00069012026027811277 -0.025680248466139855 0 0.00078358160548613605 -0.02565436928440273 0 0.00071979406702623921 -0.025678768092681808 0 0.00071456883593827472 -0.025739514095555409 0 0.00071979406702623921 -0.025678768092681808 0 0.00067343158672176617 -0.025760611317228007 0 0.00064965871207561668 -0.025684649430232243 0 0.00071979406702623921 -0.025678768092681808 0 0.00067343158672176617 -0.025760611317228007 0 0.00064965871207561668 -0.025684649430232243 0 0.00071979406702623921 -0.025678768092681808 0 0.00072689888349633492 -0.025575381069333523 0 6.527694905186222e-05 -0.023465598222169409 0 0.00021912364145434127 -0.023426210976516381 0 0.00015732382575945605 -0.023423146512431964 0 0.00015375505347926078 -0.023394354053586343 0 0.0001808116266303316 -0.02343829521905795 0 0.00014944808443821813 -0.023430350052666377 0 0.00021912364145434127 -0.023426210976516381 0 0.00015732382575945605 -0.023423146512431964 0 0.0001808116266303316 -0.02343829521905795 0 0.00012998822898537427 -0.023436034609284159 0 0.00015732382575945605 -0.023423146512431964 0 0.00015375505347926078 -0.023394354053586343 0 0.00015732382575945605 -0.023423146512431964 0 0.00015375505347926078 -0.023394354053586343 0 0.0001808116266303316 -0.02343829521905795 0 0.0001808116266303316 -0.02343829521905795 0 0.00014944808443821813 -0.023430350052666377 0 0.00018791147686807299 -0.023509908329631461 0 0.0001808116266303316 -0.02343829521905795 0 0.00022981624601438186 -0.023499476849558099 0 0.00018791147686807299 -0.023509908329631461 0 0.00061545570575664821 -0.02559869191345392 0 0.00072689888349633492 -0.025575381069333523 0 0.00067810857717613281 -0.025427528699931003 0 0.00021912364145434127 -0.023426210976516381 0 0.0001808116266303316 -0.02343829521905795 0 0.00022981624601438186 -0.023499476849558099 0 0.00021912364145434127 -0.023426210976516381 0 0.00022981624601438186 -0.023499476849558099 0 0.00029027620787136618 -0.023512193895067736 0 0.00040302584050574085 -0.024374799047048087 0 0.00015209366268105313 -0.025860092906815568 0 0.00043622588892127713 -0.023133482758945331 0 0.00028293664780063498 -0.023430933897905359 0 0.00013787566837445065 -0.02330196941265918 0 0.00017796599405023756 -0.023430672798110071 0 0.00015375505347926078 -0.023394354053586343 0 0.00013787566837445065 -0.02330196941265918 0 0.00015375505347926078 -0.023394354053586343 0 0.00013787566837445065 -0.02330196941265918 0 0.00014944808443821813 -0.023430350052666377 0 0.00043622588892127713 -0.023133482758945331 0 0.00013787566837445065 -0.02330196941265918 0 0.00022746401429080056 -0.02282967618840067 0 0.00013787566837445065 -0.02330196941265918 0 0.00014944808443821813 -0.023430350052666377 0 5.2688528618350352e-06 -0.023480478288010042 0 0.00011154638087031366 -0.02331970217862717 0 0.00015275313243981098 -0.023058764462037955 0 5.2688528618350352e-06 -0.023480478288010042 0 9.7947805229501298e-05 -0.0235618794241041 0 -6.3375378115382967e-05 -0.023622292494405478 0 0.00014944808443821813 -0.023430350052666377 0 5.2688528618350352e-06 -0.023480478288010042 0 9.7947805229501298e-05 -0.0235618794241041 0 9.7947805229501298e-05 -0.0235618794241041 0 0.00018791147686807299 -0.023509908329631461 0 0.00018674856606737067 -0.023627757575330272 0 0.00014944808443821813 -0.023430350052666377 0 9.7947805229501298e-05 -0.0235618794241041 0 0.00018791147686807299 -0.023509908329631461 0 9.7947805229501298e-05 -0.0235618794241041 0 8.6322187344282765e-05 -0.023694904130453626 0 0.00018674856606737067 -0.023627757575330272 0 0.00046589143166370827 -0.025168836633352048 0 0.00014015211787505173 -0.023525893598774605 0 0.0006881430063730334 -0.026472287758174038 0 0.00074522804233062069 -0.026461114274974603 0 0.00076703911714977454 -0.026490103434987596 0 9.7947805229501298e-05 -0.0235618794241041 0 8.6322187344282765e-05 -0.023694904130453626 0 -6.3375378115382967e-05 -0.023622292494405478 0 0.00018156649290578395 -0.02592934229188263 0 0.00019964014229866914 -0.025410105499443926 0 -1.8167747138312973e-05 -0.027513708803021199 0 -1.1556940814704624e-05 -0.027532285287395153 0 5.9301597245510691e-05 -0.027439840063846831 0 0.00031235920601369261 -0.023559468026227583 0 0.00023623231298817264 -0.023569491753258554 0 0.00026885937963190586 -0.023658045008079158 0 0.00031235920601369261 -0.023559468026227583 0 0.00022981624601438186 -0.023499476849558099 0 0.00023623231298817264 -0.023569491753258554 0 0.00031235920601369261 -0.023559468026227583 0 0.00022981624601438186 -0.023499476849558099 0 0.00029027620787136618 -0.023512193895067736 0 0.00023623231298817264 -0.023569491753258554 0 0.00018791147686807299 -0.023509908329631461 0 0.00018674856606737067 -0.023627757575330272 0 0.00022981624601438186 -0.023499476849558099 0 0.00023623231298817264 -0.023569491753258554 0 0.00018791147686807299 -0.023509908329631461 0 8.6322187344282765e-05 -0.023694904130453626 0 0.00018674856606737067 -0.023627757575330272 0 0.00021783554126545148 -0.023771881438704102 0 0.00023623231298817264 -0.023569491753258554 0 0.00018674856606737067 -0.023627757575330272 0 0.00026885937963190586 -0.023658045008079158 0 0.00018674856606737067 -0.023627757575330272 0 0.00026885937963190586 -0.023658045008079158 0 0.00021783554126545148 -0.023771881438704102 0 -9.0111159626859235e-05 -0.027220597054296716 0 4.638860797147664e-05 -0.027346169447857345 0 6.4775383513971315e-05 -0.027175023825496594 0 -0.00011150593452954657 -0.027390049253372337 0 5.9301597245510691e-05 -0.027439840063846831 0 4.638860797147664e-05 -0.027346169447857345 0 5.9301597245510691e-05 -0.027439840063846831 0 4.638860797147664e-05 -0.027346169447857345 0 0.00018684117474158392 -0.02728715399405475 0 0.00019964014229866914 -0.025410105499443926 0 0.00033877257011295087 -0.026095978220865373 0 4.638860797147664e-05 -0.027346169447857345 0 0.0001659483016533777 -0.027277667730851819 0 6.4775383513971315e-05 -0.027175023825496594 0 4.638860797147664e-05 -0.027346169447857345 0 0.00018684117474158392 -0.02728715399405475 0 0.0001659483016533777 -0.027277667730851819 0 0.00019913056582511267 -0.027293979187550475 0 0.0001659483016533777 -0.027277667730851819 0 0.00019622601554299829 -0.027143510370092473 0 0.00033877257011295087 -0.026095978220865373 0 0.00037049139098482278 -0.026177309242407906 0 0.00019913056582511267 -0.027293979187550475 0 0.00019622601554299829 -0.027143510370092473 0 0.00037948355323845392 -0.026995544922320217 0 0.00063991070563701956 -0.026452969043097935 0 0.00067045878078258634 -0.026447852299772628 0 0.0006569700714456608 -0.026436375351486185 0 0.00033877257011295087 -0.026095978220865373 0 0.0004751129937082392 -0.026838664516451442 0 0.00011771125439444083 -0.026993193513507402 0 0.00019622601554299829 -0.027143510370092473 0 0.00037948355323845392 -0.026995544922320217 0 0.0001659483016533777 -0.027277667730851819 0 0.00019622601554299829 -0.027143510370092473 0 6.4775383513971315e-05 -0.027175023825496594 0 -4.2021769236253522e-05 -0.027015612462736503 0 -9.0111159626859235e-05 -0.027220597054296716 0 6.4775383513971315e-05 -0.027175023825496594 0 0.00011771125439444083 -0.026993193513507402 0 -4.2021769236253522e-05 -0.027015612462736503 0 6.4775383513971315e-05 -0.027175023825496594 0 0.00011771125439444083 -0.026993193513507402 0 0.00019622601554299829 -0.027143510370092473 0 6.4775383513971315e-05 -0.027175023825496594 0 0.0006881430063730334 -0.026472287758174038 0 0.00070234100634836876 -0.026432249970654062 0 0.00074522804233062069 -0.026461114274974603 0 0.00046589143166370827 -0.025168836633352048 0 0.00033877257011295087 -0.026095978220865373 0 0.0006881430063730334 -0.026472287758174038 0 0.00067045878078258634 -0.026447852299772628 0 0.00070234100634836876 -0.026432249970654062 0 0.0006881430063730334 -0.026472287758174038 0 0.00063991070563701956 -0.026452969043097935 0 0.00067045878078258634 -0.026447852299772628 0 0.00067045878078258634 -0.026447852299772628 0 0.0006569700714456608 -0.026436375351486185 0 0.00070234100634836876 -0.026432249970654062 0 0.00078874574378427949 -0.026355791176469096 0 0.00070234100634836876 -0.026432249970654062 0 0.00083693968762827721 -0.026440187052443432 0 0.00078874574378427949 -0.026355791176469096 0 0.00094963573841473387 -0.026334032483279021 0 0.00083693968762827721 -0.026440187052443432 0 0.00053634596895852879 -0.023594114110387553 0 0.00035194211422820946 -0.023687750358509327 0 0.00070234100634836876 -0.026432249970654062 0 0.00083693968762827721 -0.026440187052443432 0 0.00074522804233062069 -0.026461114274974603 0 0.00035194211422820946 -0.023687750358509327 0 0.00014015211787505173 -0.023525893598774605 0 0.00083693968762827721 -0.026440187052443432 0 0.00074522804233062069 -0.026461114274974603 0 0.00076703911714977454 -0.026490103434987596 0 -0.00013581929021023626 -0.020879979397353109 0 0.0001226364623682575 -0.022226600773855246 0 0.00079608950342672168 -0.021590235889469303 0 -0.00013581929021023626 -0.020879979397353109 0 -0.0006383674908683009 -0.021914976516582835 0 0.0001226364623682575 -0.022226600773855246 0 0.00014015211787505173 -0.023525893598774605 0 0.00027981326288622083 -0.022312009905229989 0 0.00068340986840977253 -0.022821304502373293 0 0.00065389295357653674 -0.022531095973924269 0 0.00046940614163931314 -0.02273215954232171 0 0.00038439692315222996 -0.022440529941457867 0 0.00065389295357653674 -0.022531095973924269 0 0.00046940614163931314 -0.02273215954232171 0 0.00015275313243981098 -0.023058764462037955 0 0.00014015211787505173 -0.023525893598774605 0 0.00022746401429080056 -0.02282967618840067 0 0.00038439692315222996 -0.022440529941457867 0 0.00046940614163931314 -0.02273215954232171 0 -0.0015086716159126371 -0.01337646208460185 0 -0.0013043633610558692 -0.01299478228996089 0 -0.0010141967940369575 -0.013229248648719976 0 0.00068340986840977253 -0.022821304502373293 0 0.00093598175327106999 -0.022559373768154155 0 0.0010595987191008292 -0.022582774566550445 0 0.0001226364623682575 -0.022226600773855246 0 0.00093598175327106999 -0.022559373768154155 0 0.00074471166444317334 -0.022242218688891778 0 0.00068340986840977253 -0.022821304502373293 0 0.00065389295357653674 -0.022531095973924269 0 0.00093598175327106999 -0.022559373768154155 0 0.0010595987191008292 -0.022582774566550445 0 0.00074471166444317334 -0.022242218688891778 0 0.00079608950342672168 -0.021590235889469303 0 0.00027981326288622083 -0.022312009905229989 0 0.00092125629986699437 -0.0225698391072175 0 0.00093598175327106999 -0.022559373768154155 0 0.0010595987191008292 -0.022582774566550445 0 0.00074471166444317334 -0.022242218688891778 0 0.0001226364623682575 -0.022226600773855246 0 0.00074471166444317334 -0.022242218688891778 0 0.00079608950342672168 -0.021590235889469303 0 -0.00022266299051118202 -0.017899226643891215 0 0.0002519131767160522 -0.017506592901134477 0 0.0010595987191008292 -0.022582774566550445 0 0.00079608950342672168 -0.021590235889469303 0 0.0016666977683556154 -0.021289185758993093 0 0.00079608950342672168 -0.021590235889469303 0 0.0016666977683556154 -0.021289185758993093 0 0.001266071508903078 -0.020416544904362392 0 -0.00013581929021023626 -0.020879979397353109 0 0.00079608950342672168 -0.021590235889469303 0 0.001266071508903078 -0.020416544904362392 0 0.00036896975732669774 -0.019857468520055641 0 -0.00013581929021023626 -0.020879979397353109 0 0.001266071508903078 -0.020416544904362392 0 0.0016666977683556154 -0.021289185758993093 0 0.001266071508903078 -0.020416544904362392 0 0.0022192170451050953 -0.020037472806390396 0 0.0015441959652656603 -0.019452735742138183 0 0.001266071508903078 -0.020416544904362392 0 0.0022192170451050953 -0.020037472806390396 0 -0.00029471392824880784 -0.014536051439479631 0 -0.001958066809626392 -0.011339214176634851 0 -0.001997020753863031 -0.010090207639443913 0 -0.0027969745245474756 -0.010311926732344412 0 -0.0021256636696586058 -0.01094263706626452 0 0.0002519131767160522 -0.017506592901134477 0 -0.00029471392824880784 -0.014536051439479631 0 -0.0013043633610558692 -0.01299478228996089 0 -0.0011246203594210877 -0.01265490121081533 0 -0.00090817779763228751 -0.01281715192838224 0 -0.0013463183552632338 -0.010605380731256239 0 -0.00060707497746577161 -0.011362372183796286 0 -0.00054021747561336028 -0.010261278584196691 0 -0.001997020753863031 -0.010090207639443913 0 -0.0021256636696586058 -0.01094263706626452 0 -0.0013463183552632338 -0.010605380731256239 0 -0.001958066809626392 -0.011339214176634851 0 -0.00094674743802347129 -0.012412259078585676 0 -0.0021256636696586058 -0.01094263706626452 0 -0.0013463183552632338 -0.010605380731256239 0 -0.0014460214549845639 -0.011630369361461572 0 -0.0013463183552632338 -0.010605380731256239 0 -0.0014460214549845639 -0.011630369361461572 0 -0.00060707497746577161 -0.011362372183796286 0 -0.00094674743802347129 -0.012412259078585676 0 -0.00056370135673523716 -0.01273178430749222 0 -0.0014460214549845639 -0.011630369361461572 0 -0.00075508427236281985 -0.012377395744803571 0 -0.00060707497746577161 -0.011362372183796286 0 -0.00066163512231893768 -0.012975184682005168 0 -0.00070378282167407526 -0.013283143544513411 0 -0.0010141967940369575 -0.013229248648719976 0 -0.00066163512231893768 -0.012975184682005168 0 -0.00070378282167407526 -0.013283143544513411 0 -0.00036855001588669299 -0.013102836379939083 0 -0.00070378282167407526 -0.013283143544513411 0 -0.00036855001588669299 -0.013102836379939083 0 -0.00049765313408427843 -0.013537449848708947 0 -0.0013043633610558692 -0.01299478228996089 0 -0.00090817779763228751 -0.01281715192838224 0 -0.0010141967940369575 -0.013229248648719976 0 -0.0012925289307577012 -0.013618443348291006 0 -0.0015086716159126371 -0.01337646208460185 0 -0.0010141967940369575 -0.013229248648719976 0 -0.00090817779763228751 -0.01281715192838224 0 -0.00066163512231893768 -0.012975184682005168 0 -0.0010141967940369575 -0.013229248648719976 0 -0.0012925289307577012 -0.013618443348291006 0 -0.0010141967940369575 -0.013229248648719976 0 -0.00093442368898153283 -0.013643340939096266 0 -0.0012925289307577012 -0.013618443348291006 0 -0.0013082896858794112 -0.013940352996014007 0 -0.00093442368898153283 -0.013643340939096266 0 -0.00070378282167407526 -0.013283143544513411 0 -0.0010141967940369575 -0.013229248648719976 0 -0.00093442368898153283 -0.013643340939096266 0 -0.00070378282167407526 -0.013283143544513411 0 -0.00093442368898153283 -0.013643340939096266 0 -0.00049765313408427843 -0.013537449848708947 0 -0.00049765313408427843 -0.013537449848708947 0 -0.00065845512267784657 -0.013890199326334458 0 -0.00025461296062740931 -0.013948225771346556 0 -0.00093442368898153283 -0.013643340939096266 0 -0.00049765313408427843 -0.013537449848708947 0 -0.00065845512267784657 -0.013890199326334458 0 -0.00065845512267784657 -0.013890199326334458 0 -0.00058194297522235947 -0.014130580116185077 0 -0.00025461296062740931 -0.013948225771346556 0 -0.00056239932684065761 -0.014117102863801136 0 -0.00029203268523420755 -0.013799556175986275 0 -0.00058194297522235947 -0.014130580116185077 0 -0.00096055481602182083 -0.014145526194192452 0 -0.00070095043511333218 -0.014364153519512014 0 -0.00065845512267784657 -0.013890199326334458 0 -0.00058194297522235947 -0.014130580116185077 0 -0.00096055481602182083 -0.014145526194192452 0 -0.0013082896858794112 -0.013940352996014007 0 -0.00093442368898153283 -0.013643340939096266 0 -0.00096055481602182083 -0.014145526194192452 0 -0.00093442368898153283 -0.013643340939096266 0 -0.00065845512267784657 -0.013890199326334458 0 -0.00096055481602182083 -0.014145526194192452 0 -0.0013574141498849124 -0.014229653689934381 0 -0.00096055481602182083 -0.014145526194192452 0 -0.0012215884537616969 -0.014434369554210812 0 -0.0013082896858794112 -0.013940352996014007 0 -0.0013574141498849124 -0.014229653689934381 0 -0.00096055481602182083 -0.014145526194192452 0 0.00049739198667720253 -0.013596469454149008 0 0.00017079209240984509 -0.013837214418047904 0 0.00017369268332215464 -0.013398338199339551 0 0.00012460972806651888 -0.013617452032900408 0 0.00017079209240984509 -0.013837214418047904 0 0.00020717893655879308 -0.013527365036786032 0 0.00021058654816185618 -0.014104588857253478 0 -0.00024204313584119899 -0.012649628002726471 0 0.00049739198667720253 -0.013596469454149008 0 0.00015641687203724229 -0.013924520704102524 0 0.00017079209240984509 -0.013837214418047904 0 8.169659511854285e-05 -0.013806615504563042 0 6.2897954137222537e-05 -0.013699283593628098 0 0.00017079209240984509 -0.013837214418047904 0 6.2897954137222537e-05 -0.013699283593628098 0 0.00012460972806651888 -0.013617452032900408 0 0.00017079209240984509 -0.013837214418047904 0 8.169659511854285e-05 -0.013806615504563042 0 6.2897954137222537e-05 -0.013699283593628098 0 -1.1485981061522318e-05 -0.013871174110365888 0 6.2897954137222537e-05 -0.013699283593628098 0 0.00012460972806651888 -0.013617452032900408 0 3.3833562615692417e-05 -0.013541495195598861 0 -0.00013769794270775777 -0.012524316359618422 0 -0.00024204313584119899 -0.012649628002726471 0 -0.00013769794270775777 -0.012524316359618422 0 0.00023843201541014965 -0.013872091408076662 0 0.00055438302716404432 -0.013296933783642443 0 0.00040763384560486984 -0.013699838739547759 0 0.00022689572640222967 -0.01362322055961027 0 0.00055438302716404432 -0.013296933783642443 0 0.00060018100558884837 -0.01363336429175945 0 0.00040763384560486984 -0.013699838739547759 0 0.00060018100558884837 -0.01363336429175945 0 0.00073395814940174114 -0.013781905814118577 0 0.00045394747447894405 -0.013880524548896704 0 0.00040763384560486984 -0.013699838739547759 0 0.00023124152339374314 -0.01387601640026063 0 0.00045394747447894405 -0.013880524548896704 0 0.00060018100558884837 -0.01363336429175945 0 0.00040763384560486984 -0.013699838739547759 0 0.00045394747447894405 -0.013880524548896704 0 0.00022689572640222967 -0.01362322055961027 0 -8.0234205055317267e-05 -0.014104761370097705 0 0.00023124152339374314 -0.01387601640026063 0 0.00023843201541014965 -0.013872091408076662 0 -6.0899645240835047e-05 -0.014046147292697432 0 0.00040763384560486984 -0.013699838739547759 0 0.00022689572640222967 -0.01362322055961027 0 0.00023124152339374314 -0.01387601640026063 0 8.169659511854285e-05 -0.013806615504563042 0 0.00015641687203724229 -0.013924520704102524 0 -1.1485981061522318e-05 -0.013871174110365888 0 8.169659511854285e-05 -0.013806615504563042 0 0.00015641687203724229 -0.013924520704102524 0 0.00017079209240984509 -0.013837214418047904 0 -1.1485981061522318e-05 -0.013871174110365888 0 -0.00024460044690639187 -0.013988836242197461 0 -8.0234205055317267e-05 -0.014104761370097705 0 -1.1485981061522318e-05 -0.013871174110365888 0 -0.00024460044690639187 -0.013988836242197461 0 -9.9105432412371366e-05 -0.013702385841348081 0 0.00015641687203724229 -0.013924520704102524 0 -1.1485981061522318e-05 -0.013871174110365888 0 -8.0234205055317267e-05 -0.014104761370097705 0 -0.00058194297522235947 -0.014130580116185077 0 -0.00024460044690639187 -0.013988836242197461 0 -0.00034155439572617046 -0.013716688499278221 0 -0.00024460044690639187 -0.013988836242197461 0 -0.00034155439572617046 -0.013716688499278221 0 -9.9105432412371366e-05 -0.013702385841348081 0 -0.00034155439572617046 -0.013716688499278221 0 -9.9105432412371366e-05 -0.013702385841348081 0 -8.3890927858603547e-05 -0.013362828461843486 0 6.2897954137222537e-05 -0.013699283593628098 0 -1.1485981061522318e-05 -0.013871174110365888 0 -9.9105432412371366e-05 -0.013702385841348081 0 6.2897954137222537e-05 -0.013699283593628098 0 -9.9105432412371366e-05 -0.013702385841348081 0 3.3833562615692417e-05 -0.013541495195598861 0 -9.9105432412371366e-05 -0.013702385841348081 0 -8.3890927858603547e-05 -0.013362828461843486 0 3.3833562615692417e-05 -0.013541495195598861 0 -8.3890927858603547e-05 -0.013362828461843486 0 0.00011434562882475411 -0.013381388611150105 0 3.3833562615692417e-05 -0.013541495195598861 0 -0.00029203268523420755 -0.013799556175986275 0 0.00017544382110042472 -0.013685956177151 0 -0.00025461296062740931 -0.013948225771346556 0 0.00026526353692660811 -0.013647266479370956 0 -0.00017717061287674728 -0.013594486002454878 0 -0.00049765313408427843 -0.013537449848708947 0 -0.00025461296062740931 -0.013948225771346556 0 -0.00017717061287674728 -0.013594486002454878 0 -0.00049765313408427843 -0.013537449848708947 0 -0.00017717061287674728 -0.013594486002454878 0 -1.5130004934817813e-06 -0.013198286889688864 0 -0.00036855001588669299 -0.013102836379939083 0 -0.00049765313408427843 -0.013537449848708947 0 -1.5130004934817813e-06 -0.013198286889688864 0 0.00026526353692660811 -0.013647266479370956 0 -1.5130004934817813e-06 -0.013198286889688864 0 0.00050107789213787622 -0.012949411132589267 0 0.00026526353692660811 -0.013647266479370956 0 -0.00017717061287674728 -0.013594486002454878 0 -1.5130004934817813e-06 -0.013198286889688864 0 0.00011434562882475411 -0.013381388611150105 0 0.00022159879989143056 -0.013527990082424743 0 0.00024321457531676567 -0.012968905640769923 0 -0.00024204313584119899 -0.012649628002726471 0 -0.00013081591869508228 -0.011588729147344832 0 0.00017544382110042472 -0.013685956177151 0 -0.00013081591869508228 -0.011588729147344832 0 -8.3890927858603547e-05 -0.013362828461843486 0 0.00011434562882475411 -0.013381388611150105 0 0.00024321457531676567 -0.012968905640769923 0 0.00026526353692660811 -0.013647266479370956 0 0.0011511958409651452 -0.012907032948056932 0 0.00050107789213787622 -0.012949411132589267 0 -0.00024204313584119899 -0.012649628002726471 0 -2.9650051468535372e-05 -0.012839897222678262 0 0.00012460972806651888 -0.013617452032900408 0 0.00020717893655879308 -0.013527365036786032 0 0.00016610870304107806 -0.013496353838936338 0 0.00011434562882475411 -0.013381388611150105 0 3.3833562615692417e-05 -0.013541495195598861 0 0.00016610870304107806 -0.013496353838936338 0 0.00012460972806651888 -0.013617452032900408 0 3.3833562615692417e-05 -0.013541495195598861 0 0.00016610870304107806 -0.013496353838936338 0 0.00011434562882475411 -0.013381388611150105 0 0.00022159879989143056 -0.013527990082424743 0 0.00016610870304107806 -0.013496353838936338 0 -0.00054027114526614367 -0.011426390954509003 0 -0.00099244982335231781 -0.011159421720040244 0 -0.00064712971979808526 -0.011083519975684523 0 -0.00099244982335231781 -0.011159421720040244 0 -0.00064712971979808526 -0.011083519975684523 0 -0.00054999906903904566 -0.010737229541168373 0 -0.00099244982335231781 -0.011159421720040244 0 -0.00054999906903904566 -0.010737229541168373 0 -0.00096279964580030263 -0.01030153759407762 0 -0.00054999906903904566 -0.010737229541168373 0 -0.0004376390207853573 -0.010309171426749843 0 -0.00096279964580030263 -0.01030153759407762 0 -0.00053742081679365413 -0.0099111894353715452 0 -0.00084358376380768167 -0.010259849119775916 0 -0.00081558093920153501 -0.0095193013588394937 0 -0.0004376390207853573 -0.010309171426749843 0 -0.00060726364783894897 -0.0099163119769216605 0 -0.00014669228238688303 -0.0099213845697404528 0 -0.0004376390207853573 -0.010309171426749843 0 -0.00060726364783894897 -0.0099163119769216605 0 -0.00096279964580030263 -0.01030153759407762 0 -0.00052336033561853335 -0.0098452530401320366 0 -0.00013081591869508228 -0.011588729147344832 0 0.0011511958409651452 -0.012907032948056932 0 0.00050107789213787622 -0.012949411132589267 0 0.00043947620699898328 -0.012212831400065391 0 0.0011511958409651452 -0.012907032948056932 0 0.0012409737565432645 -0.011569361233877763 0 0.00043947620699898328 -0.012212831400065391 0 -0.00013081591869508228 -0.011588729147344832 0 0.00033053431457991317 -0.010592460785634254 0 0.0012409737565432645 -0.011569361233877763 0 0.00043947620699898328 -0.012212831400065391 0 0.00034260240295368118 -0.011453913228089486 0 -0.00053742081679365413 -0.0099111894353715452 0 -0.00081558093920153501 -0.0095193013588394937 0 -0.00051864585276649509 -0.0094636505163443428 0 -0.00053742081679365413 -0.0099111894353715452 0 -0.00051864585276649509 -0.0094636505163443428 0 -0.00025436417692767149 -0.0095640590516340822 0 -0.00052336033561853335 -0.0098452530401320366 0 -0.00030967160906569753 -0.0096263562534221799 0 -0.00075508427236281985 -0.012377395744803571 0 -1.5130004934817813e-06 -0.013198286889688864 0 -0.00019032171375830392 -0.011912763253545108 0 -0.00056370135673523716 -0.01273178430749222 0 -2.436304543827133e-05 -0.013189967628915023 0 -1.5130004934817813e-06 -0.013198286889688864 0 0.00043947620699898328 -0.012212831400065391 0 -0.00019032171375830392 -0.011912763253545108 0 -1.5130004934817813e-06 -0.013198286889688864 0 0.00050107789213787622 -0.012949411132589267 0 0.00043947620699898328 -0.012212831400065391 0 0.00043947620699898328 -0.012212831400065391 0 -0.00019032171375830392 -0.011912763253545108 0 0.00034260240295368118 -0.011453913228089486 0 -0.00019032171375830392 -0.011912763253545108 0 -0.00060707497746577161 -0.011362372183796286 0 0.00034260240295368118 -0.011453913228089486 0 -0.00075508427236281985 -0.012377395744803571 0 -0.00019032171375830392 -0.011912763253545108 0 -0.00060707497746577161 -0.011362372183796286 0 -0.00060707497746577161 -0.011362372183796286 0 0.00034260240295368118 -0.011453913228089486 0 0.00021038666164003089 -0.010638494791846415 0 0.00034260240295368118 -0.011453913228089486 0 0.00021038666164003089 -0.010638494791846415 0 0.00083181510877143377 -0.010903604985374703 0 0.00053184827675025902 -0.010238912192179189 0 0.00021038666164003089 -0.010638494791846415 0 0.00087662267671321733 -0.010462569538663997 0 0.00021038666164003089 -0.010638494791846415 0 0.00083181510877143377 -0.010903604985374703 0 0.00087662267671321733 -0.010462569538663997 0 5.0665111465673216e-05 -0.0099616638987047174 0 0.00053184827675025902 -0.010238912192179189 0 0.00021038666164003089 -0.010638494791846415 0 5.0665111465673216e-05 -0.0099616638987047174 0 0.00021038666164003089 -0.010638494791846415 0 -0.00054021747561336028 -0.010261278584196691 0 -0.00060707497746577161 -0.011362372183796286 0 0.00021038666164003089 -0.010638494791846415 0 -0.00054021747561336028 -0.010261278584196691 0 -0.00063731797825783681 -0.009183516494092164 0 -0.00051864585276649509 -0.0094636505163443428 0 -0.0003367642750148255 -0.0092112982616996703 0 -0.00051864585276649509 -0.0094636505163443428 0 -0.0003367642750148255 -0.0092112982616996703 0 -0.00025436417692767149 -0.0095640590516340822 0 -0.00081558093920153501 -0.0095193013588394937 0 -0.00063731797825783681 -0.009183516494092164 0 -0.00051864585276649509 -0.0094636505163443428 0 -0.00081558093920153501 -0.0095193013588394937 0 -0.00063731797825783681 -0.009183516494092164 0 -0.00078076711830316764 -0.0088438754411522963 0 0.00033053431457991317 -0.010592460785634254 0 -0.00038322249148393407 -0.00931738994256061 0 0.0012409737565432645 -0.011569361233877763 0 0.00034260240295368118 -0.011453913228089486 0 0.00083181510877143377 -0.010903604985374703 0 0.0012409737565432645 -0.011569361233877763 0 0.00083181510877143377 -0.010903604985374703 0 0.001271991348507996 -0.010265888191956353 0 0.00051103817635008049 -0.0099980480606906875 0 0.00053184827675025902 -0.010238912192179189 0 0.001271991348507996 -0.010265888191956353 0 0.00053184827675025902 -0.010238912192179189 0 0.00087662267671321733 -0.010462569538663997 0 0.001271991348507996 -0.010265888191956353 0 0.00083181510877143377 -0.010903604985374703 0 0.00087662267671321733 -0.010462569538663997 0 0.001271991348507996 -0.010265888191956353 0 -0.0009171006792085978 -0.0085465527141304239 0 -0.0015828947174222235 -0.0085130508509742246 0 -0.0015316191541644545 -0.0080219381568591517 0 -0.00063731797825783681 -0.009183516494092164 0 -0.00078076711830316764 -0.0088438754411522963 0 -0.0003367642750148255 -0.0092112982616996703 0 -0.00038322249148393407 -0.00931738994256061 0 -0.0010506567316123229 -0.008492178438824308 0 -0.00093330275101972666 -0.0089157588950714538 0 -0.0009171006792085978 -0.0085465527141304239 0 -0.0015828947174222235 -0.0085130508509742246 0 -0.00293784186600551 -0.0078172548667944132 0 -0.0032416930181734492 -0.0076423035054412544 0 -0.0032269344851230983 -0.0078622753228987548 0 -0.0022653523103671972 -0.0081671965078736093 0 -0.0027418016162738495 -0.0078695151993794944 0 -0.0031654119595259005 -0.0080934345432654466 0 -0.00293784186600551 -0.0078172548667944132 0 -0.0032269344851230983 -0.0078622753228987548 0 -0.0015828947174222235 -0.0085130508509742246 0 -0.0015316191541644545 -0.0080219381568591517 0 -0.0022501504114423409 -0.0081013714960297169 0 -0.0003367642750148255 -0.0092112982616996703 0 -0.00025436417692767149 -0.0095640590516340822 0 0.00015897600253190363 -0.0095761218416529209 0 -0.0010506567316123229 -0.008492178438824308 0 -0.00095431645062888325 -0.0085727059076266335 0 -0.0015316191541644545 -0.0080219381568591517 0 -0.0022501504114423409 -0.0081013714960297169 0 -0.002163108459767255 -0.0074794242187088879 0 -0.0022501504114423409 -0.0081013714960297169 0 -0.00262343014725306 -0.0074225705879193294 0 -0.002163108459767255 -0.0074794242187088879 0 -0.0032416930181734492 -0.0076423035054412544 0 -0.0032269344851230983 -0.0078622753228987548 0 -0.003401728690149312 -0.0077836137749170593 0 -0.0033178828354671445 -0.0079922947807599624 0 -0.0032269344851230983 -0.0078622753228987548 0 -0.003401728690149312 -0.0077836137749170593 0 -0.0035872801195262448 -0.0078655480476138451 0 -0.0035479859026859434 -0.0076644074403379786 0 -0.0037403082681635035 -0.0077314862640668752 0 -0.0035872801195262448 -0.0078655480476138451 0 -0.003401728690149312 -0.0077836137749170593 0 -0.0035479859026859434 -0.0076644074403379786 0 -0.0035479859026859434 -0.0076644074403379786 0 -0.003631051698980581 -0.0075060283225350105 0 -0.0037403082681635035 -0.0077314862640668752 0 -0.0035479859026859434 -0.0076644074403379786 0 -0.003631051698980581 -0.0075060283225350105 0 -0.0034296017335767055 -0.0074498495235823326 0 -0.0032416930181734492 -0.0076423035054412544 0 -0.003401728690149312 -0.0077836137749170593 0 -0.0034296017335767055 -0.0074498495235823326 0 -0.003401728690149312 -0.0077836137749170593 0 -0.0035479859026859434 -0.0076644074403379786 0 -0.0034296017335767055 -0.0074498495235823326 0 -0.0027418016162738495 -0.0078695151993794944 0 -0.0031856435041628037 -0.0075472820319034909 0 -0.0022501504114423409 -0.0081013714960297169 0 -0.0029307482567965107 -0.0076708586836867192 0 -0.00262343014725306 -0.0074225705879193294 0 -0.00262343014725306 -0.0074225705879193294 0 -0.0028232045253071348 -0.006949233992956304 0 -0.002163108459767255 -0.0074794242187088879 0 -0.0029307482567965107 -0.0076708586836867192 0 -0.00262343014725306 -0.0074225705879193294 0 -0.0030503683917112966 -0.007221765499891496 0 -0.00262343014725306 -0.0074225705879193294 0 -0.0030503683917112966 -0.007221765499891496 0 -0.0028232045253071348 -0.006949233992956304 0 -0.003631051698980581 -0.0075060283225350105 0 -0.0034296017335767055 -0.0074498495235823326 0 -0.0035726425944739367 -0.0072016921386092864 0 -0.0031856435041628037 -0.0075472820319034909 0 -0.0035571859107472077 -0.0072374521737791648 0 -0.0029307482567965107 -0.0076708586836867192 0 -0.0030503683917112966 -0.007221765499891496 0 -0.0035726425944739367 -0.0072016921386092864 0 -0.0030503683917112966 -0.007221765499891496 0 -0.0032738637542193512 -0.0068971025618431202 0 -0.0035726425944739367 -0.0072016921386092864 0 -0.001117998690647426 -0.0083644198077050622 0 -0.00061128799129646144 -0.0090565007529092648 0 -0.0032738637542193512 -0.0068971025618431202 0 -0.0028232045253071348 -0.006949233992956304 0 -0.0033788949133458906 -0.0065285285232101892 0 0.00074584575690030217 -0.0099673967557965277 0 0.00060144750056632078 -0.010264645673248238 0 0.00027294733941491978 -0.010014881484126227 0 0.00074584575690030217 -0.0099673967557965277 0 0.00060144750056632078 -0.010264645673248238 0 0.0015282780422351096 -0.0105189641410034 0 -0.0030503683917112966 -0.007221765499891496 0 -0.0032738637542193512 -0.0068971025618431202 0 -0.0028232045253071348 -0.006949233992956304 0 0.00060144750056632078 -0.010264645673248238 0 0.00027294733941491978 -0.010014881484126227 0 0.0002186690567828997 -0.010325633622846041 0 0.00074584575690030217 -0.0099673967557965277 0 0.00027294733941491978 -0.010014881484126227 0 0.00015897600253190363 -0.0095761218416529209 0 0.00027294733941491978 -0.010014881484126227 0 -3.2475851352225984e-05 -0.010177470086024239 0 0.0002186690567828997 -0.010325633622846041 0 -0.0004376390207853573 -0.010309171426749843 0 -3.2475851352225984e-05 -0.010177470086024239 0 -0.00014669228238688303 -0.0099213845697404528 0 0.00027294733941491978 -0.010014881484126227 0 -3.2475851352225984e-05 -0.010177470086024239 0 -0.00014669228238688303 -0.0099213845697404528 0 -0.00060726364783894897 -0.0099163119769216605 0 -0.00014669228238688303 -0.0099213845697404528 0 -0.00025436417692767149 -0.0095640590516340822 0 -0.00014669228238688303 -0.0099213845697404528 0 -0.00025436417692767149 -0.0095640590516340822 0 0.00015897600253190363 -0.0095761218416529209 0 0.00027294733941491978 -0.010014881484126227 0 -0.00014669228238688303 -0.0099213845697404528 0 0.00015897600253190363 -0.0095761218416529209 0 -0.001117998690647426 -0.0083644198077050622 0 -0.00095431645062888325 -0.0085727059076266335 0 -0.0023274267155474139 0.0028453449890535028 0 -0.0026502970738294255 0.0029013782970080089 0 -0.0026546782443191874 0.0026659866206837093 0 -0.0023274267155474139 0.0028453449890535028 0 -0.0026546782443191874 0.0026659866206837093 0 -0.0024735213557718892 0.0025556917785975438 0 -0.0033657659479289612 0.0047289416493623785 0 -0.0035200505887284517 0.0044081126643899455 0 -0.0024513127321700288 0.0031102135135243477 0 -0.0023274267155474139 0.0028453449890535028 0 -0.0026502970738294255 0.0029013782970080089 0 -0.0026546782443191874 0.0026659866206837093 0 -0.0028813458882941336 0.0026327786503792887 0 -0.0027447467446701426 0.002562185461539212 0 -0.0026502970738294255 0.0029013782970080089 0 -0.0026546782443191874 0.0026659866206837093 0 -0.0028813458882941336 0.0026327786503792887 0 -0.0029048764668904098 0.0030520676104799989 0 -0.0026502970738294255 0.0029013782970080089 0 -0.0028813458882941336 0.0026327786503792887 0 -0.0039466308227945109 -0.0078058653334189057 0 -0.0039567409356436054 -0.0074498955593493054 0 -0.0037403082681635035 -0.0077314862640668752 0 -0.0034913652645704308 -0.002460144705308605 0 -0.0033823061217916361 -0.0025151212868241958 0 -0.003631051698980581 -0.0075060283225350105 0 -0.0039567409356436054 -0.0074498955593493054 0 -0.0037403082681635035 -0.0077314862640668752 0 -0.003631051698980581 -0.0075060283225350105 0 -0.0039567409356436054 -0.0074498955593493054 0 -0.0035726425944739367 -0.0072016921386092864 0 -0.0039567409356436054 -0.0074498955593493054 0 -0.0035726425944739367 -0.0072016921386092864 0 -0.0039561953552896293 -0.0068659740009421183 0 -0.0032738637542193512 -0.0068971025618431202 0 -0.0039561953552896293 -0.0068659740009421183 0 -0.0033788949133458906 -0.0065285285232101892 0 -0.0032738637542193512 -0.0068971025618431202 0 -0.0035726425944739367 -0.0072016921386092864 0 -0.0039561953552896293 -0.0068659740009421183 0 -0.0029354357635104182 0.0021761426854881452 0 -0.0027882185687254459 0.0024054014099272156 0 -0.0024939496037412671 0.0014743260099490819 0 -0.0027882185687254459 0.0024054014099272156 0 -0.00303140042450594 0.0032052131882886331 0 -0.0027081181108276967 0.003832872621413731 0 -0.0027469486400359265 0.0023541597167305662 0 -0.0026135731682685884 0.0028432314975676888 0 -0.0027882185687254459 0.0024054014099272156 0 -0.0027884219375709468 0.0024606567781245976 0 -0.0030917904048276268 0.0027291624290179343 0 -0.0028813458882941336 0.0026327786503792887 0 -0.0027882185687254459 0.0024054014099272156 0 -0.0027884219375709468 0.0024606567781245976 0 -0.0028813458882941336 0.0026327786503792887 0 -0.0029354357635104182 0.0021761426854881452 0 -0.0027882185687254459 0.0024054014099272156 0 -0.0028709607726046028 0.0025882602446096977 0 -0.0027206024764472054 0.0022711124652852362 0 -0.0033823061217916361 -0.0025151212868241958 0 -0.0036932158560630513 -0.0017240068014684887 0 -0.0028813458882941336 0.0026327786503792887 0 -0.0027884219375709468 0.0024606567781245976 0 -0.0027447467446701426 0.002562185461539212 0 -0.0027884219375709468 0.0024606567781245976 0 -0.0026721710554712145 0.0025047724570161946 0 -0.0026856845990250798 0.0024097181481643735 0 -0.0026546782443191874 0.0026659866206837093 0 -0.0026721710554712145 0.0025047724570161946 0 -0.0024735213557718892 0.0025556917785975438 0 -0.0027884219375709468 0.0024606567781245976 0 -0.0027447467446701426 0.002562185461539212 0 -0.0026721710554712145 0.0025047724570161946 0 -0.0026546782443191874 0.0026659866206837093 0 -0.0027447467446701426 0.002562185461539212 0 -0.0026721710554712145 0.0025047724570161946 0 -0.0030917904048276268 0.0027291624290179343 0 -0.00303140042450594 0.0032052131882886331 0 -0.00355105747507705 0.0036140880045638468 0 -0.0027206024764472054 0.0022711124652852362 0 -0.00373146174882809 0.0049456030874553865 0 -0.0027882185687254459 0.0024054014099272156 0 -0.0030917904048276268 0.0027291624290179343 0 -0.00303140042450594 0.0032052131882886331 0 -0.0026856845990250798 0.0024097181481643735 0 -0.0026474571259352542 0.0024024405676622597 0 -0.0026462352434886045 0.0023897745034721567 0 -0.0026474571259352542 0.0024024405676622597 0 -0.0026180668911192275 0.002405244022449795 0 -0.0026462352434886045 0.0023897745034721567 0 -0.0026856845990250798 0.0024097181481643735 0 -0.0026474571259352542 0.0024024405676622597 0 -0.0026446061056041585 0.0024116032556658674 0 -0.0026474571259352542 0.0024024405676622597 0 -0.0026446061056041585 0.0024116032556658674 0 -0.0026180668911192275 0.002405244022449795 0 -0.0026856845990250798 0.0024097181481643735 0 -0.0026446061056041585 0.0024116032556658674 0 -0.0026274268863038215 0.0024420452484300694 0 -0.0026721710554712145 0.0025047724570161946 0 -0.0026856845990250798 0.0024097181481643735 0 -0.0026274268863038215 0.0024420452484300694 0 -0.0026446061056041585 0.0024116032556658674 0 -0.0026274268863038215 0.0024420452484300694 0 -0.0026180668911192275 0.002405244022449795 0 -0.0048499661985096174 0.0082662342706726413 0 -0.0048910683162160812 0.0080396654883897432 0 -0.0051152672807882283 0.0080547396414024953 0 -0.0048910683162160812 0.0080396654883897432 0 -0.0051152672807882283 0.0080547396414024953 0 -0.005011243690648007 0.0079245019956323895 0 -0.0046395217846615672 0.0075933947432651463 0 -0.0040839421850731731 0.00545009422807938 0 -0.0026274268863038215 0.0024420452484300694 0 -0.0026180668911192275 0.002405244022449795 0 -0.0024735213557718892 0.0025556917785975438 0 -0.0043630535125446616 0.0064569086772465287 0 -0.0047215825966621626 0.0061731598212978363 0 -0.004571178260040722 0.0065767654800827679 0 -0.0026721710554712145 0.0025047724570161946 0 -0.0026274268863038215 0.0024420452484300694 0 -0.0024735213557718892 0.0025556917785975438 0 -0.0040839421850731731 0.00545009422807938 0 -0.0035200505887284517 0.0044081126643899455 0 -0.00373146174882809 0.0049456030874553865 0 -0.0048330205968390534 0.0066752470868878117 0 -0.0037405463581646763 0.0050480809117255006 0 -0.0035887019577220819 0.0043029420875931729 0 -0.0043839301679727567 0.0054140926735942044 0 -0.0035763869221518332 0.0036009679083152152 0 -0.0035887019577220819 0.0043029420875931729 0 -0.0043839301679727567 0.0054140926735942044 0 -0.0050576115310290489 0.0078059517237721978 0 -0.0051743419313568908 0.0078847772858488124 0 -0.005037097347736475 0.0075525177664118835 0 -0.0049551288684528422 0.0077822622992688118 0 -0.0050576115310290489 0.0078059517237721978 0 -0.005037097347736475 0.0075525177664118835 0 -0.0049551288684528422 0.0077822622992688118 0 -0.005011243690648007 0.0079245019956323895 0 -0.0050576115310290489 0.0078059517237721978 0 -0.0051152672807882283 0.0080547396414024953 0 -0.0051032450433906879 0.0079549509729490691 0 -0.0051743419313568908 0.0078847772858488124 0 -0.0051152672807882283 0.0080547396414024953 0 -0.005011243690648007 0.0079245019956323895 0 -0.0051032450433906879 0.0079549509729490691 0 -0.005011243690648007 0.0079245019956323895 0 -0.0051032450433906879 0.0079549509729490691 0 -0.0050874957102281446 0.0078922208937610393 0 -0.0051032450433906879 0.0079549509729490691 0 -0.0050874957102281446 0.0078922208937610393 0 -0.0051743419313568908 0.0078847772858488124 0 -0.0050874957102281446 0.0078922208937610393 0 -0.0050576115310290489 0.0078059517237721978 0 -0.0051743419313568908 0.0078847772858488124 0 -0.005011243690648007 0.0079245019956323895 0 -0.0050874957102281446 0.0078922208937610393 0 -0.0050576115310290489 0.0078059517237721978 0 -0.0035146514831442153 0.0037351128574435212 0 -0.0035763869221518332 0.0036009679083152152 0 -0.0035887019577220819 0.0043029420875931729 0 -0.0035146514831442153 0.0037351128574435212 0 -0.0032534275444853883 0.0040284682528423316 0 -0.0035887019577220819 0.0043029420875931729 0 -0.0035146514831442153 0.0037351128574435212 0 -0.0032231192140675323 0.0035830899496249718 0 -0.0032534275444853883 0.0040284682528423316 0 -0.0037692285281480118 0.0047737255302799635 0 -0.00373146174882809 0.0049456030874553865 0 -0.0040839421850731731 0.00545009422807938 0 -0.00373146174882809 0.0049456030874553865 0 -0.0035146514831442153 0.0037351128574435212 0 -0.00355105747507705 0.0036140880045638468 0 -0.0032231192140675323 0.0035830899496249718 0 -0.00303140042450594 0.0032052131882886331 0 -0.0032231192140675323 0.0035830899496249718 0 -0.0027081181108276967 0.003832872621413731 0 -0.00303140042450594 0.0032052131882886331 0 -0.00355105747507705 0.0036140880045638468 0 -0.0032231192140675323 0.0035830899496249718 0 -0.0032231192140675323 0.0035830899496249718 0 -0.0032534275444853883 0.0040284682528423316 0 -0.0027081181108276967 0.003832872621413731 0 -0.0026135731682685884 0.0028432314975676888 0 -0.0028117445861504733 0.0022332510964051516 0 -0.0032534275444853883 0.0040284682528423316 0 -0.003236591431109367 0.0047120620813143541 0 -0.0027081181108276967 0.003832872621413731 0 -0.003236591431109367 0.0047120620813143541 0 -0.0027081181108276967 0.003832872621413731 0 -0.0029737910055034691 0.0057017701749677678 0 -0.0037405463581646763 0.0050480809117255006 0 -0.0035887019577220819 0.0043029420875931729 0 -0.003236591431109367 0.0047120620813143541 0 -0.0032534275444853883 0.0040284682528423316 0 -0.0035887019577220819 0.0043029420875931729 0 -0.003236591431109367 0.0047120620813143541 0 -0.0037405463581646763 0.0050480809117255006 0 -0.003236591431109367 0.0047120620813143541 0 -0.0037178134866384686 0.0056511253198752451 0 -0.0024939496037412671 0.0014743260099490819 0 -0.0030825795520756866 0.0010177837474000218 0 -0.0022910359608816671 0.00036823251057664419 0 -0.0015342942563462407 -0.005388649024088487 0 -0.0028117445861504733 0.0022332510964051516 0 -0.0036932158560630513 -0.0017240068014684887 0 -0.0015342942563462407 -0.005388649024088487 0 -0.0029354357635104182 0.0021761426854881452 0 -0.0024939496037412671 0.0014743260099490819 0 -0.0030825795520756866 0.0010177837474000218 0 -0.0015342942563462407 -0.005388649024088487 0 -0.00061128799129646144 -0.0090565007529092648 0 -0.0039561953552896293 -0.0068659740009421183 0 -0.0038462456060983303 -0.0061023249409466159 0 -0.0033788949133458906 -0.0065285285232101892 0 0.0023172611668571337 -0.011141985338512718 0 0.0015282780422351096 -0.0105189641410034 0 0.0015572915003155068 -0.011613296678181896 0 0.0022013600611018973 -0.012321817557273596 0 0.0015572915003155068 -0.011613296678181896 0 0.0016094499927377453 -0.012510279923705247 0 -0.0015342942563462407 -0.005388649024088487 0 0.00064296052312291622 -0.0082950636729955517 0 0.0023172611668571337 -0.011141985338512718 0 0.0022013600611018973 -0.012321817557273596 0 0.0015572915003155068 -0.011613296678181896 0 0.0022013600611018973 -0.012321817557273596 0 0.0016094499927377453 -0.012510279923705247 0 0.0019453095418513807 -0.013150168830123999 0 -0.0014581472219169238 -0.0034143635095082608 0 -0.0017170224676406008 -0.0031391589239315454 0 -0.002005768552402724 -0.0036302726856110193 0 -0.0015317274310043753 -0.0040552464722551952 0 -0.0014581472219169238 -0.0034143635095082608 0 -0.002005768552402724 -0.0036302726856110193 0 -0.003236591431109367 0.0047120620813143541 0 -0.0029737910055034691 0.0057017701749677678 0 -0.0037178134866384686 0.0056511253198752451 0 -0.0028117445861504733 0.0022332510964051516 0 -0.0045112897026064816 0.0068997334693738687 0 -0.0029737910055034691 0.0057017701749677678 0 -0.0039233126630767896 0.0064583767607379328 0 -0.0037178134866384686 0.0056511253198752451 0 -0.0028117445861504733 0.0022332510964051516 0 -0.0030834119887878492 0.0016676181426852784 0 -0.0017170224676406008 -0.0031391589239315454 0 -0.002005768552402724 -0.0036302726856110193 0 -0.0020828283547373893 -0.0031968234584685853 0 -0.0039166172959079482 0.0060064851430379745 0 -0.0040685257697037729 0.0066539521502555349 0 -0.0044108831223201011 0.0064950601468753153 0 -0.0040685257697037729 0.0066539521502555349 0 -0.0044108831223201011 0.0064950601468753153 0 -0.0044219431843200143 0.006864902149397052 0 -0.0048044087762655905 0.0069885886128414707 0 -0.0039233126630767896 0.0064583767607379328 0 -0.0043839301679727567 0.0054140926735942044 0 -0.0048044087762655905 0.0069885886128414707 0 -0.0046168462685145552 0.0069944361983037993 0 -0.0039233126630767896 0.0064583767607379328 0 -0.0046168462685145552 0.0069944361983037993 0 -0.0044108831223201011 0.0064950601468753153 0 -0.0044219431843200143 0.006864902149397052 0 -0.0044257834380958859 0.0067843798278980384 0 -0.0045112897026064816 0.0068997334693738687 0 -0.0039233126630767896 0.0064583767607379328 0 -0.0037178134866384686 0.0056511253198752451 0 -0.0043839301679727567 0.0054140926735942044 0 -0.0037405463581646763 0.0050480809117255006 0 -0.0037178134866384686 0.0056511253198752451 0 -0.0043839301679727567 0.0054140926735942044 0 -0.00023481210075955181 -0.01102608656449644 0 0.0007526418687553015 -0.011571593205296856 0 0.00031984431517509502 -0.01204876925677752 0 -0.00054027114526614367 -0.011426390954509003 0 -0.00064712971979808526 -0.011083519975684523 0 3.4279918114028659e-05 -0.010845166945818352 0 -0.00013769794270775777 -0.012524316359618422 0 -0.00017179611274576571 -0.010802912285316643 0 -0.00064712971979808526 -0.011083519975684523 0 -0.00054999906903904566 -0.010737229541168373 0 3.4279918114028659e-05 -0.010845166945818352 0 -0.00054999906903904566 -0.010737229541168373 0 -0.0004376390207853573 -0.010309171426749843 0 3.4279918114028659e-05 -0.010845166945818352 0 -0.0004376390207853573 -0.010309171426749843 0 -3.2475851352225984e-05 -0.010177470086024239 0 3.4279918114028659e-05 -0.010845166945818352 0 0.00057989119800658945 -0.010337118484650562 0 -0.00017179611274576571 -0.010802912285316643 0 0.00060144750056632078 -0.010264645673248238 0 -0.00023481210075955181 -0.01102608656449644 0 0.00091845899079225882 -0.010890564276167688 0 0.00060144750056632078 -0.010264645673248238 0 3.4279918114028659e-05 -0.010845166945818352 0 0.0002186690567828997 -0.010325633622846041 0 -3.2475851352225984e-05 -0.010177470086024239 0 3.4279918114028659e-05 -0.010845166945818352 0 0.0002186690567828997 -0.010325633622846041 0 0.00060144750056632078 -0.010264645673248238 0 0.00091845899079225882 -0.010890564276167688 0 0.0015282780422351096 -0.0105189641410034 0 0.00091845899079225882 -0.010890564276167688 0 0.0015282780422351096 -0.0105189641410034 0 0.0015572915003155068 -0.011613296678181896 0 -0.00023481210075955181 -0.01102608656449644 0 0.00091845899079225882 -0.010890564276167688 0 0.0007526418687553015 -0.011571593205296856 0 0.00091845899079225882 -0.010890564276167688 0 0.0007526418687553015 -0.011571593205296856 0 0.0015572915003155068 -0.011613296678181896 0 0.0007526418687553015 -0.011571593205296856 0 0.00097411456777569082 -0.012210729514086364 0 0.0015572915003155068 -0.011613296678181896 0 0.0007526418687553015 -0.011571593205296856 0 0.00097411456777569082 -0.012210729514086364 0 0.00031984431517509502 -0.01204876925677752 0 0.00097411456777569082 -0.012210729514086364 0 0.0015572915003155068 -0.011613296678181896 0 0.0016094499927377453 -0.012510279923705247 0 0.0016094499927377453 -0.012510279923705247 0 0.0011220657464442113 -0.012733284980479849 0 0.0014025722905434913 -0.013542801761588607 0 0.00097411456777569082 -0.012210729514086364 0 0.0016094499927377453 -0.012510279923705247 0 0.0011220657464442113 -0.012733284980479849 0 0.0011220657464442113 -0.012733284980479849 0 0.00044460719145556957 -0.012815058732087466 0 0.0014025722905434913 -0.013542801761588607 0 0.00097411456777569082 -0.012210729514086364 0 0.00044460719145556957 -0.012815058732087466 0 0.00031984431517509502 -0.01204876925677752 0 0.00097411456777569082 -0.012210729514086364 0 0.0011220657464442113 -0.012733284980479849 0 0.00044460719145556957 -0.012815058732087466 0 0.00044460719145556957 -0.012815058732087466 0 0.00031984431517509502 -0.01204876925677752 0 -0.00030473235056732175 -0.012297909744588361 0 0.00084096786117262927 -0.013233941937769519 0 0.00027392907368333386 -0.012897445393241821 0 0.0011803905429503627 -0.013633211185525858 0 0.00089475451932958887 -0.013502266197028871 0 0.0009422806068349178 -0.013809681572681405 0 -0.00023481210075955181 -0.01102608656449644 0 0.00031984431517509502 -0.01204876925677752 0 -0.00030473235056732175 -0.012297909744588361 0 -0.00013769794270775777 -0.012524316359618422 0 0.00027392907368333386 -0.012897445393241821 0 0.00055438302716404432 -0.013296933783642443 0 0.00060018100558884837 -0.01363336429175945 0 0.00089475451932958887 -0.013502266197028871 0 -0.0010728340762001987 -0.011834055915958088 0 -0.00023481210075955181 -0.01102608656449644 0 -0.00030473235056732175 -0.012297909744588361 0 0.00060018100558884837 -0.01363336429175945 0 0.00089475451932958887 -0.013502266197028871 0 0.00073395814940174114 -0.013781905814118577 0 0.00089475451932958887 -0.013502266197028871 0 0.00073395814940174114 -0.013781905814118577 0 0.0009422806068349178 -0.013809681572681405 0 0.00073395814940174114 -0.013781905814118577 0 0.0009422806068349178 -0.013809681572681405 0 0.00063404681076832334 -0.013984297015937923 0 0.00091544068655894934 -0.014090410140381164 0 0.0009422806068349178 -0.013809681572681405 0 0.00063404681076832334 -0.013984297015937923 0 0.00091544068655894934 -0.014090410140381164 0 0.00072091837596565951 -0.01419295629224439 0 0.00063404681076832334 -0.013984297015937923 0 0.00091544068655894934 -0.014090410140381164 0 0.00072091837596565951 -0.01419295629224439 0 0.00081000729675412188 -0.014462386853300398 0 0.00072091837596565951 -0.01419295629224439 0 0.00081000729675412188 -0.014462386853300398 0 0.00054076837067253895 -0.014324690074278407 0 0.0012257097696434711 -0.013888185419197266 0 0.0013139102434727053 -0.014182482048076752 0 0.0010468194699782018 -0.014277406333307744 0 0.00091544068655894934 -0.014090410140381164 0 0.0012257097696434711 -0.013888185419197266 0 0.0010468194699782018 -0.014277406333307744 0 0.00091544068655894934 -0.014090410140381164 0 0.0009422806068349178 -0.013809681572681405 0 0.0012257097696434711 -0.013888185419197266 0 0.0011803905429503627 -0.013633211185525858 0 0.0009422806068349178 -0.013809681572681405 0 0.0012257097696434711 -0.013888185419197266 0 0.00084096786117262927 -0.013233941937769519 0 0.0013693802452981821 -0.013531684463494181 0 0.0011803905429503627 -0.013633211185525858 0 0.0012806790942222132 -0.01374041379108688 0 0.0012257097696434711 -0.013888185419197266 0 0.0012806790942222132 -0.01374041379108688 0 0.0013863502462383357 -0.013840644776345772 0 0.0012257097696434711 -0.013888185419197266 0 0.0011803905429503627 -0.013633211185525858 0 0.0012806790942222132 -0.01374041379108688 0 0.0014025722905434913 -0.013542801761588607 0 0.0016094499927377453 -0.012510279923705247 0 0.0017106742115287612 -0.01363215494388299 0 0.0022343701519233505 -0.013920665479082685 0 0.0018518987563571096 -0.013311472501362821 0 0.0017559438871433107 -0.011684380611784836 0 0.0016094499927377453 -0.012510279923705247 0 0.0014025722905434913 -0.013542801761588607 0 0.0017106742115287612 -0.01363215494388299 0 0.0017106742115287612 -0.01363215494388299 0 0.0013863502462383357 -0.013840644776345772 0 0.0022343701519233505 -0.013920665479082685 0 0.0014025722905434913 -0.013542801761588607 0 0.0017106742115287612 -0.01363215494388299 0 0.0013863502462383357 -0.013840644776345772 0 0.0012806790942222132 -0.01374041379108688 0 0.0014025722905434913 -0.013542801761588607 0 0.0013863502462383357 -0.013840644776345772 0 0.0015519903065128119 -0.013857944731524305 0 0.0017559438871433107 -0.011684380611784836 0 0.0017904859624238115 -0.013947959188615609 0 0.0016272256322583342 -0.013857288866715084 0 0.0018614180902027009 -0.013860392744087015 0 0.0017904859624238115 -0.013947959188615609 0 0.0016272256322583342 -0.013857288866715084 0 0.0017320707412356096 -0.014008009363161444 0 0.0016272256322583342 -0.013857288866715084 0 0.0017320707412356096 -0.014008009363161444 0 0.001574601215240569 -0.014059720403914037 0 0.0017320707412356096 -0.014008009363161444 0 0.001574601215240569 -0.014059720403914037 0 0.001769923027431636 -0.014134634242913686 0 0.0017320707412356096 -0.014008009363161444 0 0.001769923027431636 -0.014134634242913686 0 0.001808958220132125 -0.014035144652119013 0 0.0017904859624238115 -0.013947959188615609 0 0.0017320707412356096 -0.014008009363161444 0 0.001808958220132125 -0.014035144652119013 0 0.0016272256322583342 -0.013857288866715084 0 0.0012257097696434711 -0.013888185419197266 0 0.001574601215240569 -0.014059720403914037 0 0.0015519903065128119 -0.013857944731524305 0 0.0012393611177854516 -0.013879376735951996 0 0.0012257097696434711 -0.013888185419197266 0 0.001574601215240569 -0.014059720403914037 0 0.0013139102434727053 -0.014182482048076752 0 0.0013139102434727053 -0.014182482048076752 0 0.0016367493786301048 -0.014215613830833404 0 0.0011571543871949936 -0.014557382333700141 0 0.0015962177152188848 -0.014235195878615374 0 0.0012589083219707164 -0.014374660657415514 0 0.001574601215240569 -0.014059720403914037 0 0.0013139102434727053 -0.014182482048076752 0 0.0016367493786301048 -0.014215613830833404 0 0.001574601215240569 -0.014059720403914037 0 0.001769923027431636 -0.014134634242913686 0 0.0016367493786301048 -0.014215613830833404 0 0.001769923027431636 -0.014134634242913686 0 0.0016367493786301048 -0.014215613830833404 0 0.0018041318664997084 -0.014247581057637021 0 0.001769923027431636 -0.014134634242913686 0 0.0018041318664997084 -0.014247581057637021 0 0.0018347426886889272 -0.014166825921495096 0 0.0018041318664997084 -0.014247581057637021 0 0.0016196109853141966 -0.014340095368526103 0 0.0018645234319414194 -0.014500428500715864 0 0.0018041318664997084 -0.014247581057637021 0 0.0020464004402842208 -0.014406329871704147 0 0.0018645234319414194 -0.014500428500715864 0 0.0016367493786301048 -0.014215613830833404 0 0.0018041318664997084 -0.014247581057637021 0 0.0016196109853141966 -0.014340095368526103 0 0.0016367493786301048 -0.014215613830833404 0 0.0016196109853141966 -0.014340095368526103 0 0.0013794285109447848 -0.014199315104566469 0 0.0016196109853141966 -0.014340095368526103 0 0.001262360885593285 -0.014429236259890761 0 0.0016298273433110271 -0.01460798886998955 0 0.0016196109853141966 -0.014340095368526103 0 0.001262360885593285 -0.014429236259890761 0 0.0013794285109447848 -0.014199315104566469 0 0.001262360885593285 -0.014429236259890761 0 0.0013794285109447848 -0.014199315104566469 0 0.00086031404724041605 -0.014278186118723188 0 0.0012589083219707164 -0.014374660657415514 0 0.00081837477471269891 -0.014507681742567894 0 0.00079179228068701219 -0.014735659004869882 0 0.00081000729675412188 -0.014462386853300398 0 0.00063607690816058912 -0.01467030358456128 0 0.0011571543871949936 -0.014557382333700141 0 0.00079179228068701219 -0.014735659004869882 0 0.00081000729675412188 -0.014462386853300398 0 0.00091544068655894934 -0.014090410140381164 0 0.00081000729675412188 -0.014462386853300398 0 0.0010468194699782018 -0.014277406333307744 0 0.00079293557795928301 -0.014502287481182229 0 0.00060428748751212324 -0.014749478624698812 0 0.00081000729675412188 -0.014462386853300398 0 0.00058219016647077868 -0.014549410405904495 0 0.00060660893907820898 -0.014813583180703666 0 0.0011571543871949936 -0.014557382333700141 0 0.00081000729675412188 -0.014462386853300398 0 0.0010468194699782018 -0.014277406333307744 0 0.0013139102434727053 -0.014182482048076752 0 0.0011571543871949936 -0.014557382333700141 0 0.0010468194699782018 -0.014277406333307744 0 -0.0046890347063691072 0.0068427564219391643 0 -0.004623287394348901 0.0070240307652087502 0 -0.0048600596656081354 0.0069650439755971913 0 -0.0046890347063691072 0.0068427564219391643 0 -0.0048600596656081354 0.0069650439755971913 0 -0.0048412162458920166 0.0066594419972523817 0 -0.0050333483159944285 0.006863204419226083 0 -0.0028839438119066581 0.0014809244512650403 0 -0.004623287394348901 0.0070240307652087502 0 -0.0044219431843200143 0.006864902149397052 0 -0.0042157312224493319 0.0070864707804086432 0 -0.0046168462685145552 0.0069944361983037993 0 -0.004623287394348901 0.0070240307652087502 0 -0.0044219431843200143 0.006864902149397052 0 -0.0028839438119066581 0.0014809244512650403 0 -0.001137624154306302 -0.0038119378942239714 0 -0.0030834119887878492 0.0016676181426852784 0 -0.0028839438119066581 0.0014809244512650403 0 -0.0040685257697037729 0.0066539521502555349 0 -0.0044219431843200143 0.006864902149397052 0 -0.0042157312224493319 0.0070864707804086432 0 -0.0020828283547373893 -0.0031968234584685853 0 -0.0021639585387886163 -0.0027582525908963532 0 -0.0017672359811009123 -0.0027771062011440408 0 -0.0028839438119066581 0.0014809244512650403 0 -0.0030331447986661911 0.0013598321335941785 0 -0.0010394323968606187 -0.004854343594043309 0 -0.00077484137670966787 -0.0045001531031354262 0 -0.00062920663474321241 -0.0048808874603486832 0 -0.0010394323968606187 -0.004854343594043309 0 -0.00077484137670966787 -0.0045001531031354262 0 -0.0011391146951200632 -0.0042962084965795641 0 -0.00045632415999070512 -0.0046455262131858193 0 -0.00062920663474321241 -0.0048808874603486832 0 -0.00021222911611417262 -0.0049040000598296104 0 -0.00077484137670966787 -0.0045001531031354262 0 -0.00045632415999070512 -0.0046455262131858193 0 -0.00062920663474321241 -0.0048808874603486832 0 -0.0017170224676406008 -0.0031391589239315454 0 -0.0020828283547373893 -0.0031968234584685853 0 -0.0017672359811009123 -0.0027771062011440408 0 -0.001137624154306302 -0.0038119378942239714 0 4.9439607971833094e-05 -0.0080715256033917337 0 -0.0017170224676406008 -0.0031391589239315454 0 -0.0017672359811009123 -0.0027771062011440408 0 -0.0013805178732438749 -0.0027991098466288913 0 0.0022013600611018973 -0.012321817557273596 0 0.0020586660575283612 -0.013136967769892908 0 0.0019453095418513807 -0.013150168830123999 0 -0.0014581472219169238 -0.0034143635095082608 0 -0.0017170224676406008 -0.0031391589239315454 0 -0.0013805178732438749 -0.0027991098466288913 0 0.00064296052312291622 -0.0082950636729955517 0 4.9439607971833094e-05 -0.0080715256033917337 0 4.9439607971833094e-05 -0.0080715256033917337 0 0.0017559438871433107 -0.011684380611784836 0 0.0017904859624238115 -0.013947959188615609 0 0.0018614180902027009 -0.013860392744087015 0 0.0018910393716106832 -0.013956283645519429 0 -0.00045632415999070512 -0.0046455262131858193 0 -0.00019072391882559247 -0.0047303749506209282 0 -0.00040225613937778143 -0.0042472293616535942 0 0.0017559438871433107 -0.011684380611784836 0 0.00090259520833346069 -0.010503201874010189 0 0.00043442872999595062 -0.0097846218400665062 0 0.00012066692989006565 -0.0098038638121057189 0 0.00036716896855806347 -0.010367960274889041 0 4.9439607971833094e-05 -0.0080715256033917337 0 0.00090259520833346069 -0.010503201874010189 0 -0.00045632415999070512 -0.0046455262131858193 0 -0.00021222911611417262 -0.0049040000598296104 0 -0.00019072391882559247 -0.0047303749506209282 0 0.0017904859624238115 -0.013947959188615609 0 0.0018910393716106832 -0.013956283645519429 0 0.001808958220132125 -0.014035144652119013 0 0.00090259520833346069 -0.010503201874010189 0 0.0014067288782937826 -0.014620398491693599 0 0.0018910393716106832 -0.013956283645519429 0 0.001808958220132125 -0.014035144652119013 0 0.0018410453582774515 -0.014098238997618471 0 0.0018625418476614474 -0.014005561524921138 0 0.0018410453582774515 -0.014098238997618471 0 0.0018444830178797026 -0.014141477173852827 0 0.00090259520833346069 -0.010503201874010189 0 0.00052956413292006856 -0.008573710506521344 0 0.001769923027431636 -0.014134634242913686 0 0.001808958220132125 -0.014035144652119013 0 0.0018410453582774515 -0.014098238997618471 0 0.001769923027431636 -0.014134634242913686 0 0.0018410453582774515 -0.014098238997618471 0 0.0018347426886889272 -0.014166825921495096 0 0.0018347426886889272 -0.014166825921495096 0 0.0018433657444316834 -0.014130441210364657 0 0.0018444830178797026 -0.014141477173852827 0 0.0018410453582774515 -0.014098238997618471 0 0.0018347426886889272 -0.014166825921495096 0 0.0018444830178797026 -0.014141477173852827 0 0.0017043974813311955 -0.014182388674759034 0 0.0022888887210808766 -0.014407861053342888 0 0.0018041318664997084 -0.014247581057637021 0 0.0018347426886889272 -0.014166825921495096 0 0.0018433657444316834 -0.014130441210364657 0 -0.00059917142268355419 -0.0037779284590124039 0 -0.00040225613937778143 -0.0042472293616535942 0 -0.00078673287041668919 -0.0041086001789481267 0 0.0018433657444316834 -0.014130441210364657 0 0.0017736357575228994 -0.014065572629896552 0 0.0018444830178797026 -0.014141477173852827 0 0.00081788380556057109 -0.011258438838316894 0 0.00052956413292006856 -0.008573710506521344 0 0.0020464004402842208 -0.014406329871704147 0 0.0021144824226747871 -0.01451208993474846 0 0.0020930874638929219 -0.014561401810591323 0 0.0022888887210808766 -0.014407861053342888 0 0.00081788380556057109 -0.011258438838316894 0 -0.00059917142268355419 -0.0037779284590124039 0 -0.00078673287041668919 -0.0041086001789481267 0 -0.00083409378881144579 -0.0038673520937093581 0 -0.00077484137670966787 -0.0045001531031354262 0 -0.00045632415999070512 -0.0046455262131858193 0 -0.00040225613937778143 -0.0042472293616535942 0 -0.00077484137670966787 -0.0045001531031354262 0 -0.00040225613937778143 -0.0042472293616535942 0 -0.00078673287041668919 -0.0041086001789481267 0 -0.00077484137670966787 -0.0045001531031354262 0 -0.0011391146951200632 -0.0042962084965795641 0 -0.00078673287041668919 -0.0041086001789481267 0 -0.0011391146951200632 -0.0042962084965795641 0 -0.00078673287041668919 -0.0041086001789481267 0 -0.001096345129800594 -0.0038245025460800076 0 -0.00078673287041668919 -0.0041086001789481267 0 -0.00083409378881144579 -0.0038673520937093581 0 -0.001096345129800594 -0.0038245025460800076 0 -0.00059917142268355419 -0.0037779284590124039 0 -0.00083409378881144579 -0.0038673520937093581 0 -0.001044853630685817 -0.0037040064915509724 0 -0.001096345129800594 -0.0038245025460800076 0 -0.0012688183675061686 -0.0037286850081043469 0 -0.001044853630685817 -0.0037040064915509724 0 -0.00083409378881144579 -0.0038673520937093581 0 -0.001096345129800594 -0.0038245025460800076 0 -0.001044853630685817 -0.0037040064915509724 0 -0.0046275676980180999 0.0064486735217509604 0 -0.0048412162458920166 0.0066594419972523817 0 -0.0048016761335432584 0.0063143174871920825 0 -0.0030331447986661911 0.0013598321335941785 0 -0.0028325054624821983 4.2127790340145949e-06 0 -0.0046212064885735689 0.0062077896875321918 0 -0.0046275676980180999 0.0064486735217509604 0 -0.0048016761335432584 0.0063143174871920825 0 -0.0011391146951200632 -0.0042962084965795641 0 -0.001096345129800594 -0.0038245025460800076 0 -0.0012564999354976332 -0.0037183229449351896 0 -0.00074777259064345836 -0.0023751026732206494 0 -0.0028325054624821983 4.2127790340145949e-06 0 -0.0046275676980180999 0.0064486735217509604 0 -0.0045944106722741497 0.0066832200066849982 0 -0.0048412162458920166 0.0066594419972523817 0 -0.0045944106722741497 0.0066832200066849982 0 -0.0046890347063691072 0.0068427564219391643 0 -0.0048412162458920166 0.0066594419972523817 0 -4.6862243088247278e-05 -0.0095521594844816503 0 0.0020117774551135638 -0.014829544113797954 0 0.0015961751657229406 -0.014381418860363222 0 0.0019496121648596735 -0.014572722220977816 0 0.0019503845442458408 -0.014429513353673176 0 0.00093372155876246749 -0.0149962499037111 0 0.0013617817059635167 -0.014613971692215514 0 0.0017562405120745246 -0.014783848762771293 0 0.0013617817059635167 -0.014613971692215514 0 0.0017562405120745246 -0.014783848762771293 0 0.0015515257377697379 -0.014246859231559725 0 0.00093372155876246749 -0.0149962499037111 0 0.00086089943941741103 -0.014385097179098251 0 0.0013617817059635167 -0.014613971692215514 0 -4.6862243088247278e-05 -0.0095521594844816503 0 0.00027013245644666114 -0.0087468606678135045 0 -0.001698190497396602 -0.0034765554894225794 0 -0.0012875265874982282 -0.0036487276697015868 0 -0.0010999062558905896 -0.003488871772814347 0 -0.0016839943384958037 -0.0031823686967105665 0 -0.001698190497396602 -0.0034765554894225794 0 -0.0010999062558905896 -0.003488871772814347 0 -0.0033485172088218345 0.0014701030398859929 0 -0.0028325054624821983 4.2127790340145949e-06 0 -0.001698190497396602 -0.0034765554894225794 0 -0.0012719112697980439 -0.0037340266417431951 0 -0.0012875265874982282 -0.0036487276697015868 0 -0.0012688183675061686 -0.0037286850081043469 0 -0.0012875265874982282 -0.0036487276697015868 0 -0.001044853630685817 -0.0037040064915509724 0 -0.0028325054624821983 4.2127790340145949e-06 0 -0.0025268097416960731 -0.0012059464864429825 0 0.0019496121648596735 -0.014572722220977816 0 0.0020377591545073753 -0.01454088418777417 0 0.0020906914965244847 -0.014559276515134742 0 -0.00059917142268355419 -0.0037779284590124039 0 -0.0010999062558905896 -0.003488871772814347 0 -0.001044853630685817 -0.0037040064915509724 0 0.0021126447406691002 -0.014584294804694793 0 0.0019496121648596735 -0.014572722220977816 0 0.0020906914965244847 -0.014559276515134742 0 0.00081788380556057109 -0.011258438838316894 0 0.00027013245644666114 -0.0087468606678135045 0 0.0019496121648596735 -0.014572722220977816 0 0.0020377591545073753 -0.01454088418777417 0 0.0019503845442458408 -0.014429513353673176 0 -0.0012875265874982282 -0.0036487276697015868 0 -0.0010999062558905896 -0.003488871772814347 0 -0.001044853630685817 -0.0037040064915509724 0 0.0020377591545073753 -0.01454088418777417 0 0.0019503845442458408 -0.014429513353673176 0 0.0021029718251652256 -0.014613421575093162 0 0.0017562405120745246 -0.014783848762771293 0 0.0019604893927599818 -0.014556022588669167 0 0.0021029718251652256 -0.014613421575093162 0 0.0020117774551135638 -0.014829544113797954 0 0.0019992147119626343 -0.014594129310326749 0 0.0017562405120745246 -0.014783848762771293 0 0.0019604893927599818 -0.014556022588669167 0 0.0015515257377697379 -0.014246859231559725 0 0.0021029718251652256 -0.014613421575093162 0 0.0021166484420672856 -0.014773825332538317 0 0.0020960442171018443 -0.014524410338169255 0 0.0019604893927599818 -0.014556022588669167 0 0.0021029718251652256 -0.014613421575093162 0 0.0020960442171018443 -0.014524410338169255 0 0.0021029718251652256 -0.014613421575093162 0 0.0020930874638929219 -0.014561401810591323 0 0.0020570793304288686 -0.014622946040571632 0 0.0020377591545073753 -0.01454088418777417 0 0.0021029718251652256 -0.014613421575093162 0 0.0020906914965244847 -0.014559276515134742 0 0.0021029718251652256 -0.014613421575093162 0 0.0020906914965244847 -0.014559276515134742 0 0.0020930874638929219 -0.014561401810591323 0 0.0021144824226747871 -0.01451208993474846 0 0.0020906914965244847 -0.014559276515134742 0 0.0020930874638929219 -0.014561401810591323 0 0.00081788380556057109 -0.011258438838316894 0 0.0020883901237466283 -0.014303447984149035 0 0.0020464004402842208 -0.014406329871704147 0 0.0020930874638929219 -0.014561401810591323 0 0.0020570793304288686 -0.014622946040571632 0 0.0020464004402842208 -0.014406329871704147 0 0.0020570793304288686 -0.014622946040571632 0 0.0018645234319414194 -0.014500428500715864 0 0.0020570793304288686 -0.014622946040571632 0 0.0021166484420672856 -0.014773825332538317 0 0.0019351042435902482 -0.01475373654125319 0 0.0021029718251652256 -0.014613421575093162 0 0.0020570793304288686 -0.014622946040571632 0 0.0021166484420672856 -0.014773825332538317 0 0.0021166484420672856 -0.014773825332538317 0 0.0021463050581584831 -0.014507087722314937 0 0.0020356798937721716 -0.015290685815096801 0 0.0021166484420672856 -0.014773825332538317 0 0.0021463050581584831 -0.014507087722314937 0 0.0020960442171018443 -0.014524410338169255 0 0.0021463050581584831 -0.014507087722314937 0 0.0020268382224573186 -0.014239662518671755 0 0.0020960442171018443 -0.014524410338169255 0 0.0019643850967412534 -0.013974356747854836 0 0.0021463050581584831 -0.014507087722314937 0 0.0020268382224573186 -0.014239662518671755 0 0.002869740297606191 -0.013443219341506893 0 0.0027364918013620485 -0.01540712474775348 0 0.0020268382224573186 -0.014239662518671755 0 0.0020960442171018443 -0.014524410338169255 0 0.0019846949616862007 -0.014343457880906981 0 0.0019604893927599818 -0.014556022588669167 0 0.0020960442171018443 -0.014524410338169255 0 0.0019846949616862007 -0.014343457880906981 0 0.0019604893927599818 -0.014556022588669167 0 0.0019846949616862007 -0.014343457880906981 0 0.0015515257377697379 -0.014246859231559725 0 0.0019846949616862007 -0.014343457880906981 0 0.001864009631511446 -0.013817951058185129 0 0.0015515257377697379 -0.014246859231559725 0 0.0020268382224573186 -0.014239662518671755 0 0.0019846949616862007 -0.014343457880906981 0 0.001864009631511446 -0.013817951058185129 0 0.0019643850967412534 -0.013974356747854836 0 0.0020268382224573186 -0.014239662518671755 0 0.001864009631511446 -0.013817951058185129 0 0.0026165263916743272 -0.012803283957044448 0 0.001805070314213641 -0.01304969476798757 0 0.001864009631511446 -0.013817951058185129 0 0.002869740297606191 -0.013443219341506893 0 0.0019101785102756111 -0.013877389617636366 0 0.001805070314213641 -0.01304969476798757 0 0.001864009631511446 -0.013817951058185129 0 0.0012862095071102264 -0.013158837846349476 0 0.001864009631511446 -0.013817951058185129 0 0.0012862095071102264 -0.013158837846349476 0 0.0011787896579750351 -0.013737454411407325 0 0.001864009631511446 -0.013817951058185129 0 0.0011787896579750351 -0.013737454411407325 0 0.0015515257377697379 -0.014246859231559725 0 0.00086089943941741103 -0.014385097179098251 0 0.0013617817059635167 -0.014613971692215514 0 0.0015515257377697379 -0.014246859231559725 0 0.0011103001182914162 -0.015089344304045129 0 0.00134974667852845 -0.014705764989825924 0 0.0016263984785000239 -0.014938687852256952 0 0.0011103001182914162 -0.015089344304045129 0 0.0008701358077239709 -0.014727991731682186 0 0.00134974667852845 -0.014705764989825924 0 0.0011103001182914162 -0.015089344304045129 0 0.0016263984785000239 -0.014938687852256952 0 0.0013411562310593512 -0.015380047858316682 0 0.0011103001182914162 -0.015089344304045129 0 0.0008701358077239709 -0.014727991731682186 0 0.00047818570525679047 -0.015271262465674942 0 0.00086031404724041605 -0.014278186118723188 0 0.0008701358077239709 -0.014727991731682186 0 0.00058344621463408085 -0.014587372180320161 0 0.001262360885593285 -0.014429236259890761 0 0.00086031404724041605 -0.014278186118723188 0 0.0008701358077239709 -0.014727991731682186 0 0.001262360885593285 -0.014429236259890761 0 0.00134974667852845 -0.014705764989825924 0 0.0016298273433110271 -0.01460798886998955 0 0.001262360885593285 -0.014429236259890761 0 0.0008701358077239709 -0.014727991731682186 0 0.00134974667852845 -0.014705764989825924 0 0.00134974667852845 -0.014705764989825924 0 0.0016298273433110271 -0.01460798886998955 0 0.0016263984785000239 -0.014938687852256952 0 0.0016196109853141966 -0.014340095368526103 0 0.0016298273433110271 -0.01460798886998955 0 0.0018645234319414194 -0.014500428500715864 0 0.0020570793304288686 -0.014622946040571632 0 0.0018645234319414194 -0.014500428500715864 0 0.0019351042435902482 -0.01475373654125319 0 0.0016298273433110271 -0.01460798886998955 0 0.0018645234319414194 -0.014500428500715864 0 0.0019351042435902482 -0.01475373654125319 0 0.0016298273433110271 -0.01460798886998955 0 0.0019351042435902482 -0.01475373654125319 0 0.0016263984785000239 -0.014938687852256952 0 0.0019351042435902482 -0.01475373654125319 0 0.0016263984785000239 -0.014938687852256952 0 0.0020356798937721716 -0.015290685815096801 0 0.0020356798937721716 -0.015290685815096801 0 0.0014344699922436016 -0.015970272429590416 0 0.0013411562310593512 -0.015380047858316682 0 0.0016263984785000239 -0.014938687852256952 0 0.0020356798937721716 -0.015290685815096801 0 0.0013411562310593512 -0.015380047858316682 0 0.0021166484420672856 -0.014773825332538317 0 0.0019351042435902482 -0.01475373654125319 0 0.0020356798937721716 -0.015290685815096801 0 0.0020744033159261995 -0.016364545327389991 0 0.0032059309312847512 -0.015806826147196053 0 0.0020356798937721716 -0.015290685815096801 0 0.0027364918013620485 -0.01540712474775348 0 0.0019915882173204605 -0.015153044101528845 0 0.0020744033159261995 -0.016364545327389991 0 0.0020356798937721716 -0.015290685815096801 0 0.0014344699922436016 -0.015970272429590416 0 0.0014344699922436016 -0.015970272429590416 0 0.0013411562310593512 -0.015380047858316682 0 0.00090659547015411448 -0.016182805738789004 0 0.0013155574524571592 -0.016723651088087647 0 0.0014344699922436016 -0.015970272429590416 0 0.00090659547015411448 -0.016182805738789004 0 0.0011103001182914162 -0.015089344304045129 0 0.0013411562310593512 -0.015380047858316682 0 0.00083092555236153449 -0.015615036831479637 0 0.0013411562310593512 -0.015380047858316682 0 0.00083092555236153449 -0.015615036831479637 0 0.00090659547015411448 -0.016182805738789004 0 0.0011103001182914162 -0.015089344304045129 0 0.00083092555236153449 -0.015615036831479637 0 0.00047818570525679047 -0.015271262465674942 0 0.00045714318685839559 -0.016650441703348878 0 0.00090659547015411448 -0.016182805738789004 0 0.0001591272724863921 -0.016241473372778994 0 0.00083092555236153449 -0.015615036831479637 0 0.00090659547015411448 -0.016182805738789004 0 0.0001591272724863921 -0.016241473372778994 0 0.00045714318685839559 -0.016650441703348878 0 -0.00011357724939540746 -0.016887209759004755 0 0.0001591272724863921 -0.016241473372778994 0 -0.00011357724939540746 -0.016887209759004755 0 0.0001591272724863921 -0.016241473372778994 0 -0.00039215233316182961 -0.016600124153483019 0 -0.0018726347296105506 -0.020015324253630284 0 0.0018553530255667121 -0.020419714070538605 0 -0.001185742634644948 -0.017122704993612035 0 -0.00011357724939540746 -0.016887209759004755 0 -0.00039215233316182961 -0.016600124153483019 0 -0.001185742634644948 -0.017122704993612035 0 0.00073605529034021021 -0.018631217414386995 0 -0.0010715958204501361 -0.017148974532093034 0 -0.00039215233316182961 -0.016600124153483019 0 -0.00053722108311200984 -0.015887849155167801 0 -0.001185742634644948 -0.017122704993612035 0 0.0001591272724863921 -0.016241473372778994 0 -0.00039215233316182961 -0.016600124153483019 0 -0.00053722108311200984 -0.015887849155167801 0 0.0001591272724863921 -0.016241473372778994 0 -0.00053722108311200984 -0.015887849155167801 0 0.00047818570525679047 -0.015271262465674942 0 0.00083092555236153449 -0.015615036831479637 0 0.0001591272724863921 -0.016241473372778994 0 0.00047818570525679047 -0.015271262465674942 0 0.0008701358077239709 -0.014727991731682186 0 0.00047818570525679047 -0.015271262465674942 0 0.00036759100740489171 -0.014862113467604623 0 0.00047818570525679047 -0.015271262465674942 0 -0.00028290000093178909 -0.015065643848930756 0 0.00036759100740489171 -0.014862113467604623 0 0.00060685960040249363 -0.015103007510111347 0 -0.0011260677118602371 -0.01557487171655131 0 -0.00053722108311200984 -0.015887849155167801 0 0.00047818570525679047 -0.015271262465674942 0 -0.00092067196777547409 -0.014779217102713507 0 -0.00064954271021422296 -0.015785086375472865 0 -0.00065870791019301636 -0.015125372970646936 0 0.00024278231149282503 -0.014737225124332107 0 -0.0011260677118602371 -0.01557487171655131 0 0.00036346462019222475 -0.014754505068674539 0 -0.00028290000093178909 -0.015065643848930756 0 0.00022181065374967971 -0.014485393967212688 0 0.00036759100740489171 -0.014862113467604623 0 -0.00016577659736348465 -0.015117094111914539 0 0.00036346462019222475 -0.014754505068674539 0 8.0070341601461823e-05 -0.015215981830441219 0 0.00039262791040831752 -0.015082300411745716 0 0.00018596081701186695 -0.015002734492000918 0 8.0070341601461823e-05 -0.015215981830441219 0 0.00018596081701186695 -0.015002734492000918 0 8.0506040049040732e-06 -0.015018908823718599 0 0.00086031404724041605 -0.014278186118723188 0 0.00022181065374967971 -0.014485393967212688 0 0.00058344621463408085 -0.014587372180320161 0 0.0008701358077239709 -0.014727991731682186 0 0.00058344621463408085 -0.014587372180320161 0 0.00036759100740489171 -0.014862113467604623 0 0.00022181065374967971 -0.014485393967212688 0 0.00058344621463408085 -0.014587372180320161 0 0.00036759100740489171 -0.014862113467604623 0 -0.00030120171221131696 -0.015192778237806905 0 -0.00023393742892940876 -0.015232140897712123 0 -0.00030416873342103956 -0.015312394956713625 0 -0.00030120171221131696 -0.015192778237806905 0 -0.00023393742892940876 -0.015232140897712123 0 -0.00022463094606668205 -0.015150146479981995 0 -0.00023393742892940876 -0.015232140897712123 0 -0.00020985408441002011 -0.015343014263458042 0 -0.00030416873342103956 -0.015312394956713625 0 -0.00030120171221131696 -0.015192778237806905 0 -0.00043093213284817184 -0.015155620722424809 0 -0.00030416873342103956 -0.015312394956713625 0 -0.00030120171221131696 -0.015192778237806905 0 -0.00043093213284817184 -0.015155620722424809 0 -0.00032222694897824326 -0.015067655303854007 0 -0.00032222694897824326 -0.015067655303854007 0 -0.00022463094606668205 -0.015150146479981995 0 -0.00016516152663831557 -0.015035543035543835 0 -0.00030120171221131696 -0.015192778237806905 0 -0.00032222694897824326 -0.015067655303854007 0 -0.00022463094606668205 -0.015150146479981995 0 -0.00012665855822409976 -0.015169789584236849 0 8.0506040049040732e-06 -0.015018908823718599 0 -0.00016516152663831557 -0.015035543035543835 0 8.0070341601461823e-05 -0.015215981830441219 0 -0.00012665855822409976 -0.015169789584236849 0 -0.00020985408441002011 -0.015343014263458042 0 -0.00016577659736348465 -0.015117094111914539 0 -0.0016765910622755177 -0.015800195541423534 0 -0.00022463094606668205 -0.015150146479981995 0 -0.00012665855822409976 -0.015169789584236849 0 -0.00016516152663831557 -0.015035543035543835 0 8.0070341601461823e-05 -0.015215981830441219 0 -0.00012665855822409976 -0.015169789584236849 0 8.0506040049040732e-06 -0.015018908823718599 0 -0.00023393742892940876 -0.015232140897712123 0 -0.00012665855822409976 -0.015169789584236849 0 -0.00020985408441002011 -0.015343014263458042 0 -0.00023393742892940876 -0.015232140897712123 0 -0.00022463094606668205 -0.015150146479981995 0 -0.00012665855822409976 -0.015169789584236849 0 -0.0011260677118602371 -0.01557487171655131 0 -0.0016765910622755177 -0.015800195541423534 0 -0.00064954271021422296 -0.015785086375472865 0 -0.00065870791019301636 -0.015125372970646936 0 -0.0015674236569321223 -0.015540632215956975 0 -0.0031194269354001759 -0.01696786425316045 0 -0.003456687335006761 -0.016909778638286251 0 -0.0034241185233984854 -0.017042153631620607 0 -0.0031194269354001759 -0.01696786425316045 0 -0.0034241185233984854 -0.017042153631620607 0 -0.0033500437361122727 -0.017242137845845197 0 -0.0011260677118602371 -0.01557487171655131 0 -0.0028096166658620227 -0.016623599083621723 0 -0.0034241185233984854 -0.017042153631620607 0 -0.0035175475709305648 -0.017131059462970884 0 -0.0033500437361122727 -0.017242137845845197 0 -0.0035175475709305648 -0.017131059462970884 0 -0.0035787997149503664 -0.017032056938766121 0 -0.0036556703820293419 -0.017156785127420308 0 -0.0034241185233984854 -0.017042153631620607 0 -0.0035175475709305648 -0.017131059462970884 0 -0.0035787997149503664 -0.017032056938766121 0 -0.0034241185233984854 -0.017042153631620607 0 -0.0035787997149503664 -0.017032056938766121 0 -0.0035765496148047358 -0.016906201985100264 0 -0.003456687335006761 -0.016909778638286251 0 -0.0034241185233984854 -0.017042153631620607 0 -0.0035765496148047358 -0.016906201985100264 0 -0.0016765910622755177 -0.015800195541423534 0 -0.0018837542160563164 -0.015989884159755642 0 -0.0035787997149503664 -0.017032056938766121 0 -0.0035765496148047358 -0.016906201985100264 0 -0.0037581859838217054 -0.017006263258273105 0 -0.0035787997149503664 -0.017032056938766121 0 -0.0036556703820293419 -0.017156785127420308 0 -0.0037581859838217054 -0.017006263258273105 0 -0.0036423221852869589 -0.017445458271313666 0 -0.0042563353401847952 -0.017604973231981413 0 -0.0047692157993220585 -0.017023809035259758 0 -0.0036556703820293419 -0.017156785127420308 0 -0.0036423221852869589 -0.017445458271313666 0 -0.0038329706273644891 -0.017161667741485583 0 -0.0034836690097136852 -0.017515996187490824 0 -0.0047475603030539991 -0.016853429432835333 0 -0.0035175475709305648 -0.017131059462970884 0 -0.0036556703820293419 -0.017156785127420308 0 -0.0035452689766290006 -0.017233922936725755 0 -0.0035452689766290006 -0.017233922936725755 0 -0.0036423221852869589 -0.017445458271313666 0 -0.0033500437361122727 -0.017242137845845197 0 -0.0036556703820293419 -0.017156785127420308 0 -0.0035452689766290006 -0.017233922936725755 0 -0.0036423221852869589 -0.017445458271313666 0 -0.0028096166658620227 -0.016623599083621723 0 -0.0036161418956408577 -0.017510697843551037 0 -0.0036423221852869589 -0.017445458271313666 0 -0.0033500437361122727 -0.017242137845845197 0 -0.0037877165020812997 -0.017678503452327545 0 -0.00053722108311200984 -0.015887849155167801 0 -0.0019444441314482338 -0.015655576750071402 0 -0.001185742634644948 -0.017122704993612035 0 -0.00053722108311200984 -0.015887849155167801 0 -0.00092067196777547409 -0.014779217102713507 0 -0.0019444441314482338 -0.015655576750071402 0 -0.0035175475709305648 -0.017131059462970884 0 -0.0035452689766290006 -0.017233922936725755 0 -0.0033500437361122727 -0.017242137845845197 0 -0.0019444441314482338 -0.015655576750071402 0 -0.0025455980902593265 -0.018003846309524441 0 -0.0037877165020812997 -0.017678503452327545 0 -0.0019444441314482338 -0.015655576750071402 0 -0.001185742634644948 -0.017122704993612035 0 -0.0025455980902593265 -0.018003846309524441 0 -0.0018726347296105506 -0.020015324253630284 0 -0.001185742634644948 -0.017122704993612035 0 -0.0025455980902593265 -0.018003846309524441 0 -0.0031335953508877523 -0.019519896334069867 0 -0.0018726347296105506 -0.020015324253630284 0 -0.0025455980902593265 -0.018003846309524441 0 -0.0036423221852869589 -0.017445458271313666 0 -0.0042563353401847952 -0.017604973231981413 0 -0.0037877165020812997 -0.017678503452327545 0 -0.0042563353401847952 -0.017604973231981413 0 -0.0037877165020812997 -0.017678503452327545 0 -0.0044502883379828389 -0.018139842513345952 0 -0.0025455980902593265 -0.018003846309524441 0 -0.0037877165020812997 -0.017678503452327545 0 -0.0038970232710555078 -0.018505465654096599 0 -0.0031335953508877523 -0.019519896334069867 0 -0.0025455980902593265 -0.018003846309524441 0 -0.0038970232710555078 -0.018505465654096599 0 -0.0037877165020812997 -0.017678503452327545 0 -0.0038970232710555078 -0.018505465654096599 0 -0.0044502883379828389 -0.018139842513345952 0 -0.0052291694149819139 -0.018828397346946878 0 -0.0044502883379828389 -0.018139842513345952 0 -0.004847979692013343 -0.017821102254897789 0 -0.0052291694149819139 -0.018828397346946878 0 -0.0038970232710555078 -0.018505465654096599 0 -0.0044502883379828389 -0.018139842513345952 0 -0.0042563353401847952 -0.017604973231981413 0 -0.0044502883379828389 -0.018139842513345952 0 -0.004847979692013343 -0.017821102254897789 0 -0.0022204951092354556 -0.02272461734620225 0 -0.0022192690908219839 -0.022836430859226056 0 -0.0021501599762704729 -0.022755845809969984 0 -0.0052291694149819139 -0.018828397346946878 0 -0.004847979692013343 -0.017821102254897789 0 -0.0055066569204034882 -0.017663541809172144 0 -0.003236735716017217 -0.021943626908114151 0 -0.0039966793894486326 -0.020282034953823663 0 -0.0022204951092354556 -0.02272461734620225 0 -0.0022592177818366831 -0.022713643253248313 0 -0.0022192690908219839 -0.022836430859226056 0 -0.0055066569204034882 -0.017663541809172144 0 -0.0047692157993220585 -0.017023809035259758 0 -0.0057758853437649875 -0.016585129551071918 0 -0.0039966793894486326 -0.020282034953823663 0 -0.0028442778038002517 -0.018182560763585816 0 -0.0042563353401847952 -0.017604973231981413 0 -0.004847979692013343 -0.017821102254897789 0 -0.0047692157993220585 -0.017023809035259758 0 -0.004847979692013343 -0.017821102254897789 0 -0.0055066569204034882 -0.017663541809172144 0 -0.0047692157993220585 -0.017023809035259758 0 -0.0019175228044141684 -0.022775630452748368 0 -0.0020297221138983195 -0.022832303225433927 0 -0.0019696576780693443 -0.022930444623834503 0 -0.0020587407585786147 -0.022746682258878007 0 -0.0019175228044141684 -0.022775630452748368 0 -0.0020297221138983195 -0.022832303225433927 0 -0.0022192690908219839 -0.022836430859226056 0 -0.0021072751692960546 -0.022809072462175166 0 -0.0021501599762704729 -0.022755845809969984 0 -0.0020297221138983195 -0.022832303225433927 0 -0.0021072751692960546 -0.022809072462175166 0 -0.0020897028389203084 -0.022901407174845206 0 -0.0020587407585786147 -0.022746682258878007 0 -0.0021072751692960546 -0.022809072462175166 0 -0.0021501599762704729 -0.022755845809969984 0 -0.0020587407585786147 -0.022746682258878007 0 -0.0020297221138983195 -0.022832303225433927 0 -0.0021072751692960546 -0.022809072462175166 0 -0.0022192690908219839 -0.022836430859226056 0 -0.0021072751692960546 -0.022809072462175166 0 -0.0020897028389203084 -0.022901407174845206 0 -0.0022192690908219839 -0.022836430859226056 0 -0.0020897028389203084 -0.022901407174845206 0 -0.0021810597497174981 -0.02295967538066811 0 -0.0020297221138983195 -0.022832303225433927 0 -0.0020897028389203084 -0.022901407174845206 0 -0.0019696576780693443 -0.022930444623834503 0 -0.0020897028389203084 -0.022901407174845206 0 -0.0019696576780693443 -0.022930444623834503 0 -0.0020219606073789815 -0.023056715792928808 0 -0.00098907404986316172 -0.015467978158361019 0 -0.0011796946872994958 -0.015546944459203153 0 -0.0007457655178824096 -0.015808740574078429 0 -0.0012780654136328518 -0.019509738832506479 0 -0.0028442778038002517 -0.018182560763585816 0 -0.0020897028389203084 -0.022901407174845206 0 -0.0020219606073789815 -0.023056715792928808 0 -0.0021810597497174981 -0.02295967538066811 0 -0.0008490056338604097 -0.015345006970123027 0 -0.00098907404986316172 -0.015467978158361019 0 -0.0007457655178824096 -0.015808740574078429 0 -0.0022506315763600538 -0.015780165486050129 0 -0.0028442778038002517 -0.018182560763585816 0 -0.0008490056338604097 -0.015345006970123027 0 -0.00096459780056647995 -0.015367039552588025 0 -0.00098907404986316172 -0.015467978158361019 0 -0.0008490056338604097 -0.015345006970123027 0 -0.00096459780056647995 -0.015367039552588025 0 -0.00098963134590216123 -0.015248481612914269 0 -0.00096459780056647995 -0.015367039552588025 0 -0.001088474413823628 -0.015322710033945261 0 -0.00098963134590216123 -0.015248481612914269 0 -0.00096459780056647995 -0.015367039552588025 0 -0.00098907404986316172 -0.015467978158361019 0 -0.001088474413823628 -0.015322710033945261 0 -0.0013860729711910752 -0.015279764372235792 0 -0.0011796946872994958 -0.015546944459203153 0 -0.0012122944937075263 -0.015232222493789383 0 -0.0011796946872994958 -0.015546944459203153 0 -0.001088474413823628 -0.015322710033945261 0 -0.0012122944937075263 -0.015232222493789383 0 -0.00098907404986316172 -0.015467978158361019 0 -0.0011796946872994958 -0.015546944459203153 0 -0.001088474413823628 -0.015322710033945261 0 -0.0037581859838217054 -0.017006263258273105 0 -0.0040099913950673808 -0.017042739187265989 0 -0.0038497543752738545 -0.016891842827887537 0 -0.0038329706273644891 -0.017161667741485583 0 -0.0037581859838217054 -0.017006263258273105 0 -0.0040099913950673808 -0.017042739187265989 0 -0.0036556703820293419 -0.017156785127420308 0 -0.0038329706273644891 -0.017161667741485583 0 -0.0037581859838217054 -0.017006263258273105 0 -0.0047475603030539991 -0.016853429432835333 0 -0.0028442778038002517 -0.018182560763585816 0 -0.0040444291873100438 -0.016839273810373898 0 -0.0040099913950673808 -0.017042739187265989 0 -0.0038497543752738545 -0.016891842827887537 0 -0.00091091024247440993 -0.015174783160306928 0 -0.0006366966991145621 -0.015228838368895894 0 -0.00081118123111038095 -0.015092025143918103 0 -0.0022506315763600538 -0.015780165486050129 0 -0.0022852707810308947 -0.0160853613458222 0 -0.00043093213284817184 -0.015155620722424809 0 -0.00030416873342103956 -0.015312394956713625 0 -0.0006366966991145621 -0.015228838368895894 0 -0.0035765496148047358 -0.016906201985100264 0 -0.0037581859838217054 -0.017006263258273105 0 -0.0038497543752738545 -0.016891842827887537 0 -0.0018837542160563164 -0.015989884159755642 0 -0.0022852707810308947 -0.0160853613458222 0 -0.00043093213284817184 -0.015155620722424809 0 -0.0006366966991145621 -0.015228838368895894 0 -0.00048284217304092836 -0.014957411723727188 0 -0.00048284217304092836 -0.014957411723727188 0 -0.00069736606406173025 -0.015012155170273829 0 -0.00067748407426212369 -0.014828661289385295 0 -0.0006366966991145621 -0.015228838368895894 0 -0.00048284217304092836 -0.014957411723727188 0 -0.00069736606406173025 -0.015012155170273829 0 -0.0006366966991145621 -0.015228838368895894 0 -0.00069736606406173025 -0.015012155170273829 0 -0.00081118123111038095 -0.015092025143918103 0 -0.00069736606406173025 -0.015012155170273829 0 -0.00081118123111038095 -0.015092025143918103 0 -0.00084037522535807473 -0.014967323621681008 0 -0.00069736606406173025 -0.015012155170273829 0 -0.00084037522535807473 -0.014967323621681008 0 -0.00067748407426212369 -0.014828661289385295 0 -0.00067748407426212369 -0.014828661289385295 0 -0.00091660068080013778 -0.014767901133883312 0 -0.00069436235398299864 -0.014617691691918473 0 -0.00084037522535807473 -0.014967323621681008 0 -0.00067748407426212369 -0.014828661289385295 0 -0.00091660068080013778 -0.014767901133883312 0 -0.00048284217304092836 -0.014957411723727188 0 -0.00067748407426212369 -0.014828661289385295 0 -0.0005011425367136697 -0.014697488062282571 0 -0.00067748407426212369 -0.014828661289385295 0 -0.0005011425367136697 -0.014697488062282571 0 -0.00069436235398299864 -0.014617691691918473 0 -0.0013505801073452253 -0.015079725800131122 0 -0.0012122944937075263 -0.015232222493789383 0 -0.0011763932797022301 -0.015057109021680851 0 -0.0013505801073452253 -0.015079725800131122 0 -0.0013860729711910752 -0.015279764372235792 0 -0.0012122944937075263 -0.015232222493789383 0 -0.001088474413823628 -0.015322710033945261 0 -0.0012122944937075263 -0.015232222493789383 0 -0.0010729089328033947 -0.015146883684469493 0 -0.0012122944937075263 -0.015232222493789383 0 -0.0011763932797022301 -0.015057109021680851 0 -0.0010729089328033947 -0.015146883684469493 0 -0.0011763932797022301 -0.015057109021680851 0 -0.0010157701893076928 -0.014982988405793643 0 -0.0010729089328033947 -0.015146883684469493 0 -0.0010157701893076928 -0.014982988405793643 0 -0.0010729089328033947 -0.015146883684469493 0 -0.00093263358895108038 -0.015109358484770109 0 -0.0010729089328033947 -0.015146883684469493 0 -0.00098963134590216123 -0.015248481612914269 0 -0.00093263358895108038 -0.015109358484770109 0 -0.001088474413823628 -0.015322710033945261 0 -0.0010729089328033947 -0.015146883684469493 0 -0.00098963134590216123 -0.015248481612914269 0 -0.00081118123111038095 -0.015092025143918103 0 -0.00084037522535807473 -0.014967323621681008 0 -0.00093263358895108038 -0.015109358484770109 0 -0.0008490056338604097 -0.015345006970123027 0 -0.00098963134590216123 -0.015248481612914269 0 -0.00093263358895108038 -0.015109358484770109 0 -0.00091091024247440993 -0.015174783160306928 0 -0.00081118123111038095 -0.015092025143918103 0 -0.00093263358895108038 -0.015109358484770109 0 -0.0022506315763600538 -0.015780165486050129 0 -0.0015269471801542087 -0.015326449141450997 0 -0.00084037522535807473 -0.014967323621681008 0 -0.0010157701893076928 -0.014982988405793643 0 -0.00093263358895108038 -0.015109358484770109 0 -0.0010157701893076928 -0.014982988405793643 0 -0.00091660068080013778 -0.014767901133883312 0 -0.0011890619369289788 -0.014884650520988935 0 -0.00091660068080013778 -0.014767901133883312 0 -0.0011890619369289788 -0.014884650520988935 0 -0.0011305744100488602 -0.014652711696565955 0 -0.00084037522535807473 -0.014967323621681008 0 -0.0010157701893076928 -0.014982988405793643 0 -0.00091660068080013778 -0.014767901133883312 0 -0.0011763932797022301 -0.015057109021680851 0 -0.0010157701893076928 -0.014982988405793643 0 -0.0011890619369289788 -0.014884650520988935 0 -0.0013505801073452253 -0.015079725800131122 0 -0.0011763932797022301 -0.015057109021680851 0 -0.0011890619369289788 -0.014884650520988935 0 -0.0013928318102878153 -0.014897319417908433 0 -0.0013505801073452253 -0.015079725800131122 0 -0.0011890619369289788 -0.014884650520988935 0 -0.0013749092091833192 -0.01469986753083978 0 -0.0011890619369289788 -0.014884650520988935 0 -0.0011305744100488602 -0.014652711696565955 0 -0.0013749092091833192 -0.01469986753083978 0 -0.0011305744100488602 -0.014652711696565955 0 -0.0012215884537616969 -0.014434369554210812 0 -0.0011305744100488602 -0.014652711696565955 0 -0.00094342385438517435 -0.014469318998951722 0 -0.0012215884537616969 -0.014434369554210812 0 -0.00091660068080013778 -0.014767901133883312 0 -0.0011305744100488602 -0.014652711696565955 0 -0.00094342385438517435 -0.014469318998951722 0 -0.00096055481602182083 -0.014145526194192452 0 -0.00094342385438517435 -0.014469318998951722 0 -0.00070095043511333218 -0.014364153519512014 0 -0.00096055481602182083 -0.014145526194192452 0 -0.00094342385438517435 -0.014469318998951722 0 -0.0012215884537616969 -0.014434369554210812 0 -0.00069436235398299864 -0.014617691691918473 0 -0.00070095043511333218 -0.014364153519512014 0 -0.00039123234722877187 -0.014379277935332037 0 -0.0005011425367136697 -0.014697488062282571 0 -0.00069436235398299864 -0.014617691691918473 0 -0.00039123234722877187 -0.014379277935332037 0 -0.00094342385438517435 -0.014469318998951722 0 -0.00069436235398299864 -0.014617691691918473 0 -0.00070095043511333218 -0.014364153519512014 0 -0.00091660068080013778 -0.014767901133883312 0 -0.00094342385438517435 -0.014469318998951722 0 -0.00069436235398299864 -0.014617691691918473 0 -0.00058194297522235947 -0.014130580116185077 0 -0.00070095043511333218 -0.014364153519512014 0 -0.00039123234722877187 -0.014379277935332037 0 -0.00024460044690639187 -0.013988836242197461 0 -0.00039123234722877187 -0.014379277935332037 0 -8.0234205055317267e-05 -0.014104761370097705 0 -0.00058194297522235947 -0.014130580116185077 0 -0.00024460044690639187 -0.013988836242197461 0 -0.00039123234722877187 -0.014379277935332037 0 -0.00039123234722877187 -0.014379277935332037 0 -7.3500547628874374e-05 -0.014417492912231435 0 -0.00026734694609780146 -0.014692943456491938 0 -7.3500547628874374e-05 -0.014417492912231435 0 -8.0234205055317267e-05 -0.014104761370097705 0 0.00014289584147821426 -0.014280019354318586 0 -0.00039123234722877187 -0.014379277935332037 0 -7.3500547628874374e-05 -0.014417492912231435 0 -8.0234205055317267e-05 -0.014104761370097705 0 -8.0234205055317267e-05 -0.014104761370097705 0 0.00023124152339374314 -0.01387601640026063 0 0.00015224648961232798 -0.014080737040516983 0 0.00023124152339374314 -0.01387601640026063 0 0.00015224648961232798 -0.014080737040516983 0 0.00045394747447894405 -0.013880524548896704 0 0.00015224648961232798 -0.014080737040516983 0 0.00045394747447894405 -0.013880524548896704 0 0.00035288624299175574 -0.01417591067675714 0 -8.0234205055317267e-05 -0.014104761370097705 0 0.00015224648961232798 -0.014080737040516983 0 0.00014289584147821426 -0.014280019354318586 0 0.00073395814940174114 -0.013781905814118577 0 0.00045394747447894405 -0.013880524548896704 0 0.00063404681076832334 -0.013984297015937923 0 0.00045394747447894405 -0.013880524548896704 0 0.00063404681076832334 -0.013984297015937923 0 0.00035288624299175574 -0.01417591067675714 0 0.00063404681076832334 -0.013984297015937923 0 0.00035288624299175574 -0.01417591067675714 0 0.00054076837067253895 -0.014324690074278407 0 0.00035288624299175574 -0.01417591067675714 0 0.00054076837067253895 -0.014324690074278407 0 0.00021518574640088482 -0.014447593613053665 0 0.00072091837596565951 -0.01419295629224439 0 0.00063404681076832334 -0.013984297015937923 0 0.00054076837067253895 -0.014324690074278407 0 -7.3500547628874374e-05 -0.014417492912231435 0 0.00014289584147821426 -0.014280019354318586 0 0.00021518574640088482 -0.014447593613053665 0 0.00015224648961232798 -0.014080737040516983 0 0.00035288624299175574 -0.01417591067675714 0 0.00014289584147821426 -0.014280019354318586 0 0.00035288624299175574 -0.01417591067675714 0 0.00014289584147821426 -0.014280019354318586 0 0.00021518574640088482 -0.014447593613053665 0 0.00021518574640088482 -0.014447593613053665 0 0.00017544536589481936 -0.014636563713066091 0 -2.3939291504775478e-07 -0.014629633378386726 0 0.00021518574640088482 -0.014447593613053665 0 0.00017544536589481936 -0.014636563713066091 0 0.00036385962172771652 -0.01464922355454993 0 0.00017544536589481936 -0.014636563713066091 0 0.00036385962172771652 -0.01464922355454993 0 0.00012624266500715916 -0.014820788348760947 0 0.00017544536589481936 -0.014636563713066091 0 0.00012624266500715916 -0.014820788348760947 0 -2.3939291504775478e-07 -0.014629633378386726 0 0.00054076837067253895 -0.014324690074278407 0 0.00021518574640088482 -0.014447593613053665 0 0.00036385962172771652 -0.01464922355454993 0 0.00054076837067253895 -0.014324690074278407 0 0.00036385962172771652 -0.01464922355454993 0 0.00058219016647077868 -0.014549410405904495 0 0.00081000729675412188 -0.014462386853300398 0 0.00054076837067253895 -0.014324690074278407 0 0.00058219016647077868 -0.014549410405904495 0 0.00036385962172771652 -0.01464922355454993 0 0.00058219016647077868 -0.014549410405904495 0 0.00060660893907820898 -0.014813583180703666 0 0.00079179228068701219 -0.014735659004869882 0 0.0004590361620703629 -0.014875204480602094 0 0.00063607690816058912 -0.01467030358456128 0 0.00081837477471269891 -0.014507681742567894 0 0.00036346462019222475 -0.014754505068674539 0 0.00036385962172771652 -0.01464922355454993 0 0.00060660893907820898 -0.014813583180703666 0 0.00033510282362737587 -0.014873808464360394 0 0.00039262791040831752 -0.015082300411745716 0 0.00060660893907820898 -0.014813583180703666 0 0.00033510282362737587 -0.014873808464360394 0 0.00036346462019222475 -0.014754505068674539 0 0.00060428748751212324 -0.014749478624698812 0 0.00036385962172771652 -0.01464922355454993 0 0.00012624266500715916 -0.014820788348760947 0 0.00033510282362737587 -0.014873808464360394 0 0.00012624266500715916 -0.014820788348760947 0 0.00033510282362737587 -0.014873808464360394 0 0.00018596081701186695 -0.015002734492000918 0 0.00039262791040831752 -0.015082300411745716 0 0.00033510282362737587 -0.014873808464360394 0 0.00018596081701186695 -0.015002734492000918 0 0.00012624266500715916 -0.014820788348760947 0 0.00018596081701186695 -0.015002734492000918 0 8.0506040049040732e-06 -0.015018908823718599 0 0.00012624266500715916 -0.014820788348760947 0 -0.00010603677024562427 -0.014852295936548953 0 -2.3939291504775478e-07 -0.014629633378386726 0 0.00012624266500715916 -0.014820788348760947 0 8.0506040049040732e-06 -0.015018908823718599 0 -0.00010603677024562427 -0.014852295936548953 0 8.0506040049040732e-06 -0.015018908823718599 0 -0.00010603677024562427 -0.014852295936548953 0 -0.00016516152663831557 -0.015035543035543835 0 -0.00010603677024562427 -0.014852295936548953 0 -0.00016516152663831557 -0.015035543035543835 0 -0.00029107532390656277 -0.01492187862674779 0 -0.00032222694897824326 -0.015067655303854007 0 -0.00016516152663831557 -0.015035543035543835 0 -0.00029107532390656277 -0.01492187862674779 0 -0.00043093213284817184 -0.015155620722424809 0 -0.00032222694897824326 -0.015067655303854007 0 -0.00048284217304092836 -0.014957411723727188 0 -0.00032222694897824326 -0.015067655303854007 0 -0.00048284217304092836 -0.014957411723727188 0 -0.00029107532390656277 -0.01492187862674779 0 -0.00048284217304092836 -0.014957411723727188 0 -0.00029107532390656277 -0.01492187862674779 0 -0.00026734694609780146 -0.014692943456491938 0 -0.00010603677024562427 -0.014852295936548953 0 -0.00029107532390656277 -0.01492187862674779 0 -0.00026734694609780146 -0.014692943456491938 0 -0.0005011425367136697 -0.014697488062282571 0 -0.00039123234722877187 -0.014379277935332037 0 -0.00026734694609780146 -0.014692943456491938 0 -0.00048284217304092836 -0.014957411723727188 0 -0.0005011425367136697 -0.014697488062282571 0 -0.00026734694609780146 -0.014692943456491938 0 -7.3500547628874374e-05 -0.014417492912231435 0 -0.00026734694609780146 -0.014692943456491938 0 -2.3939291504775478e-07 -0.014629633378386726 0 -7.3500547628874374e-05 -0.014417492912231435 0 0.00021518574640088482 -0.014447593613053665 0 -2.3939291504775478e-07 -0.014629633378386726 0 -0.00010603677024562427 -0.014852295936548953 0 -0.00026734694609780146 -0.014692943456491938 0 -2.3939291504775478e-07 -0.014629633378386726 0 
</DataArray>
</PointData>
<CellData Scalars="region_id,cross_section_updated," Vectors="" Tensors="stress,">
<DataArray type="Float64" Name="region_id" format="ascii">
5 5 5 5 5 6 5 5 5 5 5 5 5 5 5 5 6 5 5 5 5 6 5 6 5 5 6 5 5 5 5 6 5 5 6 6 5 5 5 5 5 5 6 5 5 5 6 5 6 5 6 5 5 5 5 5 6 5 5 5 5 5 5 5 5 5 5 5 5 6 5 5 5 5 5 5 5 5 6 5 5 5 5 5 5 5 5 5 5 5 5 5 5 5 5 5 5 5 5 6 5 5 5 5 5 5 5 5 5 6 6 5 5 5 5 5 5 5 5 5 6 5 5 5 5 6 5 6 5 5 5 6 5 5 6 6 5 5 5 5 6 6 6 5 5 5 5 5 6 5 5 5 5 5 6 5 5 5 6 5 5 5 5 5 5 5 5 5 5 5 5 5 5 5 5 5 5 5 5 5 6 5 5 5 5 5 5 5 5 6 5 5 6 5 6 6 5 5 5 5 5 6 6 5 6 5 5 5 6 5 5 6 5 5 5 5 6 5 6 5 5 6 6 5 5 5 5 5 5 5 5 6 5 5 6 5 5 5 5 5 5 5 6 5 5 5 5 5 6 5 5 6 5 6 5 5 5 5 6 5 5 5 5 5 6 5 5 5 5 5 5 5 5 6 5 5 6 5 5 6 5 5 6 5 5 6 5 5 5 5 5 5 6 5 6 5 5 5 6 5 5 5 5 5 5 5 5 5 5 5 6 5 5 5 5 5 5 5 5 5 5 6 5 6 5 5 5 6 5 5 5 6 5 5 5 5 5 5 6 6 5 5 5 6 5 5 6 6 5 5 6 5 5 5 5 5 6 5 5 5 5 6 5 5 6 5 5 5 6 6 5 5 5 6 5 5 5 5 5 6 5 6 5 5 5 5 5 5 5 5 5 5 5 6 6 5 5 5 5 5 5 5 5 5 5 5 5 5 6 5 5 5 5 5 5 5 5 6 5 5 6 5 5 5 5 5 6 5 5 6 5 5 5 5 5 6 5 6 5 5 5 5 5 5 5 5 5 5 5 5 5 5 5 6 5 5 5 5 6 5 5 5 5 6 5 5 6 6 5 5 5 5 5 6 5 6 5 5 5 6 6 5 5 5 5 6 5 5 5 5 5 5 5 5 5 5 6 5 5 5 5 5 5 5 6 6 5 5 5 5 5 5 5 5 5 5 5 6 5 5 5 5 5 5 5 5 5 5 5 5 5 5 5 5 5 5 5 5 5 5 5 6 5 5 5 6 5 5 6 5 5 5 5 5 5 5 5 5 6 5 5 5 5 5 6 5 5 6 5 5 6 5 5 6 5 5 5 5 5 5 5 5 5 5 5 5 5 5 5 5 5 5 5 5 5 5 5 5 5 6 5 5 5 5 5 6 5 5 5 5 5 6 5 6 5 5 5 5 5 5 5 5 5 5 5 5 5 5 5 5 5 5 5 5 5 5 5 5 5 5 5 5 5 5 5 5 5 5 5 5 5 5 5 5 5 5 5 5 5 5 5 5 5 5 5 5 5 5 5 5 5 5 5 5 5 5 5 5 5 5 5 5 5 5 5 5 5 5 5 5 5 5 5 5 5 5 6 5 5 5 5 5 5 5 5 5 5 5 5 5 5 5 6 5 5 6 5 5 5 5 5 5 6 5 5 6 5 5 5 5 5 5 5 5 5 5 6 5 5 6 5 5 6 5 6 5 5 5 5 5 5 5 5 5 5 5 6 5 5 5 5 5 5 5 5 6 5 6 5 5 5 5 5 5 5 5 5 5 5 5 5 5 5 5 5 5 5 5 5 5 5 5 5 6 5 5 5 5 6 5 5 5 5 6 6 5 5 5 5 6 5 5 6 5 6 5 5 5 5 6 6 5 6 6 5 5 6 5 5 6 5 5 5 5 5 5 5 5 5 6 5 6 5 5 5 5 6 6 5 5 5 5 6 5 5 6 6 5 5 6 5 5 5 5 5 5 5 5 5 5 5 5 5 5 5 5 5 5 5 5 6 5 5 5 5 5 5 5 5 5 5 5 5 5 5 6 5 5 5 5 5 5 5 6 5 5 5 6 5 5 5 5 6 5 5 5 5 5 5 6 5 5 6 6 5 6 5 5 5 6 5 5 5 6 6 5 5 5 5 5 5 5 5 6 5 5 5 5 5 5 5 5 5 5 5 5 5 5 5 5 5 6 5 5 5 6 5 5 5 5 5 5 5 5 6 5 5 5 5 5 5 5 5 5 5 5 5 5 5 5 5 5 5 6 5 5 5 5 5 5 5 5 5 5 5 5 5 5 5 5 5 5 5 5 5 5 5 6 5 6 5 5 5 5 6 6 5 5 5 5 5 5 5 5 5 5 5 5 5 5 5 5 5 6 5 5 6 5 5 5 5 5 5 5 5 5 5 5 5 5 6 6 5 6 5 5 5 5 5 5 5 5 6 5 5 5 6 5 5 5 6 5 5 5 5 5 5 5 5 5 6 5 5 5 5 5 5 5 5 5 5 6 5 5 5 5 5 5 5 5 5 5 5 6 5 6 5 6 5 5 5 6 5 6 5 5 5 6 5 5 5 5 5 5 5 5 5 5 5 5 5 5 5 6 5 5 5 5 5 5 5 5 6 5 6 5 6 5 6 6 6 5 5 5 5 5 5 5 5 5 5 5 6 5 5 5 5 5 5 5 5 5 5 5 5 5 5 5 5 5 5 5 5 5 5 5 5 5 6 5 5 5 5 5 6 5 5 5 5 5 5 5 5 5 5 5 5 5 5 6 5 5 5 5 6 5 5 5 5 5 5 5 5 5 5 5 5 6 5 5 5 5 5 5 6 5 5 5 5 5 5 5 5 5 5 5 6 6 5 5 5 6 6 5 5 5 5 5 5 5 5 5 5 5 5 5 5 5 5 5 5 5 5 5 5 5 5 5 5 5 5 5 5 5 5 5 5 5 5 5 5 5 5 5 5 5 5 5 5 5 5 5 5 6 5 5 6 5 5 6 6 5 6 5 5 5 5 5 5 6 5 5 5 5 5 5 5 5 5 5 6 5 5 5 5 5 5 5 5 5 5 5 5 6 5 5 5 5 5 5 5 5 5 6 5 5 5 5 5 5 5 5 5 5 5 5 6 5 5 6 5 6 5 5 5 5 5 6 6 5 6 5 5 5 5 5 5 5 5 5 5 5 5 6 5 5 5 5 5 5 6 5 5 5 5 5 5 5 5 5 5 5 5 6 5 5 6 5 6 6 5 5 5 5 5 5 5 6 5 6 5 5 5 5 5 5 5 5 5 5 5 5 5 5 5 5 5 5 5 5 5 5 5 5 5 5 5 5 5 5 5 5 5 5 5 5 5 5 5 5 5 5 5 5 5 5 5 6 5 5 5 5 5 5 5 5 5 6 5 5 6 5 6 5 6 5 5 5 5 5 5 6 5 5 5 5 5 5 5 5 5 5 5 5 5 5 5 5 5 6 5 5 5 5 5 5 6 5 5 5 5 5 5 5 5 5 5 5 5 6 5 5 5 5 5 5 5 5 5 5 5 5 5 5 5 5 5 5 5 5 5 5 5 5 5 5 5 5 5 5 5 5 5 5 5 6 5 5 5 5 6 5 5 5 5 5 6 5 5 5 6 5 5 5 5 6 5 5 5 5 5 5 5 5 5 5 5 6 5 5 6 5 5 6 6 5 5 6 5 5 5 5 5 5 5 5 6 5 6 5 5 5 5 5 5 6 5 5 5 5 6 5 5 5 5 5 5 5 5 5 5 5 5 5 5 5 5 6 5 5 5 6 5 5 5 5 5 5 5 5 5 5 6 5 5 5 6 5 5 5 6 5 6 5 5 5 5 5 5 5 5 5 5 5 5 5 5 5 5 5 5 5 5 5 5 5 5 5 5 5 5 6 5 5 5 5 5 5 5 5 5 5 5 6 5 5 5 6 5 5 5 5 5 5 5 5 5 6 6 5 6 5 6 5 6 5 5 5 5 6 5 5 6 5 5 5 5 5 5 6 5 5 5 5 6 5 5 5 5 5 5 5 5 5 5 5 5 5 5 5 6 5 5 5 5 5 5 5 5 5 5 5 5 6 5 5 5 5 5 5 6 5 5 5 5 5 6 5 6 5 5 5 5 5 5 5 5 6 5 6 6 5 5 5 6 5 5 6 5 5 6 5 5 6 5 6 6 5 5 5 5 5 5 5 5 5 5 5 5 5 5 5 5 5 5 5 5 5 5 5 5 5 5 5 5 6 5 5 5 5 5 5 5 5 6 5 5 5 5 5 5 5 6 5 5 5 6 5 5 6 5 5 5 5 5 5 5 5 5 5 5 5 6 5 5 5 5 6 5 5 5 5 5 5 5 5 6 5 5 5 6 5 5 5 5 5 5 5 5 5 5 5 6 5 5 5 5 6 5 5 5 6 6 5 5 5 5 5 6 5 6 5 5 6 5 6 5 5 5 5 5 5 5 5 5 5 5 5 5 5 5 5 6 5 5 6 5 5 5 6 5 6 6 5 5 5 6 5 5 6 5 6 5 5 5 5 5 5 5 5 5 5 5 6 5 6 5 5 5 5 5 5 5 5 5 6 5 5 5 5 5 5 5 5 5 6 5 5 5 5 5 5 5 5 6 5 5 6 5 5 5 5 6 5 5 5 5 6 5 5 5 5 5 5 5 5 5 5 5 5 5 5 5 6 5 5 5 5 6 5 5 6 5 5 5 5 5 5 5 5 5 5 5 5 5 5 5 5 5 6 5 5 5 5 5 5 5 6 5 5 5 6 5 5 6 5 5 5 5 5 5 5 5 5 6 5 5 6 5 5 5 5 5 5 5 6 5 5 5 6 5 6 5 5 5 5 5 5 5 5 5 5 6 5 5 5 5 6 6 5 5 5 5 5 5 5 5 5 5 5 5 6 5 5 6 5 5 5 6 5 5 6 5 5 5 6 5 5 5 5 6 5 5 5 5 5 5 5 5 5 5 5 5 5 5 5 6 5 5 5 5 6 5 5 5 5 5 5 5 5 5 5 5 5 6 5 5 5 5 5 5 6 5 5 5 5 5 5 6 5 5 5 5 5 5 5 5 5 5 5 5 5 6 5 6 5 5 5 5 6 5 5 5 6 6 5 5 6 5 5 5 5 5 5 5 5 5 5 5 5 5 5 5 5 6 6 5 5 6 5 5 5 5 5 5 5 5 5 5 5 5 5 5 5 6 5 5 5 5 5 5 5 6 5 5 5 5 5 5 5 5 5 6 5 5 6 5 5 5 5 5 5 5 6 5 5 5 5 5 5 6 5 6 5 5 5 5 5 6 5 5 6 5 6 5 6 6 5 5 5 5 5 5 5 5 5 5 5 5 6 5 5 5 5 5 5 6 5 5 5 5 5 5 5 6 5 5 5 5 5 6 6 5 5 6 5 5 5 5 6 6 5 5 5 5 6 6 5 5 5 6 5 5 5 5 5 5 5 5 6 6 5 5 6 5 5 6 6 5 6 6 5 5 5 5 5 5 5 5 5 5 5 5 5 5 5 5 5 5 6 5 5 5 6 5 6 5 5 5 6 6 5 5 5 6 5 5 6 6 5 6 5 5 6 5 6 5 5 5 5 5 5 5 5 5 6 5 6 5 5 5 5 5 5 5 5 5 6 5 5 5 5 5 6 5 5 5 6 5 5 5 5 6 5 6 6 5 6 5 5 6 6 6 5 5 5 6 5 6 6 5 5 5 5 6 5 5 5 6 6 5 5 5 5 5 5 5 6 5 5 5 5 5 5 5 5 5 5 5 6 5 5 5 5 5 5 5 5 5 5 5 5 5 5 5 5 6 6 5 5 6 5 5 5 5 5 5 5 5 5 6 5 5 5 6 5 5 5 5 5 5 5 5 6 6 5 5 5 5 5 5 5 6 5 5 5 5 5 5 5 5 6 5 5 5 5 5 5 5 5 5 5 5 5 5 5 5 5 5 5 5 5 5 5 5 5 5 5 5 5 5 5 6 6 5 5 5 5 5 5 6 6 5 5 5 5 5 5 5 5 6 5 5 5 5 5 6 5 5 5 5 5 5 6 5 5 5 6 5 5 6 5 5 5 5 5 5 5 5 5 5 6 6 5 5 5 5 5 5 6 5 5 5 5 6 5 5 5 5 5 5 5 5 5 5 5 6 5 5 6 6 5 5 6 5 6 6 5 5 5 5 5 5 5 5 6 5 5 5 6 5 5 5 5 5 6 5 5 5 5 6 5 6 6 5 6 5 6 6 5 6 5 6 5 5 5 5 5 6 5 5 5 5 6 5 5 5 5 5 5 5 6 5 5 5 5 5 6 5 5 5 5 5 6 5 6 5 6 5 5 6 5 6 6 5 5 5 5 5 5 5 5 5 5 5 5 5 5 5 5 5 5 5 5 5 5 5 5 5 6 5 5 5 5 5 5 6 5 5 5 5 5 6 5 6 5 5 6 5 5 5 6 5 6 5 5 5 5 6 5 5 5 5 5 5 5 5 5 5 5 5 6 5 5 5 6 5 5 5 5 5 5 5 5 5 5 6 5 5 6 5 5 5 5 5 5 5 5 5 5 5 5 6 5 5 5 5 6 5 5 6 5 5 5 5 5 5 5 6 5 5 6 5 5 5 5 5 5 5 5 5 5 5 5 5 5 5 5 5 5 5 5 5 6 6 5 5 5 5 5 5 6 5 5 5 5 5 5 5 5 5 5 5 5 5 6 6 5 5 5 5 5 5 5 5 6 5 5 5 5 6 5 5 5 5 5 5 5 5 5 5 5 5 5 5 5 5 5 5 5 5 5 5 5 5 5 5 5 5 5 6 5 5 5 5 5 5 5 6 5 5 6 5 5 5 5 5 5 5 5 5 5 5 5 5 5 5 5 5 5 5 5 5 5 6 5 5 5 5 5 6 5 5 5 5 5 5 5 5 6 5 5 5 5 5 5 5 5 5 5 5 5 5 5 5 5 5 5 6 5 5 5 5 5 5 5 5 5 5 5 5 6 5 6 5 6 5 6 5 5 5 5 6 5 6 5 5 5 6 5 5 5 6 5 5 5 6 5 5 5 5 5 6 5 5 6 5 6 5 6 5 6 6 5 5 5 5 5 5 5 5 5 5 6 5 5 5 5 6 5 5 5 5 5 5 5 5 5 5 5 5 5 6 5 5 5 5 6 5 5 5 5 5 5 5 5 5 5 6 5 5 5 6 5 5 6 5 6 5 5 5 5 6 5 5 5 5 5 5 5 5 5 5 5 5 5 5 5 5 5 6 5 5 5 6 5 6 5 5 6 5 5 5 5 5 6 5 5 5 5 5 5 5 5 5 5 5 5 5 5 5 6 5 5 5 6 5 5 5 5 5 5 6 5 6 5 5 5 5 5 5 5 5 5 5 5 6 5 5 5 6 5 6 5 5 5 5 5 6 5 5 6 5 5 5 6 5 5 5 5 5 5 5 6 5 5 5 5 5 5 5 5 5 5 5 5 6 6 5 5 5 5 6 5 5 6 5 6 5 5 5 5 5 5 5 5 5 6 5 5 5 5 5 6 5 5 5 5 5 5 5 5 5 5 5 5 6 5 5 5 5 5 5 5 5 5 5 5 6 5 6 5 6 5 6 5 5 5 6 5 5 5 5 5 5 6 6 6 5 5 5 5 5 5 5 5 6 5 5 5 5 5 5 5 5 5 5 5 5 5 5 5 6 5 5 5 6 5 5 5 5 5 6 5 5 5 6 5 6 6 6 5 5 6 5 6 5 5 6 5 5 6 5 5 5 5 5 6 5 5 5 5 5 5 5 5 5 5 5 5 5 5 5 6 5 5 5 5 6 5 5 6 5 5 5 5 5 5 5 5 5 5 5 5 5 5 5 5 5 5 5 6 5 5 5 5 5 5 5 5 5 6 5 5 5 5 5 5 5 6 5 6 6 5 5 5 5 5 5 5 5 5 5 5 5 5 5 5 5 6 6 5 6 5 6 5 5 6 5 6 5 5 5 6 5 6 6 5 5 5 5 5 6 5 5 6 5 5 5 5 5 5 5 5 5 5 5 5 5 6 5 5 6 5 5 5 5 5 5 5 5 5 6 5 5 5 5 5 6 5 5 6 5 5 5 5 5 5 6 5 5 6 5 6 5 5 5 5 5 5 5 5 5 6 5 5 5 5 5 5 5 5 5 6 6 5 5 5 5 6 5 5 5 5 6 5 5 6 6 5 6 6 5 6 5 6 5 5 5 5 5 5 6 5 5 5 5 5 6 5 5 5 5 5 5 5 5 5 5 5 5 5 6 6 5 5 6 5 6 6 5 5 5 5 5 5 5 6 5 6 6 5 5 5 5 5 5 5 5 5 5 5 5 5 5 5 5 6 5 5 5 6 5 5 5 5 5 5 5 6 5 5 6 5 5 6 5 5 5 5 5 5 5 5 6 5 5 5 6 5 5 5 6 5 5 6 6 5 6 5 5 5 5 5 5 5 5 5 5 5 5 5 5 5 5 5 5 5 5 5 5 5 6 5 6 6 5 5 5 5 5 5 5 5 5 6 5 5 5 5 5 5 6 5 6 5 6 5 6 6 5 5 5 5 5 6 6 6 5 5 5 6 6 5 5 6 5 5 5 5 5 5 5 5 5 5 5 6 5 5 5 6 5 5 5 6 6 5 5 5 5 6 5 6 5 5 5 5 5 5 5 5 5 5 5 5 5 5 5 5 5 6 5 5 5 5 5 5 5 5 5 6 5 5 5 5 5 6 5 5 5 5 5 5 5 5 5 5 5 5 5 5 5 5 5 5 5 5 5 5 5 5 5 5 5 5 5 5 5 5 5 5 5 5 5 5 5 5 5 5 5 5 5 5 5 5 5 5 5 5 5 5 5 5 5 5 5 5 6 5 5 6 5 5 5 5 5 5 5 5 5 5 5 6 5 5 6 5 6 5 5 5 5 5 5 5 5 6 5 5 6 5 5 5 6 5 5 5 5 6 5 6 5 6 6 6 5 5 6 6 5 5 5 5 6 5 6 5 5 5 5 6 5 5 5 5 5 5 5 5 5 5 5 5 5 5 5 5 5 5 5 5 5 5 5 5 5 5 5 5 5 5 5 5 5 5 5 5 5 6 5 6 5 5 5 5 5 5 5 6 5 6 5 5 6 5 5 5 5 5 6 5 5 5 5 5 5 5 5 5 5 5 5 5 5 6 5 6 5 5 5 5 5 6 5 5 5 5 5 5 5 5 5 5 5 5 5 5 5 5 5 5 5 5 6 6 5 5 5 6 5 5 5 5 5 5 5 5 5 5 6 5 5 5 5 5 5 5 5 5 5 5 5 5 5 6 5 5 6 5 5 5 5 5 5 5 5 5 5 6 5 5 5 5 5 5 5 5 5 5 5 5 5 5 5 6 5 6 5 5 5 5 6 5 5 5 5 5 5 6 5 5 5 5 5 5 5 5 6 5 5 6 5 5 5 5 5 5 5 5 5 5 5 5 5 5 5 5 5 5 5 5 5 5 6 5 5 5 5 5 5 5 5 5 5 5 5 5 5 5 5 5 5 5 5 5 5 5 5 5 5 5 5 5 5 5 5 5 5 5 5 5 5 6 5 5 5 5 5 6 5 5 5 5 5 5 5 5 5 5 5 5 5 5 5 5 5 5 5 5 5 5 5 5 5 5 5 5 5 5 5 5 5 5 5 5 5 5 5 5 6 5 6 5 5 5 5 5 6 5 5 5 6 5 5 5 6 5 5 6 5 6 5 5 5 5 5 5 5 5 5 5 5 5 5 5 5 5 5 5 5 5 6 5 5 5 5 5 5 5 5 5 5 5 5 5 5 5 5 5 5 5 5 5 5 5 5 5 5 5 5 5 5 5 5 5 5 5 5 5 5 5 5 5 5 5 5 5 5 5 5 5 5 5 5 5 5 5 5 5 5 5 5 5 5 5 5 5 5 5 5 5 5 5 5 5 5 5 5 5 5 5 5 5 5 5 5 5 6 6 5 6 6 5 5 5 5 5 5 5 5 5 6 6 6 5 5 5 6 5 5 5 5 5 5 5 5 5 6 5 5 5 5 5 5 5 5 5 5 5 5 5 5 5 5 5 5 5 5 5 5 5 5 5 5 5 5 5 5 5 5 5 5 5 6 5 6 5 5 5 5 5 5 5 5 5 5 5 5 5 5 5 5 5 5 5 5 5 5 5 5 5 5 5 5 5 5 5 5 5 5 5 5 5 5 5 5 5 5 5 5 5 5 5 5 5 5 5 5 5 5 5 5 5 5 5 5 5 5 5 5 5 5 5 5 5 6 5 5 5 5 5 6 5 5 5 5 5 5 5 5 5 6 5 5 6 5 6 5 5 5 6 5 5 5 5 5 6 5 5 5 5 5 5 5 5 5 5 5 5 6 5 5 5 6 5 5 5 5 5 5 5 5 5 5 5 5 5 5 5 5 5 5 5 5 5 5 5 5 5 5 5 5 6 5 5 6 5 5 5 6 5 5 5 5 5 5 5 5 6 5 5 5 5 5 5 5 5 5 5 5 5 5 5 6 5 5 6 5 5 6 5 5 5 5 5 5 5 5 5 5 5 5 5 5 5 5 5 5 6 5 5 5 5 5 6 5 6 5 5 5 5 5 6 5 5 5 5 5 5 5 5 5 5 5 5 5 5 6 5 5 5 5 5 5 6 5 5 6 5 5 5 5 5 5 5 5 5 5 5 5 5 5 5 5 5 5 5 5 6 5 5 5 5 5 6 5 6 5 5 6 5 6 6 5 5 5 5 6 5 5 5 6 5 5 6 5 5 5 5 5 5 6 5 6 5 5 6 5 5 5 5 6 5 5 6 6 5 5 5 5 5 5 5 5 5 6 5 6 5 6 6 5 5 5 5 5 5 5 6 6 5 5 6 5 5 5 6 5 5 5 6 5 5 5 5 5 5 5 5 5 5 5 5 5 5 5 5 5 5 5 5 5 5 5 5 5 5 5 5 6 5 5 5 5 5 5 5 5 5 6 6 5 5 5 6 5 5 5 6 5 5 5 5 5 5 5 6 5 5 6 5 5 6 6 5 5 6 5 5 5 6 6 6 5 5 6 5 5 5 5 5 5 5 5 5 5 5 6 5 5 6 5 5 5 6 5 5 6 5 6 5 5 5 5 6 5 5 5 5 5 5 5 5 5 5 6 5 5 6 6 5 6 5 5 5 5 5 5 5 5 6 6 5 6 5 5 5 5 5 6 6 5 5 5 5 5 5 6 5 5 5 6 5 5 5 5 5 5 6 5 6 6 5 5 5 6 5 5 5 5 5 5 6 5 5 5 5 6 5 6 6 5 5 5 5 5 6 5 6 5 5 6 5 6 5 5 5 5 5 5 5 5 5 6 5 6 5 6 6 6 5 5 5 5 5 6 5 5 6 6 5 5 6 5 5 5 5 5 5 5 5 5 5 5 5 5 5 5 5 5 5 5 5 5 5 5 5 5 5 6 5 5 5 5 6 5 5 5 5 5 5 6 5 5 5 5 5 6 6 5 5 6 5 5 5 6 5 5 6 6 5 6 5 5 5 5 5 5 5 6 6 5 6 5 5 5 5 5 6 5 5 5 5 5 5 5 5 5 5 5 5 5 5 5 5 5 5 5 5 5 6 5 5 5 5 5 5 5 5 5 5 5 6 5 5 5 6 5 5 6 5 6 5 5 5 5 6 6 5 5 5 5 5 6 6 5 5 5 5 6 5 5 5 5 5 5 5 5 5 5 5 5 5 5 5 5 5 5 5 5 5 5 5 5 5 5 5 5 5 5 5 5 6 5 5 5 6 5 5 6 5 5 6 5 5 5 5 6 5 5 5 5 5 5 5 5 6 6 5 5 5 5 5 5 6 5 5 6 5 5 5 5 6 5 5 5 6 5 5 5 5 5 5 5 5 5 5 5 5 5 5 5 5 5 5 6 5 5 6 5 5 5 5 5 5 5 5 5 5 5 5 5 6 6 5 6 5 5 5 5 5 5 6 5 6 5 5 5 5 6 5 5 5 5 5 5 5 5 5 5 5 6 5 5 5 5 5 5 5 5 6 5 5 5 5 5 5 5 5 5 5 6 5 5 5 6 6 5 5 5 5 5 5 5 5 5 5 5 5 5 5 5 5 5 5 5 5 5 5 5 5 5 5 5 5 5 5 5 5 5 5 5 5 5 5 5 5 5 6 5 5 5 5 6 6 5 6 5 6 5 5 5 5 5 5 5 5 5 6 5 5 6 5 5 5 5 5 5 5 5 5 5 5 5 5 5 5 5 5 5 5 5 5 5 5 6 5 5 5 5 5 5 6 5 5 5 5 5 5 5 5 5 5 5 6 5 5 6 5 5 6 6 5 5 5 6 5 6 5 5 6 6 5 5 5 5 5 5 6 5 5 6 6 5 6 5 5 5 5 5 5 5 5 5 5 5 5 5 6 5 5 5 5 5 5 5 5 5 5 5 5 5 5 5 5 5 5 5 5 5 5 5 5 5 5 5 5 5 5 5 5 5 5 5 5 5 5 5 5 5 5 5 5 5 5 5 5 5 5 5 5 5 5 5 6 5 5 5 5 5 5 5 5 5 5 5 5 5 5 5 5 5 5 5 5 5 5 5 5 5 5 5 5 5 5 5 5 5 5 5 5 5 5 5 5 5 5 5 5 5 5 5 5 5 5 5 6 6 5 5 5 5 5 5 5 5 5 5 5 5 5 5 6 5 5 5 5 5 5 5 5 6 5 5 5 5 5 5 5 6 5 5 5 5 6 5 5 6 5 6 5 5 6 5 5 6 5 5 5 5 5 5 5 5 5 5 6 5 5 6 5 5 5 5 5 6 5 5 5 5 5 5 5 5 6 5 6 5 5 5 6 5 5 5 5 5 5 5 6 5 5 5 6 5 5 5 5 5 5 5 6 5 5 6 5 5 5 5 6 5 5 5 5 6 5 5 5 5 6 5 5 5 6 5 5 6 5 5 5 5 5 6 5 5 5 5 6 5 5 6 5 5 6 5 6 6 5 5 5 5 5 6 5 5 5 5 5 5 6 5 5 5 6 6 5 5 6 5 5 6 5 5 5 5 6 6 5 5 6 5 5 5 5 5 5 5 5 5 5 5 5 5 5 5 5 5 5 5 5 5 5 5 5 5 5 5 5 5 5 5 5 6 5 6 5 5 5 6 5 5 5 5 5 5 5 5 5 5 5 5 5 5 5 5 5 5 5 5 5 5 5 5 6 5 5 5 5 5 5 5 5 5 5 5 5 5 5 5 6 5 5 6 5 6 5 6 5 5 6 5 5 5 6 5 5 6 5 5 6 5 5 5 5 5 6 5 5 5 5 5 5 5 5 5 5 6 6 5 5 5 5 5 5 5 5 5 6 5 5 5 5 5 5 5 5 5 5 5 5 5 5 5 5 5 5 5 5 5 5 5 5 5 5 5 5 5 5 5 5 5 5 5 5 5 5 5 6 5 5 5 6 5 5 5 6 5 6 5 6 5 5 5 6 5 6 5 5 5 5 5 5 6 5 5 6 6 6 5 5 6 5 5 5 5 5 5 5 5 5 5 5 5 5 5 5 5 6 5 5 5 6 5 5 6 6 5 5 6 6 5 5 5 5 5 6 5 5 5 5 5 5 6 5 5 5 5 5 5 5 5 5 5 5 5 5 5 5 5 5 5 5 5 5 5 5 6 5 5 5 5 5 5 5 5 6 5 5 5 5 6 5 5 5 5 5 5 5 5 5 6 5 5 5 5 5 5 5 5 5 5 5 5 5 5 5 5 5 5 5 5 5 6 5 5 6 5 5 6 6 5 5 5 5 6 5 5 5 5 5 6 5 6 5 5 5 5 5 5 5 5 5 5 5 5 5 5 5 5 5 6 5 5 5 5 5 5 5 5 5 5 5 5 5 5 6 5 5 5 5 5 5 5 5 5 5 5 5 5 6 5 5 5 5 5 5 6 5 5 5 5 6 5 5 5 5 5 5 5 5 5 5 5 5 6 5 5 6 5 6 5 6 5 5 6 5 5 6 5 5 6 5 6 5 5 5 5 5 5 6 5 5 6 6 5 5 5 6 6 6 5 5 6 5 5 5 5 5 5 5 5 6 5 5 6 5 5 5 5 5 6 5 5 6 5 6 5 5 5 5 5 5 5 5 6 5 5 5 5 6 6 5 5 5 5 5 5 5 5 6 5 5 5 5 5 5 5 6 5 5 5 5 6 5 5 5 5 5 5 5 5 5 6 5 6 5 5 6 5 5 6 5 5 5 5 5 5 6 5 5 6 5 5 5 6 5 5 5 5 5 5 5 5 5 5 5 5 5 5 5 5 6 5 5 5 5 5 5 5 5 5 5 5 5 5 5 5 5 6 5 6 5 5 5 5 5 5 5 5 5 5 5 5 5 5 5 5 5 5 5 5 5 5 5 5 5 5 5 5 6 5 5 5 5 6 5 6 5 6 5 5 6 5 5 5 5 6 6 6 6 5 5 5 5 5 6 5 6 6 6 5 5 5 5 5 5 5 5 5 5 5 5 5 5 6 5 5 5 5 5 5 5 6 5 5 5 5 5 6 5 5 6 6 5 5 5 5 5 5 5 5 6 5 5 5 5 5 6 5 5 5 5 5 5 5 5 6 5 6 5 5 6 6 5 5 5 5 6 5 5 5 5 5 5 5 6 5 5 5 5 5 5 6 5 5 5 5 5 5 6 5 6 5 6 6 5 5 6 6 5 5 5 5 5 5 5 5 5 5 6 5 5 6 5 5 5 6 5 5 5 5 6 6 5 6 5 5 5 5 5 5 5 5 5 5 5 5 5 5 5 5 5 5 5 5 5 5 5 5 5 5 5 5 5 5 5 5 5 5 5 5 5 5 5 5 5 5 5 5 5 5 5 5 5 5 5 5 5 5 5 5 5 5 5 5 5 5 5 5 5 5 5 5 5 5 5 5 5 5 5 5 5 6 5 5 5 5 5 5 5 5 5 6 5 5 5 6 5 5 6 6 5 5 5 6 5 5 6 6 5 5 5 5 5 5 6 5 5 6 5 6 5 5 5 6 5 5 5 5 5 5 5 5 5 5 5 5 5 6 5 6 5 5 6 5 6 5 5 5 5 5 5 5 5 6 5 5 5 5 5 5 5 5 5 5 5 5 6 5 6 5 5 5 5 5 5 5 5 6 5 5 5 6 5 6 5 6 5 5 5 5 5 5 5 6 6 5 5 5 5 5 5 5 5 5 5 5 5 5 5 5 5 5 5 5 5 5 5 5 5 5 5 5 5 5 5 5 6 5 5 5 5 5 6 5 6 5 6 5 5 6 5 6 5 5 5 5 5 5 5 5 5 5 5 5 6 5 5 5 5 5 5 5 5 5 5 5 5 5 5 6 5 5 5 5 5 5 5 5 5 6 5 5 5 5 6 6 5 5 6 5 5 5 5 5 5 6 5 5 5 5 5 5 5 5 5 5 5 5 5 5 5 5 5 5 5 5 5 5 5 5 5 6 5 6 5 6 5 5 6 5 5 5 5 5 5 5 5 5 5 5 5 5 5 5 5 6 5 5 5 5 6 5 5 5 6 5 5 6 5 5 5 5 5 6 5 5 6 5 5 5 6 6 5 5 5 5 6 6 5 5 5 6 5 5 5 6 5 5 5 6 5 6 5 6 5 5 5 5 5 5 6 5 5 6 6 5 6 5 5 5 5 5 6 5 5 5 5 5 5 6 6 5 5 5 5 6 5 5 5 5 5 5 5 5 5 5 5 5 5 5 5 5 5 6 5 5 5 5 6 5 5 5 6 6 5 5 5 5 6 5 6 5 5 5 6 5 6 5 5 6 5 5 5 5 5 5 6 5 6 5 5 5 6 5 5 5 5 5 6 5 5 5 5 5 5 5 6 5 5 5 5 6 5 5 5 6 5 5 5 5 5 5 5 5 6 5 5 5 6 5 5 5 5 5 6 5 5 5 5 5 5 5 5 5 5 6 5 5 5 6 5 5 5 5 5 5 6 5 5 6 5 5 6 5 6 6 5 5 6 6 5 6 5 5 6 5 5 6 5 6 5 6 5 6 5 6 5 6 5 5 6 5 6 5 5 5 5 6 5 5 5 5 5 5 5 5 5 6 5 5 5 5 5 5 5 5 5 5 5 5 5 5 5 5 5 5 5 5 5 5 5 5 5 5 5 5 6 6 5 5 5 5 5 5 5 5 5 5 5 6 5 5 6 5 5 5 6 5 5 5 5 5 5 5 5 5 5 5 5 5 5 5 5 5 5 5 6 5 5 5 5 5 5 5 5 5 6 5 5 5 6 5 6 5 5 5 5 5 5 5 5 6 6 5 5 5 5 5 6 5 5 5 5 5 5 5 5 6 5 5 5 5 6 5 5 6 6 5 6 5 5 5 5 5 5 5 6 5 5 6 5 5 6 6 5 5 5 5 5 5 5 5 5 5 5 5 5 5 5 5 5 5 5 5 5 5 5 5 5 5 5 5 5 5 5 5 5 6 5 5 5 5 5 5 5 5 5 5 5 5 5 6 6 5 5 5 5 5 5 6 5 5 5 5 5 6 5 5 5 6 5 5 6 5 6 6 5 5 5 5 6 5 5 5 5 5 5 5 5 5 5 5 5 5 5 5 5 5 5 5 5 5 5 5 5 5 5 5 6 5 5 5 5 6 5 6 5 5 6 5 5 5 5 6 5 6 5 5 5 5 5 5 5 5 6 6 5 5 5 6 5 5 5 5 5 5 5 5 5 5 5 5 5 5 5 5 6 5 5 5 5 5 5 5 5 5 6 5 5 5 5 5 5 5 5 5 5 5 5 5 5 5 5 5 5 5 6 6 5 5 5 6 6 6 5 5 5 6 5 5 5 5 6 5 5 5 5 5 5 5 5 6 5 5 5 5 5 6 5 5 5 5 5 5 5 5 5 5 5 5 5 5 5 5 5 5 5 5 6 5 5 5 6 6 5 5 5 5 5 5 5 5 5 5 5 5 5 5 5 5 5 5 5 5 5 5 6 5 5 5 5 5 5 5 5 6 6 5 5 5 5 5 5 5 5 5 5 5 5 5 5 5 5 5 5 5 5 5 5 5 5 5 5 5 5 5 5 5 5 5 5 5 5 5 5 5 6 5 5 5 5 6 5 5 5 5 5 5 5 5 5 5 5 5 5 5 5 5 5 5 5 6 5 5 5 5 6 5 5 5 5 6 5 5 5 5 5 5 5 5 5 6 5 5 6 5 5 5 5 6 5 5 5 6 5 5 5 5 5 5 5 5 5 5 5 5 5 6 5 5 5 6 5 5 5 5 5 5 5 5 5 5 6 5 5 5 5 5 5 5 5 5 5 5 5 5 5 5 5 5 5 5 5 5 5 5 5 5 6 5 5 5 5 5 5 6 5 5 6 5 5 5 5 6 5 5 5 5 5 5 5 5 5 5 6 5 6 6 6 5 5 5 5 6 5 5 5 5 5 5 5 5 5 5 5 5 5 6 5 6 5 6 5 5 5 5 6 5 6 6 5 5 5 5 5 5 5 6 5 5 6 5 6 5 5 6 5 5 6 5 5 6 5 6 5 5 6 5 6 6 5 5 6 5 6 5 5 6 5 5 5 5 5 5 5 5 5 6 5 5 5 6 5 5 5 5 5 5 5 5 5 5 5 6 5 5 5 5 5 5 6 5 6 5 5 5 6 5 5 6 6 5 6 5 5 5 5 6 5 5 6 5 5 6 5 6 5 5 6 5 5 6 6 5 5 5 5 6 5 5 6 5 5 5 5 5 6 6 6 5 6 5 5 6 5 5 5 5 5 5 5 5 6 5 5 5 5 5 5 5 6 5 5 6 5 5 5 6 5 5 5 5 6 5 5 6 5 6 5 5 5 5 5 5 5 5 5 5 5 6 5 5 5 5 5 5 5 5 5 5 6 5 5 5 6 5 5 5 5 5 5 5 5 5 5 5 6 5 5 6 5 5 5 6 5 5 6 5 5 5 6 5 5 5 5 5 5 5 5 5 5 5 5 5 5 5 5 5 5 5 5 5 5 5 5 5 5 5 5 5 5 5 5 5 6 5 5 5 5 5 5 5 5 5 5 5 5 5 5 5 5 5 5 6 5 5 5 5 5 6 5 5 5 5 5 5 5 5 5 5 5 5 5 5 5 5 5 5 5 5 5 5 5 5 5 6 5 6 5 6 5 5 6 5 5 5 5 5 5 6 5 5 5 5 5 6 5 5 5 5 6 5 5 5 5 5 5 5 5 5 5 5 5 5 5 5 5 5 5 5 5 5 5 5 5 6 5 5 5 5 5 5 5 5 5 5 5 5 5 5 5 5 5 5 5 5 5 5 5 5 5 6 5 5 6 5 5 5 5 5 5 5 5 6 5 5 6 5 5 5 5 5 6 5 5 5 5 5 5 5 5 5 5 5 6 5 5 5 5 5 5 6 5 5 5 5 5 6 5 6 5 5 5 5 5 5 5 5 5 5 5 5 5 5 5 6 5 6 5 5 6 5 5 6 6 5 5 5 5 5 5 6 5 5 5 6 5 5 5 6 6 5 5 5 6 5 6 5 6 5 5 5 6 5 5 5 5 5 5 5 5 5 5 5 5 5 5 5 5 5 5 5 5 6 5 5 5 5 6 5 5 5 5 5 5 5 5 5 5 5 5 5 5 5 5 5 5 5 5 5 5 5 5 5 5 5 5 6 5 5 5 5 5 5 6 5 5 5 5 5 5 6 5 5 6 5 6 5 5 5 5 6 5 5 5 5 5 5 5 5 5 5 5 5 5 5 5 5 5 6 5 5 5 6 5 5 6 5 6 6 5 5 5 5 6 5 6 5 5 6 5 5 5 5 5 6 5 5 5 6 5 6 5 6 6 5 5 5 5 5 5 6 6 5 5 5 6 5 5 5 5 6 5 5 5 5 5 5 6 5 5 5 5 5 5 5 5 5 5 5 5 6 5 5 5 5 5 5 5 5 5 5 5 5 5 5 5 5 5 5 5 5 5 6 6 5 5 5 5 6 5 5 6 5 6 5 5 5 5 5 5 5 5 6 5 5 5 5 5 5 5 5 5 6 5 5 5 5 5 6 5 5 5 5 5 5 5 5 5 5 5 5 6 5 5 5 5 5 5 5 5 6 5 5 5 5 5 5 5 5 5 5 5 5 5 5 5 5 5 5 5 5 5 5 5 5 5 5 5 5 5 5 5 5 5 5 5 5 6 5 5 5 6 5 6 5 5 6 5 6 5 5 6 5 5 6 5 5 6 5 6 5 5 5 6 5 6 5 5 5 5 5 5 5 5 5 6 5 5 5 6 5 5 5 5 5 5 5 5 5 5 5 5 5 6 6 6 5 6 5 5 5 5 5 5 5 5 5 5 5 5 5 6 6 5 5 6 5 5 5 5 5 5 5 5 5 5 5 5 5 6 5 5 5 5 5 5 5 5 5 5 5 6 5 5 5 5 5 5 5 5 5 5 6 5 5 5 5 5 5 5 6 5 5 5 6 5 5 5 5 6 5 5 5 5 5 5 5 5 5 5 5 5 5 5 5 5 6 5 5 5 6 5 5 6 5 6 5 5 5 5 5 5 5 5 5 5 5 5 5 5 5 5 5 5 5 5 5 5 5 6 6 5 6 5 6 5 5 5 5 6 5 5 5 5 5 5 5 5 5 5 5 6 5 6 5 5 6 5 6 5 5 5 5 5 5 5 6 5 5 5 5 5 5 6 5 5 5 5 5 6 5 5 5 5 5 5 5 5 5 5 5 5 5 6 5 5 5 6 5 5 5 5 6 5 5 5 5 5 5 5 5 5 5 5 5 5 5 5 5 5 6 6 5 5 5 5 5 5 5 5 5 5 5 5 5 5 5 5 5 5 5 5 5 5 5 5 5 5 6 5 6 6 5 5 5 5 5 6 6 5 5 6 5 5 5 5 5 5 5 5 5 5 6 6 5 5 5 5 5 5 5 6 5 5 5 5 5 6 5 5 5 5 5 6 5 5 5 5 5 5 5 5 6 5 5 5 5 5 5 5 5 5 5 5 5 5 5 5 5 5 5 6 5 5 5 5 5 5 5 6 5 5 5 5 6 5 5 5 5 5 5 5 5 5 5 5 5 5 5 6 5 5 5 5 5 5 5 5 5 6 5 6 5 5 5 5 5 5 5 5 5 5 6 5 5 5 5 5 5 5 5 5 5 5 6 5 5 5 5 5 6 5 6 5 6 5 5 6 6 5 6 5 6 5 6 5 5 5 5 5 5 5 5 5 5 6 5 5 5 5 5 6 5 5 5 5 5 6 5 5 5 5 5 5 5 5 6 5 5 5 5 5 6 5 5 5 5 5 5 5 5 5 5 5 5 5 5 5 5 5 6 6 5 5 5 5 5 6 5 5 5 5 5 5 5 5 6 5 5 5 5 5 5 5 5 5 5 5 5 5 6 6 5 5 5 5 5 5 5 5 5 5 5 5 6 5 5 5 5 5 5 5 5 5 5 5 5 6 5 5 5 6 5 5 5 6 6 5 5 5 5 5 5 6 5 5 5 5 5 5 6 5 5 5 5 5 5 5 5 5 5 5 5 5 6 6 5 6 5 6 5 5 5 5 5 5 5 5 5 5 5 5 5 5 5 5 5 5 5 5 5 5 6 5 5 5 5 5 5 5 5 5 5 5 5 5 5 6 6 5 5 5 5 5 5 5 5 5 5 5 5 5 5 5 5 5 6 5 5 6 5 5 5 5 6 5 5 5 6 5 5 5 5 5 5 5 5 5 5 5 5 5 6 5 5 5 5 5 5 5 5 5 6 5 5 5 6 5 5 5 5 6 6 5 5 5 6 5 5 5 5 5 5 5 5 5 6 5 5 5 6 5 6 5 5 5 5 5 5 5 5 5 5 5 5 5 5 5 5 6 5 5 5 5 5 6 5 5 5 5 5 5 5 5 5 5 6 5 5 6 5 5 6 5 5 5 5 5 5 5 5 5 5 6 5 5 5 6 5 6 5 5 5 6 5 6 5 6 5 5 5 5 5 6 6 5 5 5 5 5 5 5 5 5 5 5 5 6 5 5 5 5 5 5 6 5 5 5 5 5 5 5 5 5 5 5 5 5 5 6 5 5 6 5 5 5 5 5 5 5 5 5 5 5 5 5 5 5 5 5 5 5 5 5 5 5 5 5 6 5 5 5 5 6 5 5 5 6 6 5 5 5 5 5 5 5 5 5 5 5 5 5 5 5 5 5 5 5 5 5 5 5 5 5 5 5 5 5 5 5 5 5 6 5 5 5 6 5 5 6 5 5 5 5 5 6 5 5 5 5 5 6 5 5 5 5 5 5 5 6 5 5 5 5 5 5 5 6 5 5 6 5 5 5 6 5 6 5 5 5 5 5 5 5 5 6 5 5 6 5 5 5 5 5 6 5 5 5 5 5 5 5 5 5 5 5 5 6 5 6 5 5 5 5 5 5 6 5 5 5 5 5 5 5 5 6 5 5 6 5 5 5 5 6 5 5 5 5 5 5 5 5 5 5 6 5 6 5 5 5 5 5 5 5 5 5 6 5 5 5 5 6 5 5 5 5 5 5 5 5 5 5 5 5 5 5 5 5 5 6 5 5 5 5 5 5 5 5 5 5 5 5 6 5 5 5 5 5 5 5 5 5 5 5 5 5 5 5 6 5 5 5 5 5 5 5 5 5 5 5 5 5 5 5 5 5 5 5 5 5 5 5 5 6 5 5 5 5 5 5 5 5 5 5 5 5 5 6 5 5 5 5 5 5 6 5 5 5 5 5 5 5 5 6 5 5 6 5 5 5 5 5 5 6 5 5 5 5 5 5 5 5 5 5 5 5 6 5 5 5 5 5 6 5 5 5 5 5 5 6 5 5 5 5 6 5 5 5 5 5 5 5 5 6 5 5 5 6 6 5 5 5 5 5 5 5 5 5 5 5 5 5 5 5 5 5 5 5 5 5 5 5 5 5 5 5 5 5 5 5 5 5 5 5 5 5 5 5 5 5 5 5 5 6 5 5 5 5 6 5 5 5 5 5 5 6 5 5 5 5 5 5 5 5 5 5 5 5 6 5 5 5 6 5 5 6 6 5 5 5 5 5 5 5 5 5 6 5 5 6 6 5 5 6 5 6 5 6 5 5 5 5 6 5 6 5 5 5 5 5 5 5 5 5 5 5 5 5 5 5 5 5 5 5 5 5 5 5 5 5 5 5 5 6 5 5 5 5 6 5 5 5 5 5 5 6 6 5 5 5 5 5 5 5 5 5 5 5 5 5 5 5 5 5 5 5 5 5 5 5 5 5 5 5 5 5 5 6 5 5 6 5 5 5 6 6 5 5 5 5 6 5 5 5 6 5 5 5 5 6 5 6 6 6 6 5 5 5 5 5 5 5 5 6 5 5 6 5 5 5 6 6 5 5 5 5 5 6 6 6 5 5 5 5 6 5 6 5 5 5 5 5 5 5 5 5 5 5 5 6 5 5 5 5 5 5 5 6 5 5 5 5 5 5 5 5 5 5 5 5 5 5 5 6 5 5 5 5 5 5 5 5 5 5 5 5 5 5 6 5 5 5 6 5 5 5 5 6 5 5 5 6 5 5 5 6 5 5 5 5 5 6 6 5 6 5 6 5 5 5 5 5 5 5 5 5 5 5 5 5 6 6 5 5 5 5 5 5 5 5 6 5 5 5 5 5 5 6 6 6 5 5 6 5 5 5 5 6 5 5 5 6 5 6 5 5 5 5 5 5 5 5 5 5 5 5 5 5 5 5 5 5 5 5 5 5 5 5 5 5 5 6 5 5 5 5 5 5 5 6 5 5 5 5 5 5 5 5 6 5 6 6 5 5 5 5 6 5 5 6 5 5 5 5 5 5 5 5 5 5 6 5 5 5 5 5 5 5 5 5 5 6 5 5 5 6 5 5 5 5 5 5 5 6 6 5 5 5 6 5 5 6 6 5 6 5 5 5 5 5 6 5 5 6 5 5 5 5 5 5 6 6 5 5 5 5 5 5 5 6 5 5 5 6 5 5 5 5 5 5 5 5 5 5 5 5 5 5 5 5 5 5 5 5 5 5 5 6 5 5 5 6 5 5 5 5 5 5 5 6 5 5 5 5 5 5 5 6 5 5 5 5 5 5 5 5 6 5 5 5 5 5 6 5 5 5 6 5 5 5 5 5 6 5 5 5 5 5 5 5 5 5 5 5 5 5 5 5 5 5 5 5 5 5 5 5 5 5 5 5 5 5 5 5 5 5 5 5 5 5 5 5 5 5 5 6 5 6 5 5 5 5 5 6 5 5 5 6 5 5 5 5 5 5 6 5 5 5 5 5 5 5 5 6 5 5 5 6 5 5 5 5 5 5 5 5 5 5 5 5 5 6 5 6 5 5 5 5 5 5 5 5 5 5 5 5 5 6 5 5 5 5 5 5 5 5 5 5 5 5 5 5 5 6 5 5 5 5 5 6 5 5 5 5 5 6 5 5 6 5 5 5 5 5 5 5 5 5 5 5 5 6 5 5 5 6 5 5 6 5 5 5 5 5 5 6 5 5 5 5 5 6 5 6 5 5 5 6 5 5 6 5 5 5 5 5 5 6 5 5 6 5 5 5 5 5 5 6 5 6 5 5 5 6 5 5 6 5 5 5 5 5 5 5 5 5 5 5 5 5 5 6 5 5 5 5 5 5 5 5 6 5 5 5 5 5 6 6 5 5 5 5 5 5 6 5 5 5 5 5 5 5 5 5 5 5 5 5 6 5 5 5 5 5 5 5 6 6 5 5 6 5 5 5 5 5 5 5 5 5 5 5 6 5 5 6 5 5 5 6 5 6 5 5 5 5 5 5 5 5 5 5 5 5 5 5 5 5 6 5 5 5 5 5 5 5 6 5 5 6 5 5 5 6 5 5 5 5 5 5 5 5 5 5 6 5 5 5 5 5 6 5 5 6 5 5 5 5 5 5 5 5 5 5 5 5 6 5 5 6 5 5 5 5 5 6 5 5 5 5 5 5 5 6 5 5 5 6 6 5 5 5 5 5 5 6 5 5 5 5 5 5 5 5 5 5 6 5 5 5 6 6 5 5 5 5 5 5 5 5 5 5 5 5 5 5 6 6 5 5 5 5 6 5 5 5 5 5 5 6 6 5 6 5 5 5 6 5 5 5 5 5 6 5 6 5 5 5 5 5 5 6 5 5 5 5 6 5 5 5 6 5 5 5 5 5 5 5 5 5 5 5 5 5 5 5 5 6 5 5 6 5 5 5 5 5 5 5 5 5 5 5 5 5 6 5 5 5 5 6 5 5 5 5 6 5 5 5 5 5 5 5 6 5 5 6 5 5 5 5 5 5 5 5 5 5 5 6 5 5 5 6 5 5 5 5 5 6 5 5 6 6 5 5 6 5 5 5 5 5 6 5 5 5 6 6 5 5 6 5 6 5 5 6 5 5 6 5 5 5 5 6 5 5 5 6 5 6 5 5 5 5 5 5 5 5 5 5 6 5 5 6 5 5 6 5 5 5 5 6 5 5 6 5 5 6 5 5 5 6 5 5 5 5 6 5 5 5 5 5 5 5 6 5 5 5 5 5 5 5 5 6 5 5 5 5 5 5 5 6 5 5 5 5 5 5 5 5 5 5 5 5 5 5 5 5 5 5 5 5 5 5 6 5 5 5 5 5 5 5 5 5 5 5 5 6 5 5 5 5 5 5 6 5 5 6 5 6 5 5 5 5 5 5 5 5 5 5 5 5 5 5 6 5 5 5 5 6 5 5 5 6 5 5 5 5 5 6 5 5 5 5 6 5 5 5 6 5 5 5 5 5 5 5 5 5 5 5 5 5 5 5 5 5 5 6 5 5 6 5 5 5 5 5 5 5 5 5 5 5 5 5 6 5 5 6 5 5 5 5 5 5 5 5 5 5 6 5 5 6 5 5 6 5 5 5 5 5 5 5 5 5 5 5 5 5 5 5 5 5 5 5 5 5 6 5 5 5 5 5 5 5 5 5 5 5 5 5 5 5 5 5 5 5 5 5 5 5 5 5 5 5 5 5 5 5 5 5 5 5 5 5 5 5 5 5 5 5 5 6 5 5 6 5 5 5 5 5 5 5 5 5 5 5 5 5 5 5 5 5 5 
</DataArray>
<DataArray type="Float64" Name="stress" NumberOfComponents="9" format="ascii">
-417.36457248817726 -333.59169610699973 0 -333.59169610699973 3494.8171535319125 0 0 0 0 1.9672477184792141 -153.79235082372631 0 -153.79235082372631 3004.512040618938 0 0 0 0 2.0307761892951248 -3.3763093173547531 0 -3.3763093173547531 69.278807671333198 0 0 0 0 0.35355333130549127 -15.204653459545625 0 -15.204653459545625 71.318807307223324 0 0 0 0 12.945798500481771 -12.071072491395171 0 -12.071072491395171 43.384340971819256 0 0 0 0 0.5472406144701244 -3.596167162999393 0 -3.596167162999393 2.5545045960906805 0 0 0 0 -0.0056164452909038872 -16.862683133243991 0 -16.862683133243991 70.085101127726375 0 0 0 0 0.015799980768773269 -11.097177312658459 0 -11.097177312658459 120.97904426560854 0 0 0 0 5.4903971341074556 -14.159027662026347 0 -14.159027662026347 85.733917120523984 0 0 0 0 7.6943177027514782 3.1909217820502818 0 3.1909217820502818 97.44372286235739 0 0 0 0 8.2144070337707831 1.2558289819280617 0 1.2558289819280617 104.59528307412984 0 0 0 0 -3.0064194019389561 -3.2839251138502732 0 -3.2839251138502732 85.593179499817779 0 0 0 0 1.6612766843020408 -9.1425373719509935 0 -9.1425373719509935 91.021477337635588 0 0 0 0 1.7730178623892199 -1.5833784259668846 0 -1.5833784259668846 117.21980558056384 0 0 0 0 -11.055278517699207 -11.783728576003341 0 -11.783728576003341 100.14167867005926 0 0 0 0 -8.7892908198505211 4.7276682947631343 0 4.7276682947631343 142.66078312856553 0 0 0 0 -7.5931059300035644 27.71842974623263 0 27.71842974623263 10.689753799752985 0 0 0 0 -6.4938912858509923 28.309856819629204 0 28.309856819629204 188.28198446275201 0 0 0 0 9.5140539846953232 -10.769350678805495 0 -10.769350678805495 119.96886689405073 0 0 0 0 -5.3466059614304697 17.911994307811256 0 17.911994307811256 119.69331849369337 0 0 0 0 6.772527065173926 -12.838703579745015 0 -12.838703579745015 163.00690230040345 0 0 0 0 -0.67842735824651257 6.7239371785369642 0 6.7239371785369642 1.3873210287590609 0 0 0 0 -1.2389904244301819 -0.24564086660393514 0 -0.24564086660393514 53.534598663145516 0 0 0 0 -0.063843680565736777 0.0079248228261690201 0 0.0079248228261690201 15.008893981388823 0 0 0 0 11.538299994493411 -6.1044290126883425 0 -6.1044290126883425 116.36405121785356 0 0 0 0 -0.14237845950460945 6.4203624882320582 0 6.4203624882320582 171.16897459463507 0 0 0 0 -0.32339172576707131 -0.20438922567413442 0 -0.20438922567413442 7.9366028427828965 0 0 0 0 -5.9686215197812089 -9.4183309480577009 0 -9.4183309480577009 50.085719843344123 0 0 0 0 -20.100597335311249 -9.2814168376789894 0 -9.2814168376789894 225.64370233476802 0 0 0 0 28.149130471457187 -51.993836626807024 0 -51.993836626807024 262.8213207347726 0 0 0 0 8.5281143123065704 -32.80328162573278 0 -32.80328162573278 188.75624362858071 0 0 0 0 -7.0257475098797819 27.890046860502537 0 27.890046860502537 13.235090396378478 0 0 0 0 8.1465117295920209 51.350683356897207 0 51.350683356897207 162.59766134401434 0 0 0 0 -13.149501682851337 1.9860587337316247 0 1.9860587337316247 100.88800464942688 0 0 0 0 0.72816694111872782 8.6629081305840359 0 8.6629081305840359 0.006472336850663396 0 0 0 0 -3.0133061177227964 0.71755409127019121 0 0.71755409127019121 63.815283343777935 0 0 0 0 -23.932645833803775 11.710609563888283 0 11.710609563888283 92.137492395806476 0 0 0 0 -3.3612790046921361 -9.0377322421627468 0 -9.0377322421627468 61.845600871703937 0 0 0 0 -8.8623548663326801 -9.8395055650616996 0 -9.8395055650616996 61.892284102854319 0 0 0 0 -19.867255817574907 -10.255710326069334 0 -10.255710326069334 64.349611059806193 0 0 0 0 -8.5786969645063849 -1.1019193150639239 0 -1.1019193150639239 78.964465857934556 0 0 0 0 -20.583790380274877 -1.3520412460966327 0 -1.3520412460966327 111.84655828872928 0 0 0 0 -7.9809068598411006 7.3715481666406788 0 7.3715481666406788 10.641182943597364 0 0 0 0 -22.59099845565288 12.188679103863251 0 12.188679103863251 85.897913568289368 0 0 0 0 756.85340307476497 788.88043027616368 0 788.88043027616368 1117.3707810105843 0 0 0 0 -16.120098433294718 -14.68175869023014 0 -14.68175869023014 73.569346321804915 0 0 0 0 -1.1614907060801352 -7.13711287710791 0 -7.13711287710791 13.977032144289325 0 0 0 0 -4.6936707408533778 -11.469804165666574 0 -11.469804165666574 69.536397079016751 0 0 0 0 -2.972436540617017 -4.0217480052735706 0 -4.0217480052735706 65.734705549727494 0 0 0 0 842.89554364122148 -1159.4589878781699 0 -1159.4589878781699 1617.5498801380845 0 0 0 0 0.66374933703907724 0.82732188445854482 0 0.82732188445854482 14.156390886782049 0 0 0 0 1162.4739147102882 1678.7291937538887 0 1678.7291937538887 2099.9859098340821 0 0 0 0 -176.21636313014565 1212.4177542777106 0 1212.4177542777106 3494.0363917140348 0 0 0 0 -439.03208651235229 472.61990653888643 0 472.61990653888643 2633.037111888174 0 0 0 0 -450.363973992338 444.520386245189 0 444.520386245189 2849.2954536040779 0 0 0 0 -688.03255838905795 278.20890731172767 0 278.20890731172767 3501.9957757950542 0 0 0 0 -1.8116582698146892 3.5121454607634632 0 3.5121454607634632 0.074487208505040314 0 0 0 0 -290.92501122946481 175.73475318422425 0 175.73475318422425 2441.7569160003623 0 0 0 0 -59.574843833157047 40.26575260492973 0 40.26575260492973 121.27051529319579 0 0 0 0 3.7006540739143929 -9.5471940252027707 0 -9.5471940252027707 84.600912201291067 0 0 0 0 -432.74600076442903 -1043.0298495200877 0 -1043.0298495200877 3492.003627066355 0 0 0 0 -565.65239844705877 -30.239770329797466 0 -30.239770329797466 3022.2537649640071 0 0 0 0 -552.56433915595619 -161.22239074229765 0 -161.22239074229765 1680.7122936318628 0 0 0 0 225.25713140898671 -667.84767170678242 0 -667.84767170678242 1342.0462214390973 0 0 0 0 -50.220330639685585 -169.12673632382212 0 -169.12673632382212 361.92814004047614 0 0 0 0 -102.10540523317741 72.984463364598923 0 72.984463364598923 405.01882332647801 0 0 0 0 -38.800596142079087 -94.519944375126215 0 -94.519944375126215 -2.5052273289911682 0 0 0 0 -134.06988023329643 -88.764592328443541 0 -88.764592328443541 130.00751779750499 0 0 0 0 -76.657092941429028 -51.27690308068486 0 -51.27690308068486 137.87417573688435 0 0 0 0 -2.1792898169086907 0.85513691968185412 0 0.85513691968185412 -1.7922126054257319 0 0 0 0 46.503710324808566 175.13557187636616 0 175.13557187636616 -191.78026363128447 0 0 0 0 274.72209853523407 -16.393698687072174 0 -16.393698687072174 -85.841295104539313 0 0 0 0 -4.9013284343359373 -17.654149604830309 0 -17.654149604830309 63.786701802928292 0 0 0 0 -7.5453299367231921 -6.6278433956176741 0 -6.6278433956176741 83.488006537773344 0 0 0 0 8.995359279141212 6.8694281333619074 0 6.8694281333619074 83.754322295048041 0 0 0 0 -88.7701994641684 49.295240614364957 0 49.295240614364957 174.09631140204147 0 0 0 0 -114.80518326352069 -95.961835573289136 0 -95.961835573289136 211.17298851831583 0 0 0 0 -33.327542621185898 -57.079927481965569 0 -57.079927481965569 -2.5906999595317757 0 0 0 0 -0.26201619559694223 -0.020136143524297268 0 -0.020136143524297268 -0.72004339532394823 0 0 0 0 -37.708917070085363 -28.863173270721745 0 -28.863173270721745 233.26863044291167 0 0 0 0 -9.2399315659999957 7.1022434346959926 0 7.1022434346959926 97.355994750720129 0 0 0 0 11.68767038648781 -41.414218623616762 0 -41.414218623616762 169.72089135086571 0 0 0 0 26.527124493565339 -3.439589333332151 0 -3.439589333332151 93.21130101972085 0 0 0 0 -8.9578506241178388 -5.5965236038018702 0 -5.5965236038018702 63.013323667604709 0 0 0 0 -11.939331444464784 11.27290529822676 0 11.27290529822676 65.384657862508902 0 0 0 0 -9.3216502737545852 8.0927338355322718 0 8.0927338355322718 52.969418213018798 0 0 0 0 3.9067308698004126 -5.4897559000237379 0 -5.4897559000237379 34.311384254033328 0 0 0 0 11.156020767105247 9.1604300262406468 0 9.1604300262406468 52.949622095766244 0 0 0 0 -69.695675285311367 -68.782844651577761 0 -68.782844651577761 201.25371775319945 0 0 0 0 -79.983299485722569 1.9651962496427586 0 1.9651962496427586 133.97114585573581 0 0 0 0 -63.990759875333538 24.91365170651261 0 24.91365170651261 70.238224610882753 0 0 0 0 -36.021613226788986 -3.3628963965165894 0 -3.3628963965165894 56.718675328462268 0 0 0 0 -37.831675584858431 -14.154294386935362 0 -14.154294386935362 56.000825580806122 0 0 0 0 -64.929488821531493 -43.68137473671959 0 -43.68137473671959 90.137115334284317 0 0 0 0 -24.989958778398943 -33.709228432553573 0 -33.709228432553573 32.984413091879105 0 0 0 0 -15.846504613354114 -10.113281077508873 0 -10.113281077508873 12.518394983257167 0 0 0 0 -17.502372066594944 -7.277448596447357 0 -7.277448596447357 14.51998164071847 0 0 0 0 1.0191450866896474 -12.26908060452115 0 -12.26908060452115 -28.305863096938992 0 0 0 0 -61.864190115486053 -14.99894669547939 0 -14.99894669547939 331.05916261964558 0 0 0 0 -6.7296099098992812 -2.5660971146639326 0 -2.5660971146639326 -0.54893273188828573 0 0 0 0 -6.6212274112649538 4.0185651475476334 0 4.0185651475476334 27.991137373028323 0 0 0 0 1.0130904260926172 0.87726454942821874 0 0.87726454942821874 3.2499207017099252 0 0 0 0 -14.582323420008834 -2.2609973796206759 0 -2.2609973796206759 28.608837432049768 0 0 0 0 -9.5570136851606549 2.2099733425711747 0 2.2099733425711747 29.117096797490376 0 0 0 0 -3.4151669739637782 -5.5156787578362128 0 -5.5156787578362128 7.6898282282636501 0 0 0 0 -4.9520410206814631 3.1720162039200659 0 3.1720162039200659 12.381104747240897 0 0 0 0 -5.9593269910319577 -0.049076634655648377 0 -0.049076634655648377 -1.4936373261625704 0 0 0 0 -5.9295118941897726 -6.1251579700328875 0 -6.1251579700328875 1.072200525784865 0 0 0 0 21.895607888312952 -109.96241720183752 0 -109.96241720183752 360.52722614619415 0 0 0 0 -8.6074823290035543 -4.2512230819601768 0 -4.2512230819601768 -0.41435493071959684 0 0 0 0 -6.292324546442881 -3.1104434264106402 0 -3.1104434264106402 5.6973020224228037 0 0 0 0 -13.330691395018221 -3.6455273085521185 0 -3.6455273085521185 8.0155452924300334 0 0 0 0 77.628368635778315 119.15695507911732 0 119.15695507911732 177.50338369770907 0 0 0 0 -22.994355442589722 110.40108247104945 0 110.40108247104945 239.70364493766101 0 0 0 0 -5.341201175737524 -14.913936717923207 0 -14.913936717923207 -3.7943024575179152 0 0 0 0 39.318670370069867 24.321674702157907 0 24.321674702157907 103.84993861727708 0 0 0 0 -4.484999463791155 -8.3469356753921602 0 -8.3469356753921602 92.312514548480976 0 0 0 0 -10.136774848062373 -6.9002184646960814 0 -6.9002184646960814 40.228933518606937 0 0 0 0 0.50421773067046161 -16.575376206295914 0 -16.575376206295914 11.423147852692637 0 0 0 0 12.162330218899058 11.927116837675385 0 11.927116837675385 40.020851925946772 0 0 0 0 -2.9933046156797785 -5.0154112602694454 0 -5.0154112602694454 6.5145068926006502 0 0 0 0 7.9944748425195939 -3.1821891825602506 0 -3.1821891825602506 64.70918959339906 0 0 0 0 6.8658275108273301 31.004988368476916 0 31.004988368476916 98.926151414139895 0 0 0 0 -24.407740033741675 -22.248304897460912 0 -22.248304897460912 57.158794280738221 0 0 0 0 -12.451536069916983 -23.126100993526052 0 -23.126100993526052 47.92810111423023 0 0 0 0 -0.32448556117384542 -4.1610763029820355 0 -4.1610763029820355 33.182110741024246 0 0 0 0 -3.6707176255796412 -3.518452777992934 0 -3.518452777992934 6.5872145185476256 0 0 0 0 -0.38574877175625688 -1.9950123172994445 0 -1.9950123172994445 12.738570048833822 0 0 0 0 0.060180397413531331 8.9444025218981551 0 8.9444025218981551 1.5949309458737844 0 0 0 0 35.082049771659563 -27.407167305929761 0 -27.407167305929761 23.719566188483441 0 0 0 0 79.754802222265226 105.57390060578837 0 105.57390060578837 84.09467215591576 0 0 0 0 -0.085671414773074675 0.3618667566929652 0 0.3618667566929652 4.6275357482683148 0 0 0 0 -0.05893479760419254 -72.493743873972562 0 -72.493743873972562 278.78840942779789 0 0 0 0 23.123970913216567 -19.414484183063905 0 -19.414484183063905 4.6175396842145346 0 0 0 0 -1.0104180050029932 -4.6796537924907398 0 -4.6796537924907398 18.486257203901602 0 0 0 0 0.83521117696987335 -3.8944528772322098 0 -3.8944528772322098 38.734163696951725 0 0 0 0 -17.888989395299859 11.809292137390003 0 11.809292137390003 53.556343226315221 0 0 0 0 -75.783131781640691 33.594974742962222 0 33.594974742962222 124.73517866505426 0 0 0 0 -6.4523911693674449 -1.5341123510324906 0 -1.5341123510324906 81.767002420558129 0 0 0 0 1.7239357103285329 -17.346422578964848 0 -17.346422578964848 59.509957644899259 0 0 0 0 -0.67351731207716092 -2.0751959051520714 0 -2.0751959051520714 16.802662287687383 0 0 0 0 -1.7931673819751555 -9.298898731772443 0 -9.298898731772443 59.242585843347854 0 0 0 0 -0.63068880486691736 -3.2511172771129679 0 -3.2511172771129679 19.207826731346572 0 0 0 0 66.654790250769551 -118.30998749210266 0 -118.30998749210266 -194.17016548471292 0 0 0 0 -58.016229059186799 44.456794269717648 0 44.456794269717648 81.897787932190113 0 0 0 0 -86.008188488886162 158.53885989302944 0 158.53885989302944 262.16804462281289 0 0 0 0 -217.58792534764621 -160.97151129948907 0 -160.97151129948907 376.62940437854559 0 0 0 0 -182.03627602931897 -288.7627693960676 0 -288.7627693960676 -128.16544069752854 0 0 0 0 -7.545758540202316 0.19913896266479014 0 0.19913896266479014 18.573520506384114 0 0 0 0 -74.309537220979195 62.373888972380882 0 62.373888972380882 64.615386958117597 0 0 0 0 434.35559243209673 -180.76343936474586 0 -180.76343936474586 -184.30837981513469 0 0 0 0 -0.0073238205208577102 -3.8570865452421663 0 -3.8570865452421663 61.504523744224571 0 0 0 0 -5.1985639822684133 -1.8380437310879643 0 -1.8380437310879643 63.491285404161317 0 0 0 0 -4.3648095373089459 -4.9522862902085762 0 -4.9522862902085762 70.168871965761355 0 0 0 0 -2.2248388167034259 -4.9476955919784249 0 -4.9476955919784249 60.681392056331163 0 0 0 0 -10.986260679647671 -9.7495389311425242 0 -9.7495389311425242 96.474012401507935 0 0 0 0 0.20651748515138024 -17.186529279999377 0 -17.186529279999377 56.298871272447286 0 0 0 0 -4.5867169695361554 0.32750923831554246 0 0.32750923831554246 114.91052523534745 0 0 0 0 -0.32408881003061829 0.063083108290527434 0 0.063083108290527434 0.2797565362755563 0 0 0 0 14.570801801761263 -9.3611198062862968 0 -9.3611198062862968 40.617721087532118 0 0 0 0 -26.427847437629225 6.2668027051768149 0 6.2668027051768149 152.90726356589585 0 0 0 0 -2.8121936174388793 -32.048182337770413 0 -32.048182337770413 107.2878607349503 0 0 0 0 -1.3266082151685623 -54.695514246661332 0 -54.695514246661332 114.09946097017564 0 0 0 0 47.826239102404543 -22.929767681467638 0 -22.929767681467638 108.34041144000366 0 0 0 0 63.516040749949752 -29.264468140900135 0 -29.264468140900135 110.53674056497402 0 0 0 0 10.446914346893664 22.095038054932957 0 22.095038054932957 81.405596547709138 0 0 0 0 -21.330429169836862 -6.0959088206291199 0 -6.0959088206291199 147.06577480868145 0 0 0 0 15.482640862484004 27.576049984170822 0 27.576049984170822 172.36332012052299 0 0 0 0 2.3544840965384424 -17.606641598800707 0 -17.606641598800707 66.798850574414246 0 0 0 0 -4.3421923636892643 -1.5640930517402012 0 -1.5640930517402012 39.432427674808423 0 0 0 0 -5.7670404996010234 -18.02176688972304 0 -18.02176688972304 88.779612713158713 0 0 0 0 -6.4387578024702634 6.6319690298441856 0 6.6319690298441856 49.464702955498069 0 0 0 0 16.464830486097753 14.204661304211186 0 14.204661304211186 -9.5097918265746557 0 0 0 0 -46.227747365024698 5.0387978469188965 0 5.0387978469188965 12.867697517052875 0 0 0 0 -1.6370496683061901 -1.2637049395998474 0 -1.2637049395998474 9.3597999307530699 0 0 0 0 -10.587342241040659 -1.63152042803722 0 -1.63152042803722 12.051581829451607 0 0 0 0 -14.382461481185828 8.0738656810890461 0 8.0738656810890461 8.3391113087127451 0 0 0 0 241.78981776732508 4.1458074551010213 0 4.1458074551010213 -138.60920319358593 0 0 0 0 -24.552982279631806 118.60780699391762 0 118.60780699391762 115.53572381817503 0 0 0 0 -74.196550266220243 -126.50554244330124 0 -126.50554244330124 -67.743789058411494 0 0 0 0 1.9739802856360109 -2.1460920791314138 0 -2.1460920791314138 10.057139027872125 0 0 0 0 -0.46906321875917456 1.2622600655122369 0 1.2622600655122369 14.428353633033112 0 0 0 0 -3.4807723069175154 -3.3139362219153554 0 -3.3139362219153554 20.204048484643863 0 0 0 0 -0.81784367152533832 4.8476020865273313 0 4.8476020865273313 6.1048631971498253 0 0 0 0 -1.3789841869020165 -0.9253257577875047 0 -0.9253257577875047 13.084321472731972 0 0 0 0 -8.7315374249637898 1.3133100374507194 0 1.3133100374507194 15.160746789319091 0 0 0 0 -7.6493751247085129 1.9670435922944307 0 1.9670435922944307 9.4605060983012663 0 0 0 0 -3.0996088330994667 -5.4487314760172012 0 -5.4487314760172012 22.261779117805418 0 0 0 0 -2.4351471248488465 -3.9666114017850305 0 -3.9666114017850305 21.262547706042824 0 0 0 0 -5.3024669310836963 0.67973107675649658 0 0.67973107675649658 5.2903838071635363 0 0 0 0 -7.7059710338510286 3.8122058894950897 0 3.8122058894950897 13.593504880620458 0 0 0 0 -2.0393261827662812 -6.8655461638231827 0 -6.8655461638231827 18.433087185083423 0 0 0 0 -1.6347844621500056 -1.3338369937711576 0 -1.3338369937711576 9.0790823486790657 0 0 0 0 -3.6746850981780423 -1.5067968649527756 0 -1.5067968649527756 3488.5489526144956 0 0 0 0 -0.036710404540929664 -0.8959119508291522 0 -0.8959119508291522 4.9007187749464549 0 0 0 0 -1.232992090376583 -1.1736108780609911 0 -1.1736108780609911 6.47236912141841 0 0 0 0 -1021.8880122552714 2140.4329281940736 0 2140.4329281940736 3459.4930428353546 0 0 0 0 830.43344997133113 -907.16391394243146 0 -907.16391394243146 377.47298420678999 0 0 0 0 -571.89603969064194 790.87244579322214 0 790.87244579322214 3484.6347987746703 0 0 0 0 71.277133130450693 -245.26446889817817 0 -245.26446889817817 825.28577174759266 0 0 0 0 0.20503018371323378 -2.0474079823961802 0 -2.0474079823961802 22.288633448406472 0 0 0 0 0.92868978248061618 1.446915226765725 0 1.446915226765725 4.0632409171689616 0 0 0 0 -2.1427896069965335 -1.1725045714517393 0 -1.1725045714517393 9.5911718718503778 0 0 0 0 2.232831193758102 -4.3326015164784621 0 -4.3326015164784621 22.366484767313523 0 0 0 0 1.0251491834790019 7.6056190114286153 0 7.6056190114286153 16.459857338001001 0 0 0 0 -79.551034166574027 -60.441406163226929 0 -60.441406163226929 263.20905887681693 0 0 0 0 -204.68596885726583 157.04305111096619 0 157.04305111096619 -22.959931688455981 0 0 0 0 29.653349717354125 133.58128497057623 0 133.58128497057623 157.19578245320008 0 0 0 0 2.0449926798764668 -6.5444232260598056 0 -6.5444232260598056 25.220496409098558 0 0 0 0 -371.27539728589045 -118.30821325037687 0 -118.30821325037687 313.18138451271079 0 0 0 0 1568.5409477808325 -1547.1920047184867 0 -1547.1920047184867 812.64192192794872 0 0 0 0 3.4312082197144664 -5.2573328702004147 0 -5.2573328702004147 9.7574921492796989 0 0 0 0 -94.467815006295879 -1772.765246104007 0 -1772.765246104007 3493.6107217906465 0 0 0 0 -65.44364834791952 -788.83801186887104 0 -788.83801186887104 2246.3614977322577 0 0 0 0 691.95866012536703 -349.38069072748112 0 -349.38069072748112 195.01910578808747 0 0 0 0 297.82054502316038 85.165282249879965 0 85.165282249879965 -52.89982960483394 0 0 0 0 4.2284064173695493 21.529477417772853 0 21.529477417772853 13.346131664174948 0 0 0 0 94.019875467373595 60.505383191666624 0 60.505383191666624 -11.317347942276683 0 0 0 0 1.2297713149683123 1.4032643737924175 0 1.4032643737924175 -4.4832499712485969 0 0 0 0 24.315379353282069 165.16627114775679 0 165.16627114775679 -12.604850259725936 0 0 0 0 6.6797744381933626 -63.635009857083787 0 -63.635009857083787 -122.39804627878766 0 0 0 0 3.6710635590478793 1.2628605975947096 0 1.2628605975947096 11.567831271439495 0 0 0 0 -0.89933838334472149 10.172815426893422 0 10.172815426893422 19.628897038281451 0 0 0 0 255.8774491470781 244.15303050044167 0 244.15303050044167 13.321272348825005 0 0 0 0 238.28274155846293 363.41856840859691 0 363.41856840859691 287.2064192720718 0 0 0 0 -20.604229524820767 -30.580413337076607 0 -30.580413337076607 296.47596779154992 0 0 0 0 -129.57930367082122 96.329920658547053 0 96.329920658547053 163.97470485252416 0 0 0 0 -53.011578266479319 76.183913776621921 0 76.183913776621921 107.68628080269991 0 0 0 0 -39.995737906763907 -46.621580945851747 0 -46.621580945851747 237.90113835496049 0 0 0 0 -9.2042597570757607 23.709344023274753 0 23.709344023274753 123.04021675882541 0 0 0 0 -90.32174632797296 18.337203629362193 0 18.337203629362193 212.316403896064 0 0 0 0 -2.1065367111159015 -20.118204340408873 0 -20.118204340408873 91.334140939821538 0 0 0 0 -0.41713198112893224 -16.015123113695154 0 -16.015123113695154 107.22253060492221 0 0 0 0 18.750896158173873 -27.617585100819269 0 -27.617585100819269 147.84950038725037 0 0 0 0 7.6119103034127473 19.863258413202999 0 19.863258413202999 24.792957033365745 0 0 0 0 195.62340087205752 20.090767473204323 0 20.090767473204323 106.19418308552122 0 0 0 0 -65.351584848051488 -58.963376799394609 0 -58.963376799394609 898.35405508085387 0 0 0 0 -278.42829699783942 -326.94146321893641 0 -326.94146321893641 1258.0563007192832 0 0 0 0 -278.08623238630128 -82.936365380235657 0 -82.936365380235657 1228.6493499264107 0 0 0 0 -506.54289206956923 121.07725738815861 0 121.07725738815861 3501.7010831473694 0 0 0 0 -55.791849275189605 457.16060300114987 0 457.16060300114987 1004.1103169522394 0 0 0 0 349.47601630671147 1495.931505316501 0 1495.931505316501 3492.1893747590002 0 0 0 0 3.1347993065909634 -5.959651648672093 0 -5.959651648672093 19.233183842877082 0 0 0 0 858.59476638693127 -1207.1509203099195 0 -1207.1509203099195 881.16299484930641 0 0 0 0 280.22464591474562 69.969607375228293 0 69.969607375228293 110.25924625156767 0 0 0 0 -66.683523466249426 142.61560842008475 0 142.61560842008475 139.6570512016151 0 0 0 0 -157.78085185451755 53.334506533043168 0 53.334506533043168 188.30814407565776 0 0 0 0 -180.44825736097232 3.2372023359457671 0 3.2372023359457671 98.384596019997844 0 0 0 0 4.8569416513219146 -13.238018471498904 0 -13.238018471498904 46.581283668434025 0 0 0 0 -13.668493337155041 -22.992641622222436 0 -22.992641622222436 148.64244498748667 0 0 0 0 -105.77562834547302 73.952382634925016 0 73.952382634925016 23.542625218055036 0 0 0 0 -6.6278975179277531 -1.4734032853927772 0 -1.4734032853927772 17.811970207760311 0 0 0 0 31.361004721910376 -34.209876321518095 0 -34.209876321518095 80.569648627104471 0 0 0 0 -1.1651921969088637 -3.3628540549244121 0 -3.3628540549244121 22.045700398959326 0 0 0 0 -18.885477601137381 0.6874083034999785 0 0.6874083034999785 130.14405204035575 0 0 0 0 -1.9620428454196599 6.03186243928576 0 6.03186243928576 96.916189171650331 0 0 0 0 30.39728616532603 -5.311468784160752 0 -5.311468784160752 71.814787151612109 0 0 0 0 -53.796043228107578 -64.37300878152746 0 -64.37300878152746 195.83362673975353 0 0 0 0 -0.22646789946398826 0.51324883286051204 0 0.51324883286051204 -2.3071200676593833 0 0 0 0 11.442567645652346 -138.83805191858846 0 -138.83805191858846 128.19651100102055 0 0 0 0 -43.847789426478961 35.247562258606195 0 35.247562258606195 42.058549993314955 0 0 0 0 -33.038725772227508 -54.607739588835102 0 -54.607739588835102 19.87191607720888 0 0 0 0 -17.624889204167999 -11.529351836817114 0 -11.529351836817114 45.356833210302284 0 0 0 0 -102.99135857856675 -40.322218168796098 0 -40.322218168796098 304.78615314435592 0 0 0 0 -2.7821010222322942 -0.26317266471494349 0 -0.26317266471494349 0.1597436838286086 0 0 0 0 -49.045247300497181 -137.43065445709362 0 -137.43065445709362 -30.049815618360299 0 0 0 0 49.115773174843724 -5.8078280470999744 0 -5.8078280470999744 -175.36498096220748 0 0 0 0 60.628548229792614 51.071898171212524 0 51.071898171212524 -35.827975865550798 0 0 0 0 -129.5292809403054 -35.444520709883363 0 -35.444520709883363 127.24762637804088 0 0 0 0 -88.401022153889187 -105.75165393189127 0 -105.75165393189127 201.49474177774391 0 0 0 0 -95.279784732238113 -74.925165440123237 0 -74.925165440123237 159.51718206139049 0 0 0 0 60.607574067787027 -114.08039027237828 0 -114.08039027237828 -0.80813903291709721 0 0 0 0 55.185473940906377 -152.76397092922707 0 -152.76397092922707 135.89918385226338 0 0 0 0 -18.129808831361618 -8.4344053826962408 0 -8.4344053826962408 55.714217344571011 0 0 0 0 40.346347605010124 -75.516241615914623 0 -75.516241615914623 180.82541127409786 0 0 0 0 -36.295993943735539 -31.949252114656701 0 -31.949252114656701 50.601383032997546 0 0 0 0 -7.4052256149298659 6.5082173290906908 0 6.5082173290906908 0.55728348962571772 0 0 0 0 59.406012837358503 -116.56653173317318 0 -116.56653173317318 81.94188765558647 0 0 0 0 -0.9450999704700962 -111.6615791960885 0 -111.6615791960885 104.31096074117522 0 0 0 0 -1.3887125368003836 -22.086239950724583 0 -22.086239950724583 92.856307344499186 0 0 0 0 59.689027117184423 49.963881643700006 0 49.963881643700006 106.86365569905047 0 0 0 0 -42.109693024246099 -20.635577872790236 0 -20.635577872790236 125.08192119480373 0 0 0 0 2.1853213449523605 -24.520728811473809 0 -24.520728811473809 87.822287691280337 0 0 0 0 16.166694532587826 8.4190264397257124 0 8.4190264397257124 133.31566116417343 0 0 0 0 -73.361555368874519 -39.584275262013762 0 -39.584275262013762 135.95601952666766 0 0 0 0 -2.417618561135451 -4.0501847972249863 0 -4.0501847972249863 22.350780790099307 0 0 0 0 -104.31842281671607 84.577648179962125 0 84.577648179962125 66.921347592084203 0 0 0 0 132.87161647203607 -98.014542575587257 0 -98.014542575587257 142.19691138590861 0 0 0 0 -196.24635799061991 -24.652533133263205 0 -24.652533133263205 378.59387265749683 0 0 0 0 -3.7129251346514138 151.55963643106224 0 151.55963643106224 653.35492779267952 0 0 0 0 163.52434670219031 -346.95902616094099 0 -346.95902616094099 510.14814789377124 0 0 0 0 -225.45892975942752 734.34461383917005 0 734.34461383917005 536.51280086685438 0 0 0 0 0.77984038956613944 2.3447294835467218 0 2.3447294835467218 1.5496554721019038 0 0 0 0 39.313013519647711 -309.01515316949735 0 -309.01515316949735 175.84434833136038 0 0 0 0 -4.2671900447161182 -5.9249989049146308 0 -5.9249989049146308 19.283456930216488 0 0 0 0 -318.19501072987998 16.98607472108597 0 16.98607472108597 87.424922937439987 0 0 0 0 -74.188105991773227 -64.382199894676887 0 -64.382199894676887 38.33501447206072 0 0 0 0 -102.13339038673155 -58.767782093202186 0 -58.767782093202186 99.847042294692073 0 0 0 0 -9.3457111275697198 -4.5394690850605386 0 -4.5394690850605386 59.725321441775066 0 0 0 0 -56.400943743198013 -90.626447180580726 0 -90.626447180580726 22.896637712998199 0 0 0 0 20.520383542325817 -104.90924214506958 0 -104.90924214506958 13.995175842595927 0 0 0 0 83.588537779918397 -107.08742403918586 0 -107.08742403918586 12.452841450569395 0 0 0 0 -229.87092112823797 -201.53044852941002 0 -201.53044852941002 176.98750145167287 0 0 0 0 36.311794687500424 -77.779313943283341 0 -77.779313943283341 5.601319442896056 0 0 0 0 58.670918022168735 -66.766605587799859 0 -66.766605587799859 11.007180411928857 0 0 0 0 24.804889216038191 -57.824645364162279 0 -57.824645364162279 13.808145708484517 0 0 0 0 41.384044521352735 -57.481002641899977 0 -57.481002641899977 8.9876190430950373 0 0 0 0 8.5005304453570716 -58.865896048038849 0 -58.865896048038849 9.2363461815766641 0 0 0 0 -244.91693551412149 -178.20461902114585 0 -178.20461902114585 132.93564912104921 0 0 0 0 66.606174388225099 -29.858998009716743 0 -29.858998009716743 5.200441499146109 0 0 0 0 1.1344836178676472 -12.972966256752983 0 -12.972966256752983 26.169429150798123 0 0 0 0 22.012229100469995 -27.840705151626025 0 -27.840705151626025 11.799680013056786 0 0 0 0 27.339432620922707 -26.034165789445979 0 -26.034165789445979 11.970958866513683 0 0 0 0 -288.77324424440985 3.4101643473559307 0 3.4101643473559307 81.230726530469838 0 0 0 0 48.322789404970536 51.136272471529082 0 51.136272471529082 80.123987066122936 0 0 0 0 109.22694502051127 -190.69324919542123 0 -190.69324919542123 0.7905330870707985 0 0 0 0 -159.04501865896867 -228.68926697649476 0 -228.68926697649476 113.26403897930868 0 0 0 0 563.81831953952769 44.90277391046402 0 44.90277391046402 20.731133190332002 0 0 0 0 92.931659043364107 -171.34412378967863 0 -171.34412378967863 204.30595626308059 0 0 0 0 -342.54343428960362 433.10058274614494 0 433.10058274614494 1126.8217943311683 0 0 0 0 83.222045905930827 518.62807669409085 0 518.62807669409085 870.79662983965682 0 0 0 0 -0.88570952376276524 -0.35176999048596969 0 -0.35176999048596969 7.643915593799278 0 0 0 0 386.27658981284821 -86.312410001548415 0 -86.312410001548415 -0.07434546439708356 0 0 0 0 1.4810854529241011 -3.1635069759008303 0 -3.1635069759008303 11.212063745423848 0 0 0 0 652.03451293968556 287.7984944087948 0 287.7984944087948 -98.126875573711004 0 0 0 0 595.04103922926515 -351.07987293785095 0 -351.07987293785095 -223.44801695566275 0 0 0 0 -336.20897449083685 -451.42155490979894 0 -451.42155490979894 35.908485585649032 0 0 0 0 0.46186227699999549 -3.8105757050122477 0 -3.8105757050122477 12.097507076595065 0 0 0 0 -18.407163357237778 42.902641223003229 0 42.902641223003229 -17.725551127456129 0 0 0 0 138.52666100045917 -11.145231762813637 0 -11.145231762813637 -27.580213353105137 0 0 0 0 -186.67693347699878 -82.696042352842596 0 -82.696042352842596 267.43993300300644 0 0 0 0 -63.06932855447581 18.645912792554086 0 18.645912792554086 62.923399783545094 0 0 0 0 15.589950754106212 -8.8804472517367685 0 -8.8804472517367685 163.51370440473329 0 0 0 0 -31.110028704663208 -46.636443627063159 0 -46.636443627063159 218.78450435819832 0 0 0 0 -29.94916789422669 -63.606313151295467 0 -63.606313151295467 154.94181646517245 0 0 0 0 -6.6892089577195293 -91.443808033454843 0 -91.443808033454843 89.595979577505204 0 0 0 0 -9.0390090990958925 -43.256558807068359 0 -43.256558807068359 4.5495914011626155 0 0 0 0 5.1331108024512559 -42.179346710007849 0 -42.179346710007849 -4.0316929726250237 0 0 0 0 13.171321504314648 -24.329724591865183 0 -24.329724591865183 12.011431435691748 0 0 0 0 -5.0860010622634899 -44.471179472262648 0 -44.471179472262648 12.871284185131051 0 0 0 0 3.3128037330749294 -72.64239078947594 0 -72.64239078947594 24.678804243601917 0 0 0 0 -5.3126411978273609 -51.564418968333484 0 -51.564418968333484 5.6878885774785886 0 0 0 0 -37.701818648255767 -106.78484490439223 0 -106.78484490439223 188.95767743131 0 0 0 0 0.26734405501171921 -8.8469218273641701 0 -8.8469218273641701 -6.6369792370813627 0 0 0 0 74.297189697532303 -77.065426712248154 0 -77.065426712248154 -4.9637201027298943 0 0 0 0 -41.809542130263367 -63.866072268236167 0 -63.866072268236167 39.043333540736057 0 0 0 0 -20.037064192406312 -39.009931746558209 0 -39.009931746558209 9.8305644747678382 0 0 0 0 -9.1514580144609567 -23.285468598087547 0 -23.285468598087547 54.53702759126412 0 0 0 0 -38.555189688516293 -19.44317037435394 0 -19.44317037435394 64.889330420512124 0 0 0 0 -51.159514134576511 -71.156733985822939 0 -71.156733985822939 40.001691077362921 0 0 0 0 -18.357193862749384 -3.9853667200534346 0 -3.9853667200534346 17.233168035714463 0 0 0 0 -5.9818396610762647 2.5437469955031702 0 2.5437469955031702 45.19136353518843 0 0 0 0 1.9654758238027625 44.470583605434513 0 44.470583605434513 163.42892479935108 0 0 0 0 -12.016974874729385 -92.687076046400762 0 -92.687076046400762 233.29442962453686 0 0 0 0 43.45526472830943 -113.48891692719553 0 -113.48891692719553 159.60979817833868 0 0 0 0 90.901406349875288 -143.36903669952517 0 -143.36903669952517 133.24296468789544 0 0 0 0 0.67046534955958159 -2.9920333940921502 0 -2.9920333940921502 40.53654181252648 0 0 0 0 -173.49737939803072 -22.640957808485837 0 -22.640957808485837 107.45055371311901 0 0 0 0 -62.186089625661225 -17.645189768169075 0 -17.645189768169075 24.855746213870589 0 0 0 0 -19.770952767965127 -54.705998341129089 0 -54.705998341129089 66.211821382981725 0 0 0 0 -56.104932537049535 -9.7389254805784731 0 -9.7389254805784731 118.09834897066685 0 0 0 0 -4.7503603279585089 -8.4156763830585124 0 -8.4156763830585124 65.898570052240927 0 0 0 0 -27.659471995584681 -21.55690253758803 0 -21.55690253758803 64.503373134325557 0 0 0 0 -21.979370625986121 -15.493775036738953 0 -15.493775036738953 54.48349426295681 0 0 0 0 -14.758640409092626 -12.151075187446613 0 -12.151075187446613 42.542267275935501 0 0 0 0 -4.0681525894144102 -21.644008055311133 0 -21.644008055311133 56.199488700163784 0 0 0 0 -56.947987033099025 -47.690992083858873 0 -47.690992083858873 164.77339026835034 0 0 0 0 -56.670196270107454 -26.892941997422895 0 -26.892941997422895 57.119702666772355 0 0 0 0 -18.089972179015014 -17.892271475226849 0 -17.892271475226849 12.412632034211072 0 0 0 0 -16.88610275051283 -27.55850871269061 0 -27.55850871269061 26.79296397672994 0 0 0 0 -17.57829062958308 -14.376955981455239 0 -14.376955981455239 24.894081156904576 0 0 0 0 -60.352583165529722 -23.374812830894371 0 -23.374812830894371 97.565085064998129 0 0 0 0 -100.81550945034542 -60.229166984572657 0 -60.229166984572657 81.23986726149451 0 0 0 0 -17.683056069960294 -9.5078031921708117 0 -9.5078031921708117 19.974524877727674 0 0 0 0 -11.514447076944634 -71.100358541152673 0 -71.100358541152673 52.15338252795209 0 0 0 0 -63.491741686106593 -74.54159595559986 0 -74.54159595559986 79.00208998589369 0 0 0 0 -38.908274338641604 -50.395349510064989 0 -50.395349510064989 100.49952024145023 0 0 0 0 -41.188558930648924 -28.882984678788489 0 -28.882984678788489 90.448891637541237 0 0 0 0 -5.4065504230817396 -22.599518620172603 0 -22.599518620172603 14.315886868971575 0 0 0 0 -30.133351533951895 -26.792899713080743 0 -26.792899713080743 3.6140687874539958 0 0 0 0 -10.053954021599907 49.058672660859884 0 49.058672660859884 170.07087127692648 0 0 0 0 -16.709902761189372 -26.277909830177521 0 -26.277909830177521 0.64098067484043852 0 0 0 0 41.190467065461291 -60.653846431127931 0 -60.653846431127931 52.231731968196982 0 0 0 0 -2.3887936033556798 -54.533623502262344 0 -54.533623502262344 30.219091436680174 0 0 0 0 -27.80221795341231 -59.295547541967608 0 -59.295547541967608 80.495563194373972 0 0 0 0 -4.1813904616747095 -50.11441345340063 0 -50.11441345340063 84.663810634949186 0 0 0 0 -29.658572120146346 -46.986755934369285 0 -46.986755934369285 88.529796946037095 0 0 0 0 -29.443206594258299 -49.06301488236204 0 -49.06301488236204 63.074330136674689 0 0 0 0 -72.514821711746663 -38.439057797775604 0 -38.439057797775604 94.800638923072256 0 0 0 0 -29.2898590476766 -65.591166082027485 0 -65.591166082027485 111.23481941106729 0 0 0 0 -84.619009424577598 40.632679415550228 0 40.632679415550228 221.86168077091497 0 0 0 0 -32.312614515312816 -42.685717986852978 0 -42.685717986852978 286.56142767249548 0 0 0 0 -47.927644519675141 -29.062167090845833 0 -29.062167090845833 300.11502614149504 0 0 0 0 16.281317319342428 -1.8089268032284167 0 -1.8089268032284167 -0.14306391879818392 0 0 0 0 0.061760617122128991 -0.19711368424981401 0 -0.19711368424981401 1.0520293007103838 0 0 0 0 35.257254827513179 249.58050875374465 0 249.58050875374465 565.00880150751618 0 0 0 0 11.96703453316195 97.313411082723178 0 97.313411082723178 614.27192222000303 0 0 0 0 -46.621211878352369 222.87460085100611 0 222.87460085100611 762.93897520218161 0 0 0 0 -61.584958327153799 -2.967487516842084 0 -2.967487516842084 872.51978970884375 0 0 0 0 -18.786515927343771 -199.30081927482388 0 -199.30081927482388 915.14669379385668 0 0 0 0 -92.188705144805681 46.230898065841757 0 46.230898065841757 1018.9923824731377 0 0 0 0 108.16051290360861 101.71648459511562 0 101.71648459511562 1214.6679726943694 0 0 0 0 29.849756307875396 -33.485474630637327 0 -33.485474630637327 982.02262174250791 0 0 0 0 722.89399794116343 -173.3935099611117 0 -173.3935099611117 995.01702190132346 0 0 0 0 -117.9430869173118 -86.979046375965481 0 -86.979046375965481 1009.1754985362932 0 0 0 0 -158.31682059818559 166.50648460372031 0 166.50648460372031 1050.7679690535297 0 0 0 0 -194.72726073390822 260.69248838651401 0 260.69248838651401 862.4525311725738 0 0 0 0 -173.50541946564954 -262.01500489369209 0 -262.01500489369209 -35.265538003741312 0 0 0 0 17.446943028946158 -9.1317236700724891 0 -9.1317236700724891 11.143399248879433 0 0 0 0 530.48715619567065 -162.90737261373579 0 -162.90737261373579 669.12201995669602 0 0 0 0 -160.031865999812 -96.188121670609689 0 -96.188121670609689 2539.2279798043819 0 0 0 0 585.43959477761746 -640.58172931109584 0 -640.58172931109584 1716.4681736123821 0 0 0 0 146.56793960302184 110.35336006517173 0 110.35336006517173 1086.5940999043087 0 0 0 0 -16.305310190646196 66.887554131135403 0 66.887554131135403 1131.6048735751247 0 0 0 0 -48.7517180873283 40.450605280035234 0 40.450605280035234 1820.5727078987766 0 0 0 0 -56.004920629389744 -214.11363673283631 0 -214.11363673283631 1698.9184719379846 0 0 0 0 -154.89550899483675 -202.24114395664583 0 -202.24114395664583 1814.0599068984011 0 0 0 0 0.40077925856994634 -1.9474286743178943 0 -1.9474286743178943 13.579728269475936 0 0 0 0 603.76481413297938 -327.07747598208982 0 -327.07747598208982 -156.85790631055715 0 0 0 0 85.078390598439455 1173.3407922327915 0 1173.3407922327915 1055.7641392232326 0 0 0 0 -71.703524744904598 -2.7655581834244174 0 -2.7655581834244174 50.340935535294307 0 0 0 0 -666.21622546832327 -491.81623007663075 0 -491.81623007663075 1607.9866552580352 0 0 0 0 5.1969387237249975 213.95887342823698 0 213.95887342823698 289.79702557842393 0 0 0 0 -81.375330088529267 26.427869948693569 0 26.427869948693569 14.739335671707522 0 0 0 0 -70.386390353685783 -192.75346349041138 0 -192.75346349041138 139.39368117934646 0 0 0 0 -74.920676438738155 -66.818661895820696 0 -66.818661895820696 150.68791231431533 0 0 0 0 -72.464727063214667 11.335151283558915 0 11.335151283558915 56.991653807591604 0 0 0 0 2.6991179010606174 -386.77974562181521 0 -386.77974562181521 314.26220304881281 0 0 0 0 -32.243373916226119 -9.8600011123489821 0 -9.8600011123489821 189.82511605963009 0 0 0 0 94.953231746698464 -36.349566582938252 0 -36.349566582938252 10.807034638421122 0 0 0 0 159.12823449790812 -256.16361029427935 0 -256.16361029427935 12.536613746851799 0 0 0 0 -12.471895431131998 -345.58766578452196 0 -345.58766578452196 1672.9864971174247 0 0 0 0 -218.18244064421742 -197.21124892868102 0 -197.21124892868102 2431.9263047186905 0 0 0 0 262.15672667459125 125.66957802562411 0 125.66957802562411 1145.1670781073335 0 0 0 0 92.315394429106163 -252.25324562899186 0 -252.25324562899186 -420.75451730437635 0 0 0 0 53.68573907347178 -19.436764387944095 0 -19.436764387944095 5.2048875956337071 0 0 0 0 431.02815882105733 142.94767072525428 0 142.94767072525428 1139.7794465656189 0 0 0 0 17.332922282190175 -4.6298968396399687 0 -4.6298968396399687 2.8709644151970579 0 0 0 0 -291.65203453587401 -175.15326762170662 0 -175.15326762170662 3593.1612499567564 0 0 0 0 455.47252396752629 -498.71999832851725 0 -498.71999832851725 -908.65053071430884 0 0 0 0 -32.72080372480923 -112.52926798911722 0 -112.52926798911722 -289.85441511207318 0 0 0 0 -14.904037339758588 -48.773802283117107 0 -48.773802283117107 292.42870765037515 0 0 0 0 -223.47165961053815 -229.27980743272019 0 -229.27980743272019 178.92868877114961 0 0 0 0 -168.19391386196367 -147.54033182488638 0 -147.54033182488638 384.2337064893145 0 0 0 0 38.46560581172298 1.3365998962181038 0 1.3365998962181038 43.881180021940963 0 0 0 0 38.645110883903726 9.9270289086198318 0 9.9270289086198318 292.81881536496076 0 0 0 0 32.38596899812751 -94.605817950097844 0 -94.605817950097844 180.35142016738973 0 0 0 0 38.81386381529785 -40.521640360369929 0 -40.521640360369929 22.44542110358816 0 0 0 0 -69.032538367689796 -130.4914848497865 0 -130.4914848497865 345.19885847123805 0 0 0 0 -38.97976065339887 55.849273454768991 0 55.849273454768991 293.82252766343299 0 0 0 0 0.018942359145640311 -100.94733002879677 0 -100.94733002879677 9.6096095130051253 0 0 0 0 -105.47920807614796 -58.434054555284092 0 -58.434054555284092 -6.7055024054352543 0 0 0 0 12.797042681394871 -30.403037777337886 0 -30.403037777337886 35.86276845363318 0 0 0 0 -0.31621929987434527 0.83955339235458126 0 0.83955339235458126 -0.78416170175324851 0 0 0 0 19.837210695497262 -3.486058871007117 0 -3.486058871007117 -22.544759839278413 0 0 0 0 14.850313614601077 16.994215117752901 0 16.994215117752901 -3.6013571651637903 0 0 0 0 16.201962873808725 -12.737333379714983 0 -12.737333379714983 -46.086656862826203 0 0 0 0 -0.043918853269413707 -39.671811065032671 0 -39.671811065032671 -31.819290128129069 0 0 0 0 1.1659743715907103 -1.8036552604815661 0 -1.8036552604815661 -3.988376827515026 0 0 0 0 -38.132884536907696 -42.129068888672919 0 -42.129068888672919 -18.295517873266363 0 0 0 0 -14.105051154893019 -50.273503399235778 0 -50.273503399235778 -19.717009789004805 0 0 0 0 -8.6673228897023531 -0.8119439011970826 0 -0.8119439011970826 11.996850697847549 0 0 0 0 -18.042950975824311 -27.636814711084298 0 -27.636814711084298 -29.13533984136302 0 0 0 0 -0.088823722169548355 -0.83319364962002851 0 -0.83319364962002851 3.9120707502533101 0 0 0 0 -8.4335166170253615 -19.764304821881524 0 -19.764304821881524 34.363818819270818 0 0 0 0 -4.706285172908224 -3.5947960498815519 0 -3.5947960498815519 19.949475898261881 0 0 0 0 7.0212692723467836 -25.985562906636517 0 -25.985562906636517 0.086948752810325658 0 0 0 0 3.2533128081263758 -13.905433689698071 0 -13.905433689698071 20.128132809154561 0 0 0 0 -5.8511311290885715 -30.730377882151515 0 -30.730377882151515 67.588300137819715 0 0 0 0 6.0715325729646281 -41.531517432661076 0 -41.531517432661076 20.992273649171693 0 0 0 0 37.068855097117194 -7.1778345448183245 0 -7.1778345448183245 -87.404977860700455 0 0 0 0 7.1054286575276819 -44.120073215381126 0 -44.120073215381126 8.5551536831189878 0 0 0 0 -61.296381124700929 -79.245487616877654 0 -79.245487616877654 109.06234749619443 0 0 0 0 5.9325375003071343 -27.285936872387566 0 -27.285936872387566 0.79813525431848031 0 0 0 0 -118.3017652389276 8.8659490636709961 0 8.8659490636709961 247.77971078826522 0 0 0 0 2.420045389512504 -27.03749125321292 0 -27.03749125321292 0.76424027472151934 0 0 0 0 231.52683813156818 -86.269039950115257 0 -86.269039950115257 -59.568955733826442 0 0 0 0 33.324453236737099 126.20391021558316 0 126.20391021558316 323.71613783753128 0 0 0 0 20.737630932086176 94.786131950619165 0 94.786131950619165 342.7399406816985 0 0 0 0 -0.49444717227195412 1.2233378688393088 0 1.2233378688393088 1.0323952327167447 0 0 0 0 -0.87472898581643577 -1.056735088280675 0 -1.056735088280675 -0.24329002744372019 0 0 0 0 -177.1037041617069 -58.08775205238635 0 -58.08775205238635 408.1823188837443 0 0 0 0 -16.047690432108993 -61.790021502925811 0 -61.790021502925811 67.749976710321789 0 0 0 0 32.859093196437698 -35.478647288931825 0 -35.478647288931825 -61.0519000335903 0 0 0 0 -10.536187482599303 -33.271342983887735 0 -33.271342983887735 49.668309404194588 0 0 0 0 -5.3246832048524997 -26.756580332029841 0 -26.756580332029841 0.87229125558528686 0 0 0 0 74.862885307636134 -87.788151588709297 0 -87.788151588709297 11.091829761156987 0 0 0 0 18.265630452040568 -50.651019539545814 0 -50.651019539545814 -38.626946930487293 0 0 0 0 -24.816947279848819 -40.084672784854774 0 -40.084672784854774 62.16602861591673 0 0 0 0 -13.612469621054288 -24.817455684910783 0 -24.817455684910783 172.9325001386751 0 0 0 0 18.959181179135612 -72.477035855365102 0 -72.477035855365102 74.461533709501964 0 0 0 0 5.058451613246632 -12.537279510836015 0 -12.537279510836015 92.937231167627033 0 0 0 0 45.471995925215708 -83.632151855257462 0 -83.632151855257462 72.595474970978103 0 0 0 0 10.342594110356458 -78.30607036024594 0 -78.30607036024594 179.54312347649102 0 0 0 0 16.311053993404357 -5.3052714848854521 0 -5.3052714848854521 183.94641397034866 0 0 0 0 32.186733547966469 -16.781201599445922 0 -16.781201599445922 286.41204929118976 0 0 0 0 5.8958957840113548 -3.1193756134887849 0 -3.1193756134887849 1.5207729700516452 0 0 0 0 -16.594230872190849 15.500234411932979 0 15.500234411932979 449.70055298836814 0 0 0 0 -3.866084922045502 -62.310729166645615 0 -62.310729166645615 210.36496440257906 0 0 0 0 0.172975048536955 11.009646156308008 0 11.009646156308008 270.36018054918532 0 0 0 0 -25.061492665937294 12.857314545955887 0 12.857314545955887 397.65105504904204 0 0 0 0 21.737124675623818 23.808111840728088 0 23.808111840728088 260.10359238685487 0 0 0 0 6.5522489303384646 55.250618088350166 0 55.250618088350166 689.49115528774564 0 0 0 0 -18.48132349861703 9.7420982091789483 0 9.7420982091789483 687.20618696822203 0 0 0 0 0.16121843351226595 -0.30771879255718204 0 -0.30771879255718204 1.2931520863494939 0 0 0 0 9.9015847087708497 -3.6674739924117148 0 -3.6674739924117148 1.8159837827236416 0 0 0 0 -5.6118498491141509 83.457708016154356 0 83.457708016154356 568.65321413310085 0 0 0 0 3.3261947608583569 32.60880417854969 0 32.60880417854969 547.6849987839887 0 0 0 0 -14.559313817992233 -20.972242675728921 0 -20.972242675728921 653.59388925085659 0 0 0 0 -18.726192759101195 -20.596102723749937 0 -20.596102723749937 664.28517757856753 0 0 0 0 -22.284915210629606 -53.243449555855477 0 -53.243449555855477 665.4244880789638 0 0 0 0 -28.915521367622887 -19.175347975702607 0 -19.175347975702607 713.02883168918197 0 0 0 0 -20.342229143142504 10.609153170400532 0 10.609153170400532 688.97421666207083 0 0 0 0 -39.063272779211729 -46.819768115121406 0 -46.819768115121406 693.58252951304166 0 0 0 0 -42.44161080385129 -47.801876369703677 0 -47.801876369703677 799.40930227906938 0 0 0 0 -62.470474913431076 13.920104688628953 0 13.920104688628953 741.36926077317912 0 0 0 0 -20.520851766258602 14.062794037148706 0 14.062794037148706 733.67091557510139 0 0 0 0 -0.19768792705816018 -0.78180127017500922 0 -0.78180127017500922 0.95172214715557679 0 0 0 0 -10.655099891786676 -18.401146983218496 0 -18.401146983218496 562.98707220545475 0 0 0 0 -94.278391698408882 22.147049088496715 0 22.147049088496715 467.88359618542017 0 0 0 0 -29.055212716151118 -2.2761201879766304 0 -2.2761201879766304 549.68587900762941 0 0 0 0 30.076368158170681 -12.159240191911522 0 -12.159240191911522 435.07110692225979 0 0 0 0 1.109493507895877 22.043401776216342 0 22.043401776216342 658.5648688065412 0 0 0 0 10.262285795717162 9.7013502548725228 0 9.7013502548725228 609.36006522618118 0 0 0 0 3.0763337784815121 -7.9551074593036901 0 -7.9551074593036901 569.60757334929076 0 0 0 0 -11.591191827346847 -32.281407329915965 0 -32.281407329915965 595.95188149233581 0 0 0 0 -2.8348560297736185 -24.148654945514863 0 -24.148654945514863 624.73843719356228 0 0 0 0 -12.990989620310302 -33.629749194500619 0 -33.629749194500619 616.6294652868055 0 0 0 0 -22.628465665839485 -57.182326669950271 0 -57.182326669950271 636.92183112285056 0 0 0 0 -19.585528466114283 -61.175523451376648 0 -61.175523451376648 603.65945593056676 0 0 0 0 -21.964460199816585 -56.081525695801247 0 -56.081525695801247 612.35432138742181 0 0 0 0 -33.79425919027608 -69.04511221942812 0 -69.04511221942812 594.78344832386938 0 0 0 0 -29.929165936426102 -74.246971712695085 0 -74.246971712695085 570.09114839588437 0 0 0 0 -22.432242661729603 -62.277371630988455 0 -62.277371630988455 572.94870802009245 0 0 0 0 -16.595156406068554 -38.5308742220368 0 -38.5308742220368 585.24881190154701 0 0 0 0 -17.279164782725275 -38.773871133103967 0 -38.773871133103967 589.38356206691242 0 0 0 0 -14.448458881260649 -49.69185087803271 0 -49.69185087803271 530.61741951084696 0 0 0 0 -30.909330678445713 -66.470663880289067 0 -66.470663880289067 530.13365720876027 0 0 0 0 -17.187352321216395 -84.513783573420369 0 -84.513783573420369 485.83336842517019 0 0 0 0 -18.325647299968637 -99.271146425613551 0 -99.271146425613551 512.50740360868076 0 0 0 0 -18.861622330931141 -66.504195567904389 0 -66.504195567904389 495.3639725811081 0 0 0 0 0.94897845497822009 0.49171592244027806 0 0.49171592244027806 1.2829572269476728 0 0 0 0 2.1435112703135815 -100.6405895237167 0 -100.6405895237167 455.83776132567436 0 0 0 0 24.681123185810407 -57.730659657267097 0 -57.730659657267097 366.28394697375188 0 0 0 0 126.42382138112271 131.6750596096681 0 131.6750596096681 137.92145715934839 0 0 0 0 -1.5604557454550736 -1.1465383172309203 0 -1.1465383172309203 1.3376941790672099 0 0 0 0 -18.718915443284459 5.2372721732681384 0 5.2372721732681384 463.87746463757867 0 0 0 0 -161.80289454357126 93.60936298831075 0 93.60936298831075 527.99950400862144 0 0 0 0 2.9033029976938032 -2.5064899212200089 0 -2.5064899212200089 1.604611067964413 0 0 0 0 -1.0373140584354417 -80.355561165015388 0 -80.355561165015388 557.83483923802851 0 0 0 0 -26.48679815479332 30.869533853709072 0 30.869533853709072 603.20623679573328 0 0 0 0 211.07492028217689 81.934971397786285 0 81.934971397786285 492.12400491796143 0 0 0 0 1.0569291077611638 -95.171722817947739 0 -95.171722817947739 417.85974744895066 0 0 0 0 36.87496423016205 -3.7728791086337878 0 -3.7728791086337878 333.32724270163453 0 0 0 0 -8.0099703478065294 -75.158964665541134 0 -75.158964665541134 312.2565671067714 0 0 0 0 0.10044718651259274 -125.8419774518261 0 -125.8419774518261 458.07876682337519 0 0 0 0 62.131590290048337 26.365273544040974 0 26.365273544040974 416.30832575336899 0 0 0 0 22.549770750582496 26.123387021259987 0 26.123387021259987 305.44140232219797 0 0 0 0 0.64749589264772178 -1.0424322514121229 0 -1.0424322514121229 1.3189523936783374 0 0 0 0 -91.141445354105059 12.915796165958454 0 12.915796165958454 818.74129857034131 0 0 0 0 37.09095807431914 -11.957785787220928 0 -11.957785787220928 282.08889321648894 0 0 0 0 -0.12819708170324645 -43.018693989775784 0 -43.018693989775784 342.34945334185613 0 0 0 0 -3.1773006155009682 1.6389238946285332 0 1.6389238946285332 390.02868921836489 0 0 0 0 0.86646379825275055 -1.2279566595098004 0 -1.2279566595098004 5.6188286939541285 0 0 0 0 0.14414575132222182 -0.4166390632310879 0 -0.4166390632310879 0.41400828272192491 0 0 0 0 0.0013708831448812746 -2.3684257599234115 0 -2.3684257599234115 7.1848213449629839 0 0 0 0 -43.302465178497506 13.784861795520555 0 13.784861795520555 357.08090404440009 0 0 0 0 -1.1755174829287947 0.75057443640551469 0 0.75057443640551469 2.1310496070707075 0 0 0 0 0.86646379825259778 -2.6373011251707794 0 -2.6373011251707794 10.149421775589872 0 0 0 0 14.991491042073505 -65.917483892169912 0 -65.917483892169912 383.00786637660349 0 0 0 0 0.61733549537791033 -1.1351276484083712 0 -1.1351276484083712 1.361343202802864 0 0 0 0 34.725983818701991 -162.49873486207798 0 -162.49873486207798 487.10652283934178 0 0 0 0 26.677082242665278 -167.67009487326141 0 -167.67009487326141 620.15379447223677 0 0 0 0 -0.35204774797996152 0.20223495893324639 0 0.20223495893324639 1.0029548828742918 0 0 0 0 0.26892378995121807 -126.3813166598411 0 -126.3813166598411 586.07098586936627 0 0 0 0 8.5383119619949923 -113.31673010497616 0 -113.31673010497616 605.20808093831874 0 0 0 0 5.8810183133846294 -93.860885912770755 0 -93.860885912770755 544.17056294667418 0 0 0 0 -8.5690479477605663 -110.00224703184722 0 -110.00224703184722 651.61294284502219 0 0 0 0 11.529832263117243 -92.752593570308818 0 -92.752593570308818 611.92216908388946 0 0 0 0 -0.28886336528614143 -116.70362012669648 0 -116.70362012669648 660.83561585943244 0 0 0 0 -39.653098570106977 -101.73092505269597 0 -101.73092505269597 586.92406251447392 0 0 0 0 -35.774971230665642 -94.200288835629181 0 -94.200288835629181 590.10885069678625 0 0 0 0 -24.716434267448506 -110.40115252777468 0 -110.40115252777468 586.18743679652107 0 0 0 0 -36.70615017414616 -109.94035528189124 0 -109.94035528189124 627.24010869053018 0 0 0 0 -9.2021936919732639 -90.510339373460738 0 -90.510339373460738 592.01977287675618 0 0 0 0 -32.747102990868825 -85.033846534410259 0 -85.033846534410259 641.48118067869655 0 0 0 0 -44.565588064003464 -97.842925350756559 0 -97.842925350756559 617.67593979196681 0 0 0 0 -54.692558805774866 -89.271454658730363 0 -89.271454658730363 619.02674864140863 0 0 0 0 -67.4983330219859 -54.148305099755817 0 -54.148305099755817 654.85513404647281 0 0 0 0 -48.866100233112888 -101.09992040710131 0 -101.09992040710131 642.46946998221392 0 0 0 0 -6.2377043655227737 -110.58065527614963 0 -110.58065527614963 664.23323222836916 0 0 0 0 -55.651795784036011 -85.620528943076351 0 -85.620528943076351 721.68350359319447 0 0 0 0 -51.788183629315199 58.117510752643284 0 58.117510752643284 703.38983382142487 0 0 0 0 -33.904855029931696 8.0721342162614746 0 8.0721342162614746 519.36133753540344 0 0 0 0 -13.79506270371084 -70.993438204743143 0 -70.993438204743143 733.27594155247789 0 0 0 0 12.412928750817457 -75.140935911142151 0 -75.140935911142151 654.48886322004546 0 0 0 0 0.97381806596657428 -122.53671832993859 0 -122.53671832993859 770.87756972398711 0 0 0 0 12.287498201614255 111.26560398803485 0 111.26560398803485 512.50898756353126 0 0 0 0 47.561427993744701 281.62245736766636 0 281.62245736766636 1176.4506092445627 0 0 0 0 0.13542002754876656 -1.292993292770575 0 -1.292993292770575 3.8185905294863574 0 0 0 0 0.0093792699589310743 -1.7928561608349718 0 -1.7928561608349718 -9.562072730899672 0 0 0 0 -13.335484893609637 13.049246541755565 0 13.049246541755565 -1.7945190714635828 0 0 0 0 24.013037922338754 110.81792293883336 0 110.81792293883336 368.08424437207577 0 0 0 0 23.901754298528601 93.3846770103155 0 93.3846770103155 483.89383679849561 0 0 0 0 -47.420593039044661 23.688498213472485 0 23.688498213472485 525.76994154718705 0 0 0 0 0.87806992556876173 -4.2428987289213751 0 -4.2428987289213751 7.4791586742124991 0 0 0 0 80.746307611239189 -74.468979023993597 0 -74.468979023993597 34.437780787207885 0 0 0 0 55.793445096656001 44.900073776967474 0 44.900073776967474 -40.278509616109659 0 0 0 0 9.3326110140078526 -0.66806240604637424 0 -0.66806240604637424 166.66465216621873 0 0 0 0 41.944174462711544 41.612467884857324 0 41.612467884857324 179.08559869779856 0 0 0 0 -11.915995433016874 -2.9744103124667163 0 -2.9744103124667163 4.0040797011461109 0 0 0 0 1.2424626973604245 -5.5921040688948835 0 -5.5921040688948835 9.3879488622063434 0 0 0 0 -15.091629127636107 11.235469178265703 0 11.235469178265703 6.9333120175288059 0 0 0 0 0.13364820215934187 0.28980913414864062 0 0.28980913414864062 0.74923866353890389 0 0 0 0 -0.47127434838589544 -15.757927687242045 0 -15.757927687242045 14.947659014615056 0 0 0 0 -0.017426275275652589 -8.7054361063377819 0 -8.7054361063377819 24.604542981236591 0 0 0 0 17.590605616611441 -38.788753206305046 0 -38.788753206305046 36.805826828815043 0 0 0 0 -28.86225678693793 -5.3736914884502767 0 -5.3736914884502767 45.208557371734059 0 0 0 0 35.150062732534479 -16.459486997227941 0 -16.459486997227941 215.04278701339535 0 0 0 0 14.896064494802658 14.186017526208161 0 14.186017526208161 207.68945363922103 0 0 0 0 19.816297922667104 -50.14501152646335 0 -50.14501152646335 -16.046075421574642 0 0 0 0 6.257250509055666 -23.665835466221324 0 -23.665835466221324 220.7893851723893 0 0 0 0 -21.271498054112726 79.66990300922771 0 79.66990300922771 -15.306344802225965 0 0 0 0 30.557361668006251 26.372653233578603 0 26.372653233578603 17.410529177286662 0 0 0 0 20.744967377670491 19.287393693775812 0 19.287393693775812 69.359212736746485 0 0 0 0 49.731602822521836 -20.268761880044622 0 -20.268761880044622 62.724461357516702 0 0 0 0 57.943598332164129 32.225564382984885 0 32.225564382984885 69.671436473709036 0 0 0 0 -0.86549091945053647 36.565706418366062 0 36.565706418366062 213.51550791083719 0 0 0 0 -6.25980114700846 36.884844762738794 0 36.884844762738794 339.10625462784083 0 0 0 0 37.4350258658407 80.087715294341251 0 80.087715294341251 222.38925931011909 0 0 0 0 -9.0868077364793862 3.2329712524660863 0 3.2329712524660863 376.04270165548951 0 0 0 0 -21.813341935948415 46.755393293713496 0 46.755393293713496 397.82378409511875 0 0 0 0 -23.640359423805194 -17.700688718767196 0 -17.700688718767196 494.04782660969795 0 0 0 0 -11.823325536584889 12.249292764281563 0 12.249292764281563 431.69898298509361 0 0 0 0 -8.4061993781451747 -16.925768775421602 0 -16.925768775421602 405.63897415062092 0 0 0 0 12.005543919029549 29.045745978566629 0 29.045745978566629 383.40012777004449 0 0 0 0 -0.98299257644680438 -29.653620541466807 0 -29.653620541466807 351.88642378817894 0 0 0 0 -59.07060043997933 38.799493873437314 0 38.799493873437314 457.07445593872399 0 0 0 0 168.00097067263368 95.547834980039624 0 95.547834980039624 393.88681760006875 0 0 0 0 18.159924351212794 -12.639999743558292 0 -12.639999743558292 222.9737661591862 0 0 0 0 81.224290259853547 72.991723309558438 0 72.991723309558438 396.834582412499 0 0 0 0 36.493849181630367 -2.990445868425013 0 -2.990445868425013 422.59148346010625 0 0 0 0 101.35497669822189 -46.836883236923313 0 -46.836883236923313 470.31483063889027 0 0 0 0 97.577570418530286 -22.239595304304203 0 -22.239595304304203 392.50110999972094 0 0 0 0 27.846112217703421 5.3224493687448557 0 5.3224493687448557 433.43561842690542 0 0 0 0 17.851654546614583 -36.803380618598567 0 -36.803380618598567 484.60334278202208 0 0 0 0 20.200109606622163 -76.96149996152235 0 -76.96149996152235 545.94676962625817 0 0 0 0 15.634401256688193 -69.432998718340968 0 -69.432998718340968 536.67056498721649 0 0 0 0 14.122458456966797 -81.827798028069083 0 -81.827798028069083 544.02225838731829 0 0 0 0 94.966036588103179 -111.84866847745434 0 -111.84866847745434 531.68885955354199 0 0 0 0 145.78077491977388 -88.477102330347407 0 -88.477102330347407 438.39920172571146 0 0 0 0 51.097992150156642 -58.790104564002831 0 -58.790104564002831 467.87109141785186 0 0 0 0 -55.778898761899427 -18.194725276443933 0 -18.194725276443933 602.69509775796905 0 0 0 0 -40.283559901325361 -4.8473994067753665 0 -4.8473994067753665 502.91825284730294 0 0 0 0 -18.462330015021962 -27.076052461554355 0 -27.076052461554355 509.48380013567657 0 0 0 0 -20.920309297151789 -49.65001049645798 0 -49.65001049645798 559.17585022716958 0 0 0 0 -20.972502476154204 -62.290822694849339 0 -62.290822694849339 557.41229777394619 0 0 0 0 -25.725562504250775 -77.389014431471878 0 -77.389014431471878 593.16619186299795 0 0 0 0 -57.440896106988475 -48.612818618992605 0 -48.612818618992605 588.58693035788019 0 0 0 0 -44.672072589508844 -48.958792593075486 0 -48.958792593075486 562.49227086650353 0 0 0 0 -52.099369697210705 -63.310180474931258 0 -63.310180474931258 616.09732279244054 0 0 0 0 -48.96098832297298 -83.937220328836702 0 -83.937220328836702 612.59897578956952 0 0 0 0 -46.651046102921555 -86.200875405920669 0 -86.200875405920669 613.29334536276292 0 0 0 0 -37.97678105468367 -86.57820410275599 0 -86.57820410275599 613.26479821324574 0 0 0 0 -36.306689256480354 -76.811332814420894 0 -76.811332814420894 594.52118063307717 0 0 0 0 -17.386380022740582 -81.770427911866136 0 -81.770427911866136 598.73909202218056 0 0 0 0 -22.892868602432827 -90.694628410725272 0 -90.694628410725272 608.8894533161947 0 0 0 0 -23.456496179751412 -79.473357052062056 0 -79.473357052062056 611.23621380299119 0 0 0 0 -30.817361620579277 -71.568246452588937 0 -71.568246452588937 620.46561559416295 0 0 0 0 -34.193901343187463 -89.200377016357379 0 -89.200377016357379 610.36603892370476 0 0 0 0 -32.894811037477211 -79.929373185892473 0 -79.929373185892473 586.82872613215295 0 0 0 0 -44.200873935095728 -95.24437250774281 0 -95.24437250774281 601.37777774673305 0 0 0 0 71.596508758309028 -167.03408981412213 0 -167.03408981412213 615.4389010774612 0 0 0 0 45.849617104272738 -111.18405002134568 0 -111.18405002134568 535.30380460523884 0 0 0 0 39.064879588651024 -118.43116971225027 0 -118.43116971225027 593.3294033324637 0 0 0 0 7.0683496909041423 -91.835773622864508 0 -91.835773622864508 586.13723915815353 0 0 0 0 -2.1370731979286575 -97.053262787958374 0 -97.053262787958374 611.63913476518064 0 0 0 0 -1.2074095048669733 -93.395182473119348 0 -93.395182473119348 624.58404218502983 0 0 0 0 -1.612535834686696 -103.67976549534069 0 -103.67976549534069 636.12007272284245 0 0 0 0 -23.572801155295338 -81.993609603119694 0 -81.993609603119694 632.6408602820884 0 0 0 0 -18.42805952725007 -49.974346166942269 0 -49.974346166942269 649.26042250136379 0 0 0 0 -17.30771464710142 -82.298159585305257 0 -82.298159585305257 631.24695872416487 0 0 0 0 -17.845737356857626 -85.114079017364929 0 -85.114079017364929 688.02461729894276 0 0 0 0 -22.688037891170552 -50.717332815504051 0 -50.717332815504051 677.3265541169385 0 0 0 0 -15.069318907916113 -129.86116997019417 0 -129.86116997019417 720.00715599550313 0 0 0 0 -1.2529117461125452 -110.2627902761451 0 -110.2627902761451 686.27950069257349 0 0 0 0 -21.104182100224534 -147.72506056167913 0 -147.72506056167913 824.53056722076144 0 0 0 0 95.340945006295897 -268.09141481462575 0 -268.09141481462575 692.97055209099926 0 0 0 0 71.383893320215265 -170.52641408783757 0 -170.52641408783757 569.26101926350384 0 0 0 0 231.4285919086451 -182.49383541226416 0 -182.49383541226416 464.19956822168751 0 0 0 0 172.12844737996056 -55.178703173944086 0 -55.178703173944086 275.35042865431387 0 0 0 0 392.10388448354411 -345.74996072113572 0 -345.74996072113572 365.22912522871775 0 0 0 0 -25.750671393645916 -177.98918458351545 0 -177.98918458351545 1361.7441898718171 0 0 0 0 380.29407528936258 -471.51675699946281 0 -471.51675699946281 613.5123195394699 0 0 0 0 219.87932144334809 -506.50024372791813 0 -506.50024372791813 980.63800773691037 0 0 0 0 106.80843463453812 -221.61285912896892 0 -221.61285912896892 686.00691250863019 0 0 0 0 6.5919424701128708 -5.954967586457002 0 -5.954967586457002 4.6988677170892856 0 0 0 0 290.82332884050675 -136.10814551984367 0 -136.10814551984367 -216.81403206420146 0 0 0 0 -91.707753457146509 -98.754019168694867 0 -98.754019168694867 250.28512261127617 0 0 0 0 5.9505729024881475 58.678086792875547 0 58.678086792875547 244.39708299283348 0 0 0 0 95.49672658289569 7.7526045877457364 0 7.7526045877457364 262.03545228370058 0 0 0 0 -68.488019166477216 10.984500579877931 0 10.984500579877931 301.58530434574641 0 0 0 0 -17.080684535512134 34.806556407466815 0 34.806556407466815 330.6399359828356 0 0 0 0 -16.830102539217677 33.981138629535508 0 33.981138629535508 269.07972265606804 0 0 0 0 11.158319619888971 65.214519144057704 0 65.214519144057704 300.42665657994075 0 0 0 0 140.13881997990416 -10.049552621767361 0 -10.049552621767361 302.59205738690798 0 0 0 0 130.21516444370513 -24.312124188625603 0 -24.312124188625603 365.87179594470217 0 0 0 0 136.86114360386659 -36.049756556334614 0 -36.049756556334614 385.94797568663489 0 0 0 0 135.35179045685879 -58.06315266592901 0 -58.06315266592901 352.98993834672729 0 0 0 0 97.557605342955853 -41.064400292006667 0 -41.064400292006667 349.51145525771426 0 0 0 0 -113.36779440026112 18.810996504042123 0 18.810996504042123 -116.49676449403341 0 0 0 0 29.500802563830803 0.52933300824952312 0 0.52933300824952312 126.52453957339458 0 0 0 0 29.075614451199524 -8.3302810337654307 0 -8.3302810337654307 28.572438692742438 0 0 0 0 421.94955805802874 -267.69134132010367 0 -267.69134132010367 -563.15621987065242 0 0 0 0 61.026485532141123 -10.061976430311915 0 -10.061976430311915 241.79817543330864 0 0 0 0 -0.95772942326830712 0.94179264999471002 0 0.94179264999471002 14.358998043063778 0 0 0 0 629.28660639422014 8.6669600157947571 0 8.6669600157947571 -132.80114754731767 0 0 0 0 80.921919776432787 -389.65310485640111 0 -389.65310485640111 1135.7483493542823 0 0 0 0 -54.561397507435686 282.7239900802233 0 282.7239900802233 205.41992863963242 0 0 0 0 9.7071583010033464 -1.3238071966989082 0 -1.3238071966989082 155.23525238700677 0 0 0 0 28.829950356443078 -15.716985857943655 0 -15.716985857943655 152.44316983048338 0 0 0 0 5.5574502466297417 -32.083745323645417 0 -32.083745323645417 79.38583567187743 0 0 0 0 26.688457205949184 -17.53100419198924 0 -17.53100419198924 5.9315156965193125 0 0 0 0 -276.3034368480894 214.60430698302662 0 214.60430698302662 1130.5845309873675 0 0 0 0 200.01347723864865 -489.13641474229189 0 -489.13641474229189 68.305994971597102 0 0 0 0 19.05576232008551 -14.28553629353604 0 -14.28553629353604 8.3142511583458258 0 0 0 0 47.348541264593223 -300.07484225703229 0 -300.07484225703229 789.2337756686029 0 0 0 0 -6.0633031425161334 -143.23000948591289 0 -143.23000948591289 -71.431115610655979 0 0 0 0 -36.649363322267845 -3.9995781084035116 0 -3.9995781084035116 154.36830267516052 0 0 0 0 -31.723873829803779 -23.052348839133629 0 -23.052348839133629 171.09409613441676 0 0 0 0 -33.042332823847801 55.70734771132993 0 55.70734771132993 300.13632937358489 0 0 0 0 -39.766431088152558 33.585887504810671 0 33.585887504810671 297.02629015846105 0 0 0 0 -1.9884316826828581 64.584996509714983 0 64.584996509714983 261.65171838774404 0 0 0 0 7.0087302966990421 20.563719497348302 0 20.563719497348302 124.28213226921798 0 0 0 0 7.739374936168133 -56.597820363065694 0 -56.597820363065694 134.81723148858873 0 0 0 0 -5.5201602734737207 -69.253824660489045 0 -69.253824660489045 293.52128366750435 0 0 0 0 -1.5615841952230198 -5.822114241636541 0 -5.822114241636541 18.65692003617167 0 0 0 0 -11.412879704630541 -96.301784425544611 0 -96.301784425544611 181.80993449861217 0 0 0 0 74.274671722274661 24.486531512065994 0 24.486531512065994 187.87909688273794 0 0 0 0 -6.6108052904819381 -29.364405276536075 0 -29.364405276536075 128.05441118422411 0 0 0 0 81.977973108565493 13.712752275998355 0 13.712752275998355 194.93056093624182 0 0 0 0 5.041076907772549 43.148789470433258 0 43.148789470433258 150.00001662602881 0 0 0 0 -11.508440844733736 16.604971779673534 0 16.604971779673534 27.289980450589894 0 0 0 0 4.1511247307007579 48.549705162804457 0 48.549705162804457 212.15289238380501 0 0 0 0 14.291937991292013 58.011975533565192 0 58.011975533565192 101.14841102122111 0 0 0 0 77.014849655290163 16.461354386381572 0 16.461354386381572 199.43069116261904 0 0 0 0 83.002973467842821 13.550720709361485 0 13.550720709361485 194.86095921216474 0 0 0 0 106.31212436279247 10.364354753713997 0 10.364354753713997 195.98173842401593 0 0 0 0 81.454462274578873 15.318736125955184 0 15.318736125955184 195.85129630492884 0 0 0 0 25.68999182133517 13.334698630193998 0 13.334698630193998 229.42391049306025 0 0 0 0 83.496932864984274 -73.182731436466383 0 -73.182731436466383 -59.156034226136399 0 0 0 0 32.202679778354195 29.483135091344593 0 29.483135091344593 160.68182003902984 0 0 0 0 22.645663976978994 31.192488405922632 0 31.192488405922632 211.51991500199074 0 0 0 0 30.858734778925282 60.291150494966132 0 60.291150494966132 290.20018690401412 0 0 0 0 19.623256178060871 55.125073573785357 0 55.125073573785357 226.58768986858195 0 0 0 0 42.435413406254384 58.241812725740601 0 58.241812725740601 210.26421975094854 0 0 0 0 32.422961805494396 82.676696422864055 0 82.676696422864055 48.308262559721953 0 0 0 0 92.740675733397438 226.62296353617421 0 226.62296353617421 -403.98513099129559 0 0 0 0 34.423093105771386 49.703554303407145 0 49.703554303407145 219.44319745379835 0 0 0 0 36.358638176388013 69.624846753336897 0 69.624846753336897 150.08628226697329 0 0 0 0 54.022230881055066 54.264111686021351 0 54.264111686021351 220.3598082253593 0 0 0 0 30.380227327201396 22.653793819237762 0 22.653793819237762 255.79622050911712 0 0 0 0 0.66876709507459964 68.100480492932547 0 68.100480492932547 221.77201940749001 0 0 0 0 270.05670541278232 -422.74952782988112 0 -422.74952782988112 571.81233876908118 0 0 0 0 -281.86117204481616 -13.01142866674536 0 -13.01142866674536 773.01090997751453 0 0 0 0 2.3691449049935471 4.1117376922921984 0 4.1117376922921984 8.1391646098212789 0 0 0 0 219.26699382303559 423.21612318654297 0 423.21612318654297 221.18945387367057 0 0 0 0 34.275403891085077 85.861040317585918 0 85.861040317585918 51.732293182315374 0 0 0 0 533.2927517675389 578.03580833172964 0 578.03580833172964 -337.82918611066998 0 0 0 0 -35.664529789386052 -331.51552797237673 0 -331.51552797237673 508.2177177971098 0 0 0 0 28.543065234527603 -157.53090103575596 0 -157.53090103575596 -189.92902523999874 0 0 0 0 -42.448527117730009 -88.18290130576861 0 -88.18290130576861 298.10539667074045 0 0 0 0 -134.86213057802161 219.97056533913201 0 219.97056533913201 768.54229962314275 0 0 0 0 -41.780018273799215 63.131389550319 0 63.131389550319 372.30230803185259 0 0 0 0 -148.99391754383987 141.07569061721188 0 141.07569061721188 363.81476412706979 0 0 0 0 -34.835653669902968 91.244616075215163 0 91.244616075215163 210.03342306305422 0 0 0 0 3.9969850386296457 155.09376914266613 0 155.09376914266613 297.86882748563949 0 0 0 0 131.83835062525577 53.790966679407575 0 53.790966679407575 211.87763127417566 0 0 0 0 75.938589897962629 -67.444802093908947 0 -67.444802093908947 -5.7420203905930975 0 0 0 0 -111.21336515134408 239.19145939238297 0 239.19145939238297 219.22178775425709 0 0 0 0 123.18889823360269 -82.048388095659902 0 -82.048388095659902 486.62930943360379 0 0 0 0 -26.369675040668426 320.78512834129651 0 320.78512834129651 515.22571229470168 0 0 0 0 156.30252217241582 10.841430623775523 0 10.841430623775523 346.54860923551314 0 0 0 0 241.55977350663272 29.40206807737195 0 29.40206807737195 343.23482989805052 0 0 0 0 36.692008614839551 -0.54546019217741559 0 -0.54546019217741559 369.09272947252612 0 0 0 0 11.537143176371728 70.132489715797419 0 70.132489715797419 328.81844206005917 0 0 0 0 -13.031231813593649 46.743949889150826 0 46.743949889150826 290.25794285011943 0 0 0 0 -34.003189330387613 101.88656183241983 0 101.88656183241983 288.09621908224767 0 0 0 0 1.0173503726541355 67.538122173659303 0 67.538122173659303 187.21294564193522 0 0 0 0 0.31574226363386515 52.763448824378429 0 52.763448824378429 306.39275028664269 0 0 0 0 9.5858244839164399 210.66250073000265 0 210.66250073000265 240.77108691407557 0 0 0 0 4.2615400855374901 77.8086962839443 0 77.8086962839443 65.722797947346407 0 0 0 0 77.426690886568167 116.42862209264422 0 116.42862209264422 -16.185947169629799 0 0 0 0 28.345612569483421 85.887498041474913 0 85.887498041474913 51.37328503596602 0 0 0 0 22.731259051677625 139.88792904704314 0 139.88792904704314 99.189941749704303 0 0 0 0 -42.645244045930667 37.162740712687082 0 37.162740712687082 293.21553157466042 0 0 0 0 -128.27419564819115 287.56936745227949 0 287.56936745227949 90.74255635006557 0 0 0 0 -33.892392768233776 56.33043866224034 0 56.33043866224034 199.17661043546832 0 0 0 0 20.271750045855516 79.477096076031586 0 79.477096076031586 60.034491481937891 0 0 0 0 -44.474980405166207 52.912393483136839 0 52.912393483136839 208.99865516698628 0 0 0 0 -9.0353359759783416 58.501844871192588 0 58.501844871192588 197.23220870120713 0 0 0 0 -144.28979370384633 63.964102349920722 0 63.964102349920722 142.54060813118122 0 0 0 0 85.366241933188576 26.58034056671022 0 26.58034056671022 180.09635800379328 0 0 0 0 -30.645607008455276 -16.120199568360846 0 -16.120199568360846 152.14842653506196 0 0 0 0 3.8019812201196288 24.204491682573291 0 24.204491682573291 15.437908632433448 0 0 0 0 44.937605869153458 80.425339307825197 0 80.425339307825197 -50.401896460884018 0 0 0 0 48.136952781445302 211.12429427244933 0 211.12429427244933 -24.805167554397485 0 0 0 0 -86.147771969966243 -82.974717968711047 0 -82.974717968711047 230.2037564665734 0 0 0 0 494.9420143516794 116.84943051146911 0 116.84943051146911 -344.35117640116368 0 0 0 0 0.43397037305937297 0.3717257416992672 0 0.3717257416992672 4.9047384272523686 0 0 0 0 -157.46418220435555 -85.703233453747089 0 -85.703233453747089 201.69371503731236 0 0 0 0 4.1018609795230976 2.5204572787287134 0 2.5204572787287134 52.880968473771645 0 0 0 0 -1.1831124671290163 6.6033221402925388 0 6.6033221402925388 15.858895265092656 0 0 0 0 38.557604327947274 103.18652123688662 0 103.18652123688662 72.92602724804965 0 0 0 0 -1.6580751747825913 10.532541611551025 0 10.532541611551025 55.216401745267547 0 0 0 0 -90.690109330340292 53.490670500449937 0 53.490670500449937 43.575691365200328 0 0 0 0 98.156972325947663 45.960592949122656 0 45.960592949122656 -27.673317831089662 0 0 0 0 -24.191573127506601 35.978522886486189 0 35.978522886486189 -3.1333779243868776 0 0 0 0 81.163442389327088 -53.821958263753913 0 -53.821958263753913 68.365324203696218 0 0 0 0 2.5892023270891151 18.848703362056241 0 18.848703362056241 25.730358665924996 0 0 0 0 2.1507805231743982 6.5702979580856216 0 6.5702979580856216 1.7828010417072448 0 0 0 0 -1.8231103861428437 30.615797310827475 0 30.615797310827475 20.674703587792465 0 0 0 0 1.407958509995336 9.0124092623521221 0 9.0124092623521221 41.401963417589997 0 0 0 0 3.5419321774643278 37.799559670578915 0 37.799559670578915 16.400655537397768 0 0 0 0 19.414504523867947 -13.878420382450713 0 -13.878420382450713 43.157120704086992 0 0 0 0 -5.3226478609425385 -50.042734274538816 0 -50.042734274538816 57.359736203681678 0 0 0 0 2.8637572415956836 5.1877636628122303 0 5.1877636628122303 27.219103700282403 0 0 0 0 -0.56352199516982182 5.1077049973246176 0 5.1077049973246176 56.487753978508408 0 0 0 0 -21.375708568219125 49.25652302022354 0 49.25652302022354 177.37384819806175 0 0 0 0 -1.0758516359352019 1.4635975716510643 0 1.4635975716510643 91.953814447480397 0 0 0 0 -41.641772738039435 33.978091402430437 0 33.978091402430437 183.68840780186292 0 0 0 0 -19.250140550819083 53.551947321555417 0 53.551947321555417 134.40293550163915 0 0 0 0 -55.528227715391949 -32.523925074365252 0 -32.523925074365252 130.66898718122502 0 0 0 0 -41.897447942925282 32.6812905047409 0 32.6812905047409 220.91355774054318 0 0 0 0 -6.3371847509461077 -1.6630368891164835 0 -1.6630368891164835 156.24455234514608 0 0 0 0 -1.7176384346021223 -26.660575110669924 0 -26.660575110669924 219.83636327778368 0 0 0 0 -39.26458349303266 -40.55785240001569 0 -40.55785240001569 236.17271484408411 0 0 0 0 28.076276299476604 -8.2118038282715133 0 -8.2118038282715133 71.136651879518467 0 0 0 0 94.266945895739354 -96.94174816888335 0 -96.94174816888335 180.73687666952901 0 0 0 0 0.7898255515148378 -5.1510341412632243 0 -5.1510341412632243 71.886397924038079 0 0 0 0 -46.854521397593089 3.5473801896987425 0 3.5473801896987425 162.25030380047247 0 0 0 0 -4.8942050004802597 -12.013410316936721 0 -12.013410316936721 62.61259910391891 0 0 0 0 -7.4727439077396411 -57.196809352906712 0 -57.196809352906712 69.332751407921137 0 0 0 0 -44.721955837614644 -28.146617354628688 0 -28.146617354628688 76.784532866353402 0 0 0 0 -46.926844235451426 -15.191452480474254 0 -15.191452480474254 80.570851093973033 0 0 0 0 -29.882327398416237 -50.108458238537423 0 -50.108458238537423 0.083946814498631284 0 0 0 0 2.4920184708749176 0.43841275046888484 0 0.43841275046888484 -2.0663443490728355 0 0 0 0 7.985041434815713 16.696756408199686 0 16.696756408199686 41.596317260194937 0 0 0 0 -60.420345892927799 21.229350774665363 0 21.229350774665363 98.782374854803493 0 0 0 0 46.834718475201953 -34.258543101706891 0 -34.258543101706891 55.48794039839413 0 0 0 0 -66.569803208440305 -135.02588024422948 0 -135.02588024422948 11.432227307566791 0 0 0 0 -27.933863264706815 16.504340925435827 0 16.504340925435827 97.496430118334047 0 0 0 0 -24.302910609195223 -33.700699706418241 0 -33.700699706418241 78.410833761317747 0 0 0 0 -27.568987791700124 27.357197397526761 0 27.357197397526761 54.813142543185677 0 0 0 0 -92.207729488595305 -48.067692531403736 0 -48.067692531403736 -40.821327535202727 0 0 0 0 -54.129845851719246 -76.956041975030018 0 -76.956041975030018 43.55500080049805 0 0 0 0 3.8968648720723369 -11.455745587511828 0 -11.455745587511828 -9.6064679908505468 0 0 0 0 22.085037474849173 -62.345966231496277 0 -62.345966231496277 40.799397454160498 0 0 0 0 -48.674132929787902 25.378177839644195 0 25.378177839644195 56.535333089464984 0 0 0 0 -2.7511063067916326 -5.5599203242161082 0 -5.5599203242161082 11.399774038774467 0 0 0 0 -27.141145094443573 -13.402467798499856 0 -13.402467798499856 25.223288371227682 0 0 0 0 24.272559596675421 6.1248229842822184 0 6.1248229842822184 30.109785650696722 0 0 0 0 34.558119324719826 34.006787077436456 0 34.006787077436456 89.829576789066778 0 0 0 0 86.022319657153616 32.880723096866859 0 32.880723096866859 44.831941963509962 0 0 0 0 47.305013240509879 -8.2929279432464682 0 -8.2929279432464682 119.74152641362161 0 0 0 0 165.3197899929072 -17.20337143814686 0 -17.20337143814686 78.694542096836813 0 0 0 0 40.986559865183864 9.8903054594920832 0 9.8903054594920832 74.233048978727311 0 0 0 0 97.424056539706982 58.654953710240079 0 58.654953710240079 98.802161007508403 0 0 0 0 3.3732342844632512 -28.829558928700862 0 -28.829558928700862 202.72230537019641 0 0 0 0 76.218394621152356 -97.5321815821153 0 -97.5321815821153 122.6464499302383 0 0 0 0 -13.805081579260104 115.58187979262584 0 115.58187979262584 149.33295823773369 0 0 0 0 -5.9876530156779495 1.5632856492011342 0 1.5632856492011342 73.407222280038695 0 0 0 0 3.5463052756751949 -26.479411187807273 0 -26.479411187807273 155.85070065069885 0 0 0 0 5.9708976956867446 172.21898113985117 0 172.21898113985117 280.73648059205152 0 0 0 0 15.356850492543799 151.76059511705944 0 151.76059511705944 172.93974821954907 0 0 0 0 90.310218129498026 270.58000469961917 0 270.58000469961917 338.81318313854717 0 0 0 0 0.62043734299277276 68.403155330677691 0 68.403155330677691 221.77253606679369 0 0 0 0 -66.095643521004604 20.539569460685016 0 20.539569460685016 93.700084572232299 0 0 0 0 20.135772641599033 32.223072814622356 0 32.223072814622356 79.492438975594268 0 0 0 0 62.935830424104779 122.47259500984387 0 122.47259500984387 17.108541090688959 0 0 0 0 8.2158615435178799 13.251685205108977 0 13.251685205108977 20.539191912541014 0 0 0 0 -118.05122924563693 92.728842259515659 0 92.728842259515659 56.649796025565593 0 0 0 0 -55.500222380587047 -5.7706348244073524 0 -5.7706348244073524 99.459956946389866 0 0 0 0 -41.844967037146489 16.712881668270711 0 16.712881668270711 39.690250535617452 0 0 0 0 -19.845165619604813 -9.9028558539866935 0 -9.9028558539866935 97.867338907488374 0 0 0 0 -45.025428702342651 -23.770943141111275 0 -23.770943141111275 125.72098724856551 0 0 0 0 -39.501626376825243 -32.573251304555015 0 -32.573251304555015 139.19838111714489 0 0 0 0 -51.538260930915612 12.25148633289291 0 12.25148633289291 146.35747931053629 0 0 0 0 -15.480186082530054 -26.791952752300858 0 -26.791952752300858 128.75838537471282 0 0 0 0 -12.925251071165803 -15.310289954022664 0 -15.310289954022664 166.7029061189387 0 0 0 0 -11.060860924467761 -35.257291278370758 0 -35.257291278370758 220.25643613944703 0 0 0 0 -5.8261164473838107 69.24943762042858 0 69.24943762042858 238.12055212253472 0 0 0 0 -8.9130024965543271 1.793326523151336 0 1.793326523151336 195.15326405324777 0 0 0 0 -31.90808169570505 -12.934302979425411 0 -12.934302979425411 89.049268207592831 0 0 0 0 -33.713223432947188 -6.5802117452303719 0 -6.5802117452303719 67.330364277520857 0 0 0 0 -1.1578926299205445 -8.4583284871087514 0 -8.4583284871087514 9.1666577523389776 0 0 0 0 17.629394742399228 -55.884335384284896 0 -55.884335384284896 154.84719226404195 0 0 0 0 17.571303141162502 -55.027810351424932 0 -55.027810351424932 143.51793066033133 0 0 0 0 -9.9821291488960924 -58.856341793707543 0 -58.856341793707543 164.43374917395704 0 0 0 0 50.122683573937138 -123.7188695010118 0 -123.7188695010118 111.19209590765058 0 0 0 0 -8.4380272182346516 -33.831835364645485 0 -33.831835364645485 24.236315375921549 0 0 0 0 -25.066826577098482 -47.403401639137883 0 -47.403401639137883 181.1542718251294 0 0 0 0 -16.933704175460662 -114.0696188439033 0 -114.0696188439033 97.783485546910015 0 0 0 0 -14.758776732308338 -46.789928279802666 0 -46.789928279802666 87.685253435831385 0 0 0 0 -77.539032096763435 53.200141911414903 0 53.200141911414903 320.7408070241072 0 0 0 0 -10.004292040080259 -54.142850548831348 0 -54.142850548831348 75.840314326720545 0 0 0 0 -48.089868788509193 -35.632057405417072 0 -35.632057405417072 139.68311125759283 0 0 0 0 -19.80245436414102 -38.790404613656719 0 -38.790404613656719 88.37808225630684 0 0 0 0 -96.129440530895408 -132.61367012145638 0 -132.61367012145638 98.378855563103571 0 0 0 0 -49.887571708134374 -49.092458982969447 0 -49.092458982969447 114.95395444899623 0 0 0 0 -111.7227989186847 -82.581430549071229 0 -82.581430549071229 98.281525501559372 0 0 0 0 -31.769767114536535 -152.91583807716961 0 -152.91583807716961 144.64865321807156 0 0 0 0 -0.37064673332327835 0.8412890811363809 0 0.8412890811363809 1.5104230552324651 0 0 0 0 -82.577656878381163 7.3089611184532259 0 7.3089611184532259 168.30964416291681 0 0 0 0 -222.81689422672252 -70.127654315037944 0 -70.127654315037944 239.73974833347893 0 0 0 0 -123.82380358268847 -53.487537899365634 0 -53.487537899365634 127.92399126170494 0 0 0 0 -118.06323086562679 -144.0763757591194 0 -144.0763757591194 -16.758775972168223 0 0 0 0 -76.039561254969612 -22.977341084362706 0 -22.977341084362706 144.66262811220076 0 0 0 0 -37.525766632399609 -37.831651454776875 0 -37.831651454776875 101.12450340192299 0 0 0 0 -1.0966984323678322 4.2536993297364063 0 4.2536993297364063 35.818760444645108 0 0 0 0 -52.025331999639093 -22.148530971226137 0 -22.148530971226137 130.34786257985979 0 0 0 0 3.5171083192981314 0.53052351768565131 0 0.53052351768565131 105.48793261335231 0 0 0 0 -12.368775296628948 -19.554798296971583 0 -19.554798296971583 83.227435160643012 0 0 0 0 -6.9381429575569937 -27.808569116215352 0 -27.808569116215352 58.847824816892 0 0 0 0 -17.592714630540286 -9.7976677058177302 0 -9.7976677058177302 56.752438300100039 0 0 0 0 -20.477745057935358 -29.556328543843769 0 -29.556328543843769 73.505221995011055 0 0 0 0 -9.243487324146372 12.094015966196821 0 12.094015966196821 64.416295164955955 0 0 0 0 22.866403461820028 6.639615134907217 0 6.639615134907217 57.651332563575124 0 0 0 0 -79.151670254744658 -12.762238486297065 0 -12.762238486297065 112.82573140383465 0 0 0 0 -3.6321666105165127 7.1201880997477005 0 7.1201880997477005 68.447494639958677 0 0 0 0 -6.2354160874988338 1.6299034534658858 0 1.6299034534658858 83.978480890422361 0 0 0 0 -19.098538591221768 -21.48425402038265 0 -21.48425402038265 48.53232566265433 0 0 0 0 -18.10895747030554 -12.730998685456143 0 -12.730998685456143 84.572842509653128 0 0 0 0 -2.8340284237515618 -18.646444307676717 0 -18.646444307676717 15.760585292374344 0 0 0 0 -3.8563658433814698 -6.0051961289007494 0 -6.0051961289007494 35.968284705056675 0 0 0 0 117.35625972650757 -29.04872939021152 0 -29.04872939021152 -15.775580948207789 0 0 0 0 116.30512602123872 -24.299575877455936 0 -24.299575877455936 202.27875650782516 0 0 0 0 -2.6936375485370831 59.040719679647736 0 59.040719679647736 109.1326977089193 0 0 0 0 -38.820719340385494 21.85336066322634 0 21.85336066322634 77.018693622580031 0 0 0 0 41.969060500141723 67.11427401144465 0 67.11427401144465 52.452570386216394 0 0 0 0 26.850322970132765 66.968516605527839 0 66.968516605527839 87.039077748180716 0 0 0 0 87.314160661115864 62.380804868134874 0 62.380804868134874 -10.361340387913515 0 0 0 0 71.676276330575604 94.494985052890115 0 94.494985052890115 72.837791151046986 0 0 0 0 0.75684238288981276 0.41786196616108384 0 0.41786196616108384 -0.0094800680818423189 0 0 0 0 90.634021122186255 -75.823646334156365 0 -75.823646334156365 34.241785744292429 0 0 0 0 9.628224250725907 -63.490645931859035 0 -63.490645931859035 42.865350047235552 0 0 0 0 29.5253507824591 -45.29103396377468 0 -45.29103396377468 99.299755766507587 0 0 0 0 65.986274099126376 -46.671697694291652 0 -46.671697694291652 110.03800486010732 0 0 0 0 20.895763191150309 -116.02772034561349 0 -116.02772034561349 -19.978996869867842 0 0 0 0 -74.407150745279978 -52.227161339156737 0 -52.227161339156737 56.505089540281915 0 0 0 0 18.418472861270402 -116.15351817532064 0 -116.15351817532064 100.29250433252309 0 0 0 0 28.801573692871216 -81.211876484452659 0 -81.211876484452659 190.34529963207024 0 0 0 0 22.93536807981809 -53.375720569121768 0 -53.375720569121768 125.96316476380525 0 0 0 0 141.94016858949908 5.648712749571132 0 5.648712749571132 111.53119545846289 0 0 0 0 130.29509491344061 -88.966463040684175 0 -88.966463040684175 112.64698625956225 0 0 0 0 239.03192076179073 -45.415706288156798 0 -45.415706288156798 156.83799269274459 0 0 0 0 109.97288041616912 75.217416666042482 0 75.217416666042482 436.77991497131006 0 0 0 0 -65.950740544736163 -70.224497615090513 0 -70.224497615090513 394.8879034351703 0 0 0 0 41.66911499660614 164.31047380387827 0 164.31047380387827 226.31483438517535 0 0 0 0 47.808798248620747 -31.124728664803115 0 -31.124728664803115 490.72181162861307 0 0 0 0 165.81439986316218 50.668297888554662 0 50.668297888554662 -10.792848593620874 0 0 0 0 0.13556415562660096 0.73437133007955424 0 0.73437133007955424 3.3198419175648155 0 0 0 0 43.925554476380192 -144.90958876247532 0 -144.90958876247532 406.08164296555333 0 0 0 0 130.82772969308041 -116.80198679039677 0 -116.80198679039677 115.2159289514384 0 0 0 0 11.564909321243412 68.593113964649092 0 68.593113964649092 535.44167127782566 0 0 0 0 1.7634838587919437 -0.84157696329540954 0 -0.84157696329540954 0.98455562774006466 0 0 0 0 73.513908645557521 -95.581171060061024 0 -95.581171060061024 156.91802491580893 0 0 0 0 49.544526705513334 -93.521929088778052 0 -93.521929088778052 325.78606308861345 0 0 0 0 44.488671580978462 -38.041324636651552 0 -38.041324636651552 157.39197800274087 0 0 0 0 44.974303752434707 -21.340838025385892 0 -21.340838025385892 204.18832962076704 0 0 0 0 38.382196118289528 1.2316162647075544 0 1.2316162647075544 127.13227808781085 0 0 0 0 39.787552573204266 44.987355007877341 0 44.987355007877341 174.44888589057518 0 0 0 0 45.18964983871399 41.836899459915003 0 41.836899459915003 172.10227074919385 0 0 0 0 44.546529346431186 64.948805975189316 0 64.948805975189316 251.2790046408918 0 0 0 0 3.3866842295267685 -3.1782245446601962 0 -3.1782245446601962 1.8062404231808387 0 0 0 0 41.842564903187736 60.416092123799899 0 60.416092123799899 176.52681971006314 0 0 0 0 32.27983819196379 -43.904713174531935 0 -43.904713174531935 -82.453112638904713 0 0 0 0 -41.691254908059051 -24.00424871384007 0 -24.00424871384007 43.70373284908419 0 0 0 0 43.155399338897723 66.247597706176748 0 66.247597706176748 136.84640915121417 0 0 0 0 32.894996372407491 34.139795986073295 0 34.139795986073295 158.17476552577864 0 0 0 0 44.924679235941312 141.55668249582232 0 141.55668249582232 123.94421574867738 0 0 0 0 71.903112160239971 86.824832520942437 0 86.824832520942437 -49.44323073218402 0 0 0 0 70.763947620923346 -252.75687506158283 0 -252.75687506158283 322.31000669975765 0 0 0 0 -6.0317893987762545 47.198103330199956 0 47.198103330199956 117.50991150188474 0 0 0 0 -5.3672635277958989 26.772816284927103 0 26.772816284927103 95.56918180079083 0 0 0 0 8.7914880032162728 41.424479992638226 0 41.424479992638226 36.119126034333021 0 0 0 0 16.365232910019131 55.737868316296954 0 55.737868316296954 112.44848604605068 0 0 0 0 14.431601861728268 58.488125271775061 0 58.488125271775061 108.54407593441556 0 0 0 0 4.0950436386676756 46.695281998214341 0 46.695281998214341 107.00009474705439 0 0 0 0 20.30575499034947 52.454175770793881 0 52.454175770793881 102.15506929188268 0 0 0 0 21.153301274747179 64.790974503845973 0 64.790974503845973 110.69485743308906 0 0 0 0 31.730104287957147 49.748030918141012 0 49.748030918141012 129.57956201533671 0 0 0 0 23.863719508135546 60.934869177115615 0 60.934869177115615 116.75081191654317 0 0 0 0 3.1762950825008205 -2.3038703655302299 0 -2.3038703655302299 8.0754104943171683 0 0 0 0 26.341366388438018 56.842992976948153 0 56.842992976948153 118.46641357304179 0 0 0 0 -12.864354964335689 -19.352849393311772 0 -19.352849393311772 12.042932099895552 0 0 0 0 23.548737080521732 60.929929449463089 0 60.929929449463089 112.75655278420891 0 0 0 0 34.815602356852423 53.245199006225448 0 53.245199006225448 116.78664572836715 0 0 0 0 17.046885138445305 35.902959977131104 0 35.902959977131104 124.40278651356857 0 0 0 0 22.727003819220954 58.456616684947221 0 58.456616684947221 120.36098661152937 0 0 0 0 7.5009870834112462 53.789072445761121 0 53.789072445761121 100.51858074478514 0 0 0 0 -9.2033801065938405 29.045150466517953 0 29.045150466517953 105.76403668099374 0 0 0 0 13.35975333790384 52.993772909758263 0 52.993772909758263 117.64990615550778 0 0 0 0 12.601786382482715 47.600699643997359 0 47.600699643997359 107.82047039212011 0 0 0 0 17.964514403192425 19.415794234068017 0 19.415794234068017 98.820764052979939 0 0 0 0 4.5467114333274594 45.291099876154476 0 45.291099876154476 120.08730491562164 0 0 0 0 18.296559986978082 14.948806213949865 0 14.948806213949865 157.20321685969247 0 0 0 0 28.015082201953192 45.397691073234455 0 45.397691073234455 132.32484386967553 0 0 0 0 28.278122453287779 -13.330341050183051 0 -13.330341050183051 143.58201528002246 0 0 0 0 25.723671384105899 1.8722925279971605 0 1.8722925279971605 96.411219580644683 0 0 0 0 -8.7219208861381503 4.1912489101232495 0 4.1912489101232495 120.49362633004057 0 0 0 0 -8.6418542833248466 4.482085103449208 0 4.482085103449208 63.48287861191784 0 0 0 0 -49.076192175569759 7.7607143463542343 0 7.7607143463542343 44.385378791135736 0 0 0 0 -49.914571278958192 11.30600403146309 0 11.30600403146309 95.629065183195053 0 0 0 0 -10.331373509920468 35.626883219141746 0 35.626883219141746 77.714427040751616 0 0 0 0 10.219269643630769 -1.0082375673227943 0 -1.0082375673227943 53.862875769635139 0 0 0 0 9.821915621706184 3.9201576675877732 0 3.9201576675877732 25.579564429266611 0 0 0 0 -1.5531457451689556 2.5898870925617139 0 2.5898870925617139 37.851337189216224 0 0 0 0 -125.94107397127163 -8.548102557520906 0 -8.548102557520906 70.008601038640336 0 0 0 0 0.77745443690936455 -4.6232471742187027 0 -4.6232471742187027 41.843635127497748 0 0 0 0 3.8163270724364757 6.0654117577105353 0 6.0654117577105353 52.037100930785527 0 0 0 0 -101.85569524484049 36.149412314527581 0 36.149412314527581 71.638210327942943 0 0 0 0 -14.935835424243464 -45.30681807869405 0 -45.30681807869405 -33.824635318720539 0 0 0 0 -108.95517194063768 13.936574186769576 0 13.936574186769576 84.04467386136821 0 0 0 0 0.31388148529108079 -2.2747597522628702 0 -2.2747597522628702 19.60686424874865 0 0 0 0 -0.0081494178193240868 -1.6101761478389212 0 -1.6101761478389212 61.553453622848963 0 0 0 0 13.444931700860955 -6.1228046156466007 0 -6.1228046156466007 33.436437654105248 0 0 0 0 16.424802233966822 2.4804363234070479 0 2.4804363234070479 37.396376825578045 0 0 0 0 18.351791134908488 -9.5159753302141326 0 -9.5159753302141326 26.097331405384466 0 0 0 0 0.22952227837647199 -14.01342911410029 0 -14.01342911410029 38.626023941927997 0 0 0 0 13.600942116831614 -26.870521388484121 0 -26.870521388484121 35.476914821454557 0 0 0 0 17.883286203217427 -9.0142638998804614 0 -9.0142638998804614 26.596011119312607 0 0 0 0 18.706799927896498 -9.2407883835257962 0 -9.2407883835257962 25.550809513404374 0 0 0 0 24.727652546325995 -10.700423628142744 0 -10.700423628142744 29.355812524154317 0 0 0 0 18.105065222589506 -9.9311558082808915 0 -9.9311558082808915 29.276026403240394 0 0 0 0 40.646515941976091 -0.37231198341760319 0 -0.37231198341760319 27.975383335666265 0 0 0 0 80.241484072305084 -58.980358781001996 0 -58.980358781001996 54.537684438168071 0 0 0 0 91.181541935108598 -63.673855213914067 0 -63.673855213914067 40.695824371658091 0 0 0 0 38.702956777393659 -38.729701228701742 0 -38.729701228701742 38.749511537054786 0 0 0 0 80.856877342839212 2.3589413865283859 0 2.3589413865283859 10.57474724916392 0 0 0 0 22.979507124222593 7.6736660539900186 0 7.6736660539900186 32.347718733682996 0 0 0 0 -159.97442226502747 205.51623538057538 0 205.51623538057538 203.56504942046013 0 0 0 0 236.66640940099245 -150.77274406918878 0 -150.77274406918878 -261.99301609898248 0 0 0 0 -3.6820992706991431 1.5777275692167221 0 1.5777275692167221 77.171506435673166 0 0 0 0 -394.29431372794727 487.01031138334656 0 487.01031138334656 483.97978487628279 0 0 0 0 -50.858076266117678 39.879265010207746 0 39.879265010207746 95.2212229951474 0 0 0 0 0.013678401266109461 0.60737239310584101 0 0.60737239310584101 6.1348071430658706 0 0 0 0 211.60485194254443 -164.21937542856904 0 -164.21937542856904 45.250924346444663 0 0 0 0 268.00608883784338 -56.006420379257179 0 -56.006420379257179 3.3030720281385584 0 0 0 0 -0.5144019869612394 -128.30614768654414 0 -128.30614768654414 123.76840858599462 0 0 0 0 98.343809750332014 -225.32014180865372 0 -225.32014180865372 99.863958082598401 0 0 0 0 -41.766616413947304 37.683984738192521 0 37.683984738192521 100.45114045128139 0 0 0 0 -38.427336169197133 9.7265706341786426 0 9.7265706341786426 65.645043466174684 0 0 0 0 -32.25599826520795 20.777809553910629 0 20.777809553910629 114.44624856923474 0 0 0 0 -15.094646959720194 52.128454922654782 0 52.128454922654782 102.33117226592003 0 0 0 0 -11.88564287790814 42.286997825329308 0 42.286997825329308 91.464181367995479 0 0 0 0 -7.8365476718486207 54.328964348933368 0 54.328964348933368 110.96693753304135 0 0 0 0 -4.3188824756089161 54.562231818832515 0 54.562231818832515 97.290179220872233 0 0 0 0 -9.6054649423929277 64.324332444026368 0 64.324332444026368 160.68372218779405 0 0 0 0 -63.110256358104664 9.735572242672788 0 9.735572242672788 116.99484441921231 0 0 0 0 -5.3599961214937775 39.393201993997252 0 39.393201993997252 1.9944920812877882 0 0 0 0 -1.3091707510340107 3.6925964928943813 0 3.6925964928943813 16.270712588414426 0 0 0 0 76.445968395452866 85.766898258378205 0 85.766898258378205 42.21502384080668 0 0 0 0 -8.8487126735806534 36.473496087398928 0 36.473496087398928 15.115498276427189 0 0 0 0 -45.658985097226264 46.827807939749619 0 46.827807939749619 153.56135388385155 0 0 0 0 -43.30729716201219 39.302066385847866 0 39.302066385847866 177.32175232584996 0 0 0 0 -52.199496578071695 -47.945087060080368 0 -47.945087060080368 112.56176820858673 0 0 0 0 -32.959172691064836 62.623338151111966 0 62.623338151111966 211.16173158882884 0 0 0 0 -52.638225375387449 -63.151058682300572 0 -63.151058682300572 361.0668642129458 0 0 0 0 -41.286864373090111 11.318328494391608 0 11.318328494391608 142.1465568204294 0 0 0 0 -60.345047927556948 -4.2878575909417123 0 -4.2878575909417123 185.46983112048474 0 0 0 0 133.67096079897632 -118.93947895833116 0 -118.93947895833116 43.212953459102209 0 0 0 0 -1.7814609776389132 -0.4201224708004645 0 -0.4201224708004645 10.075426778468078 0 0 0 0 896.53621871904943 261.39939820213476 0 261.39939820213476 -80.270089854537218 0 0 0 0 -0.28227519923271771 17.708419933980622 0 17.708419933980622 305.93871183163719 0 0 0 0 -1.9296832114116569 -62.573180296705686 0 -62.573180296705686 268.21405018141377 0 0 0 0 0.1377255153966887 6.9643603512324912 0 6.9643603512324912 2.8172931398283936 0 0 0 0 134.94245195866785 183.24449708390603 0 183.24449708390603 176.04696747155685 0 0 0 0 42.911741813774327 79.712405756599765 0 79.712405756599765 84.090685651579406 0 0 0 0 32.305171312818629 42.533724676286511 0 42.533724676286511 537.38583371441928 0 0 0 0 0.047216097916283783 0.23685945056868718 0 0.23685945056868718 1.6866197069921895 0 0 0 0 44.468697826982947 -178.35037431598175 0 -178.35037431598175 34.143778118537739 0 0 0 0 -56.407751304781598 104.28959823178593 0 104.28959823178593 473.17233739959192 0 0 0 0 24.073918626316527 -276.64145432408986 0 -276.64145432408986 385.27285521010344 0 0 0 0 19.856981114762135 107.53553680300683 0 107.53553680300683 159.83756776343216 0 0 0 0 16.317971512371031 39.906326967582572 0 39.906326967582572 121.19672542019543 0 0 0 0 0.14263857042618622 -3.0581015687639592 0 -3.0581015687639592 25.746625113140908 0 0 0 0 40.382347070496508 20.983785428557894 0 20.983785428557894 -14.800199138495373 0 0 0 0 -24.294642078435338 -28.372728545706195 0 -28.372728545706195 -3.0429861847078428 0 0 0 0 -22.152474196013593 31.810094196554928 0 31.810094196554928 -14.133184853038983 0 0 0 0 0.15454196247104454 0.65853543655646263 0 0.65853543655646263 2.3767323999425685 0 0 0 0 7.13706004471908 -2.3127289194817422 0 -2.3127289194817422 13.985118648211937 0 0 0 0 -0.015203125368345826 -9.0085712625150336 0 -9.0085712625150336 9.3468829530065705 0 0 0 0 -1.2125897223268396 -20.993885155672615 0 -20.993885155672615 30.754364249223727 0 0 0 0 -1.042778856550342 -28.747711249678105 0 -28.747711249678105 109.57716754530884 0 0 0 0 32.618740225174022 -9.5844954540880281 0 -9.5844954540880281 -105.42894012949546 0 0 0 0 36.645565470529284 -44.644615503202658 0 -44.644615503202658 13.43148336026934 0 0 0 0 0.42298928714914297 13.513954242731415 0 13.513954242731415 -4.7933175269863568 0 0 0 0 -5.1139913928163736 11.95772375541128 0 11.95772375541128 6.9839642315328092 0 0 0 0 11.92198063235827 -6.3973746476403903 0 -6.3973746476403903 3.3490967763464141 0 0 0 0 1.1351057362602432 -3.8119131861167261 0 -3.8119131861167261 28.964967584353872 0 0 0 0 1.5593125304214053 -6.2125059365264121 0 -6.2125059365264121 7.9569301234633372 0 0 0 0 3.5536621540080802 -16.123868405255962 0 -16.123868405255962 22.381558104694705 0 0 0 0 4.27373588236253 -0.45185546054563019 0 -0.45185546054563019 22.751916412964647 0 0 0 0 -3.4383493605735111 0.15833940274023917 0 0.15833940274023917 85.697515490610385 0 0 0 0 29.342608648364376 -4.5799569121809327 0 -4.5799569121809327 55.371674361802434 0 0 0 0 53.108454851079955 32.607552328363454 0 32.607552328363454 25.858416921706521 0 0 0 0 23.364888466819821 26.240173334859719 0 26.240173334859719 28.987142106219835 0 0 0 0 22.281505083509728 40.503484327542537 0 40.503484327542537 17.281003800861072 0 0 0 0 -20.464371258846313 61.548235157781164 0 61.548235157781164 20.362289546227657 0 0 0 0 -35.480962743131386 19.804377707871026 0 19.804377707871026 27.443855318619171 0 0 0 0 11.113972220982987 32.202390716884111 0 32.202390716884111 34.438372788114066 0 0 0 0 -13.792259464263452 42.754090594869922 0 42.754090594869922 29.970773919165367 0 0 0 0 1.0953667116304171 12.279599766619469 0 12.279599766619469 31.202426956077204 0 0 0 0 11.305269092464187 33.683258689983631 0 33.683258689983631 27.461923926677628 0 0 0 0 0.8581276816915997 -1.9300935016189129 0 -1.9300935016189129 16.440925100055182 0 0 0 0 2.5161573977103444 4.0034384155514999 0 4.0034384155514999 61.11298780470679 0 0 0 0 -3.5169582451036181 35.709900402867689 0 35.709900402867689 41.891852668298753 0 0 0 0 94.768367203011621 100.98453021704336 0 100.98453021704336 -84.270906241846433 0 0 0 0 -77.607944377593412 14.132101062612492 0 14.132101062612492 47.06188327097334 0 0 0 0 -14.253459835951276 104.20760219895965 0 104.20760219895965 50.246927919477457 0 0 0 0 -0.082285363759645236 18.765852617118995 0 18.765852617118995 24.17034473055844 0 0 0 0 -6.1098920556496523 12.889750548594748 0 12.889750548594748 23.510513868182898 0 0 0 0 -7.0903218628036395 38.196822288904102 0 38.196822288904102 38.782554954951735 0 0 0 0 86.537384437757055 -56.442751834316368 0 -56.442751834316368 62.679577551025432 0 0 0 0 -80.422432690457754 -14.534095411785529 0 -14.534095411785529 143.63612902292516 0 0 0 0 68.302865213370296 45.412086752767209 0 45.412086752767209 -56.507792172487825 0 0 0 0 -1.8547517748425921 1.9880919219244362 0 1.9880919219244362 6.3417666324757533 0 0 0 0 -132.22109464235018 -34.604889002337586 0 -34.604889002337586 5.3246306828514207 0 0 0 0 -5.779749524525414 17.81824187868915 0 17.81824187868915 17.026964555261657 0 0 0 0 -51.820734700139383 -96.086024548698333 0 -96.086024548698333 86.770201649866067 0 0 0 0 5.5927249661738188 -44.771775486246042 0 -44.771775486246042 130.37581290613161 0 0 0 0 -7.1210012972251207 -33.908475206349976 0 -33.908475206349976 129.78397167044477 0 0 0 0 -29.270241425558652 -22.644077422803093 0 -22.644077422803093 165.11902410240145 0 0 0 0 -29.046456171638056 -17.72773479562602 0 -17.72773479562602 183.5611747871917 0 0 0 0 -21.45401879925339 -62.559995669158525 0 -62.559995669158525 176.62267418255215 0 0 0 0 -10.962790863888586 31.363306576138712 0 31.363306576138712 116.94184298643313 0 0 0 0 -13.506813544110173 -37.893173734475567 0 -37.893173734475567 208.37823291347013 0 0 0 0 -30.332194055429682 66.571416616861825 0 66.571416616861825 223.25283925028634 0 0 0 0 -13.806820877986638 16.827833101706346 0 16.827833101706346 172.00261642120313 0 0 0 0 0.43726649971267761 26.678520387620665 0 26.678520387620665 95.038811189653643 0 0 0 0 43.278784443137965 -96.800556932234031 0 -96.800556932234031 201.45871912545408 0 0 0 0 175.293443278626 -3.0120833500404842 0 -3.0120833500404842 -67.325367967889179 0 0 0 0 2.428171279218156 4.2955568770358354 0 4.2955568770358354 -0.97356761361317012 0 0 0 0 -116.77262147716601 218.50725779250206 0 218.50725779250206 -16.45690368040232 0 0 0 0 259.46783083901119 110.61346280721773 0 110.61346280721773 -152.5550931468897 0 0 0 0 101.189803016322 72.338067746721208 0 72.338067746721208 -85.084533477862351 0 0 0 0 -31.163431631559746 53.405687548201968 0 53.405687548201968 320.38703866722062 0 0 0 0 -23.450663711481639 -35.391374861639633 0 -35.391374861639633 314.15446745316149 0 0 0 0 165.31932932870768 321.98070508384626 0 321.98070508384626 -59.165005566610489 0 0 0 0 -0.94766752845885094 32.067301053946721 0 32.067301053946721 80.391301478666719 0 0 0 0 -68.483550598448574 -18.625354766056262 0 -18.625354766056262 53.665657888370333 0 0 0 0 -2.8132059556107838 37.05179910889342 0 37.05179910889342 40.907512871554275 0 0 0 0 -180.391869518406 78.748077418429602 0 78.748077418429602 94.219017536917818 0 0 0 0 -1.3307092789281265 -0.046385156378903503 0 -0.046385156378903503 17.566573163483259 0 0 0 0 -3.8569319522184742 4.144468648446491 0 4.144468648446491 42.812567625951488 0 0 0 0 -3.1465239927118853 20.540383713182678 0 20.540383713182678 25.816273617269019 0 0 0 0 24.24402349950924 24.914379769252264 0 24.914379769252264 -14.07618106904556 0 0 0 0 -4.7560133625446124 23.135285645537152 0 23.135285645537152 37.349422628606646 0 0 0 0 3.0887823806903114 -0.3803384215035237 0 -0.3803384215035237 -5.3328998304684205 0 0 0 0 -2.3448360994968107 20.351475541059258 0 20.351475541059258 6.0637268247533029 0 0 0 0 -12.210028197561769 55.552024959135451 0 55.552024959135451 110.5280754200503 0 0 0 0 14.94280115660473 42.245201190824446 0 42.245201190824446 92.568483102106256 0 0 0 0 4.5729278270985105 28.016561872544116 0 28.016561872544116 79.407501061434232 0 0 0 0 -0.86424248809919391 12.218644755375863 0 12.218644755375863 84.044021617766703 0 0 0 0 -6.6083402081906115 23.63283306312951 0 23.63283306312951 112.76570110832836 0 0 0 0 -3.0165209304543623 15.188208641580786 0 15.188208641580786 72.276142236631131 0 0 0 0 -6.9113036368601115 11.725230427415227 0 11.725230427415227 77.771155840105166 0 0 0 0 -38.655923536094633 98.415518844114558 0 98.415518844114558 423.95860485211233 0 0 0 0 -112.78516430350919 135.11101273153326 0 135.11101273153326 465.80643773081556 0 0 0 0 -73.390396590390083 95.861858942836989 0 95.861858942836989 450.24171397071768 0 0 0 0 -16.773526142752218 43.705107187308386 0 43.705107187308386 436.47979078581557 0 0 0 0 -0.069021833953319067 -3.1363240275981497 0 -3.1363240275981497 -5.9650018681252206 0 0 0 0 -36.637435128793356 -32.79023495927504 0 -32.79023495927504 597.04820592981559 0 0 0 0 -62.452256563444848 63.790241063819849 0 63.790241063819849 504.45621546427355 0 0 0 0 -53.071577810530925 105.55773152676556 0 105.55773152676556 124.70378948906182 0 0 0 0 -21.146595267839075 25.954605890176026 0 25.954605890176026 322.32199179514282 0 0 0 0 89.845362745185412 -32.648071757863363 0 -32.648071757863363 390.28248778773559 0 0 0 0 -11.384013739229886 79.783954365571844 0 79.783954365571844 436.53894908519578 0 0 0 0 -11.076551745818506 80.598084802288213 0 80.598084802288213 352.5186585867923 0 0 0 0 -21.557032164291968 138.5569407202056 0 138.5569407202056 314.33318521401088 0 0 0 0 51.895425734945093 47.29402416504854 0 47.29402416504854 277.78361671132734 0 0 0 0 -111.01401334646107 -66.239044353918871 0 -66.239044353918871 231.06605538356234 0 0 0 0 -616.56434095953591 -141.17456933484937 0 -141.17456933484937 245.4711415397469 0 0 0 0 -409.20170646751376 -344.93299047388246 0 -344.93299047388246 18.615331682405667 0 0 0 0 -95.745990668572631 -82.700377165405371 0 -82.700377165405371 122.76692840523901 0 0 0 0 -246.27134007303175 -169.63812660050462 0 -169.63812660050462 259.2392385109415 0 0 0 0 -243.63755475515427 -173.13124789299036 0 -173.13124789299036 134.8783861076663 0 0 0 0 -337.46528406608195 -143.06962423492223 0 -143.06962423492223 179.38056491273164 0 0 0 0 -179.15916604965423 -188.49195377933211 0 -188.49195377933211 19.406434622389497 0 0 0 0 43.961346858322941 34.371662643396121 0 34.371662643396121 -97.473592134301725 0 0 0 0 -146.00893503021871 -71.658977335362579 0 -71.658977335362579 78.02135804228601 0 0 0 0 39.570688483556296 -58.232746540594235 0 -58.232746540594235 -196.16088696449879 0 0 0 0 -115.22063441825685 -253.42038826383305 0 -253.42038826383305 -286.44934866356198 0 0 0 0 -23.434738735048086 -4.2044827732497652 0 -4.2044827732497652 -78.184849264885997 0 0 0 0 -9.1203130798985512 99.551060133846477 0 99.551060133846477 179.86670942883757 0 0 0 0 -36.026913155163584 119.87242773680373 0 119.87242773680373 245.48024818992417 0 0 0 0 -505.80048065456322 -638.80038097341821 0 -638.80038097341821 -258.22416948997125 0 0 0 0 -38.209548119550213 -28.847305961151548 0 -28.847305961151548 215.29464929250838 0 0 0 0 -138.22748718579555 23.087072489468255 0 23.087072489468255 216.8807341519132 0 0 0 0 439.91427409593962 -589.97090472110722 0 -589.97090472110722 -1414.5765916854434 0 0 0 0 51.434932421832855 -55.598702983974363 0 -55.598702983974363 -254.31140298294486 0 0 0 0 -136.68059797418891 32.648894444356301 0 32.648894444356301 234.56942625601368 0 0 0 0 -906.84606541224457 -154.66763634821473 0 -154.66763634821473 2516.6047360320263 0 0 0 0 -37.904848268056035 -8.1644959870215743 0 -8.1644959870215743 211.57964055231486 0 0 0 0 -138.73692241713798 -8.2246279312821571 0 -8.2246279312821571 154.10713652006234 0 0 0 0 536.94249283323188 1462.62824602404 0 1462.62824602404 628.65774009149754 0 0 0 0 1437.7085002430758 1430.9457643877613 0 1430.9457643877613 -2104.6598547856647 0 0 0 0 259.65090293530375 295.75276004945044 0 295.75276004945044 -854.99807839043206 0 0 0 0 -254.81462796716005 325.49803226271615 0 325.49803226271615 1834.5740473114565 0 0 0 0 -64.091680778113187 186.86096776419799 0 186.86096776419799 452.51459054632869 0 0 0 0 -67.594431129899021 240.64093409196357 0 240.64093409196357 221.34589551522276 0 0 0 0 -43.345931534435294 377.2777157269411 0 377.2777157269411 627.29407149439794 0 0 0 0 263.15401444498275 436.94416170215118 0 436.94416170215118 -82.67540039676544 0 0 0 0 -230.08602232164594 205.99947514296946 0 205.99947514296946 569.82845225254823 0 0 0 0 -166.37557303106678 132.27484906939571 0 132.27484906939571 636.18677786012267 0 0 0 0 47.989119550203668 -128.30115489989475 0 -128.30115489989475 62.265406494800118 0 0 0 0 -40.364205871784179 -162.31894774308967 0 -162.31894774308967 620.21883975950914 0 0 0 0 -47.98406051532038 -52.677840385258605 0 -52.677840385258605 237.06482072428662 0 0 0 0 3.2191602277136058 9.0027388946942359 0 9.0027388946942359 22.155423442750958 0 0 0 0 368.22929102648277 65.706373466059631 0 65.706373466059631 -123.27740423986688 0 0 0 0 60.763250670865091 -320.73682236424793 0 -320.73682236424793 766.4252634067343 0 0 0 0 3.619890694879814 103.48945252725207 0 103.48945252725207 127.52919591509908 0 0 0 0 41.050665563954681 166.96285837266078 0 166.96285837266078 41.280315752954266 0 0 0 0 -3.0494395129664165 18.606165894224475 0 18.606165894224475 66.945254747877101 0 0 0 0 6.2276425323580042 133.87158289945273 0 133.87158289945273 152.73808365813056 0 0 0 0 1.3511510693242599 110.65625378470577 0 110.65625378470577 107.75664178743318 0 0 0 0 -110.57107757666472 122.06048547543287 0 122.06048547543287 62.020025610196171 0 0 0 0 8.3432614817829744 125.87589756051239 0 125.87589756051239 -23.036097815931498 0 0 0 0 43.388209471959385 15.07369998650347 0 15.07369998650347 48.907153882100829 0 0 0 0 -4.2355612047525781 20.087536862595073 0 20.087536862595073 244.47518562705591 0 0 0 0 -6.0108259360358716 56.91106684134138 0 56.91106684134138 187.04639465275977 0 0 0 0 -53.628475523747511 22.204944789627916 0 22.204944789627916 477.13658866596961 0 0 0 0 -6.8674987495697906 54.924717331671673 0 54.924717331671673 259.1170611959642 0 0 0 0 -7.0864188448480263 106.67172087340441 0 106.67172087340441 390.85356203593255 0 0 0 0 3.0995691494426865 86.510700062652177 0 86.510700062652177 128.67186229494109 0 0 0 0 -51.746307506166886 146.35258605096806 0 146.35258605096806 185.0398564618954 0 0 0 0 -23.478844589474114 7.0602993317305263 0 7.0602993317305263 -2.8554075612444123 0 0 0 0 462.5709168814443 379.20834105243193 0 379.20834105243193 141.20265310081595 0 0 0 0 707.97095122099563 258.58354426931692 0 258.58354426931692 -16.272745823527657 0 0 0 0 65.420720019572855 312.54142612610667 0 312.54142612610667 181.28096675260895 0 0 0 0 471.88959063401421 121.91179532321439 0 121.91179532321439 70.045824445081962 0 0 0 0 -634.14912151872375 2.2983987997486111 0 2.2983987997486111 671.87071530137109 0 0 0 0 -138.89948079441194 -98.1474530976393 0 -98.1474530976393 -53.630613324170554 0 0 0 0 -0.93249979871491784 5.7456355144597726 0 5.7456355144597726 6.3017510290997052 0 0 0 0 247.76142945353513 345.88577435757907 0 345.88577435757907 452.46964923296764 0 0 0 0 -443.90646995208317 221.92449885255337 0 221.92449885255337 923.90328901835892 0 0 0 0 -910.47108954104442 359.40123333434894 0 359.40123333434894 992.63339457793336 0 0 0 0 -443.0419366668574 194.458392418161 0 194.458392418161 1006.754703567698 0 0 0 0 15.307942519597418 -8.6689791816079378 0 -8.6689791816079378 848.57270296648494 0 0 0 0 68.869171190095585 -54.694622189264919 0 -54.694622189264919 -47.016834855410707 0 0 0 0 87.015580770478664 54.682460523014015 0 54.682460523014015 396.19014507716201 0 0 0 0 -258.72396736476639 503.89532455632434 0 503.89532455632434 99.404910710582044 0 0 0 0 172.39769613178032 -374.05325997518958 0 -374.05325997518958 753.10275198830641 0 0 0 0 -17.054004328075507 108.89999078736582 0 108.89999078736582 489.51388556755774 0 0 0 0 -10.925157516857411 120.54212608396483 0 120.54212608396483 450.08233093877061 0 0 0 0 -8.9011174671738953 1.2709219210509985 0 1.2709219210509985 2.2821902281921638 0 0 0 0 0.3343744469364438 -1.8696758557811108 0 -1.8696758557811108 5.5911697851701874 0 0 0 0 -3.2545930226551718 23.92931882304174 0 23.92931882304174 15.963110309632611 0 0 0 0 39.233990712482409 3.1939552003859717 0 3.1939552003859717 381.53615560512844 0 0 0 0 40.733975283976179 38.786916001903592 0 38.786916001903592 375.0284685490451 0 0 0 0 14.126200766787051 2.8889168562505958 0 2.8889168562505958 0.64744083595841317 0 0 0 0 5.8222215741436756 0.20430217695840724 0 0.20430217695840724 -0.2623087659226897 0 0 0 0 0.15234456598409452 12.029460752688465 0 12.029460752688465 46.606595832392486 0 0 0 0 217.17879872428875 22.175542493143439 0 22.175542493143439 -42.55602908219953 0 0 0 0 451.98182739491642 295.71966500186443 0 295.71966500186443 533.49338544379134 0 0 0 0 444.30524044504909 36.173294308799086 0 36.173294308799086 216.22773033214617 0 0 0 0 267.83546856872999 68.9709221428202 0 68.9709221428202 363.99099268246937 0 0 0 0 60.777709984748981 104.99330823997661 0 104.99330823997661 1108.1142488964324 0 0 0 0 35.528091783338823 -48.593718496791553 0 -48.593718496791553 461.25680870136421 0 0 0 0 17.894093076281024 -45.352746978058349 0 -45.352746978058349 630.11104785303178 0 0 0 0 109.14105221253703 143.44570697313611 0 143.44570697313611 652.64093060557298 0 0 0 0 47.992079503671448 34.660379278528126 0 34.660379278528126 529.9554788478199 0 0 0 0 -13.857920826667396 -11.679639802652673 0 -11.679639802652673 536.5891147886432 0 0 0 0 17.5199852163787 28.938380852065166 0 28.938380852065166 587.71444075109775 0 0 0 0 -27.059794525353936 -28.375673622264003 0 -28.375673622264003 592.61457733581847 0 0 0 0 -11.68807834929612 -24.564926073897368 0 -24.564926073897368 527.54300089893513 0 0 0 0 -37.843059369766706 11.731055714037211 0 11.731055714037211 520.13173356572406 0 0 0 0 53.650025580620422 -12.819999365816329 0 -12.819999365816329 446.02868147115805 0 0 0 0 38.509878355358978 14.847806480198415 0 14.847806480198415 517.46212776305038 0 0 0 0 42.948477575860124 4.952335792582744 0 4.952335792582744 529.97382727498189 0 0 0 0 146.7324649548591 37.020876011760265 0 37.020876011760265 472.53063875375665 0 0 0 0 167.74580870193358 17.074445381045734 0 17.074445381045734 410.32673437141784 0 0 0 0 193.17107154881523 7.7070497493332368 0 7.7070497493332368 412.85764661541543 0 0 0 0 241.70540622723092 59.124122188761248 0 59.124122188761248 431.12461520595389 0 0 0 0 293.316006457203 114.57197592945886 0 114.57197592945886 423.14591228276549 0 0 0 0 246.30818064899654 20.644520282875419 0 20.644520282875419 352.6673605354008 0 0 0 0 261.78171022619154 48.896920527538896 0 48.896920527538896 385.73611947768586 0 0 0 0 246.81268363141589 -19.063028424046934 0 -19.063028424046934 366.72106000249732 0 0 0 0 218.63645421210822 21.303332490526373 0 21.303332490526373 424.04621288869021 0 0 0 0 229.49620948070697 -17.834633601043606 0 -17.834633601043606 416.90968341991538 0 0 0 0 195.91866744169238 4.7383002143760677 0 4.7383002143760677 437.74807388444242 0 0 0 0 196.27400722763764 2.0072812563976186 0 2.0072812563976186 402.98443370951281 0 0 0 0 140.62390385500839 -4.1952199597581057 0 -4.1952199597581057 423.98837872357399 0 0 0 0 125.85518037896145 -1.6831206267997914 0 -1.6831206267997914 439.65366853304295 0 0 0 0 101.00383668597169 33.448747729875322 0 33.448747729875322 410.99394017571649 0 0 0 0 141.5740686318602 -12.053745677543702 0 -12.053745677543702 392.12261148671678 0 0 0 0 17.196997467344772 112.54708412930268 0 112.54708412930268 441.91152121657797 0 0 0 0 51.806725011302888 75.818389670232136 0 75.818389670232136 412.97593149707774 0 0 0 0 -101.84175570741854 28.53860866823743 0 28.53860866823743 413.43654554064415 0 0 0 0 246.38940337574945 -2.9628250298892453 0 -2.9628250298892453 318.89150388164853 0 0 0 0 15.480418073685769 34.665475765334122 0 34.665475765334122 403.88671133449679 0 0 0 0 222.65824265581034 81.625941673053603 0 81.625941673053603 399.00007764753536 0 0 0 0 92.161528318704313 63.793843180490512 0 63.793843180490512 444.420402432228 0 0 0 0 415.8523085699876 183.50278266989699 0 183.50278266989699 473.64435110780687 0 0 0 0 -70.199827456722232 125.39983025770562 0 125.39983025770562 448.68875426641171 0 0 0 0 100.1118096527437 135.63754236837212 0 135.63754236837212 393.57076598834828 0 0 0 0 -128.25366031632575 7.9503277334515587 0 7.9503277334515587 509.41181606946702 0 0 0 0 -190.87492822762295 107.29526099410577 0 107.29526099410577 415.95331903539773 0 0 0 0 -87.590390769781948 -1.2313140548230876 0 -1.2313140548230876 424.41618863197073 0 0 0 0 -96.338674139802379 -14.840551623725332 0 -14.840551623725332 480.15288565552328 0 0 0 0 -9.579006181396835 -8.5325983764014381 0 -8.5325983764014381 446.84114834506181 0 0 0 0 -2.8103617153683444 94.985010336389678 0 94.985010336389678 818.04321118402731 0 0 0 0 -4.6390430154284719 -29.926583528766095 0 -29.926583528766095 11.365453521718536 0 0 0 0 12.11543390671136 -26.944713454166276 0 -26.944713454166276 362.0325958477024 0 0 0 0 105.91403497973639 -227.06706306247725 0 -227.06706306247725 227.25980169417744 0 0 0 0 -24.870683322625347 -104.06381911772684 0 -104.06381911772684 83.810275614410671 0 0 0 0 55.870704078440212 -343.66416297763135 0 -343.66416297763135 598.64260151208873 0 0 0 0 82.973393202751595 -37.074341965744679 0 -37.074341965744679 88.801887686277041 0 0 0 0 -0.72649533700040436 1.8677903419690907 0 1.8677903419690907 19.851276489429562 0 0 0 0 -46.584660340487197 -120.6016472103785 0 -120.6016472103785 144.12732197225282 0 0 0 0 8.1367154643066897 -69.722769334259283 0 -69.722769334259283 401.67615482322799 0 0 0 0 -8.7035352614605905 -0.075948752228889305 0 -0.075948752228889305 26.737937184989558 0 0 0 0 84.562756514651483 185.57865981829673 0 185.57865981829673 484.1465360118018 0 0 0 0 51.851868143701722 162.33177962501759 0 162.33177962501759 612.54179771865165 0 0 0 0 191.96593412570564 -17.443001146490133 0 -17.443001146490133 440.87031873124215 0 0 0 0 319.45542420912057 -134.72783325940418 0 -134.72783325940418 665.34559364445158 0 0 0 0 59.388427907084406 214.01124930046353 0 214.01124930046353 532.95160698255495 0 0 0 0 66.122533068661141 163.17121102090823 0 163.17121102090823 824.88713213205301 0 0 0 0 -13.541240440946533 -60.048075079511321 0 -60.048075079511321 50.876962192845042 0 0 0 0 -49.584779428514594 -22.37703344017882 0 -22.37703344017882 149.77515182925345 0 0 0 0 293.11456897239123 316.28362944551236 0 316.28362944551236 485.32682124646817 0 0 0 0 132.32805255707717 96.731645108138764 0 96.731645108138764 305.01254753930698 0 0 0 0 -87.13809587550486 212.08334302639923 0 212.08334302639923 789.85404370798642 0 0 0 0 -90.824911020981745 182.75392522798575 0 182.75392522798575 590.67007113239015 0 0 0 0 51.876909022437758 230.91326911203942 0 230.91326911203942 556.41168369381194 0 0 0 0 5.1834936565574026 307.25143255867988 0 307.25143255867988 457.61221225465124 0 0 0 0 168.19678664889943 -74.681460786620846 0 -74.681460786620846 204.52937046537045 0 0 0 0 -392.26143582978784 431.17945987041912 0 431.17945987041912 557.40028186254131 0 0 0 0 60.103834304671182 -45.497919683279179 0 -45.497919683279179 -34.477734048687125 0 0 0 0 3.1178561966158753 -0.70333669777870256 0 -0.70333669777870256 0.096662986203391199 0 0 0 0 562.52291583771148 -244.98233167477156 0 -244.98233167477156 219.8092379064874 0 0 0 0 -336.49216442652505 103.61728250600572 0 103.61728250600572 122.6440837497687 0 0 0 0 -102.54858669557325 -112.4555130987178 0 -112.4555130987178 262.7904348170855 0 0 0 0 32.62817078914486 -32.538182195803529 0 -32.538182195803529 92.898881437010232 0 0 0 0 76.188058682705787 -65.702247774536204 0 -65.702247774536204 -15.639669947788207 0 0 0 0 72.6969932727892 -95.459637721831911 0 -95.459637721831911 64.852985668032488 0 0 0 0 11.904671974054509 -47.626869094784524 0 -47.626869094784524 58.709875548811397 0 0 0 0 33.5752647638692 -27.163083327256572 0 -27.163083327256572 47.940826851053771 0 0 0 0 -19.921656957121741 -5.6461566993093584 0 -5.6461566993093584 7.4302702772047269 0 0 0 0 2.0187163448172214 -0.23978620107845927 0 -0.23978620107845927 149.38914883421603 0 0 0 0 -36.734316062313155 0.085801881239603972 0 0.085801881239603972 166.61430903500423 0 0 0 0 -57.285349743731786 -10.173502377925615 0 -10.173502377925615 164.40581627208849 0 0 0 0 -0.6355633926886286 10.656070652042933 0 10.656070652042933 111.63028226470664 0 0 0 0 21.050734653474137 19.853136853456817 0 19.853136853456817 90.718260904492126 0 0 0 0 20.018015846011622 27.921923270601837 0 27.921923270601837 133.48312354652808 0 0 0 0 -34.865516653452687 -22.705962057036231 0 -22.705962057036231 138.02803839145781 0 0 0 0 36.356154036895532 48.573457527169012 0 48.573457527169012 221.89018881338052 0 0 0 0 37.098702815081197 46.30464342340747 0 46.30464342340747 150.9478820228469 0 0 0 0 76.120696215713906 101.49030908411441 0 101.49030908411441 174.89738287517139 0 0 0 0 78.527237934304139 107.91144052688651 0 107.91144052688651 132.08081308812507 0 0 0 0 29.44391270013989 32.953891131458363 0 32.953891131458363 208.1618741605962 0 0 0 0 29.23971305774387 29.854620106593529 0 29.854620106593529 350.36780754951906 0 0 0 0 -3.1342177540976977 0.76859514891912539 0 0.76859514891912539 -2.4269129131627247 0 0 0 0 4.5130134949931744 -11.286097302927374 0 -11.286097302927374 194.75430623078864 0 0 0 0 11.912145078662434 15.431699390657741 0 15.431699390657741 241.73331789110534 0 0 0 0 -204.9352772484126 37.669602158108319 0 37.669602158108319 379.73557563963459 0 0 0 0 41.291233111030806 16.807788372467712 0 16.807788372467712 326.39535470928968 0 0 0 0 -160.35030848804126 -68.209429614062174 0 -68.209429614062174 292.90159175062581 0 0 0 0 -355.52972791182765 9.4208527538994531 0 9.4208527538994531 445.10590542079444 0 0 0 0 -341.84640569061617 -91.641332653447535 0 -91.641332653447535 831.49539641605224 0 0 0 0 -183.05632259409322 -104.21629903557914 0 -104.21629903557914 480.10208636083553 0 0 0 0 28.948460654437156 -128.75995620718163 0 -128.75995620718163 320.06206278059835 0 0 0 0 -4.0640153307967921 76.534033637496123 0 76.534033637496123 421.79748409521562 0 0 0 0 -86.817205454618488 -130.15847166597723 0 -130.15847166597723 6.2260955505007587 0 0 0 0 -163.97703135392021 35.064886793486949 0 35.064886793486949 457.61415980343008 0 0 0 0 -35.717777330829854 -103.53619811382288 0 -103.53619811382288 67.075864256333631 0 0 0 0 107.00152966359474 160.69036180306375 0 160.69036180306375 441.9767637737823 0 0 0 0 -103.51186067881827 43.739551026241315 0 43.739551026241315 166.05923658555912 0 0 0 0 6.0623277613029707 1.3975111675975356 0 1.3975111675975356 44.941992851280503 0 0 0 0 -41.443457436303106 117.28546657837433 0 117.28546657837433 728.66343158781092 0 0 0 0 -47.362444176321603 -100.61440325402798 0 -100.61440325402798 67.999307157489739 0 0 0 0 -300.54901978055204 -22.450884438127105 0 -22.450884438127105 -195.00144865434868 0 0 0 0 141.17395174302146 -311.93344619867275 0 -311.93344619867275 -43.364886422637937 0 0 0 0 -136.63310988257217 -107.14196217473364 0 -107.14196217473364 316.97535629535378 0 0 0 0 104.03799321618499 -327.70879553231316 0 -327.70879553231316 34.500212916096643 0 0 0 0 -296.46603622186376 296.09773917871644 0 296.09773917871644 183.3806826811051 0 0 0 0 -0.23981686259387125 -19.110440692624458 0 -19.110440692624458 -7.7942664626064584 0 0 0 0 -6.5087422022797199 -0.15038343696909351 0 -0.15038343696909351 50.388364238108871 0 0 0 0 98.654794408474118 490.88466428517131 0 490.88466428517131 16.810836544376798 0 0 0 0 -91.164610052800384 -58.306794340775468 0 -58.306794340775468 269.18035358980774 0 0 0 0 111.30760755038381 -137.04377299232578 0 -137.04377299232578 153.92464754273533 0 0 0 0 -386.61993808881016 -124.71289491059724 0 -124.71289491059724 180.68519395557814 0 0 0 0 -198.63913246660377 -222.14911819784902 0 -222.14911819784902 210.73328269441845 0 0 0 0 206.20063425200715 332.7084671633238 0 332.7084671633238 628.04698499588994 0 0 0 0 75.984609266062762 -447.24112974996569 0 -447.24112974996569 467.41630651809101 0 0 0 0 -43.880100092677822 237.81110833608363 0 237.81110833608363 738.22239382888074 0 0 0 0 -32.414288193802349 132.63608470671534 0 132.63608470671534 553.09894041121152 0 0 0 0 -19.598444046810982 222.77481489828278 0 222.77481489828278 724.56695172962645 0 0 0 0 65.773386906239466 182.32951288852746 0 182.32951288852746 393.5676540450113 0 0 0 0 102.70456736897358 14.030008129002454 0 14.030008129002454 351.40687823028566 0 0 0 0 3.2691895355128509 133.53386963581215 0 133.53386963581215 590.55739962103371 0 0 0 0 757.37507320118038 36.810024579059245 0 36.810024579059245 24.824293530067735 0 0 0 0 0.043145437518219865 0.34222138790924106 0 0.34222138790924106 0.98019745012074555 0 0 0 0 188.64271340400774 256.12900198169154 0 256.12900198169154 351.64848550672104 0 0 0 0 109.12398263691648 174.40687411940962 0 174.40687411940962 237.35451212246335 0 0 0 0 124.90984890418713 97.600004085585169 0 97.600004085585169 175.85876297432696 0 0 0 0 76.453725900129939 111.86280543220346 0 111.86280543220346 171.6649868534023 0 0 0 0 285.46626062352971 80.782569216513366 0 80.782569216513366 126.13229300941384 0 0 0 0 8.6218299906613538 69.520639240676246 0 69.520639240676246 153.02082755911306 0 0 0 0 10.594738020076363 -7.8004665950091052 0 -7.8004665950091052 5.1067368928832408 0 0 0 0 48.566296443448664 -77.814690979748775 0 -77.814690979748775 -40.756461460829087 0 0 0 0 25.6100341766778 -92.839328282079805 0 -92.839328282079805 75.842569364842348 0 0 0 0 -110.89368889785874 35.115965385437448 0 35.115965385437448 73.579499217943521 0 0 0 0 80.710112062108237 104.63561279308124 0 104.63561279308124 123.21586353830116 0 0 0 0 -20.867868580964569 192.11762923536298 0 192.11762923536298 255.33053810238926 0 0 0 0 51.349372855596357 -12.762245565793819 0 -12.762245565793819 57.72125742580829 0 0 0 0 86.025013973452587 118.25418273992909 0 118.25418273992909 299.18291037810923 0 0 0 0 21.206877207293473 179.86413290102064 0 179.86413290102064 505.97005173144134 0 0 0 0 61.391557600712986 -31.108756727049695 0 -31.108756727049695 -60.376543792961456 0 0 0 0 63.397979112454777 -2.8825322583397792 0 -2.8825322583397792 155.21180145847757 0 0 0 0 19.164162416251202 97.824448576575378 0 97.824448576575378 318.49733786057914 0 0 0 0 -36.387210884779336 -53.588425953224373 0 -53.588425953224373 112.2014061338341 0 0 0 0 8.7757701281698566 -7.3300371313187789 0 -7.3300371313187789 5.7821460073375945 0 0 0 0 8.3097018960329478 -12.575904326193267 0 -12.575904326193267 2.9695782803082693 0 0 0 0 200.83852274309993 46.585359896756927 0 46.585359896756927 10.407707678408769 0 0 0 0 10.865690940699004 -8.9104097264085809 0 -8.9104097264085809 6.2371241529976729 0 0 0 0 -32.615155552954093 39.757588710148411 0 39.757588710148411 28.415208955653725 0 0 0 0 4.810833641103696 -1.0413406516150552 0 -1.0413406516150552 -0.66955428611404955 0 0 0 0 10.636223302626057 -3.8872993222360854 0 -3.8872993222360854 1.9358107925292529 0 0 0 0 146.2195901699497 -126.65972343117755 0 -126.65972343117755 -56.785626846613468 0 0 0 0 6.9904916898885858 4.6417533982967143 0 4.6417533982967143 -6.7780105881029158 0 0 0 0 54.997528916485976 -315.24833276674508 0 -315.24833276674508 -93.159362115915428 0 0 0 0 331.58843387247157 -98.145133689562499 0 -98.145133689562499 -59.653805319204139 0 0 0 0 -852.18599164813781 361.0117776369043 0 361.0117776369043 31.877885042497837 0 0 0 0 -344.85248949254969 -196.62630242274463 0 -196.62630242274463 92.585244713438442 0 0 0 0 75.428783846775332 -81.000137134655233 0 -81.000137134655233 444.82888624107727 0 0 0 0 3.9211372593140958 -1.9673243242198453 0 -1.9673243242198453 1.1952986682051971 0 0 0 0 413.61784097461714 -127.72091923293192 0 -127.72091923293192 19.212279618281173 0 0 0 0 2.2185385452705599 -3.2828340266083131 0 -3.2828340266083131 3.4573657645333071 0 0 0 0 326.05513888263363 279.75343204311866 0 279.75343204311866 -62.884947181402822 0 0 0 0 402.68235517432731 -739.22955509920575 0 -739.22955509920575 -395.19355630609061 0 0 0 0 358.58412266879947 -685.17569535710447 0 -685.17569535710447 15.621084946455085 0 0 0 0 2.6808818193931074 -17.207882821061503 0 -17.207882821061503 11.473230983465328 0 0 0 0 63.001583721486895 162.45399044827354 0 162.45399044827354 -8.2050471938600822 0 0 0 0 -72.109112909294709 26.785760437313002 0 26.785760437313002 389.32739851607766 0 0 0 0 -77.785260930086224 5.1708249832263391 0 5.1708249832263391 414.0914578436641 0 0 0 0 38.921072544548224 -72.618469698136323 0 -72.618469698136323 436.73571647671633 0 0 0 0 27.703206714320913 14.395595359950676 0 14.395595359950676 318.09230376419873 0 0 0 0 -59.521386669405729 72.773945507582539 0 72.773945507582539 365.94811679887789 0 0 0 0 -113.03552057753404 164.57575695907508 0 164.57575695907508 247.80112917014048 0 0 0 0 72.380083031779577 49.86653607349399 0 49.86653607349399 363.58510695897712 0 0 0 0 112.02757746297902 -4.704586266525439 0 -4.704586266525439 456.31365809879662 0 0 0 0 -21.80190394627607 -12.777212168293772 0 -12.777212168293772 456.08306718694803 0 0 0 0 62.677820789354882 -46.023215412162244 0 -46.023215412162244 420.90505868989931 0 0 0 0 32.502591148725514 -77.785453588037853 0 -77.785453588037853 459.0929999062937 0 0 0 0 78.645175108616968 -71.431619006689289 0 -71.431619006689289 430.48674865034263 0 0 0 0 152.58068359468234 -97.316062312609574 0 -97.316062312609574 444.31395888252882 0 0 0 0 191.63052646986307 -3.2131882844332722 0 -3.2131882844332722 444.8488012235357 0 0 0 0 75.925270831378839 -51.328658362614078 0 -51.328658362614078 431.7207338556691 0 0 0 0 34.59723871173901 16.055199633072334 0 16.055199633072334 522.87974116503756 0 0 0 0 162.77947621078965 90.963972987538 0 90.963972987538 523.97700837910088 0 0 0 0 301.17653925436707 32.670876134296122 0 32.670876134296122 474.6955955053345 0 0 0 0 223.71490604008432 -79.860228516539792 0 -79.860228516539792 1267.2848650542728 0 0 0 0 715.39012890105505 284.87040795783105 0 284.87040795783105 622.38356201794522 0 0 0 0 777.60816327841849 -141.35980544670019 0 -141.35980544670019 343.76432310440578 0 0 0 0 505.98466607880891 -220.75081333005801 0 -220.75081333005801 466.94901376341295 0 0 0 0 461.05757311346269 -160.03826922225562 0 -160.03826922225562 336.88325737247214 0 0 0 0 521.36973571035196 -85.241572906103102 0 -85.241572906103102 363.29380640844465 0 0 0 0 142.19555062975815 -121.49003563572478 0 -121.49003563572478 430.76097708661109 0 0 0 0 274.14831987228354 -174.80813986228895 0 -174.80813986228895 480.29359424619179 0 0 0 0 268.28073076651731 -175.30209988705792 0 -175.30209988705792 452.32225956153707 0 0 0 0 264.5578944074432 -170.97820951670292 0 -170.97820951670292 490.14949852012796 0 0 0 0 95.482187700408758 -123.14717489721079 0 -123.14717489721079 484.46438415505691 0 0 0 0 279.21043840184939 -121.46732195029108 0 -121.46732195029108 402.27120864132667 0 0 0 0 320.93893193789597 -19.040768973934973 0 -19.040768973934973 226.47075430826953 0 0 0 0 211.14670650429616 3.4774090323844575 0 3.4774090323844575 285.22975355994276 0 0 0 0 188.94843292120731 -22.72985688337576 0 -22.72985688337576 306.14308509982584 0 0 0 0 244.20187017430362 -25.460813043080634 0 -25.460813043080634 268.6217486811438 0 0 0 0 312.64467436019186 152.74738012771559 0 152.74738012771559 136.32073361978291 0 0 0 0 122.59281357090003 42.087947788635574 0 42.087947788635574 465.40678137743089 0 0 0 0 291.63022819620574 226.64749985941307 0 226.64749985941307 372.98220198093622 0 0 0 0 180.20065463505853 201.7217098196852 0 201.7217098196852 400.51885852404666 0 0 0 0 231.0250008972198 415.51110118627548 0 415.51110118627548 416.32117872636809 0 0 0 0 170.70514343956393 242.49667785418615 0 242.49667785418615 665.89175868783786 0 0 0 0 137.51101640625166 72.911728702980326 0 72.911728702980326 622.69712414877631 0 0 0 0 194.02200428079777 235.1442276771304 0 235.1442276771304 -73.33395679260866 0 0 0 0 3.6341689533165393 -1.5107655772957003 0 -1.5107655772957003 -0.3530144176984038 0 0 0 0 -69.478945389890214 157.72899158657674 0 157.72899158657674 1290.0560192404691 0 0 0 0 225.22238436617044 416.73407745768782 0 416.73407745768782 783.64704126428114 0 0 0 0 107.88907434133034 215.42971437510641 0 215.42971437510641 501.99389363584487 0 0 0 0 72.576022787307011 243.75618722992658 0 243.75618722992658 505.63649348307808 0 0 0 0 41.784388145557386 148.14160556711613 0 148.14160556711613 628.30498358191107 0 0 0 0 105.40042620600582 43.728720116429031 0 43.728720116429031 344.00979228728102 0 0 0 0 85.3649141733531 3.0084776569383394 0 3.0084776569383394 438.24249580311152 0 0 0 0 74.194425109369149 144.42431137161475 0 144.42431137161475 538.43960848568531 0 0 0 0 310.87085022409519 125.90284307323645 0 125.90284307323645 510.29058722002083 0 0 0 0 -8.9542488424447875 -19.819633769167126 0 -19.819633769167126 18.175986108171777 0 0 0 0 17.492265575828242 -19.692511957950046 0 -19.692511957950046 24.194522209853858 0 0 0 0 0.051166075458070281 2.0554957178646873 0 2.0554957178646873 68.372932131293055 0 0 0 0 -14.602938790261902 -8.4721508899201297 0 -8.4721508899201297 48.592173087197153 0 0 0 0 -10.789638984751036 -19.179702750414435 0 -19.179702750414435 54.284039398151435 0 0 0 0 -2.4223378650570115 -21.533208615882849 0 -21.533208615882849 46.032537167682477 0 0 0 0 -22.229193504681007 -28.617908088801414 0 -28.617908088801414 71.883100297254714 0 0 0 0 -25.207206427255901 0.27674213182289975 0 0.27674213182289975 9.2204236078108543 0 0 0 0 -364.48666182940701 -75.630695804997231 0 -75.630695804997231 -15.458159486741351 0 0 0 0 -262.00943242531594 -145.76710408774125 0 -145.76710408774125 -61.545020089590253 0 0 0 0 -43.423712816658963 -22.105248465381919 0 -22.105248465381919 140.22521166867955 0 0 0 0 -28.556080554395976 -49.068427738249738 0 -49.068427738249738 78.143933912353532 0 0 0 0 -202.0257511097775 34.076732905363315 0 34.076732905363315 234.22236832645831 0 0 0 0 -31.415590611711451 15.462314047088796 0 15.462314047088796 91.24687512291348 0 0 0 0 -7.3147562213495556 0.92906850951372633 0 0.92906850951372633 -1.6115763461930399 0 0 0 0 412.38466628263859 -430.14070431840446 0 -430.14070431840446 -894.0623887942038 0 0 0 0 408.78491159346686 -533.53826289800782 0 -533.53826289800782 -502.01658048312675 0 0 0 0 -189.87391575902154 -173.68475088183186 0 -173.68475088183186 30.173522996632528 0 0 0 0 -196.62026473705035 -258.93691524638962 0 -258.93691524638962 505.53219463104324 0 0 0 0 12.350455312658141 -490.39154112876713 0 -490.39154112876713 914.76498577283564 0 0 0 0 -32.61837763580229 -204.93158590272287 0 -204.93158590272287 -12.946556251044967 0 0 0 0 -78.453003313898535 154.48861217671219 0 154.48861217671219 337.17329996829358 0 0 0 0 -72.158071865115261 -158.21893592195875 0 -158.21893592195875 308.29332745642751 0 0 0 0 341.70564704168783 135.08483073767093 0 135.08483073767093 409.83088632702129 0 0 0 0 -80.349670328606408 -152.90799414876528 0 -152.90799414876528 775.01500351454888 0 0 0 0 167.69498021288678 63.228258971394098 0 63.228258971394098 943.26614033647638 0 0 0 0 -217.98799623038894 129.56530622230275 0 129.56530622230275 381.71985752186447 0 0 0 0 -126.24189629348791 6.4158656574581983 0 6.4158656574581983 337.61473400626801 0 0 0 0 65.908368023207913 -24.950052549458633 0 -24.950052549458633 334.13962938674376 0 0 0 0 231.40506710458544 41.298877823984185 0 41.298877823984185 54.643809095585311 0 0 0 0 -257.90240939877708 -50.829872313343003 0 -50.829872313343003 104.20255260866725 0 0 0 0 -598.3771203352992 299.66871780293695 0 299.66871780293695 164.4714968314147 0 0 0 0 2.1166331713539606 6.5792999317281087 0 6.5792999317281087 17.257337846143869 0 0 0 0 -356.37804546846587 -68.722935520221654 0 -68.722935520221654 216.57672067754174 0 0 0 0 -215.80650452335669 94.281561662245622 0 94.281561662245622 30.328233337353595 0 0 0 0 55.239340959067704 -69.651473935555259 0 -69.651473935555259 126.77981807472861 0 0 0 0 23.15941866398498 -11.244381568094468 0 -11.244381568094468 74.257152446309192 0 0 0 0 -340.79646666567987 -66.853577885562117 0 -66.853577885562117 38.96309780638876 0 0 0 0 -7.6222293896714746 -20.513227922048827 0 -20.513227922048827 71.492573725445254 0 0 0 0 -3.3618397369219215 5.3822710491639647 0 5.3822710491639647 22.706563768785671 0 0 0 0 9.5546489254447806 -71.973452661128249 0 -71.973452661128249 141.33124341841904 0 0 0 0 -12.246088134008914 -35.975804944047923 0 -35.975804944047923 75.938451982030529 0 0 0 0 -40.751716498589758 19.15876359115282 0 19.15876359115282 290.16813276048924 0 0 0 0 -9.9893951493623661 5.8465125111283669 0 5.8465125111283669 291.56116344833572 0 0 0 0 5.9046578488078012 -85.16644901491145 0 -85.16644901491145 271.61193170171464 0 0 0 0 6.7215314023032988 -64.389991450316302 0 -64.389991450316302 163.39441862301101 0 0 0 0 -35.561490679104963 -31.814337697402152 0 -31.814337697402152 608.18238938300055 0 0 0 0 38.445337848126655 -72.050839325375819 0 -72.050839325375819 239.81802234224233 0 0 0 0 123.13583227342394 -328.1355168859418 0 -328.1355168859418 1051.5781603579599 0 0 0 0 55.973132822968182 -87.615769520441972 0 -87.615769520441972 247.88633992260293 0 0 0 0 211.74545619909611 163.13513851340394 0 163.13513851340394 -236.29964286897302 0 0 0 0 -109.94224949834393 678.41116832743683 0 678.41116832743683 169.87864141108003 0 0 0 0 1.8944514452006551 3.7325959157773454 0 3.7325959157773454 6.6495377013706474 0 0 0 0 571.84997556827273 128.12798950670367 0 128.12798950670367 223.31132289699235 0 0 0 0 82.521269391363148 24.097267328530506 0 24.097267328530506 219.92603778396733 0 0 0 0 348.28241596549424 211.87078447141903 0 211.87078447141903 103.65731204373151 0 0 0 0 12.696351060906863 193.60783504531355 0 193.60783504531355 432.5475017388344 0 0 0 0 26.535601823452396 254.09065174098168 0 254.09065174098168 330.92112155273935 0 0 0 0 214.07505769556542 476.87593261069014 0 476.87593261069014 747.56568881344356 0 0 0 0 -28.483902986205067 254.08815730074457 0 254.08815730074457 450.64419758540316 0 0 0 0 31.62239386997453 194.29219843056489 0 194.29219843056489 227.77701300285844 0 0 0 0 -19.76156531356537 196.94236122841539 0 196.94236122841539 355.6733368387504 0 0 0 0 -16.560445453856573 199.61385464316118 0 199.61385464316118 280.46259519256455 0 0 0 0 -40.673928034457276 43.617480787117529 0 43.617480787117529 339.17012776605043 0 0 0 0 -13.548504635890367 178.56254632119999 0 178.56254632119999 330.30489630457669 0 0 0 0 -10.185986328807303 73.161795334226554 0 73.161795334226554 365.40880164897681 0 0 0 0 13.613173709893545 41.153230449763214 0 41.153230449763214 397.937613679489 0 0 0 0 -307.86114259257192 -167.7890887241374 0 -167.7890887241374 321.94969621158089 0 0 0 0 -182.26196200616505 -60.67316837242106 0 -60.67316837242106 212.61165453387366 0 0 0 0 -145.40457517480172 -82.178769595513586 0 -82.178769595513586 138.97269976158714 0 0 0 0 -168.76303190429098 15.780495415059704 0 15.780495415059704 375.39443902189669 0 0 0 0 -86.842021903143177 77.982793267902707 0 77.982793267902707 246.72227269667201 0 0 0 0 50.705892926031083 141.3964400304103 0 141.3964400304103 271.71993170131464 0 0 0 0 -96.151938556457026 85.461421866573801 0 85.461421866573801 278.83846076661212 0 0 0 0 -165.06822178867515 13.45392791647464 0 13.45392791647464 313.39944686166564 0 0 0 0 -84.966629158194337 76.453159353908632 0 76.453159353908632 222.35773704101302 0 0 0 0 -133.62052202350242 33.775882694979373 0 33.775882694979373 225.05554054191452 0 0 0 0 -67.750504244335389 59.915279609900608 0 59.915279609900608 240.4453853058294 0 0 0 0 278.66406528282641 261.66762626433047 0 261.66762626433047 327.82993298328074 0 0 0 0 37.395047843330758 210.42902941228431 0 210.42902941228431 510.09095331822755 0 0 0 0 406.12552374685583 439.13261069170039 0 439.13261069170039 472.67949195196707 0 0 0 0 279.98786347102487 268.08282496771062 0 268.08282496771062 332.21840668525329 0 0 0 0 425.62353441356981 200.73683656535286 0 200.73683656535286 254.52984867496707 0 0 0 0 171.50437459309762 196.89649996496155 0 196.89649996496155 314.19733922629894 0 0 0 0 -57.747264123805962 483.00550441795713 0 483.00550441795713 840.10125432011773 0 0 0 0 87.279462842876683 242.86036886046986 0 242.86036886046986 901.46471436384309 0 0 0 0 49.268450017597161 322.64289962202201 0 322.64289962202201 11.093476767669927 0 0 0 0 153.80620234174876 -303.31481191727289 0 -303.31481191727289 683.94509119047871 0 0 0 0 7.0336559848316682 4.134611279094571 0 4.134611279094571 -1.8442139046040609 0 0 0 0 39.41501730076925 203.07237783175151 0 203.07237783175151 1021.9721442373593 0 0 0 0 156.20351096201966 -24.720480816740746 0 -24.720480816740746 32.979567241680343 0 0 0 0 166.71999853686702 73.412229632354865 0 73.412229632354865 9.8618766142026288 0 0 0 0 -84.898937085683428 -111.0314755744912 0 -111.0314755744912 180.68847640229797 0 0 0 0 -7.3984496568217875 0.52563241339416322 0 0.52563241339416322 26.247505280739759 0 0 0 0 -159.63167185103566 60.080030716668261 0 60.080030716668261 100.52892481408344 0 0 0 0 -80.335109139386986 -143.60047416950511 0 -143.60047416950511 131.09146128638758 0 0 0 0 81.008438508710697 -95.676960161627903 0 -95.676960161627903 121.40167727853986 0 0 0 0 -275.24244237780476 -38.220952841231338 0 -38.220952841231338 380.32751755772642 0 0 0 0 30.029406832894892 166.55057754284053 0 166.55057754284053 149.89122417452563 0 0 0 0 -35.536891588426244 17.654024029754815 0 17.654024029754815 180.90667393766569 0 0 0 0 14.75530888457979 101.61477355877787 0 101.61477355877787 232.95171043357368 0 0 0 0 -0.52312764707221504 46.155347710579917 0 46.155347710579917 69.811521630232164 0 0 0 0 88.818421640127781 -5.2231099638843261 0 -5.2231099638843261 214.05048117280177 0 0 0 0 23.794248207305724 52.707255640410423 0 52.707255640410423 98.443436644894447 0 0 0 0 79.44482650618238 67.909683295075695 0 67.909683295075695 75.650226351121091 0 0 0 0 20.117836202191484 44.679346194054233 0 44.679346194054233 68.432894628916983 0 0 0 0 24.4984049931345 43.182313208953019 0 43.182313208953019 41.920599120396218 0 0 0 0 -88.28466899846444 11.303446338484719 0 11.303446338484719 117.68928500363836 0 0 0 0 -16.890160897645419 18.469986004779436 0 18.469986004779436 64.037673670489681 0 0 0 0 44.485155420029969 -5.0169563654671947 0 -5.0169563654671947 47.884824230119193 0 0 0 0 47.771609269617329 96.28137475024414 0 96.28137475024414 20.969393370021862 0 0 0 0 65.642467935584136 5.0949030237898114 0 5.0949030237898114 54.266392314377299 0 0 0 0 137.49738840475658 211.83151166026619 0 211.83151166026619 274.0793219065381 0 0 0 0 -42.944358262174319 7.3227503161760978 0 7.3227503161760978 85.84288066442241 0 0 0 0 -49.446737601276709 27.71521845877578 0 27.71521845877578 59.71411476690264 0 0 0 0 -104.69558926877198 -52.252635245571582 0 -52.252635245571582 63.825070130520544 0 0 0 0 -111.57486809771217 -38.363932321277389 0 -38.363932321277389 38.708471824764274 0 0 0 0 -14.771399753422884 -73.041186849259248 0 -73.041186849259248 35.845331425822224 0 0 0 0 -67.499425322024763 30.6692925753905 0 30.6692925753905 131.39214294152043 0 0 0 0 -111.77709332308405 -36.793963243981125 0 -36.793963243981125 24.127328370523173 0 0 0 0 -9.6703725699273004 -9.2077505423776955 0 -9.2077505423776955 0.12310943326497181 0 0 0 0 -15.272638412074457 -61.204340204531036 0 -61.204340204531036 164.83993184591964 0 0 0 0 38.176218195299271 -22.731776878943492 0 -22.731776878943492 -10.073020820578677 0 0 0 0 -6.9787663905726429 -2.9333770866800393 0 -2.9333770866800393 -1.199706172571311 0 0 0 0 -166.36800943655714 87.497460820086417 0 87.497460820086417 -14.381089667345805 0 0 0 0 -15.824653527164628 -12.915905564099376 0 -12.915905564099376 -11.854008951824653 0 0 0 0 -6.4515407327081684 19.085684676422826 0 19.085684676422826 29.12714106733452 0 0 0 0 -5.8674502834470115 13.287475656460924 0 13.287475656460924 18.936691833126616 0 0 0 0 -26.131411173821107 -30.051345931919059 0 -30.051345931919059 11.472944647946861 0 0 0 0 -17.591121810326428 9.6920737678810838 0 9.6920737678810838 11.743558060494252 0 0 0 0 -9.6809579782517687 9.5711487009491094 0 9.5711487009491094 18.093759976795525 0 0 0 0 30.327424879625099 22.321971267362642 0 22.321971267362642 42.083819241895981 0 0 0 0 16.257517585811911 28.110733160159725 0 28.110733160159725 39.799940805169172 0 0 0 0 17.297176559839279 8.9115655730025196 0 8.9115655730025196 18.787570504748146 0 0 0 0 24.183643279194484 35.295558693333078 0 35.295558693333078 27.613757289167552 0 0 0 0 17.086069551425453 35.060885774872077 0 35.060885774872077 46.615573605860845 0 0 0 0 17.99949167181785 32.96950416049367 0 32.96950416049367 53.412689053293434 0 0 0 0 21.929720896037907 42.097130549664143 0 42.097130549664143 58.595553997321986 0 0 0 0 30.356555588638912 37.63299486809774 0 37.63299486809774 49.834059856788372 0 0 0 0 -19.68375119022193 14.033098066405785 0 14.033098066405785 48.762715502221823 0 0 0 0 32.746822857176085 45.308505488024821 0 45.308505488024821 52.403752703139617 0 0 0 0 1.391383885558426 -1.6213591012018469 0 -1.6213591012018469 0.50019224109923499 0 0 0 0 67.463317305664987 122.15151948001585 0 122.15151948001585 220.07632647761784 0 0 0 0 22.675538329138362 55.7873442566015 0 55.7873442566015 122.22195117179217 0 0 0 0 23.890475137095564 177.06017770964172 0 177.06017770964172 182.80880566050473 0 0 0 0 5.1359144269090393 150.40994030411821 0 150.40994030411821 239.43560025659099 0 0 0 0 7.3253681172695906 208.96722026353746 0 208.96722026353746 225.24515530910867 0 0 0 0 20.025099926394432 134.19544641298489 0 134.19544641298489 54.983466961057275 0 0 0 0 4.8884132619665399 -2.1044747584896442 0 -2.1044747584896442 3.1438654581894454 0 0 0 0 33.058028318770539 89.563991060589615 0 89.563991060589615 22.669674913566269 0 0 0 0 -12.426413173624724 7.1063444866731516 0 7.1063444866731516 -110.70654467881832 0 0 0 0 -23.596534103209251 117.36515525612049 0 117.36515525612049 90.760257974121487 0 0 0 0 154.67057840065354 120.6889585788158 0 120.6889585788158 129.97210245773022 0 0 0 0 2.216615986866779 1.2993345366684395 0 1.2993345366684395 -3.9361213705537779 0 0 0 0 133.04286488907576 51.744259974897432 0 51.744259974897432 -280.24778057209187 0 0 0 0 -20.786450957777959 227.58597642165114 0 227.58597642165114 266.86275218129231 0 0 0 0 108.78790424385011 123.65895446753711 0 123.65895446753711 183.21593590835982 0 0 0 0 73.651751882153349 170.50487289056764 0 170.50487289056764 166.14798049433011 0 0 0 0 -62.332305336141445 322.82739431075606 0 322.82739431075606 154.89427813636576 0 0 0 0 73.691383787326231 165.84399312709138 0 165.84399312709138 -208.28469825359934 0 0 0 0 67.616612437447657 2.8397029211482732 0 2.8397029211482732 -225.30689746743155 0 0 0 0 2.4199258995222408 80.08121102219593 0 80.08121102219593 6.1574267519172281 0 0 0 0 86.901227769628349 95.044385216468072 0 95.044385216468072 -166.87885067359457 0 0 0 0 114.6821149006405 187.17198888540588 0 187.17198888540588 12.392404490965419 0 0 0 0 100.59755475681195 104.3752218371892 0 104.3752218371892 -54.853997664235067 0 0 0 0 67.244596840766235 97.30122982551984 0 97.30122982551984 -52.500529589276994 0 0 0 0 -52.201767762575741 93.025395652461157 0 93.025395652461157 84.248788023510315 0 0 0 0 222.26311206545694 106.88919154965515 0 106.88919154965515 -250.92659216054017 0 0 0 0 -31.016534027585749 162.42946512587514 0 162.42946512587514 634.66719816649675 0 0 0 0 10.575188529347429 -101.95704116846173 0 -101.95704116846173 -367.80788020346154 0 0 0 0 0.12993114464755617 -1.0801857057554543 0 -1.0801857057554543 0.81309555355350227 0 0 0 0 44.715549710389581 -16.493130317980103 0 -16.493130317980103 324.93463288091152 0 0 0 0 51.869372558743436 97.274765459264017 0 97.274765459264017 282.21455841900024 0 0 0 0 -113.52573992463027 312.51327238676822 0 312.51327238676822 -166.28743758312339 0 0 0 0 -0.25820028903764203 -1.3474059881530138 0 -1.3474059881530138 -2.0263735336767894 0 0 0 0 -30.576032789569133 60.578130798935149 0 60.578130798935149 21.89014481328195 0 0 0 0 -149.76627417616589 24.426484032333974 0 24.426484032333974 43.175862988959125 0 0 0 0 48.958729662465885 268.99298973182522 0 268.99298973182522 193.57434876591287 0 0 0 0 191.93913394350898 -86.748197409182467 0 -86.748197409182467 185.81126169138622 0 0 0 0 -123.65321638529278 183.09131555691715 0 183.09131555691715 182.10529815460905 0 0 0 0 296.98266118989659 220.37119966746104 0 220.37119966746104 62.378046034747967 0 0 0 0 63.359024691250397 213.05804073087347 0 213.05804073087347 -6.19892265641829 0 0 0 0 77.114563713329517 128.93592818563775 0 128.93592818563775 22.136014516348951 0 0 0 0 86.036377547218649 156.58259075294154 0 156.58259075294154 56.101147158551612 0 0 0 0 148.24785906568377 143.19520560449746 0 143.19520560449746 55.604476106746006 0 0 0 0 1.1530331595032228 13.520583901083803 0 13.520583901083803 10.062258002057973 0 0 0 0 22.865459744174132 17.475588748638984 0 17.475588748638984 -24.331586496995442 0 0 0 0 101.61368934191489 7.7620153392899738 0 7.7620153392899738 79.402631887707685 0 0 0 0 280.97530637785093 -9.6366971774951935 0 -9.6366971774951935 62.714042383318883 0 0 0 0 0.3879082463339838 0.092227593656048157 0 0.092227593656048157 24.75625733386201 0 0 0 0 87.444078880901316 129.21198543527498 0 129.21198543527498 338.63640831710654 0 0 0 0 264.93893980513621 134.56863077164599 0 134.56863077164599 108.89084791432106 0 0 0 0 36.39101073405709 23.184898804674958 0 23.184898804674958 178.84018344443029 0 0 0 0 -8.2166619899862852 -29.540570025287622 0 -29.540570025287622 132.66951924985347 0 0 0 0 -13.374089284990987 34.530799940130237 0 34.530799940130237 219.41886471464386 0 0 0 0 23.620125639258784 75.633540004974549 0 75.633540004974549 60.609630769254935 0 0 0 0 32.991324141883979 32.519825683790259 0 32.519825683790259 -162.14453253439933 0 0 0 0 93.663364051798453 23.142795020688936 0 23.142795020688936 194.85304717373219 0 0 0 0 92.466251816223121 20.191826818365371 0 20.191826818365371 193.66921984286773 0 0 0 0 82.674673463982799 22.173969993600622 0 22.173969993600622 196.46352941652003 0 0 0 0 71.467268050440566 -5.9555808000804973 0 -5.9555808000804973 183.39177163079148 0 0 0 0 119.43629006867195 0.90865104762633564 0 0.90865104762633564 179.55781460617436 0 0 0 0 93.343431778291006 23.296668353632413 0 23.296668353632413 175.40697366226959 0 0 0 0 77.795309869112316 21.693611952148785 0 21.693611952148785 193.71861312477495 0 0 0 0 75.602374666528632 41.669064713810258 0 41.669064713810258 168.29967753052188 0 0 0 0 116.63729994029654 64.697152105036366 0 64.697152105036366 174.18298621828581 0 0 0 0 153.8039520184268 39.700627886759321 0 39.700627886759321 129.86772611188644 0 0 0 0 162.21215795864509 41.205465642602576 0 41.205465642602576 77.444177990342723 0 0 0 0 121.89278719882486 -4.2098089539140346 0 -4.2098089539140346 116.68872390113756 0 0 0 0 155.82161620592984 -34.727976358088199 0 -34.727976358088199 131.18581290847214 0 0 0 0 97.715290689321364 15.687398554324318 0 15.687398554324318 117.76678623757471 0 0 0 0 178.99158513669158 -26.581118635589519 0 -26.581118635589519 55.465912587544153 0 0 0 0 -30.271470837503941 67.29602327259272 0 67.29602327259272 107.09181723892107 0 0 0 0 181.94237872394456 31.279366737981036 0 31.279366737981036 65.814024219860585 0 0 0 0 105.89210557513846 -45.081755589519162 0 -45.081755589519162 82.752020856365561 0 0 0 0 -32.067826392052893 68.35138667049614 0 68.35138667049614 32.506958251171454 0 0 0 0 -140.41984563488046 -2.5327320334472461 0 -2.5327320334472461 84.723491472563182 0 0 0 0 -62.534901762371973 10.392265678887725 0 10.392265678887725 -109.27407673100242 0 0 0 0 -67.424020166878051 -38.963062249287759 0 -38.963062249287759 119.23716938142024 0 0 0 0 55.9326614089874 -51.751040148938046 0 -51.751040148938046 22.812003420149267 0 0 0 0 54.650902385338725 -21.425680238877248 0 -21.425680238877248 100.2032285109708 0 0 0 0 -84.154435693191701 -116.31377334477656 0 -116.31377334477656 253.12534111643618 0 0 0 0 -54.560885968448609 -103.74524129155543 0 -103.74524129155543 192.93252527739969 0 0 0 0 7.6588817787064443 -146.20694329226899 0 -146.20694329226899 214.35358991055546 0 0 0 0 4.2559856310477793 11.980089577947098 0 11.980089577947098 -1.7647544907193264 0 0 0 0 158.81132353203995 -208.17486829921836 0 -208.17486829921836 270.34680643601644 0 0 0 0 54.213866803238886 -85.231103316564258 0 -85.231103316564258 156.40549361112789 0 0 0 0 218.671735989745 73.391929164772591 0 73.391929164772591 270.29162893070315 0 0 0 0 68.938136112728643 -72.552849872865409 0 -72.552849872865409 133.58408311942912 0 0 0 0 255.49565773710742 -145.45729635826137 0 -145.45729635826137 146.43595251043007 0 0 0 0 133.59474344776186 -80.612599414263968 0 -80.612599414263968 117.69990066015453 0 0 0 0 97.411733834133884 -76.945785033789434 0 -76.945785033789434 216.57899564101535 0 0 0 0 76.843872809447703 -161.93858087036642 0 -161.93858087036642 262.2746738709975 0 0 0 0 -44.856254777385402 -62.370328185355902 0 -62.370328185355902 225.17555151168199 0 0 0 0 66.319991767134326 169.16459147495698 0 169.16459147495698 157.38716118729099 0 0 0 0 -324.53044171355572 907.53562476752268 0 907.53562476752268 57.573187370348023 0 0 0 0 12.605312965656569 47.345072438731734 0 47.345072438731734 85.648116676098397 0 0 0 0 152.42472621597381 -346.73418819437211 0 -346.73418819437211 -243.823489880946 0 0 0 0 7.9100035961437243 168.6597445250809 0 168.6597445250809 932.81251651189814 0 0 0 0 21.100141097750111 12.100553181757277 0 12.100553181757277 200.59750153784989 0 0 0 0 28.54248951611299 55.742264926995659 0 55.742264926995659 88.938630301860201 0 0 0 0 71.086892211011218 614.1562058770578 0 614.1562058770578 -478.01336915344291 0 0 0 0 30.123205261616931 -23.025144297382212 0 -23.025144297382212 190.49732285781647 0 0 0 0 64.492421391707921 8.6015074985043611 0 8.6015074985043611 200.99766417604042 0 0 0 0 109.01067525870394 -13.552992517245002 0 -13.552992517245002 178.160630550723 0 0 0 0 2.8021276699856958 40.028704249284033 0 40.028704249284033 29.913350494192855 0 0 0 0 95.037886125777675 -3.430296788646956 0 -3.430296788646956 19.932079131496721 0 0 0 0 2.8702316844260167 40.672713093295897 0 40.672713093295897 -0.67291920345451217 0 0 0 0 -112.53961803663637 22.341110254150408 0 22.341110254150408 54.822044275038934 0 0 0 0 6.5337258507719298 13.521277678632032 0 13.521277678632032 17.371484803068597 0 0 0 0 8.9782651713166395 9.1069563475121669 0 9.1069563475121669 13.902655529082992 0 0 0 0 -3.223378443272749 7.1317893230512688 0 7.1317893230512688 10.643969517282869 0 0 0 0 56.38553914671752 30.159111566177671 0 30.159111566177671 -17.894197741563403 0 0 0 0 17.739910630067591 19.187014646368482 0 19.187014646368482 17.632802921153626 0 0 0 0 11.653963215059179 22.130492828277056 0 22.130492828277056 -0.21836133094984689 0 0 0 0 2.9905907066326241 4.1700111370846198 0 4.1700111370846198 1.9330870394657893 0 0 0 0 -33.183731436249573 30.296455257965135 0 30.296455257965135 31.437038822339673 0 0 0 0 -3.065848298098337 3.3832918630449029 0 3.3832918630449029 -1.6285980918887617 0 0 0 0 -175.03795589584593 19.525344980422233 0 19.525344980422233 25.636162781549501 0 0 0 0 -143.29297117073287 16.41497367271586 0 16.41497367271586 -3.5830486408303841 0 0 0 0 46.396203920529935 49.771996936438882 0 49.771996936438882 -20.074520087488054 0 0 0 0 -405.60747642286299 -32.44787876814371 0 -32.44787876814371 74.947554064874566 0 0 0 0 -0.68463305477916436 0.75619749456173935 0 0.75619749456173935 -0.95310343704710476 0 0 0 0 -95.755054963713292 -2.4925385440437822 0 -2.4925385440437822 118.3827606800769 0 0 0 0 216.90955021826184 47.908567765623047 0 47.908567765623047 -39.186178439209471 0 0 0 0 -0.34007828311639998 -0.40060257381448339 0 -0.40060257381448339 0.6933914594636974 0 0 0 0 -93.303139378425442 50.848858567293064 0 50.848858567293064 -18.424702104775861 0 0 0 0 -92.488530603885508 -50.766747254115216 0 -50.766747254115216 177.71969859526871 0 0 0 0 -188.69631322357029 -91.443414880835917 0 -91.443414880835917 162.77160111714329 0 0 0 0 -49.644443319858397 -96.017426924438041 0 -96.017426924438041 201.88616490941058 0 0 0 0 -50.740542011691019 -104.47067386646268 0 -104.47067386646268 246.84618542744283 0 0 0 0 71.36347949525576 65.819322872619523 0 65.819322872619523 145.61367950846397 0 0 0 0 -0.1193337011067751 0.28976334548719151 0 0.28976334548719151 7.365559700908392 0 0 0 0 -108.79233193472388 -125.58539112997823 0 -125.58539112997823 221.18363357461567 0 0 0 0 118.16980871428396 116.34088483351661 0 116.34088483351661 6.926530341625039 0 0 0 0 -33.521805135610435 108.90545057318195 0 108.90545057318195 40.505278377633658 0 0 0 0 125.55768265276453 194.96564231250795 0 194.96564231250795 330.03788319332671 0 0 0 0 -0.72666830767890356 0.84605001401686408 0 0.84605001401686408 20.144939540484955 0 0 0 0 787.82448163185688 721.20322325572761 0 721.20322325572761 340.26284160424257 0 0 0 0 354.73732300121185 313.31345841318762 0 313.31345841318762 253.16961450146664 0 0 0 0 214.71136823051816 418.73100776208958 0 418.73100776208958 436.01275932149292 0 0 0 0 19.060016426398761 244.39554789140675 0 244.39554789140675 331.82828028983204 0 0 0 0 -291.1705350683294 664.33074225107248 0 664.33074225107248 861.87220765282109 0 0 0 0 11.579587259802793 235.00620914314641 0 235.00620914314641 433.86080167936962 0 0 0 0 -58.952039573629008 288.39897209007904 0 288.39897209007904 320.82936505887119 0 0 0 0 -345.16339433159101 339.14663851520163 0 339.14663851520163 542.96091591074946 0 0 0 0 -34.410072808914265 178.39554729593146 0 178.39554729593146 367.87966013977712 0 0 0 0 250.19130823406977 232.17056408590361 0 232.17056408590361 228.34798543643683 0 0 0 0 19.361076865738085 2.8838513193204562 0 2.8838513193204562 508.33201487247425 0 0 0 0 262.88659794598152 193.10399228992173 0 193.10399228992173 335.65222392039504 0 0 0 0 -56.280688718867168 54.781577156726598 0 54.781577156726598 125.02641351499676 0 0 0 0 -45.55316533720233 100.14457347414111 0 100.14457347414111 232.36944307825979 0 0 0 0 31.209866187045463 136.33015031485229 0 136.33015031485229 116.02998397806209 0 0 0 0 0.55902130344338474 24.7706005722554 0 24.7706005722554 128.6721440013734 0 0 0 0 -101.73952959625251 64.980995020975968 0 64.980995020975968 178.91032863341024 0 0 0 0 -1156.2791617652001 70.849794220770491 0 70.849794220770491 1943.0364864512667 0 0 0 0 -51.914837710291067 53.478879385072105 0 53.478879385072105 110.19261419684699 0 0 0 0 -47.158991409805822 27.633775483690442 0 27.633775483690442 219.00049859275714 0 0 0 0 -36.929597693260803 -23.552284883290667 0 -23.552284883290667 171.84758952057496 0 0 0 0 -54.407423390780423 45.212979285052143 0 45.212979285052143 185.95792291516409 0 0 0 0 7.9292272487882656 -52.693855051727951 0 -52.693855051727951 138.8361889118205 0 0 0 0 -27.934586281992779 -37.863775277813261 0 -37.863775277813261 163.11468545408206 0 0 0 0 -32.735083049662535 -28.150707863190519 0 -28.150707863190519 154.09672636217147 0 0 0 0 -42.742177574525158 -12.155815672095287 0 -12.155815672095287 150.38305741946897 0 0 0 0 -26.858127926291445 -33.208958008505533 0 -33.208958008505533 134.2559174827984 0 0 0 0 -45.663714501409231 -24.467072207044794 0 -24.467072207044794 145.44350878693331 0 0 0 0 9.5602459218167617 33.262450095143215 0 33.262450095143215 121.19149979377946 0 0 0 0 -48.555927325516677 -30.959047001814497 0 -30.959047001814497 132.06538579946618 0 0 0 0 -172.06535522950901 -1.2800181553495804 0 -1.2800181553495804 524.38653135344066 0 0 0 0 -79.506707192324143 21.73356579758871 0 21.73356579758871 159.24946077940058 0 0 0 0 -38.091425335032909 -13.132981639053469 0 -13.132981639053469 98.233528999819441 0 0 0 0 12.505783467127912 3.0960711403549226 0 3.0960711403549226 61.333769778163052 0 0 0 0 19.308781287156307 21.794337471099794 0 21.794337471099794 61.444071203571639 0 0 0 0 -4.4332683960973149 -8.4106059705414538 0 -8.4106059705414538 16.227720305033529 0 0 0 0 23.792913803553802 -24.487221900743066 0 -24.487221900743066 77.058750230328769 0 0 0 0 -12.808932208937222 -16.786757368177177 0 -16.786757368177177 145.95530937173288 0 0 0 0 -10.748067901466982 -27.341448313056276 0 -27.341448313056276 117.12640984999416 0 0 0 0 257.50131477144998 255.70603702994049 0 255.70603702994049 255.8359112653161 0 0 0 0 284.39648218989976 -169.35744435925153 0 -169.35744435925153 93.870662545323285 0 0 0 0 3.3343699199967953 0.39940210994584646 0 0.39940210994584646 3.4770771110255509 0 0 0 0 857.12643767785505 224.76021511052386 0 224.76021511052386 -1304.4135494181537 0 0 0 0 0.37675462207679145 4.2376349367663515 0 4.2376349367663515 7.9217464364321586 0 0 0 0 -352.98049264682913 74.768138351333619 0 74.768138351333619 683.22807796702546 0 0 0 0 -580.34926305888871 156.014710908079 0 156.014710908079 585.45438321452821 0 0 0 0 -106.21986893528464 -201.58439506632021 0 -201.58439506632021 -271.7308331377717 0 0 0 0 63.543526336009563 232.29999421029424 0 232.29999421029424 -283.29224073446676 0 0 0 0 240.37506812691311 68.529768200209219 0 68.529768200209219 -93.739585058243392 0 0 0 0 169.65091438156657 7.4681157701043048 0 7.4681157701043048 -56.018075605730701 0 0 0 0 -109.66758920216989 84.684699819685193 0 84.684699819685193 101.58682332759054 0 0 0 0 -100.0506513745363 22.380808778552819 0 22.380808778552819 102.03687627320869 0 0 0 0 -1.1459897261455576 13.559605612888966 0 13.559605612888966 9.273952715815426 0 0 0 0 71.897836751496698 104.16637895356052 0 104.16637895356052 19.464206788790761 0 0 0 0 5.4589284614078721 23.368821439179044 0 23.368821439179044 61.144215263519385 0 0 0 0 22.052840166148926 61.064221823702781 0 61.064221823702781 83.520559844639536 0 0 0 0 30.853625735890091 84.556947988973889 0 84.556947988973889 78.188629860476794 0 0 0 0 35.72026702776202 72.911238275604774 0 72.911238275604774 105.81939455805514 0 0 0 0 97.046800648888166 45.872477687606079 0 45.872477687606079 115.52980047416531 0 0 0 0 36.608013072792176 59.094084967925333 0 59.094084967925333 103.11594661722103 0 0 0 0 24.538025185014703 109.32331150097161 0 109.32331150097161 154.12117158633919 0 0 0 0 216.57168511054556 142.70378272218386 0 142.70378272218386 -123.85873205090684 0 0 0 0 10.786465599021158 22.046744363505056 0 22.046744363505056 20.669309960590596 0 0 0 0 78.500828725122119 138.08215743664277 0 138.08215743664277 154.21699455479757 0 0 0 0 -189.85001416041064 215.27937133711021 0 215.27937133711021 27.002862728029868 0 0 0 0 26.417813796878242 29.288329463828976 0 29.288329463828976 -17.185049797323895 0 0 0 0 -13.800761702857017 20.255418006566742 0 20.255418006566742 -51.710573636573827 0 0 0 0 9.6959648975389428 -108.93419771402296 0 -108.93419771402296 181.02768593628753 0 0 0 0 19.274351064904945 4.590605299418856 0 4.590605299418856 0.5192341899882118 0 0 0 0 54.131060233463359 6.4088518830376415 0 6.4088518830376415 68.735425115633006 0 0 0 0 3.3616386681863588 -5.2621183455487959 0 -5.2621183455487959 -3.9981759126162997 0 0 0 0 5.6807552880819259 6.6259744104664406 0 6.6259744104664406 -0.31390524002807396 0 0 0 0 198.26919344210182 75.218588308078324 0 75.218588308078324 19.73584970419688 0 0 0 0 25.97940011441915 52.734707644452328 0 52.734707644452328 107.34444238456126 0 0 0 0 37.188730693324942 100.42886524814776 0 100.42886524814776 280.9001780199178 0 0 0 0 81.107690178464509 95.187501457531539 0 95.187501457531539 472.51740504155896 0 0 0 0 152.38383792352397 128.48959483071667 0 128.48959483071667 115.64941762818398 0 0 0 0 10.416646226915873 -5.8317024819757535 0 -5.8317024819757535 33.415237162347694 0 0 0 0 11.685374761433195 24.354837023108303 0 24.354837023108303 126.61608678204902 0 0 0 0 -4.0445220157998847 -4.5744013144153541 0 -4.5744013144153541 78.262905257126476 0 0 0 0 41.010268542317135 54.282067291334897 0 54.282067291334897 81.843288367640412 0 0 0 0 21.592280185515847 56.41020530638707 0 56.41020530638707 116.46047309857386 0 0 0 0 28.286145675090665 72.896046590753031 0 72.896046590753031 77.129608361023202 0 0 0 0 71.724374509105701 97.465334936388444 0 97.465334936388444 62.795116821822376 0 0 0 0 61.443268628423539 104.68561546593082 0 104.68561546593082 107.47327274122063 0 0 0 0 75.577156462415587 110.4683300710094 0 110.4683300710094 123.79906205385578 0 0 0 0 75.330195743505101 96.803201900022941 0 96.803201900022941 85.015838487022847 0 0 0 0 64.685749917378416 106.49144896625876 0 106.49144896625876 85.10977366620547 0 0 0 0 72.690049876857302 97.008608152369561 0 97.008608152369561 70.406264552591892 0 0 0 0 66.632830207712686 105.72580037285661 0 105.72580037285661 77.534328965059103 0 0 0 0 61.412772820382088 106.04581872723065 0 106.04581872723065 77.780759487335672 0 0 0 0 52.126615259408027 105.05900211476728 0 105.05900211476728 95.354803773876483 0 0 0 0 32.481018065198441 85.666486423830065 0 85.666486423830065 79.355209126770205 0 0 0 0 92.920690544814533 136.32960194649786 0 136.32960194649786 94.322967556963704 0 0 0 0 99.243257255137905 108.91875276455539 0 108.91875276455539 67.453358328804825 0 0 0 0 62.749114381998879 110.69155913464601 0 110.69155913464601 73.009565260586896 0 0 0 0 47.654777476497202 116.04322995646726 0 116.04322995646726 106.69518386897835 0 0 0 0 137.44614678982543 185.19528837039252 0 185.19528837039252 148.7282569127874 0 0 0 0 10.86717915279678 81.961306227117348 0 81.961306227117348 100.06492922198231 0 0 0 0 36.359992838564722 115.59997677933097 0 115.59997677933097 138.84767203542742 0 0 0 0 -35.241847840951031 23.180320508200076 0 23.180320508200076 8.0202910035582704 0 0 0 0 17.387765645182299 75.730423286443056 0 75.730423286443056 85.9445537652864 0 0 0 0 -6.3997893682026188 78.944362207930681 0 78.944362207930681 90.520948334882632 0 0 0 0 -50.531245949012373 62.159342792710959 0 62.159342792710959 64.375862854012667 0 0 0 0 -9.1149336950388005 73.757301988593781 0 73.757301988593781 74.64781607475561 0 0 0 0 -9.811458101907192 88.572286811655886 0 88.572286811655886 195.79722219697896 0 0 0 0 4.8404047464609903 9.5206897457107971 0 9.5206897457107971 19.209533684522057 0 0 0 0 16.877338089594559 66.325264616653612 0 66.325264616653612 125.81142075817752 0 0 0 0 -199.2167053450903 7.8249948780867271 0 7.8249948780867271 61.226944474327411 0 0 0 0 0.66778581384777169 5.0043418410586114 0 5.0043418410586114 15.64820539783182 0 0 0 0 -116.69482383075228 12.43714895191431 0 12.43714895191431 109.43838379357658 0 0 0 0 -168.79055155417882 124.90555538549098 0 124.90555538549098 22.368857430381595 0 0 0 0 -90.726644485630459 56.196951031914978 0 56.196951031914978 72.053085399777046 0 0 0 0 -119.91640109221021 98.836019144872353 0 98.836019144872353 110.70122213527065 0 0 0 0 53.719685839836529 31.883533618940419 0 31.883533618940419 59.784736926440019 0 0 0 0 -108.48129689048255 5.8947511645228019 0 5.8947511645228019 112.67402848366237 0 0 0 0 23.689443316974575 -24.935336262976307 0 -24.935336262976307 111.27008255621968 0 0 0 0 39.564268552126528 50.202633356389804 0 50.202633356389804 52.751699799568755 0 0 0 0 85.762463399252738 10.505330940948625 0 10.505330940948625 113.12864218672621 0 0 0 0 30.182290838935842 -31.653581169875906 0 -31.653581169875906 124.27179015211732 0 0 0 0 -7.3905127122275189 140.87618060732439 0 140.87618060732439 51.797767725620361 0 0 0 0 -2.6050273138868585 14.111269002813767 0 14.111269002813767 8.0582460618095197 0 0 0 0 1.0705278051173082 53.57127647366724 0 53.57127647366724 81.564699503663633 0 0 0 0 -29.656958809583557 68.412926671060632 0 68.412926671060632 100.25896950795141 0 0 0 0 5.3897142549035459 46.628753834373484 0 46.628753834373484 71.422140988541145 0 0 0 0 36.78541389008933 75.740605192060684 0 75.740605192060684 79.072192347055534 0 0 0 0 12.61025166289437 39.447110522745788 0 39.447110522745788 -42.366784671712594 0 0 0 0 18.380178504763535 21.451505611207722 0 21.451505611207722 12.039768209087924 0 0 0 0 -22.226560095028162 58.923159199222937 0 58.923159199222937 -53.176722878459259 0 0 0 0 61.543320138403942 -0.066611053751330473 0 -0.066611053751330473 20.763446797604956 0 0 0 0 44.591348434161773 41.268280514405888 0 41.268280514405888 -64.69426297706741 0 0 0 0 30.817514132915676 14.791536154476489 0 14.791536154476489 -25.045608432825247 0 0 0 0 14.297004150696011 84.451407676289818 0 84.451407676289818 54.391518486219866 0 0 0 0 68.579957507106883 17.565127177833347 0 17.565127177833347 -57.484044909830118 0 0 0 0 -9.7943674392117828 148.01749306068086 0 148.01749306068086 -61.549540572457772 0 0 0 0 77.873342175096695 39.610231487600686 0 39.610231487600686 -8.4899739526736084 0 0 0 0 38.964250998594025 10.868986372306153 0 10.868986372306153 -121.11257935895992 0 0 0 0 -2.3674185223105688 -3.5283876764757309 0 -3.5283876764757309 3.0300145946484065 0 0 0 0 105.8858447349894 54.566092592980567 0 54.566092592980567 63.658063874174331 0 0 0 0 -287.58239673388152 157.01866371062715 0 157.01866371062715 18.960998759344875 0 0 0 0 111.88117896070889 105.71631264384996 0 105.71631264384996 -166.02217650806233 0 0 0 0 170.11234264658015 113.25422907485517 0 113.25422907485517 81.463133000542257 0 0 0 0 -1.5303415453338445 8.4320649358045259 0 8.4320649358045259 15.040504630029787 0 0 0 0 198.25283257059175 123.63455816006899 0 123.63455816006899 60.413312081071126 0 0 0 0 63.708771377547237 55.660365926680242 0 55.660365926680242 36.643920375972357 0 0 0 0 136.86163868435793 83.048448312864821 0 83.048448312864821 41.722810874467541 0 0 0 0 -25.144102464380467 34.52055188898521 0 34.52055188898521 -29.098998605099041 0 0 0 0 -35.719003336134392 48.092657932667862 0 48.092657932667862 -32.023256627659975 0 0 0 0 -25.923610188108341 27.383725838624741 0 27.383725838624741 8.1828792852684273 0 0 0 0 -48.02749749332861 22.710397716506122 0 22.710397716506122 22.419908572237546 0 0 0 0 -90.366670276869627 42.719069938200846 0 42.719069938200846 21.941294937372732 0 0 0 0 -1.5781724838328579 8.1403161108329254 0 8.1403161108329254 20.463974557708298 0 0 0 0 55.06067939018677 63.136840709051285 0 63.136840709051285 45.225049613331066 0 0 0 0 29.767447730738862 52.569394920907598 0 52.569394920907598 55.084138504575094 0 0 0 0 -13.337690667104766 4.4862385413350125 0 4.4862385413350125 44.615417585038699 0 0 0 0 -1.5525140446551831 10.215575900073858 0 10.215575900073858 25.514851863387918 0 0 0 0 7.1397836849823566 13.790868310905807 0 13.790868310905807 38.33892532972277 0 0 0 0 -13.80932492599004 1.2724683152700891 0 1.2724683152700891 53.404444530277033 0 0 0 0 -4.2008452976306216 32.193055261950576 0 32.193055261950576 22.316740580979967 0 0 0 0 -21.843017759754275 26.39226998419781 0 26.39226998419781 25.506784318142309 0 0 0 0 -7.8025099736860284 34.170342647983034 0 34.170342647983034 27.25649431311831 0 0 0 0 2.7630382632432884 51.659259683874552 0 51.659259683874552 10.377898767299484 0 0 0 0 56.306616207084517 29.11792791055268 0 29.11792791055268 9.7052483474581095 0 0 0 0 42.628980959723776 45.043876846722014 0 45.043876846722014 -12.509573601506418 0 0 0 0 5.1808799450645893 44.253319366527649 0 44.253319366527649 -3.3047978868853534 0 0 0 0 72.535064747822616 75.849696710061835 0 75.849696710061835 0.5042197903185297 0 0 0 0 6.7231488854504278 53.95173392885772 0 53.95173392885772 85.412257482064888 0 0 0 0 -6.9074788950046724 7.7003926490655985 0 7.7003926490655985 -3.194531598417818 0 0 0 0 -23.015164340014053 97.363797796705512 0 97.363797796705512 100.76448537310716 0 0 0 0 30.19081200130131 65.754790408529516 0 65.754790408529516 30.369447991512061 0 0 0 0 -105.27109427460255 191.99916745981363 0 191.99916745981363 -77.149073778817183 0 0 0 0 56.328698192939555 12.591391138709241 0 12.591391138709241 -100.2260746835891 0 0 0 0 5.8884244807620014 0.8905483783761774 0 0.8905483783761774 -5.4628865886256222 0 0 0 0 94.401462730573257 -30.86141677720633 0 -30.86141677720633 8.8941523114976917 0 0 0 0 13.766119659877404 41.004275185208826 0 41.004275185208826 20.196114872205044 0 0 0 0 54.369794446110745 31.498615504158977 0 31.498615504158977 -37.908599477958319 0 0 0 0 -7.3020848469782926 12.151659879290925 0 12.151659879290925 -6.1293285216119564 0 0 0 0 5.601566355735585 -2.0145747161506717 0 -2.0145747161506717 -2.4512257528793029 0 0 0 0 158.29356920992768 292.10539380627097 0 292.10539380627097 382.49962158320704 0 0 0 0 7.3780819613220956 132.40025090490826 0 132.40025090490826 472.57765061529437 0 0 0 0 117.99552071955168 251.70200294987808 0 251.70200294987808 210.90133028860544 0 0 0 0 98.550512740190698 -108.53377538865544 0 -108.53377538865544 174.84785324065706 0 0 0 0 -0.76719786749299601 9.1177872790809147 0 9.1177872790809147 20.576753027953885 0 0 0 0 7.2303777513257579 1.7658189867026231 0 1.7658189867026231 5.3194810618127875 0 0 0 0 61.434945930726599 -59.444598114457676 0 -59.444598114457676 94.575227078682474 0 0 0 0 0.7700859560739941 9.687524035499484 0 9.687524035499484 1.6180430501642888 0 0 0 0 0.1192531900405811 26.318781869344093 0 26.318781869344093 17.44166129446694 0 0 0 0 65.034170116521523 19.624747623641724 0 19.624747623641724 -0.47367193531158591 0 0 0 0 2.8768146144590849 12.135978288805205 0 12.135978288805205 7.8076731916881803 0 0 0 0 122.83028005142341 -85.294758193766484 0 -85.294758193766484 69.397288238972578 0 0 0 0 -2.620952597760283 2.3125566449629096 0 2.3125566449629096 9.9206618644540399 0 0 0 0 49.333286058334352 -143.79623200411743 0 -143.79623200411743 294.81195354137617 0 0 0 0 -65.206894284774762 -68.463922443268984 0 -68.463922443268984 123.15842744718611 0 0 0 0 18.042653319642568 -44.823158461151706 0 -44.823158461151706 118.14479930067137 0 0 0 0 18.373183023238198 -81.576376704973882 0 -81.576376704973882 152.63092283406968 0 0 0 0 -26.388985870627891 -54.38721509699235 0 -54.38721509699235 260.55795532613865 0 0 0 0 9.9769591594886151 -47.404682122823942 0 -47.404682122823942 118.83241073857789 0 0 0 0 -48.137670281970259 28.417093600333828 0 28.417093600333828 223.51116145346396 0 0 0 0 -54.175755409141402 6.4415593610028736 0 6.4415593610028736 495.66959894795491 0 0 0 0 255.98763227833001 -74.570250278902563 0 -74.570250278902563 2.7749626479781 0 0 0 0 182.50450683020577 244.29957631913976 0 244.29957631913976 264.25423714962653 0 0 0 0 45.660809327771631 71.913430936354416 0 71.913430936354416 62.633336124138211 0 0 0 0 21.693799706423306 -6.650154732644296 0 -6.650154732644296 -72.331520029302737 0 0 0 0 56.635560816518137 176.74776997363159 0 176.74776997363159 374.88681362505486 0 0 0 0 -127.56438144163803 -86.483852635803487 0 -86.483852635803487 199.54148828193411 0 0 0 0 14.561878659491413 58.909365395847999 0 58.909365395847999 -72.746765167576086 0 0 0 0 -43.092630671067127 -10.943326366691508 0 -10.943326366691508 582.07888459342257 0 0 0 0 -5.0854786716000948 -4.5724051562206913 0 -4.5724051562206913 -3.7996818057203363 0 0 0 0 8.6587709586165147 28.155349894033861 0 28.155349894033861 -23.876690533485089 0 0 0 0 -262.45188819521536 -184.80407149684834 0 -184.80407149684834 196.83632035502524 0 0 0 0 -32.211714226713767 -21.571926880124138 0 -21.571926880124138 61.42294795113726 0 0 0 0 116.01903655559863 -325.44316595855889 0 -325.44316595855889 1.7036313021382625 0 0 0 0 -3.7182335792358572 -88.418720443781012 0 -88.418720443781012 -93.744367765024435 0 0 0 0 378.01711576744128 370.86726521123063 0 370.86726521123063 142.78652165503445 0 0 0 0 -1.7261757386099768 -0.27539487072383295 0 -0.27539487072383295 8.9977840067860768 0 0 0 0 365.29257647245788 220.15079646409049 0 220.15079646409049 27.616689962401807 0 0 0 0 -18.011321219411457 2.4202063837791026 0 2.4202063837791026 74.024015415955262 0 0 0 0 -3.4290612631383972 1.0470030383626554 0 1.0470030383626554 13.571706196821154 0 0 0 0 -184.72394559456717 17.194505630955064 0 17.194505630955064 184.01500742789358 0 0 0 0 -19.528370191645195 44.301430533033454 0 44.301430533033454 107.53340196511454 0 0 0 0 227.29012839858251 191.3687861009571 0 191.3687861009571 65.355842335521572 0 0 0 0 -2.9247880713678427 -2.3789508067997529 0 -2.3789508067997529 22.005721223654842 0 0 0 0 -596.81060316688638 -369.53068672410745 0 -369.53068672410745 441.77456371759399 0 0 0 0 102.40721307832632 249.84176454498174 0 249.84176454498174 -24.998670207656687 0 0 0 0 -13.355457487106165 11.556460416423324 0 11.556460416423324 71.931586871671328 0 0 0 0 -69.662996738481525 14.627563439570633 0 14.627563439570633 145.53474744621892 0 0 0 0 -3.0237620258082618 -4.5024189437508548 0 -4.5024189437508548 29.465179866596216 0 0 0 0 -295.5221845396884 -13.813398606293731 0 -13.813398606293731 60.545733070824099 0 0 0 0 124.60391734522545 126.99101480830488 0 126.99101480830488 61.201039876651059 0 0 0 0 -209.04600880454907 223.64795861846528 0 223.64795861846528 44.403409902382919 0 0 0 0 -9.494507692951629 118.69904797981508 0 118.69904797981508 -9.2223464526020393 0 0 0 0 20.772287392013254 92.918438238690214 0 92.918438238690214 -8.6998929464251944 0 0 0 0 -14.669795341325369 -6.5373348342031932 0 -6.5373348342031932 85.682491155977914 0 0 0 0 -10.740486542389931 42.221747433364726 0 42.221747433364726 119.0457681114367 0 0 0 0 11.871509860380684 27.355674063986953 0 27.355674063986953 142.86584865457553 0 0 0 0 18.702527105719128 -1.3372952975078078 0 -1.3372952975078078 71.20163732023866 0 0 0 0 0.97970981558205494 46.668096357103423 0 46.668096357103423 113.35345322141438 0 0 0 0 -92.544835650758472 4.4129950358365022 0 4.4129950358365022 94.91878560193436 0 0 0 0 -5.6888088779893646 -5.0230237053874927 0 -5.0230237053874927 1.0340395491868151 0 0 0 0 12.663454996853943 17.80367095190968 0 17.80367095190968 101.82705145760428 0 0 0 0 -8.6821830379208595 17.212619560339107 0 17.212619560339107 65.004252896134034 0 0 0 0 -105.25169802847245 -41.462184253608939 0 -41.462184253608939 113.84173899875896 0 0 0 0 -118.63078850149796 40.644648592229714 0 40.644648592229714 49.826655280601699 0 0 0 0 -52.889761555140922 -24.661870632827231 0 -24.661870632827231 25.440484790167829 0 0 0 0 -102.27014077540298 -7.6392393558171534 0 -7.6392393558171534 108.34355311738909 0 0 0 0 -59.327058303458671 64.841221322358251 0 64.841221322358251 106.93284455265348 0 0 0 0 17.172562494480303 101.09452318081821 0 101.09452318081821 155.33667721402662 0 0 0 0 35.887175907234905 22.530162563499289 0 22.530162563499289 104.6027892429538 0 0 0 0 103.45934222958977 97.267513578145554 0 97.267513578145554 133.46245375997751 0 0 0 0 -23.933652842802758 -51.236700944580662 0 -51.236700944580662 -90.044733777036527 0 0 0 0 -4.021612426924678 -2.3147133776846331 0 -2.3147133776846331 4.3944486814044836 0 0 0 0 50.396213947927436 59.069672389125117 0 59.069672389125117 60.289723466092255 0 0 0 0 3.9628165324004385 -14.057155690851687 0 -14.057155690851687 60.039148572390332 0 0 0 0 5.0875593187981849 -119.13298109780499 0 -119.13298109780499 -92.34237693863497 0 0 0 0 7.4122820430459306 57.552100133221927 0 57.552100133221927 0.74062777333892882 0 0 0 0 9.6180036003370333 89.837679322651638 0 89.837679322651638 41.29630577997159 0 0 0 0 -17.047072696009309 36.038290710628644 0 36.038290710628644 63.03451658316304 0 0 0 0 -5.9123387197132615 70.669915925019268 0 70.669915925019268 97.919444074923376 0 0 0 0 -6.5275735427221662 66.26139333167248 0 66.26139333167248 122.12117235016672 0 0 0 0 39.164048605694916 47.368383723258376 0 47.368383723258376 48.437094252280076 0 0 0 0 1.7566946005098312 21.320889130512988 0 21.320889130512988 114.17976405826955 0 0 0 0 -154.88930409960881 -311.56166342955476 0 -311.56166342955476 -692.84494760831149 0 0 0 0 -570.34250767977699 -150.21135490864754 0 -150.21135490864754 136.25922016249388 0 0 0 0 -303.94609429524871 12.692441666891682 0 12.692441666891682 93.707501381108159 0 0 0 0 -63.432634992477006 5.9669250292733977 0 5.9669250292733977 38.645583458795954 0 0 0 0 -12.675380882031277 68.546143404466875 0 68.546143404466875 70.740788357039492 0 0 0 0 -135.74048176698827 373.99935908088401 0 373.99935908088401 567.88120195374358 0 0 0 0 -52.101429566431818 65.866353435380461 0 65.866353435380461 -69.284247596748173 0 0 0 0 -167.33971295992455 191.71373847237919 0 191.71373847237919 496.59104996560745 0 0 0 0 0.26755039023025384 -1.65766711419624 0 -1.65766711419624 6.0561978704504895 0 0 0 0 -224.60090985060401 -205.23404074104292 0 -205.23404074104292 -25.272290104644526 0 0 0 0 -576.57510434842072 -78.466731173188236 0 -78.466731173188236 348.36464816390799 0 0 0 0 2.2676229661600509 -6.3596195373999223 0 -6.3596195373999223 13.466297361387262 0 0 0 0 -128.8293389682359 -80.361019138816118 0 -80.361019138816118 10.897760373387428 0 0 0 0 -165.89203301627174 -22.15950012493704 0 -22.15950012493704 61.14063672919292 0 0 0 0 -111.9807656731914 -42.789524837990029 0 -42.789524837990029 -95.628262358692155 0 0 0 0 -141.55268414078409 -41.248691727658297 0 -41.248691727658297 11.768153865246177 0 0 0 0 -3.1190393935597029 -1.1198795724487276 0 -1.1198795724487276 3.8367337637072438 0 0 0 0 50.389145947791803 150.83716286613708 0 150.83716286613708 253.60669160053294 0 0 0 0 -19.943072901605774 -127.19534223533628 0 -127.19534223533628 -39.191438939602449 0 0 0 0 -147.77376046575728 -39.790512995441532 0 -39.790512995441532 57.21932257944718 0 0 0 0 15.784398566659547 14.325292881330824 0 14.325292881330824 65.558247494016541 0 0 0 0 1.8238950098090179 18.475085790940522 0 18.475085790940522 92.301876461584158 0 0 0 0 -165.35185339006881 -14.746690713254793 0 -14.746690713254793 117.84289825550513 0 0 0 0 39.949806201000683 34.384286887336202 0 34.384286887336202 90.238243227115163 0 0 0 0 31.52064012434721 -43.521272127673001 0 -43.521272127673001 131.7709947036783 0 0 0 0 48.086621895480675 19.717603750616036 0 19.717603750616036 95.947080777885276 0 0 0 0 32.900739875671206 34.567732002502453 0 34.567732002502453 156.56826030200227 0 0 0 0 -5.4836894688769462 39.11406666509356 0 39.11406666509356 272.51371886472407 0 0 0 0 18.310422157232097 -39.20286380835023 0 -39.20286380835023 180.23926363216015 0 0 0 0 60.991742449552476 63.259115209391894 0 63.259115209391894 137.99743609060215 0 0 0 0 24.546962970292952 12.361683005572559 0 12.361683005572559 132.33380485611769 0 0 0 0 22.471685283324405 27.595624546815088 0 27.595624546815088 102.03110665777785 0 0 0 0 28.550778049511791 1.370117320490408 0 1.370117320490408 74.469011855413555 0 0 0 0 22.095326381419909 6.7894481441207972 0 6.7894481441207972 66.994749052533734 0 0 0 0 -14.397954996948556 -5.7281976990816474 0 -5.7281976990816474 70.843119671495515 0 0 0 0 7.6681368744693827 9.3377047526773822 0 9.3377047526773822 75.00802871119231 0 0 0 0 22.697028663782703 19.869176566165152 0 19.869176566165152 98.489166637475137 0 0 0 0 1.4053678140699915 16.579843199376349 0 16.579843199376349 71.981392941445634 0 0 0 0 -14.149156933158537 5.3186910968734082 0 5.3186910968734082 13.243127120898862 0 0 0 0 12.352051287628456 21.825250122505167 0 21.825250122505167 91.174441261233369 0 0 0 0 -136.06684348602494 51.387651443659706 0 51.387651443659706 91.948661609261762 0 0 0 0 -216.02285829722695 408.66762000238668 0 408.66762000238668 -458.01494378392999 0 0 0 0 -4.2076506324655245 5.8698366795851342 0 5.8698366795851342 17.988782076998731 0 0 0 0 -185.54925121975771 -48.615181566981846 0 -48.615181566981846 116.41721178993612 0 0 0 0 14.156365603844961 11.30237760973796 0 11.30237760973796 67.934941989813524 0 0 0 0 -1.7776915024796835 -2.337156927790609 0 -2.337156927790609 16.073561736298906 0 0 0 0 -7.468310049214324 -8.157621712600303 0 -8.157621712600303 65.675249933257874 0 0 0 0 35.832759962959472 66.155726261737072 0 66.155726261737072 -119.94124466599169 0 0 0 0 -307.41589695065113 95.798443678406329 0 95.798443678406329 80.192850932748115 0 0 0 0 -137.28707948317515 40.937008101183892 0 40.937008101183892 5.4067832517685019 0 0 0 0 -170.24264615228117 263.55787917483303 0 263.55787917483303 -183.26937674153305 0 0 0 0 255.72871639556433 -74.277741652833356 0 -74.277741652833356 -412.88730270923224 0 0 0 0 324.27279540927395 112.46226931756792 0 112.46226931756792 14.53248525273375 0 0 0 0 721.22783612264948 -350.35708441939641 0 -350.35708441939641 163.33407942194572 0 0 0 0 -435.91952648328873 378.24215248227301 0 378.24215248227301 111.0956149735066 0 0 0 0 81.113307333895591 19.802732019034011 0 19.802732019034011 107.66608248612107 0 0 0 0 17.942907766041799 125.39123507593104 0 125.39123507593104 704.227284814835 0 0 0 0 682.72663447679861 -378.19206505997499 0 -378.19206505997499 596.97012385911057 0 0 0 0 189.66077520740328 238.51421818639392 0 238.51421818639392 506.57345945438283 0 0 0 0 738.19550046368568 -112.47597329403652 0 -112.47597329403652 1438.2138747475328 0 0 0 0 1648.8742832446687 -495.90404351525285 0 -495.90404351525285 619.470553908272 0 0 0 0 724.71509342752324 -170.2977433286469 0 -170.2977433286469 663.10598450120597 0 0 0 0 -61.758124974597195 -32.33434859175577 0 -32.33434859175577 67.178309519020331 0 0 0 0 -0.88349618424119059 6.0590593925729479 0 6.0590593925729479 67.638342564712133 0 0 0 0 -492.36799647008752 353.69503909450941 0 353.69503909450941 -11.75046697349535 0 0 0 0 -248.80243314563324 469.01447522036688 0 469.01447522036688 24.004136095354625 0 0 0 0 -175.83143673170719 -205.03333158811074 0 -205.03333158811074 140.83125361967268 0 0 0 0 26.953835295358203 -55.284793790283402 0 -55.284793790283402 47.166486949508908 0 0 0 0 37.61942036971277 32.55074354509361 0 32.55074354509361 42.995762733953597 0 0 0 0 -4.8819889921896902 -6.498763986666745 0 -6.498763986666745 34.64578087159498 0 0 0 0 62.740827920804804 -7.7336596864788589 0 -7.7336596864788589 32.567731253676357 0 0 0 0 -0.12323697342060447 9.1365392391432749 0 9.1365392391432749 29.00262596264195 0 0 0 0 182.84357994756556 128.93415228867616 0 128.93415228867616 89.398724464792394 0 0 0 0 -13.213502361405972 19.100147319823009 0 19.100147319823009 48.622285639783513 0 0 0 0 12.338151416684866 -119.87745141628955 0 -119.87745141628955 294.84479142756027 0 0 0 0 1.2766413691993894 2.8799662078658503 0 2.8799662078658503 9.5497052130296112 0 0 0 0 -166.09618265354038 214.39354104308586 0 214.39354104308586 183.54503631921216 0 0 0 0 914.01933209607523 372.14919367020048 0 372.14919367020048 -220.82648727262495 0 0 0 0 -6.5634756219439918 -1.6959022876486927 0 -1.6959022876486927 0.39873521115788346 0 0 0 0 -46.348207160588117 20.906430760125659 0 20.906430760125659 136.5119789135897 0 0 0 0 -140.8166142267537 39.928168579548583 0 39.928168579548583 173.00836730806623 0 0 0 0 -36.188830942421987 83.446881642224525 0 83.446881642224525 188.845881365065 0 0 0 0 -30.160438761143268 79.744412294799986 0 79.744412294799986 190.80868851952982 0 0 0 0 3.3701702842971031 94.097632360001626 0 94.097632360001626 196.0410323493561 0 0 0 0 45.238889660217865 205.93376845255898 0 205.93376845255898 180.31044798221637 0 0 0 0 -53.50573963421607 111.68257986375011 0 111.68257986375011 190.17285993261976 0 0 0 0 49.287448341869094 81.802896256487657 0 81.802896256487657 102.59801725067155 0 0 0 0 -33.414733614275974 13.529667198092284 0 13.529667198092284 99.09657672769697 0 0 0 0 2.7329257478440176 17.563140681955069 0 17.563140681955069 3.9548691345850773 0 0 0 0 -16.666756757006624 74.541250199081333 0 74.541250199081333 174.32945008381103 0 0 0 0 -23.258137112040913 59.318873314734446 0 59.318873314734446 230.09189709258499 0 0 0 0 1.6491390309860927 16.047726861612286 0 16.047726861612286 -8.4541412563369551 0 0 0 0 1.3923517930270464 77.389011244849826 0 77.389011244849826 243.14498076096061 0 0 0 0 19.307432179308648 70.698558338170869 0 70.698558338170869 21.618972164598745 0 0 0 0 19.956742910759203 33.728486014041664 0 33.728486014041664 58.728868078678261 0 0 0 0 -10.912453959895174 55.709747739638715 0 55.709747739638715 98.899135053523537 0 0 0 0 -76.695367340969824 46.3433634473854 0 46.3433634473854 57.616743316955763 0 0 0 0 27.772100888652403 79.121195216533579 0 79.121195216533579 17.218409759078895 0 0 0 0 -28.016735232363317 26.345356105300823 0 26.345356105300823 77.43086341080857 0 0 0 0 -0.6157438673561817 -1.2087314307876369 0 -1.2087314307876369 39.532988732731567 0 0 0 0 -26.232584373616191 12.102193566936421 0 12.102193566936421 16.622800308564024 0 0 0 0 -20.817086076255549 97.588437545030501 0 97.588437545030501 146.65756383427652 0 0 0 0 50.940393833599956 56.601036010819371 0 56.601036010819371 69.246980537845957 0 0 0 0 -4.1010047202653821 20.481999087918979 0 20.481999087918979 53.89884134111314 0 0 0 0 34.015924421204545 17.700592745035465 0 17.700592745035465 50.328982407459989 0 0 0 0 2.6471327395857323 9.3587022169713023 0 9.3587022169713023 5.810160707703659 0 0 0 0 -82.472827142431811 -55.990903178735607 0 -55.990903178735607 45.474805233468942 0 0 0 0 -56.123924293958765 -26.259507119848422 0 -26.259507119848422 -1.1912994229132892 0 0 0 0 -7.0443221125485707 -13.421368343377253 0 -13.421368343377253 34.535590988216427 0 0 0 0 -53.938242371052098 -7.965232735824884 0 -7.965232735824884 66.156234548099746 0 0 0 0 -7.3580189318627163 3.0500090325585916 0 3.0500090325585916 79.910971617395262 0 0 0 0 -19.088023764497848 -22.59962631203598 0 -22.59962631203598 66.486257730941361 0 0 0 0 7.009410662838043 -14.390778181340181 0 -14.390778181340181 55.490982486859139 0 0 0 0 -78.139182876691393 -45.404852257473976 0 -45.404852257473976 65.608639957947332 0 0 0 0 -34.114205946686752 -10.839178605312554 0 -10.839178605312554 91.368105334811844 0 0 0 0 3.9946357340945724 5.9673948349291095 0 5.9673948349291095 52.092813053095597 0 0 0 0 -14.705877530661798 -0.44608232504955225 0 -0.44608232504955225 15.169580500327267 0 0 0 0 168.08106660491103 15.671762995416429 0 15.671762995416429 17.59983799624024 0 0 0 0 36.226471649279574 28.412658494169591 0 28.412658494169591 60.464942400594737 0 0 0 0 16.476939835432859 14.419327263072773 0 14.419327263072773 31.157041406768258 0 0 0 0 132.37034138843956 -40.324170057057927 0 -40.324170057057927 35.54864279544563 0 0 0 0 -1.7438366510181407 2.5374782906878188 0 2.5374782906878188 2.7298866182447625 0 0 0 0 11.519482142891938 20.57949528320264 0 20.57949528320264 78.047604549927698 0 0 0 0 -357.30005081623858 -116.68163204312805 0 -116.68163204312805 872.49780377719435 0 0 0 0 302.45796690218361 -509.56545327459889 0 -509.56545327459889 477.26728904279298 0 0 0 0 286.49065119446641 -613.48422435758403 0 -613.48422435758403 475.68928308895556 0 0 0 0 70.316688378152321 -355.80069656287378 0 -355.80069656287378 282.99350012499781 0 0 0 0 631.03972397533289 -872.04512966515176 0 -872.04512966515176 -126.38310078175346 0 0 0 0 1116.3984292782679 -993.10872450872557 0 -993.10872450872557 751.75402043955 0 0 0 0 -119.76892689029069 -136.02866113268828 0 -136.02866113268828 -28.950530055633863 0 0 0 0 412.12858079829039 599.26535680431698 0 599.26535680431698 949.78948125008901 0 0 0 0 43.279030414459861 -363.01360171083979 0 -363.01360171083979 34.25531681792927 0 0 0 0 293.17118144711094 -984.73466960665246 0 -984.73466960665246 1112.4403196639469 0 0 0 0 20.004728092066784 -1.4954155523519148 0 -1.4954155523519148 -28.648696151241893 0 0 0 0 -763.34902290756918 -7.5104292178439209 0 -7.5104292178439209 1018.8409501524802 0 0 0 0 -1.6321168402241937 15.520736902272553 0 15.520736902272553 98.217188660974756 0 0 0 0 -114.34463699279206 -31.283014238149917 0 -31.283014238149917 184.8762560017858 0 0 0 0 -31.926338028333273 -49.43643145633132 0 -49.43643145633132 145.91752414433722 0 0 0 0 -5.6862229243413616 -6.1085002174781309 0 -6.1085002174781309 15.70725988224136 0 0 0 0 -22.01971054182366 -91.86867176786609 0 -91.86867176786609 196.99093317421648 0 0 0 0 -64.180571714609343 51.063134136631561 0 51.063134136631561 89.22189130224433 0 0 0 0 6.6072755525710818 -83.467111469526571 0 -83.467111469526571 339.20029884578253 0 0 0 0 1.4448538985594577 -0.83753433744136885 0 -0.83753433744136885 -2.2304133339947896 0 0 0 0 4.7328001749680482 29.343378356916219 0 29.343378356916219 188.76562699779242 0 0 0 0 -70.565868799023988 35.155503742622386 0 35.155503742622386 267.50165220550116 0 0 0 0 -0.45549374183019897 1.9308745025984386 0 1.9308745025984386 67.2024040993455 0 0 0 0 378.2817384464247 -684.71128797705751 0 -684.71128797705751 325.64083674042922 0 0 0 0 -143.16045525619643 99.641027061599743 0 99.641027061599743 257.01603503986553 0 0 0 0 1666.8362924434 -1440.7904203547041 0 -1440.7904203547041 1106.4595538063113 0 0 0 0 0.67707653548768132 -0.589183065717096 0 -0.589183065717096 24.149364676091977 0 0 0 0 575.35988495838888 707.93198580871467 0 707.93198580871467 443.33448528269582 0 0 0 0 -75.232484337645019 309.16578795146643 0 309.16578795146643 1696.834160209306 0 0 0 0 -22.600465481463473 357.25851118096398 0 357.25851118096398 312.63301808200049 0 0 0 0 -581.61437611039491 327.2068828181873 0 327.2068828181873 715.13875746640133 0 0 0 0 0.73144107410076153 -3.2676878940716518 0 -3.2676878940716518 8.5170471768883829 0 0 0 0 387.89252159056844 -6.2838116210041335 0 -6.2838116210041335 509.99189144355842 0 0 0 0 146.82899482826767 131.19800014996872 0 131.19800014996872 755.12509176855383 0 0 0 0 84.108709432005455 264.28930374285119 0 264.28930374285119 515.67800697185157 0 0 0 0 -31.671849711991356 -40.710778595822376 0 -40.710778595822376 280.2082684951456 0 0 0 0 320.1169897422069 137.34160596125366 0 137.34160596125366 233.85458626574473 0 0 0 0 105.44486632142315 -14.832296768239758 0 -14.832296768239758 233.28752891172826 0 0 0 0 -27.113583566658747 14.159975464168383 0 14.159975464168383 428.96015335815537 0 0 0 0 223.81513100593156 293.80505522894146 0 293.80505522894146 525.06160836015624 0 0 0 0 460.17432239886216 459.88348943131132 0 459.88348943131132 278.13469542394159 0 0 0 0 632.40931943782061 298.92497468349393 0 298.92497468349393 201.9966038540515 0 0 0 0 245.64426144925551 221.48052131051736 0 221.48052131051736 8.7821614270287682 0 0 0 0 151.90618712572336 105.69780069821718 0 105.69780069821718 868.3218405324933 0 0 0 0 167.80137811835425 -35.391655705283483 0 -35.391655705283483 -292.09975641078927 0 0 0 0 124.70931621478898 173.76127255436222 0 173.76127255436222 741.26067787643115 0 0 0 0 1122.0125911813393 -551.36485412475122 0 -551.36485412475122 46.363232856643663 0 0 0 0 4.0979382521194179 -8.5738642610080547 0 -8.5738642610080547 13.096166161241229 0 0 0 0 -334.30252741429501 -666.39638123252007 0 -666.39638123252007 331.90415366605521 0 0 0 0 184.39549200754601 3.5194628843246392 0 3.5194628843246392 -191.63615788786774 0 0 0 0 739.93020100162335 -344.29250850496555 0 -344.29250850496555 -190.1312168207769 0 0 0 0 -148.70930070759215 -513.22455931697777 0 -513.22455931697777 194.21165969715366 0 0 0 0 2.9990736744606563 -4.6876304118163219 0 -4.6876304118163219 4.7790485826921554 0 0 0 0 -48.747111975280404 -12.571276722275798 0 -12.571276722275798 -189.98800574592315 0 0 0 0 603.55561345127444 -728.1901801077347 0 -728.1901801077347 249.56634137406218 0 0 0 0 466.19059302016512 -352.05671508200066 0 -352.05671508200066 388.19931873549649 0 0 0 0 497.07953044824603 -420.89073277551051 0 -420.89073277551051 111.61502236938395 0 0 0 0 813.74852550771993 -845.08694010809359 0 -845.08694010809359 975.37633894257306 0 0 0 0 163.53869301517034 -911.91598782974324 0 -911.91598782974324 2432.0417983492553 0 0 0 0 1448.075119277637 -1145.041403047624 0 -1145.041403047624 934.73710285894731 0 0 0 0 -261.73278726627541 -310.15215160032312 0 -310.15215160032312 954.72706548965289 0 0 0 0 -194.55480132677121 -99.213553834815684 0 -99.213553834815684 1183.2087268539126 0 0 0 0 -77.731812984495491 315.0711234088285 0 315.0711234088285 129.96101152231131 0 0 0 0 568.56634700152154 -632.32258272785475 0 -632.32258272785475 795.63615413854131 0 0 0 0 -1209.9746745184625 -122.55510605697418 0 -122.55510605697418 1140.7929899233277 0 0 0 0 0.71242863452407656 -5.3536686275547929 0 -5.3536686275547929 10.817600979438083 0 0 0 0 1343.6716047262546 -944.08164981810842 0 -944.08164981810842 416.53932618601539 0 0 0 0 1293.6811070551439 -756.42877814282838 0 -756.42877814282838 -165.11141820468765 0 0 0 0 247.14307836257285 -287.29835448917947 0 -287.29835448917947 -596.03614521070995 0 0 0 0 1099.72145215965 -1330.8240741534901 0 -1330.8240741534901 426.79776265159308 0 0 0 0 -154.10145111216229 81.231917928271287 0 81.231917928271287 165.77455434451622 0 0 0 0 -574.34997402485669 -31.303004782341304 0 -31.303004782341304 1095.0087894575154 0 0 0 0 2.7187804865344378 -1.1402058445784178 0 -1.1402058445784178 0.3144155963562012 0 0 0 0 411.92836112582393 -786.49642395624505 0 -786.49642395624505 399.27125448807783 0 0 0 0 446.44819441139407 -1114.6901384401826 0 -1114.6901384401826 863.84346827354966 0 0 0 0 436.24675502818343 -825.44758128743342 0 -825.44758128743342 268.99891654949897 0 0 0 0 91.958983103786323 -75.619837394981005 0 -75.619837394981005 -239.09238521624866 0 0 0 0 -888.37951739904861 -383.58673400449698 0 -383.58673400449698 428.50165002935682 0 0 0 0 60.733769134034446 -852.50376515153039 0 -852.50376515153039 55.683640083036607 0 0 0 0 0.65849864719908302 -8.6593744848194572 0 -8.6593744848194572 19.334277557979163 0 0 0 0 -126.84114270862304 -649.8212960093806 0 -649.8212960093806 211.0432399049896 0 0 0 0 205.81483676254726 -375.25825371617975 0 -375.25825371617975 143.77642112479225 0 0 0 0 478.48226597678547 -992.0163150655244 0 -992.0163150655244 1363.8509714468019 0 0 0 0 675.60297904802383 643.2472874660707 0 643.2472874660707 1223.8581183785573 0 0 0 0 1778.9465313251426 83.198898196988011 0 83.198898196988011 91.447330182381847 0 0 0 0 569.82011596036136 -212.30185274607356 0 -212.30185274607356 58.157833552853845 0 0 0 0 1494.9216432886381 -965.24938172114707 0 -965.24938172114707 342.23129957125639 0 0 0 0 238.57442227829574 -490.31564168306431 0 -490.31564168306431 201.65620352970927 0 0 0 0 -122.98161587095137 144.35677768773348 0 144.35677768773348 70.837811102097476 0 0 0 0 34.429094935238936 -88.366166712814447 0 -88.366166712814447 -84.507818982924732 0 0 0 0 -44.009948847254577 -18.75648868126973 0 -18.75648868126973 148.3713421346547 0 0 0 0 666.12755561057281 70.067167455705203 0 70.067167455705203 -349.0835813298545 0 0 0 0 413.02848544938206 -45.623436394638702 0 -45.623436394638702 -385.42260176991476 0 0 0 0 1.9533986872540527 -0.58311997235989566 0 -0.58311997235989566 -1.8424276598605283 0 0 0 0 43.064904210366876 331.6165711665235 0 331.6165711665235 -226.46591615803209 0 0 0 0 -6.3692746364153781 -6.6883491731978637 0 -6.6883491731978637 13.663133062911594 0 0 0 0 -353.49299155131757 104.82306680280271 0 104.82306680280271 59.912993108155206 0 0 0 0 3.9693368407661183 -70.71477307162786 0 -70.71477307162786 39.117897310316039 0 0 0 0 12.153351761809972 -42.878302322613308 0 -42.878302322613308 -3.8377717404655414 0 0 0 0 7.1291025908894881 -38.179795687516162 0 -38.179795687516162 54.831221110365732 0 0 0 0 10.847547111054926 -47.581882878852966 0 -47.581882878852966 89.933852380158868 0 0 0 0 1.7050801038130885 -42.601712452240463 0 -42.601712452240463 83.496257637387316 0 0 0 0 -3.913808653025626 -61.557826009629935 0 -61.557826009629935 153.30777224702615 0 0 0 0 -165.75712205017408 415.631449581173 0 415.631449581173 -537.47954954630404 0 0 0 0 -49.298427886981003 22.643899680711712 0 22.643899680711712 71.843004760542982 0 0 0 0 -16.598310324055966 17.550447089080855 0 17.550447089080855 17.547248330624399 0 0 0 0 -738.61172606577929 863.68519871631725 0 863.68519871631725 -293.49977582198335 0 0 0 0 -1273.6175505399187 671.38898796078502 0 671.38898796078502 -142.75643229625712 0 0 0 0 -4.6899767140462174 -8.4802474971416899 0 -8.4802474971416899 25.190348665779368 0 0 0 0 635.62294516383372 443.64062599302906 0 443.64062599302906 -225.88491010943835 0 0 0 0 -392.01405662390971 128.64595659111365 0 128.64595659111365 -179.65250345081768 0 0 0 0 -197.08075507019294 -168.45500762189477 0 -168.45500762189477 513.87501759686347 0 0 0 0 -136.96967041439621 158.58429604653793 0 158.58429604653793 -378.24176706827529 0 0 0 0 -107.17678161743743 -129.7062302745976 0 -129.7062302745976 642.76593828108162 0 0 0 0 -149.88124452241482 -538.33167307193071 0 -538.33167307193071 2112.1609780742547 0 0 0 0 -264.16015327064633 381.61446200979117 0 381.61446200979117 153.86395236662793 0 0 0 0 -756.24229017695598 311.2861870909037 0 311.2861870909037 726.23373271619494 0 0 0 0 -99.543958923157334 45.355716300291533 0 45.355716300291533 15.475832386269758 0 0 0 0 -102.29446571866265 21.013730274702539 0 21.013730274702539 160.09710480330614 0 0 0 0 127.89222547948975 -90.422838954546023 0 -90.422838954546023 212.91151540417195 0 0 0 0 25.780575743668123 -162.38727233341342 0 -162.38727233341342 -73.191403082135366 0 0 0 0 -45.068347374068253 -82.584658936626511 0 -82.584658936626511 118.07737165036815 0 0 0 0 -43.557302373830225 -91.392876597453323 0 -91.392876597453323 -156.26011617499171 0 0 0 0 -119.83174647710439 -133.09298601838236 0 -133.09298601838236 -139.10870284129851 0 0 0 0 89.116852516017389 -77.578863413480576 0 -77.578863413480576 60.184158289986954 0 0 0 0 -6.5744896278499789 -2.5367016556186401 0 -2.5367016556186401 7.6675068390868546 0 0 0 0 -0.70259203961499272 0.41526945303953511 0 0.41526945303953511 1.0640822022781151 0 0 0 0 -204.01331551113549 -21.002409425776932 0 -21.002409425776932 266.61812280814047 0 0 0 0 -3.5365323268324573 -1.3285001932381419 0 -1.3285001932381419 11.778213209247042 0 0 0 0 -7.2833280050338161 -3.5168117544253619 0 -3.5168117544253619 3.9407706449207041 0 0 0 0 -1.3453779277851936 0.93243005155090941 0 0.93243005155090941 -7.9550025883072522 0 0 0 0 -87.080574330602758 298.09749642224051 0 298.09749642224051 174.76430802966922 0 0 0 0 -92.509028762057369 -165.81236558760338 0 -165.81236558760338 162.43518461019266 0 0 0 0 -100.65261201678913 -78.533485799976916 0 -78.533485799976916 255.13415398298821 0 0 0 0 -45.855994145645127 22.456608159573079 0 22.456608159573079 312.98559529638442 0 0 0 0 -39.965860311780034 -147.83169084900874 0 -147.83169084900874 866.28787756689803 0 0 0 0 -78.188647852195572 220.47332454990828 0 220.47332454990828 503.16570376991149 0 0 0 0 127.03528261060842 546.5317691158416 0 546.5317691158416 856.54801856198173 0 0 0 0 -82.399997541787457 213.60258539598635 0 213.60258539598635 569.18985660209728 0 0 0 0 -83.767985319683248 -84.889034904357686 0 -84.889034904357686 435.64308847142092 0 0 0 0 -25.630610738719042 83.13400867121527 0 83.13400867121527 166.2033488553916 0 0 0 0 304.40276864536349 255.25858523210081 0 255.25858523210081 185.79943310531962 0 0 0 0 92.218622490640882 60.995006635959726 0 60.995006635959726 26.23542285055737 0 0 0 0 -51.971690066859992 152.71721360915762 0 152.71721360915762 -7.3272364930744516 0 0 0 0 -12.790916583981016 -45.250477915360534 0 -45.250477915360534 68.045699289472395 0 0 0 0 -5.323473166980655 -9.7749092105426882 0 -9.7749092105426882 3.7932737828854224 0 0 0 0 172.69731577155017 -8.4944198941229843 0 -8.4944198941229843 -194.83243091455006 0 0 0 0 60.520324723876229 105.02872200522324 0 105.02872200522324 231.93686325606541 0 0 0 0 120.46244444843978 -231.45050566605642 0 -231.45050566605642 13.573540370511182 0 0 0 0 -332.7854672222611 20.371795158263922 0 20.371795158263922 437.13284938524885 0 0 0 0 -84.01539040067928 230.02854165871031 0 230.02854165871031 544.81419842853938 0 0 0 0 6.8117441094245805 220.59150715551368 0 220.59150715551368 -360.47582456098462 0 0 0 0 -107.35715845745835 68.338022430412821 0 68.338022430412821 1119.9456326830768 0 0 0 0 2.1501594435469933 1.9744711238297299 0 1.9744711238297299 2.2285302116578691 0 0 0 0 368.03611852574431 301.55570611327857 0 301.55570611327857 468.85783894499036 0 0 0 0 181.50074308550575 -304.1413772527012 0 -304.1413772527012 583.28035808620916 0 0 0 0 84.58460086557352 -121.20913058842416 0 -121.20913058842416 343.67048352028723 0 0 0 0 0.55769324458742631 -363.66020704941911 0 -363.66020704941911 1033.1007225286285 0 0 0 0 171.00891343953845 -228.00352757437213 0 -228.00352757437213 475.63127958459154 0 0 0 0 -6.3677708446284669 -35.587931265989027 0 -35.587931265989027 517.24632920531621 0 0 0 0 7.2277091657115307 -47.319975510843506 0 -47.319975510843506 447.62865872991097 0 0 0 0 19.347768258663564 93.181783195148455 0 93.181783195148455 510.5100898138553 0 0 0 0 32.007772349819334 -153.00911949705551 0 -153.00911949705551 739.48886011511786 0 0 0 0 5.15883334599277 -7.3352331013249454 0 -7.3352331013249454 0.054693995767382653 0 0 0 0 11.114578685986999 -50.89688346924595 0 -50.89688346924595 378.14241269556078 0 0 0 0 210.96886317249937 156.01017090898858 0 156.01017090898858 76.636174040413607 0 0 0 0 12.850577180570276 -7.4880928976475758 0 -7.4880928976475758 0.8026757175955983 0 0 0 0 -63.505844442871421 56.08084774091185 0 56.08084774091185 375.52005329776148 0 0 0 0 -79.453366985154389 27.15791568386885 0 27.15791568386885 468.70464209336205 0 0 0 0 -33.61092886282222 49.478521307062692 0 49.478521307062692 342.5865450142519 0 0 0 0 -56.971678027568487 -7.6178045623892103 0 -7.6178045623892103 432.79519155641174 0 0 0 0 -59.583537009595602 -10.584444491061731 0 -10.584444491061731 433.31311811720661 0 0 0 0 12.446270760245056 -58.556139339306355 0 -58.556139339306355 315.20725206026691 0 0 0 0 5.9059198224008469 -87.601555589086274 0 -87.601555589086274 213.95616779751435 0 0 0 0 3.2680834289778318 5.2529273950524242 0 5.2529273950524242 5.4080064295608707 0 0 0 0 -118.55807705963525 295.90405493597791 0 295.90405493597791 221.95123733537912 0 0 0 0 -252.27920823328532 -305.37488958782342 0 -305.37488958782342 171.85938521564094 0 0 0 0 -123.56910378525299 -16.030102640570476 0 -16.030102640570476 231.33024607578409 0 0 0 0 -125.03647332855053 1.0653340337667032 0 1.0653340337667032 293.51805479564064 0 0 0 0 -46.252493601579772 43.397432994184783 0 43.397432994184783 190.26171459496254 0 0 0 0 -7.7825563305359537 -14.969178327959526 0 -14.969178327959526 -18.269223292918468 0 0 0 0 -0.69390368132821045 0.008586869979524181 0 0.008586869979524181 4.4055532413874516 0 0 0 0 -44.569502150337371 29.483182771784186 0 29.483182771784186 50.547775784521946 0 0 0 0 -10.433909798104377 -9.7859530935706687 0 -9.7859530935706687 2.8535947626676261 0 0 0 0 -55.321008049622833 8.148484394816478 0 8.148484394816478 91.952086204546504 0 0 0 0 -16.129315284059885 -35.469315342048503 0 -35.469315342048503 50.844177177044912 0 0 0 0 -29.747710363170427 7.6798053700767923 0 7.6798053700767923 48.737777073678444 0 0 0 0 30.890493687508751 -50.52184898609994 0 -50.52184898609994 -26.498327553466879 0 0 0 0 15.951676259313899 24.169068745664845 0 24.169068745664845 82.521744405814388 0 0 0 0 -6.5321524616384927 -9.8342477756039841 0 -9.8342477756039841 6.8428178707456979 0 0 0 0 -10.635540578379732 -7.2313045377668459 0 -7.2313045377668459 31.380346655838366 0 0 0 0 -7.0083853455407734 -8.8260880106572586 0 -8.8260880106572586 28.156137549012783 0 0 0 0 2.0203115249322892 5.0850634241232484 0 5.0850634241232484 10.592760215796844 0 0 0 0 25.321190020694303 -7.669440499299526 0 -7.669440499299526 -20.655078920381129 0 0 0 0 -6.7956454379859021 -4.4033494763788639 0 -4.4033494763788639 19.85166281294579 0 0 0 0 -5.6688052011104446 -6.6798416419042042 0 -6.6798416419042042 25.352879778649367 0 0 0 0 -0.47552572885297906 -8.2936220070919973 0 -8.2936220070919973 14.443160210737464 0 0 0 0 -2.6155807265741053 -14.289170065299805 0 -14.289170065299805 24.135061527775775 0 0 0 0 1.9620349131237163 -16.67158852895227 0 -16.67158852895227 48.887956291029695 0 0 0 0 23.724391594091685 57.368616124605978 0 57.368616124605978 190.70422502115252 0 0 0 0 -45.251840928925958 25.1344702897768 0 25.1344702897768 332.56948467371694 0 0 0 0 -40.950221769121754 8.2841055895182762 0 8.2841055895182762 323.00830572027917 0 0 0 0 -10.768490346683848 13.439994968070096 0 13.439994968070096 197.13505893704132 0 0 0 0 -38.966684455227551 -10.068845395020617 0 -10.068845395020617 350.89071623708151 0 0 0 0 -29.883991916659397 -14.284120221065677 0 -14.284120221065677 190.16010099182768 0 0 0 0 -50.747795081691493 8.8022235264688788 0 8.8022235264688788 345.17500436505361 0 0 0 0 -34.151258114597567 -29.639716184465215 0 -29.639716184465215 345.27502071745403 0 0 0 0 -46.078997393928148 17.385284941123246 0 17.385284941123246 358.70328108976537 0 0 0 0 4.8432804629246675 22.845579702432588 0 22.845579702432588 358.30543206264019 0 0 0 0 20.571421237606728 -21.682183863996215 0 -21.682183863996215 345.96914185662172 0 0 0 0 15.815591594347211 -8.3772064775568822 0 -8.3772064775568822 1.2093286395954403 0 0 0 0 -41.181596799211093 -94.326035552938265 0 -94.326035552938265 269.52086510382287 0 0 0 0 -166.38904506989184 -128.19070197576002 0 -128.19070197576002 376.69053816553605 0 0 0 0 1062.4651808601977 -450.13772021982368 0 -450.13772021982368 520.10930334416844 0 0 0 0 -58.202879991004011 -2.1337141169751703 0 -2.1337141169751703 450.33678994858201 0 0 0 0 -58.243425922139068 -6.646265645740641 0 -6.646265645740641 323.35963598956732 0 0 0 0 -10.318050387833864 52.895939036963682 0 52.895939036963682 331.40439069874992 0 0 0 0 0.58239657909230047 -0.81039760845162334 0 -0.81039760845162334 4.5944910011959337 0 0 0 0 224.40886337677148 509.05290398410216 0 509.05290398410216 621.1338356529559 0 0 0 0 149.63164431209043 167.84489079972991 0 167.84489079972991 512.09972492198722 0 0 0 0 18.531451245518156 220.89748581019285 0 220.89748581019285 572.4481261465844 0 0 0 0 -329.52234118354772 -13.875315204295475 0 -13.875315204295475 615.12501920802242 0 0 0 0 -256.01405634910145 325.02510677725422 0 325.02510677725422 813.92859663069976 0 0 0 0 955.62211531714638 -512.81514963445079 0 -512.81514963445079 -354.82436475608483 0 0 0 0 375.65929437749764 22.234456849495473 0 22.234456849495473 -13.110964010069438 0 0 0 0 7.3576324962170325 -3.7929427639037385 0 -3.7929427639037385 1.6072362535276818 0 0 0 0 1375.9897386484463 -1497.748449079525 0 -1497.748449079525 626.02606618835489 0 0 0 0 531.18299597532678 -469.12407759431881 0 -469.12407759431881 1448.2482915220971 0 0 0 0 -130.66929148363488 -173.2570004781337 0 -173.2570004781337 181.04262570544961 0 0 0 0 -125.84682767720119 -37.03631048020452 0 -37.03631048020452 1303.1967638584465 0 0 0 0 116.89594700515863 172.75785743159577 0 172.75785743159577 388.86269855637511 0 0 0 0 1.5146913572334686 -1.4239188422389795 0 -1.4239188422389795 1.8060618445106513 0 0 0 0 11.143517375893474 -11.026333788949614 0 -11.026333788949614 4.0643395312376569 0 0 0 0 181.3917359899724 86.523676712015003 0 86.523676712015003 -172.07906846673359 0 0 0 0 6.4643101822584867 -16.14123075824682 0 -16.14123075824682 23.733296920043358 0 0 0 0 11.858725262187155 -23.051082657821734 0 -23.051082657821734 23.813687551200942 0 0 0 0 12.859009428693753 -19.906896009066259 0 -19.906896009066259 25.731418755458435 0 0 0 0 2.2438605695670049 -13.612937612178939 0 -13.612937612178939 20.309398431367299 0 0 0 0 45.623048482620334 -2.4906967253191397 0 -2.4906967253191397 24.238444303075084 0 0 0 0 1.357611876064766 -16.652444287068647 0 -16.652444287068647 28.882390535036393 0 0 0 0 2.6685727345885226 -10.659514854229425 0 -10.659514854229425 20.151930408873113 0 0 0 0 0.59444036796628907 -11.106906947709248 0 -11.106906947709248 11.681955210441043 0 0 0 0 4.0704338017494592 -21.895274485617847 0 -21.895274485617847 35.914760877485605 0 0 0 0 1.4357501829654211 -7.203287438103871 0 -7.203287438103871 22.964678552882106 0 0 0 0 5.8139433755550272 -28.687508283659554 0 -28.687508283659554 47.67497623860254 0 0 0 0 -9.1517068536850275 -17.821315092263831 0 -17.821315092263831 13.032381843950134 0 0 0 0 8.1121100320353463 -23.6096205081381 0 -23.6096205081381 21.415250278081885 0 0 0 0 -2.2418469473609122 -14.605062396592956 0 -14.605062396592956 9.9849003145010471 0 0 0 0 -42.447562599403682 -13.152206562015635 0 -13.152206562015635 36.856998709576146 0 0 0 0 4.1094200766983704 -19.502260612385726 0 -19.502260612385726 31.583667217768379 0 0 0 0 -31.622265933673589 -68.825556531384336 0 -68.825556531384336 18.777184148333617 0 0 0 0 -5.3974279319716949 -22.073075473700534 0 -22.073075473700534 43.40670157951763 0 0 0 0 -30.685149456498038 -47.899644092420203 0 -47.899644092420203 55.488975335495525 0 0 0 0 -100.5072245214028 -31.381889414651596 0 -31.381889414651596 99.101461610600381 0 0 0 0 12.606056205709137 -26.703894841013607 0 -26.703894841013607 16.988498886992602 0 0 0 0 -3.270674138017057 1.9611905555429985 0 1.9611905555429985 33.130064139011665 0 0 0 0 -0.0529953920195112 -32.464545829716371 0 -32.464545829716371 104.72421474711882 0 0 0 0 23.190262526721199 -31.090199090402166 0 -31.090199090402166 39.305675124382105 0 0 0 0 -2.4895554502236337 -17.805157378720651 0 -17.805157378720651 49.062031578803726 0 0 0 0 -3.1221743286350829 -18.018789361907693 0 -18.018789361907693 52.37362455060611 0 0 0 0 -5.7935100177186669 -9.3484448809531528 0 -9.3484448809531528 10.554062405310034 0 0 0 0 -3.7733062774731501 -3.1255033101289342 0 -3.1255033101289342 4.9064967420233927 0 0 0 0 -10.550724422631561 -4.8476429395184368 0 -4.8476429395184368 37.116281626200362 0 0 0 0 -12.498220700832974 -14.982369093195302 0 -14.982369093195302 34.907338754695957 0 0 0 0 -12.087468401024843 3.0396582323661079 0 3.0396582323661079 6.6937196291406913 0 0 0 0 -14.815798288458609 -14.146436660601466 0 -14.146436660601466 37.453976656287978 0 0 0 0 380.77872260055688 181.81215474776036 0 181.81215474776036 -641.74672671830012 0 0 0 0 -10.38580617407256 -8.9421880364458062 0 -8.9421880364458062 10.057080006299259 0 0 0 0 -15.611688121128566 0.26683143508177665 0 0.26683143508177665 11.590600039870271 0 0 0 0 -9.4636340984270646 -13.552242811319275 0 -13.552242811319275 46.593853206839412 0 0 0 0 -37.732317032483543 -0.60693952770007797 0 -0.60693952770007797 27.135424599668454 0 0 0 0 -5.9680021016647329 -2.024101860607102 0 -2.024101860607102 17.333580739527363 0 0 0 0 392.48182848019286 656.35584366524836 0 656.35584366524836 1338.0308852527705 0 0 0 0 613.65030479260327 -770.2565511843668 0 -770.2565511843668 1256.0156059013461 0 0 0 0 -435.60428805059132 240.85415317750994 0 240.85415317750994 3335.7024143046619 0 0 0 0 452.86690784318091 -838.45533050171889 0 -838.45533050171889 3556.343703574581 0 0 0 0 1302.7150446651615 77.184682180617529 0 77.184682180617529 3497.2921673667079 0 0 0 0 -65.845645777804648 -351.35374788246008 0 -351.35374788246008 3500.3054025060956 0 0 0 0 -476.97551237109241 -258.5426511667356 0 -258.5426511667356 3613.6617763133581 0 0 0 0 -144.77640453804682 -834.95155002375031 0 -834.95155002375031 3628.7661862084833 0 0 0 0 -17.188533296117726 -435.25859753007535 0 -435.25859753007535 504.43624041080329 0 0 0 0 -149.22937289928313 -356.04368303730644 0 -356.04368303730644 1514.8296261674477 0 0 0 0 -127.93967795706139 -584.56747412193545 0 -584.56747412193545 1605.8712063564308 0 0 0 0 -309.35541073047466 -83.019024308719963 0 -83.019024308719963 2400.1900880108769 0 0 0 0 -120.90847729552991 -97.351269412472902 0 -97.351269412472902 670.76438714976393 0 0 0 0 -161.7159732623729 835.97076960861523 0 835.97076960861523 2587.502998424121 0 0 0 0 -543.84105084462794 -486.25954584585179 0 -486.25954584585179 3039.4326732873014 0 0 0 0 -392.26310391343202 -282.10753747566559 0 -282.10753747566559 2433.7785225185808 0 0 0 0 -321.78092707699426 385.74338894995731 0 385.74338894995731 2993.9750878256018 0 0 0 0 -40.250139909691498 3.22790657324731 0 3.22790657324731 3498.8476998349229 0 0 0 0 -0.90154845490293434 0.90127757963156441 0 0.90127757963156441 11.682930509261055 0 0 0 0 -455.48594333790373 94.079810659302893 0 94.079810659302893 3197.8283826489751 0 0 0 0 624.61629791840085 -884.46298568438579 0 -884.46298568438579 1257.6046106356662 0 0 0 0 -30.798637970881941 463.08308586273779 0 463.08308586273779 514.93442895988846 0 0 0 0 -0.44599476299047103 0.82151341999455596 0 0.82151341999455596 -2.7939388527790783 0 0 0 0 -7.4539506135088232 -5.5671190783486963 0 -5.5671190783486963 14.262470785273763 0 0 0 0 -7.6220251477596754 -3.0814141757377129 0 -3.0814141757377129 10.018530190650196 0 0 0 0 -5.0539591202054908 -0.29300958910607733 0 -0.29300958910607733 15.469725503426162 0 0 0 0 322.70471901576423 -128.96291949214537 0 -128.96291949214537 -377.00385964181623 0 0 0 0 -4.8681765625183289 -5.5577113326653489 0 -5.5577113326653489 8.225822745665937 0 0 0 0 -10.678543175682265 -4.0002276759349513 0 -4.0002276759349513 23.596858592238263 0 0 0 0 -5.0322015831177538 -3.6580017838811649 0 -3.6580017838811649 8.0694219461871484 0 0 0 0 -332.81138999001087 -310.60218179851654 0 -310.60218179851654 -266.78711446525995 0 0 0 0 -138.76434765147303 -102.05515891503455 0 -102.05515891503455 673.37556300297365 0 0 0 0 97.670395663336649 252.64438360618442 0 252.64438360618442 -438.9457462807768 0 0 0 0 -5.8151539492715605 -0.94513984056148104 0 -0.94513984056148104 11.312475268872738 0 0 0 0 -7.3215616131856223 -4.8924825459143904 0 -4.8924825459143904 18.080924880916427 0 0 0 0 -7.7583551581897154 -6.3866412578772724 0 -6.3866412578772724 20.954192715431418 0 0 0 0 -8.737727196272532 0.44279184993001763 0 0.44279184993001763 14.386296634286786 0 0 0 0 -4.0420345098706898 -4.8763227485101979 0 -4.8763227485101979 17.829424208297013 0 0 0 0 -7.8555484382623035 -6.6176981338721816 0 -6.6176981338721816 25.290621518892294 0 0 0 0 -8.087460628218281 -3.3952412470917039 0 -3.3952412470917039 6.3840934322279708 0 0 0 0 -11.005012360695218 -7.6519164937017194 0 -7.6519164937017194 27.817356610406932 0 0 0 0 -9.8657689288829715 -11.071202777406143 0 -11.071202777406143 28.215774696378503 0 0 0 0 -11.086772217771719 -1.7577553810812603 0 -1.7577553810812603 16.519191486154313 0 0 0 0 -8.5587861623107528 -10.018473333464499 0 -10.018473333464499 19.889368435367942 0 0 0 0 -11.605301644828256 -4.8497883917044078 0 -4.8497883917044078 3.524242015315501 0 0 0 0 -20.022635628359012 -8.5395222310435202 0 -8.5395222310435202 20.063910620345268 0 0 0 0 -15.802922484041119 -9.786064706313482 0 -9.786064706313482 2.3824986036779592 0 0 0 0 -45.954457784242621 3.0375237143234699 0 3.0375237143234699 17.613586803767248 0 0 0 0 -13.499141879515946 -6.5317763300336082 0 -6.5317763300336082 1.7103482119709952 0 0 0 0 6.2975854025786475 7.7931106273608748 0 7.7931106273608748 11.850417151355941 0 0 0 0 -18.958245688459073 4.7125546005563592 0 4.7125546005563592 26.738500535779167 0 0 0 0 -20.287182627987477 -3.1756368771239067 0 -3.1756368771239067 35.799385873775464 0 0 0 0 -10.238560723953753 -3.5128112953316304 0 -3.5128112953316304 11.403145285825303 0 0 0 0 -6.2337571943714636 -10.90274966285142 0 -10.90274966285142 23.276422551942233 0 0 0 0 -6.5793413505958451 -1.7834893530453826 0 -1.7834893530453826 13.981226865514117 0 0 0 0 -18.650001986799396 -5.9470184112069546 0 -5.9470184112069546 26.149839154211804 0 0 0 0 0.45090090478922362 -6.2635212183713804 0 -6.2635212183713804 10.879583044956249 0 0 0 0 8.2417839666942712 81.084816449743812 0 81.084816449743812 1310.1165135686824 0 0 0 0 -5.0913288189414914 570.45075346296653 0 570.45075346296653 2775.9218860554829 0 0 0 0 -89.202945800068846 20.550525714184914 0 20.550525714184914 1319.0709195737236 0 0 0 0 -467.39415635344062 30.998485983590399 0 30.998485983590399 2900.5972834593413 0 0 0 0 -319.13474246355804 357.50517794872189 0 357.50517794872189 2789.8558899947093 0 0 0 0 -545.19184703103235 378.37182071331608 0 378.37182071331608 3501.0624167507922 0 0 0 0 -214.68687301397989 850.44492737418841 0 850.44492737418841 2675.8501220135076 0 0 0 0 -161.39185774598664 757.57271913037403 0 757.57271913037403 2800.4837900000202 0 0 0 0 28.629051312051871 -27.502022627952101 0 -27.502022627952101 -12.319222699352395 0 0 0 0 0.081665810579640841 -2.5136865493191038 0 -2.5136865493191038 4.1845143636359836 0 0 0 0 -75.408277842262649 689.78939708392136 0 689.78939708392136 2595.7718016442086 0 0 0 0 74.404245894626143 -95.575864670325245 0 -95.575864670325245 88.696980130069278 0 0 0 0 -73.57861752284883 -94.321818792559498 0 -94.321818792559498 198.49344564485364 0 0 0 0 -95.244346602460269 59.646490882369108 0 59.646490882369108 -9.1153257286678127 0 0 0 0 -135.63584593943244 28.648481704778533 0 28.648481704778533 -0.64146582808461972 0 0 0 0 -3.2414005234786991 0.018278658405648684 0 0.018278658405648684 6.83892390514157 0 0 0 0 77.210006761896324 -326.64324777864385 0 -326.64324777864385 491.9921029926918 0 0 0 0 383.72179565970379 1688.0074308244548 0 1688.0074308244548 1994.3778789672961 0 0 0 0 -157.77322808379759 1104.1037137092753 0 1104.1037137092753 3494.0639823019701 0 0 0 0 -0.25772560336906175 2.5406531559097871 0 2.5406531559097871 12.497457041732673 0 0 0 0 173.27891616558369 -387.44531497771095 0 -387.44531497771095 823.5327078784976 0 0 0 0 -98.444209039786514 100.3662338781287 0 100.3662338781287 3389.2708539345581 0 0 0 0 1653.6796815685348 880.26483247618307 0 880.26483247618307 485.74890277958184 0 0 0 0 37.925957131120562 -10.201442755751486 0 -10.201442755751486 21.186121362465201 0 0 0 0 -1.0663478117658036 -1.240022844163355 0 -1.240022844163355 3.2352605417940765 0 0 0 0 -2.8002120194491908 2.2515476050903089 0 2.2515476050903089 17.556953525085191 0 0 0 0 -4.888459348225938 4.4006312126824696 0 4.4006312126824696 10.881772321468787 0 0 0 0 -11.846286006794964 -0.59521705995736429 0 -0.59521705995736429 13.304294566676418 0 0 0 0 -6.6451427306369055 6.6531837743823417 0 6.6531837743823417 17.812707079479878 0 0 0 0 -3.8979448737823654 3.2392988290737463 0 3.2392988290737463 20.530870673701216 0 0 0 0 -3.9117150387987749 4.7606026014618692 0 4.7606026014618692 13.917644585777452 0 0 0 0 -21.503954086667363 -7.1923676717487979 0 -7.1923676717487979 9.4686124163490604 0 0 0 0 -4.0962409808950184 2.3494980225973645 0 2.3494980225973645 15.580940851092265 0 0 0 0 -5.7425925950422965 4.398985281245551 0 4.398985281245551 18.387660092224053 0 0 0 0 -10.184349814820202 -1.4137244444343935 0 -1.4137244444343935 20.597587022360351 0 0 0 0 -8.1869425034344658 2.1272856475916342 0 2.1272856475916342 9.0191244778688997 0 0 0 0 -11.392185727656852 2.0423277671834512 0 2.0423277671834512 14.598815911660495 0 0 0 0 -34.514607226020757 -2.4955655661115088 0 -2.4955655661115088 83.877597809652798 0 0 0 0 -2.0220167387656685 0.6380319332209119 0 0.6380319332209119 4.0144462728282519 0 0 0 0 -6.6930838170073912 -6.7806649370577361 0 -6.7806649370577361 -0.025964373733586399 0 0 0 0 -4.0698349068065491 3.5878186270556682 0 3.5878186270556682 24.725202322997745 0 0 0 0 0.53301683928481847 2.5347935996037023 0 2.5347935996037023 3.6592158932288044 0 0 0 0 -43.340064395321548 -105.47292659918821 0 -105.47292659918821 31.994820129621985 0 0 0 0 -71.39650166108656 -50.919900364169735 0 -50.919900364169735 10.44163969613146 0 0 0 0 71.931790601796891 -63.21809332767225 0 -63.21809332767225 -5.0827805549488403 0 0 0 0 -9.9242017367947142 18.456969308737825 0 18.456969308737825 55.865061763804988 0 0 0 0 -10.608443997192884 -5.692715805254565 0 -5.692715805254565 5.5161290585381941 0 0 0 0 -16.447535480329616 -8.8949852758150882 0 -8.8949852758150882 15.698052032174019 0 0 0 0 119.2764676549973 -53.901669614115235 0 -53.901669614115235 -197.54892588435905 0 0 0 0 18.607769705092323 57.28957354650629 0 57.28957354650629 -50.248590381546819 0 0 0 0 -0.34012740702431188 0.87196527811217095 0 0.87196527811217095 4.5894040910921277 0 0 0 0 0.43587762027415411 1.3137415328992734 0 1.3137415328992734 0.99148045608907864 0 0 0 0 -3.7948058819047219 -109.37277262014686 0 -109.37277262014686 -168.18660315418674 0 0 0 0 -24.660234890444599 -199.68568046651626 0 -199.68568046651626 -142.43794366851216 0 0 0 0 -71.369752751487795 244.3531391184697 0 244.3531391184697 538.94704226109025 0 0 0 0 9.20167654495242 12.239458501589525 0 12.239458501589525 872.17752940466016 0 0 0 0 282.11022282154863 24.592871543889487 0 24.592871543889487 -89.083742236199214 0 0 0 0 46.563641152667174 -547.56239111344939 0 -547.56239111344939 -327.87575298365846 0 0 0 0 -362.05894990426259 -796.02077857350559 0 -796.02077857350559 318.73377821618305 0 0 0 0 0.88706640528078395 -2.2448754382850566 0 -2.2448754382850566 2.5500851646575882 0 0 0 0 57.352024646774737 -470.47823364701628 0 -470.47823364701628 -30.789176405774924 0 0 0 0 -37.190815104399917 7.9916661262468551 0 7.9916661262468551 191.86906261390413 0 0 0 0 -34.458115619483578 -39.417307560930567 0 -39.417307560930567 377.6307471593791 0 0 0 0 -112.34111377566705 -67.230035246670013 0 -67.230035246670013 175.97364215501875 0 0 0 0 -37.500051760961469 1.0761556937613932 0 1.0761556937613932 49.524704960302188 0 0 0 0 -113.62542840997503 -49.101633125888839 0 -49.101633125888839 97.593400759058568 0 0 0 0 -92.203327217122478 -70.405422720690694 0 -70.405422720690694 106.42889852405006 0 0 0 0 -108.67434794853716 -46.55046754452087 0 -46.55046754452087 72.741191383731348 0 0 0 0 -88.563594878559798 -82.139521551715006 0 -82.139521551715006 65.73195123104415 0 0 0 0 -107.89461899063997 -43.811787071740582 0 -43.811787071740582 16.647783559314121 0 0 0 0 -86.326154469049925 -92.361291245640132 0 -92.361291245640132 -14.791561470569832 0 0 0 0 0.80463343746775884 -3.9638607385089912 0 -3.9638607385089912 5.1162182548487465 0 0 0 0 42.317252101864142 -405.21200048667561 0 -405.21200048667561 414.67607402404974 0 0 0 0 -18.003383614906397 -241.64319203115156 0 -241.64319203115156 -15.649988886736537 0 0 0 0 -450.68995283039339 331.92914419004228 0 331.92914419004228 302.62990148081735 0 0 0 0 -109.23887567327643 211.73345982716273 0 211.73345982716273 -94.553816621930309 0 0 0 0 -110.509392662236 37.42170137789617 0 37.42170137789617 520.59675881625299 0 0 0 0 -407.39745880247244 97.403744301118422 0 97.403744301118422 860.44971967951278 0 0 0 0 -32.589453178355598 230.39894173062385 0 230.39894173062385 547.60383101461957 0 0 0 0 107.38275422289826 264.88506277709166 0 264.88506277709166 125.84409524615876 0 0 0 0 165.08463632853943 382.73483201131558 0 382.73483201131558 329.65084773292256 0 0 0 0 85.671421855050539 468.9390808303051 0 468.9390808303051 666.9187254306089 0 0 0 0 13.859687451538775 328.25651990867573 0 328.25651990867573 395.74479318141675 0 0 0 0 -4.8184366400373619 223.13033783685751 0 223.13033783685751 397.41029942635112 0 0 0 0 140.68066508401216 26.51243635237779 0 26.51243635237779 11.528953372890101 0 0 0 0 -123.06920774062473 11.429227042402999 0 11.429227042402999 156.74045703344564 0 0 0 0 -1099.2936788335469 42.817555469637455 0 42.817555469637455 807.22132638025505 0 0 0 0 30.421415568633847 196.20805912451942 0 196.20805912451942 309.54347786495418 0 0 0 0 -0.70207100832101832 2.3141458696253552 0 2.3141458696253552 50.590274114740069 0 0 0 0 1.418357070526123 2.2206344073127013 0 2.2206344073127013 8.0230015743446188 0 0 0 0 829.84071138825743 -1103.9746508372241 0 -1103.9746508372241 1072.1570489455553 0 0 0 0 7.1362896629902934 -781.320019576302 0 -781.320019576302 815.72158630388367 0 0 0 0 0.46078762013024432 -1.1284188819924958 0 -1.1284188819924958 19.760564655715456 0 0 0 0 395.38161834709717 300.88568463988486 0 300.88568463988486 93.581980521030346 0 0 0 0 646.0634052044802 608.25018415449631 0 608.25018415449631 468.15956932279369 0 0 0 0 1592.1604785735751 -730.37121806207506 0 -730.37121806207506 1235.5053162670374 0 0 0 0 570.74752878468553 -746.96820036786812 0 -746.96820036786812 1550.3981805940566 0 0 0 0 680.72803576814977 -763.71081251884607 0 -763.71081251884607 846.35250259044051 0 0 0 0 561.41931900401232 -701.39581747167904 0 -701.39581747167904 1327.8174049117806 0 0 0 0 875.24712934069362 -592.3979965358667 0 -592.3979965358667 849.0695816687803 0 0 0 0 668.89304463194549 -877.40933566337117 0 -877.40933566337117 1177.6111931568812 0 0 0 0 993.39546885596928 -838.91308274049879 0 -838.91308274049879 802.17084447134403 0 0 0 0 7.1431564610746499 -6.6811469540377253 0 -6.6811469540377253 12.097246703612143 0 0 0 0 673.30911473904871 -911.65413435102528 0 -911.65413435102528 1408.931687303535 0 0 0 0 888.25969909641185 -357.94741777596937 0 -357.94741777596937 23.838352054999632 0 0 0 0 66.128461705833615 -26.661706004237203 0 -26.661706004237203 -152.49684006373536 0 0 0 0 28.751410352207998 0.68829289993989562 0 0.68829289993989562 4.2602578707356642 0 0 0 0 -1.5501792041204681 -53.368975597517419 0 -53.368975597517419 55.026971996514476 0 0 0 0 318.73548498551054 -491.08982933246443 0 -491.08982933246443 1033.8036290470773 0 0 0 0 -120.69343887162177 70.037365663243691 0 70.037365663243691 -99.153123068481364 0 0 0 0 -170.89679686632189 -201.66418635436457 0 -201.66418635436457 50.50807762673503 0 0 0 0 -44.311135726456996 -203.95106974665396 0 -203.95106974665396 -92.796292442595586 0 0 0 0 35.610816791646357 -122.84526629381071 0 -122.84526629381071 -14.747856207623045 0 0 0 0 -85.795814136363333 -152.32891526603271 0 -152.32891526603271 6.3774568618900958 0 0 0 0 15.690488646887388 -34.654883194383729 0 -34.654883194383729 -10.133149353547196 0 0 0 0 -2.4963808051500394 -9.7142606218074405 0 -9.7142606218074405 7.2131863390009894 0 0 0 0 5.860526382987219 3.966450187563229 0 3.966450187563229 6.8935859019060786 0 0 0 0 2048.1147783686265 1517.858583159039 0 1517.858583159039 2656.4341144468999 0 0 0 0 -404.50576471340628 -436.73188967485112 0 -436.73188967485112 1525.095781919355 0 0 0 0 60.738236023744321 641.70469490491632 0 641.70469490491632 1502.5226825165446 0 0 0 0 436.92410366876175 -1808.7131451185505 0 -1808.7131451185505 -1075.6998851859244 0 0 0 0 806.55468660809527 -1513.7992199989731 0 -1513.7992199989731 1652.3492188976288 0 0 0 0 429.87922942505247 -958.25328447267407 0 -958.25328447267407 1191.8066991465348 0 0 0 0 729.99804075116936 150.76086856368238 0 150.76086856368238 -837.50620321665701 0 0 0 0 10.175875413690433 3.1916037260904133 0 3.1916037260904133 1.3798989736633551 0 0 0 0 292.74897692771356 -354.31669149182562 0 -354.31669149182562 -1168.3260799295385 0 0 0 0 1629.3894740975215 -495.62629565977841 0 -495.62629565977841 -494.85057584704191 0 0 0 0 2008.3423337639661 -1486.4832172043352 0 -1486.4832172043352 232.26777606688847 0 0 0 0 252.82139923192881 111.37786792880615 0 111.37786792880615 -409.30439005071139 0 0 0 0 2105.2928809937766 -903.9641747248279 0 -903.9641747248279 -342.45104485807678 0 0 0 0 2070.8348025255623 -487.42904582846677 0 -487.42904582846677 187.33957672222459 0 0 0 0 4217.3081123980683 -2418.2828381360669 0 -2418.2828381360669 -86.804212503287999 0 0 0 0 1503.0577162610937 -1668.7725244717294 0 -1668.7725244717294 688.14282119624841 0 0 0 0 -0.81024536529672853 -1.2060962875219339 0 -1.2060962875219339 1.9509355132121797 0 0 0 0 1053.5216984533554 -1635.3717154883198 0 -1635.3717154883198 1223.2643654966523 0 0 0 0 920.92540031214571 -1312.4787572257774 0 -1312.4787572257774 1242.258009551264 0 0 0 0 1120.5580987304293 -1088.43517137661 0 -1088.43517137661 586.90870309666207 0 0 0 0 787.9897045278276 -1089.1777938416071 0 -1089.1777938416071 929.40157848839954 0 0 0 0 730.02344121412102 -657.04257644855898 0 -657.04257644855898 646.4494900080681 0 0 0 0 673.87999059984691 -885.0125106446776 0 -885.0125106446776 1121.060599508688 0 0 0 0 468.27839420847431 -526.33101679942411 0 -526.33101679942411 619.5731037356345 0 0 0 0 933.78531950653996 -968.30869280661136 0 -968.30869280661136 838.75349363191708 0 0 0 0 900.18454686155042 -574.10336403199585 0 -574.10336403199585 316.60745590172155 0 0 0 0 1420.195527425537 -851.84770963470874 0 -851.84770963470874 306.44475167419296 0 0 0 0 1028.1623572984981 -1048.2518991309917 0 -1048.2518991309917 578.7022203288434 0 0 0 0 1034.0473727127555 -655.31168975043329 0 -655.31168975043329 255.84243568404781 0 0 0 0 183.79181684945161 -35.657841929904862 0 -35.657841929904862 245.60937001598359 0 0 0 0 465.18866428816636 -302.76328211014516 0 -302.76328211014516 130.80225743748815 0 0 0 0 914.54551090101086 -82.068188287696103 0 -82.068188287696103 -194.55780122600663 0 0 0 0 575.7975747475748 -258.82680472682841 0 -258.82680472682841 251.88276525695619 0 0 0 0 76.406117748876568 -121.2863104543103 0 -121.2863104543103 424.2254218692924 0 0 0 0 132.28628551929387 -2.0226903628861237 0 -2.0226903628861237 168.95325346571553 0 0 0 0 318.0401349136514 -83.271820820871653 0 -83.271820820871653 174.39191899605612 0 0 0 0 542.75488794834496 -599.06202459694123 0 -599.06202459694123 547.6209199835921 0 0 0 0 749.8766626738859 -686.64336863451172 0 -686.64336863451172 571.59240777547529 0 0 0 0 199.8718599762492 -306.0099800338312 0 -306.0099800338312 521.20835853765061 0 0 0 0 -52.029052719110041 -60.304066071722445 0 -60.304066071722445 21.451861856727191 0 0 0 0 -63.401099784361577 -90.365156813942576 0 -90.365156813942576 75.338364074741548 0 0 0 0 -80.83004801871175 -93.600357819539568 0 -93.600357819539568 109.91428803388771 0 0 0 0 -56.558934228774888 -67.953815390026648 0 -67.953815390026648 114.31617960667882 0 0 0 0 -14.000223587650908 -163.84895807946305 0 -163.84895807946305 294.68214740734948 0 0 0 0 -95.204729091502486 -113.38008015746436 0 -113.38008015746436 129.21597832052066 0 0 0 0 -128.74190575178091 54.783419679217332 0 54.783419679217332 258.13939893807719 0 0 0 0 -41.332679382499464 58.760751388689187 0 58.760751388689187 -22.53753220750059 0 0 0 0 -17.747772343813786 -4.4879580975100453 0 -4.4879580975100453 20.864341162185134 0 0 0 0 -38.016408930504795 2.1583676725511083 0 2.1583676725511083 28.420964635181818 0 0 0 0 -102.30310085216843 0.69121312754305109 0 0.69121312754305109 55.483406097209809 0 0 0 0 -105.29693631000555 1.3695298107359122 0 1.3695298107359122 184.63314290368226 0 0 0 0 -396.47036973421916 -49.158534239197252 0 -49.158534239197252 2598.0452120917944 0 0 0 0 -259.56036083818759 -368.01136210295772 0 -368.01136210295772 1332.5621971591972 0 0 0 0 629.64420955578191 416.50435572445167 0 416.50435572445167 -502.89294251981119 0 0 0 0 -8.2893048899169912 -23.099505837508332 0 -23.099505837508332 1368.9518996584375 0 0 0 0 -3.3289008495814283 16.888546181226168 0 16.888546181226168 16.682714011550992 0 0 0 0 -38.347871254849153 0.53033642726072117 0 0.53033642726072117 13.397470717420129 0 0 0 0 -215.38914714695443 129.17983036704027 0 129.17983036704027 174.21053272611607 0 0 0 0 495.75176000994236 -1254.6914922952442 0 -1254.6914922952442 2224.1362634910911 0 0 0 0 -287.24282409466895 -676.96149258200967 0 -676.96149258200967 2891.8323168809329 0 0 0 0 -324.18258420093969 -801.220164227846 0 -801.220164227846 2551.0318254737576 0 0 0 0 -556.60179205020199 -312.6177234627321 0 -312.6177234627321 3498.788012365645 0 0 0 0 -174.2954014758493 -124.41321380736872 0 -124.41321380736872 338.95545192350983 0 0 0 0 52.202650677938436 -201.01140821687477 0 -201.01140821687477 129.29811197422805 0 0 0 0 -45.072911349286073 -1.2746782282138156 0 -1.2746782282138156 397.56700478170933 0 0 0 0 -16.517378233813023 9.3023741324696942 0 9.3023741324696942 6.9430614661917804 0 0 0 0 160.29284018266367 95.561017070045637 0 95.561017070045637 -161.17245538078123 0 0 0 0 225.34187042513301 -299.6042421903453 0 -299.6042421903453 -309.12775378776496 0 0 0 0 92.663197169052395 349.83896912079945 0 349.83896912079945 -80.378190312359038 0 0 0 0 152.78692627881034 -1228.2273539949547 0 -1228.2273539949547 3501.7757339705877 0 0 0 0 520.2063140999071 -1563.3831316856213 0 -1563.3831316856213 3205.9895437294435 0 0 0 0 1.4485680904745866 4.410889761018268 0 4.410889761018268 9.872092486507114 0 0 0 0 226.55070053178264 -755.27585997545975 0 -755.27585997545975 4821.9789756516038 0 0 0 0 -327.54184936124733 61.625402910388175 0 61.625402910388175 3518.1507117451629 0 0 0 0 108.61234513706655 -20.937916920606767 0 -20.937916920606767 3498.6284411129809 0 0 0 0 -60.571943595309392 402.31931111536323 0 402.31931111536323 340.56423564210854 0 0 0 0 86.675568055404156 -514.62660532642622 0 -514.62660532642622 2417.8767951868904 0 0 0 0 621.83427976088842 64.964605210002446 0 64.964605210002446 -233.61332532850292 0 0 0 0 1.0262825444624784 9.3179094457331857 0 9.3179094457331857 8.5320212550864643 0 0 0 0 971.7245683978058 -1313.5987557506578 0 -1313.5987557506578 1004.509524306568 0 0 0 0 223.68791368327814 -925.59603150390274 0 -925.59603150390274 3499.8378695654278 0 0 0 0 874.09122306507516 -1477.3780744551618 0 -1477.3780744551618 1176.473361966875 0 0 0 0 3.7144632571981746 2.2318216640857589 0 2.2318216640857589 6.7348485259870348 0 0 0 0 585.98894542878634 -1223.5239827270075 0 -1223.5239827270075 1812.6627772106422 0 0 0 0 167.12464879133404 53.019349582337782 0 53.019349582337782 11.257120418170416 0 0 0 0 15.627667843514295 -2.3363159091073946 0 -2.3363159091073946 -4.0346566636829859 0 0 0 0 429.19330347521998 348.09877610354624 0 348.09877610354624 1067.7183116126089 0 0 0 0 839.36458631359346 -1280.422273278703 0 -1280.422273278703 1369.6136092295603 0 0 0 0 257.04452650254984 -750.39848486356914 0 -750.39848486356914 748.4798607187231 0 0 0 0 632.69631258417894 -827.34512808444015 0 -827.34512808444015 565.75472532236017 0 0 0 0 465.70676531845447 -639.13236689823816 0 -639.13236689823816 458.96258508603205 0 0 0 0 499.92840672962006 -605.08358111584948 0 -605.08358111584948 692.90088196756915 0 0 0 0 741.03074354232285 -690.61074540075424 0 -690.61074540075424 673.82020938224377 0 0 0 0 638.55150314905359 -667.20646583431517 0 -667.20646583431517 757.59165570050936 0 0 0 0 912.15192455443048 -455.7478835377733 0 -455.7478835377733 179.38917887480966 0 0 0 0 1401.7316087790732 -719.48005925765847 0 -719.48005925765847 116.60480637221008 0 0 0 0 -10.805743413120098 -16.47484725079152 0 -16.47484725079152 -11.485387367641493 0 0 0 0 6.6450427128598228 -2.7891477387279444 0 -2.7891477387279444 -9.3626674970847894 0 0 0 0 109.96098675852036 -209.04745216330105 0 -209.04745216330105 99.769545117938833 0 0 0 0 66.724425399687334 -157.84500219048823 0 -157.84500219048823 100.76449081027749 0 0 0 0 159.55459061526199 60.522718126616383 0 60.522718126616383 -23.661456887326494 0 0 0 0 2.2444488930323132 -154.1095118430967 0 -154.1095118430967 267.36968424830047 0 0 0 0 -231.06125797493223 -148.11302664684263 0 -148.11302664684263 6.186405676722643 0 0 0 0 111.63850141143212 -247.75812602887163 0 -247.75812602887163 257.67785928174635 0 0 0 0 -0.028916812904700606 -2.3934939538792506 0 -2.3934939538792506 -5.0639095678179515 0 0 0 0 584.33701310966103 -729.27374177430465 0 -729.27374177430465 1365.1435127589066 0 0 0 0 550.86502789708788 -1133.9891226839009 0 -1133.9891226839009 1686.6893814823634 0 0 0 0 -61.155246019007336 -65.67378528986228 0 -65.67378528986228 2.1926984521232953 0 0 0 0 -107.73598520288942 -92.830267660338905 0 -92.830267660338905 41.090562660552678 0 0 0 0 -2.4955750875283851 -0.58857271549290857 0 -0.58857271549290857 7.1476489068528082 0 0 0 0 -89.511387807263873 -54.138241281067167 0 -54.138241281067167 104.60043294313073 0 0 0 0 -127.34775360383628 -108.16760973849523 0 -108.16760973849523 140.04655094939335 0 0 0 0 -25.627451879592172 -75.078346331029934 0 -75.078346331029934 106.84718527118093 0 0 0 0 -112.88395819590687 -55.144785404543654 0 -55.144785404543654 111.10150643441739 0 0 0 0 -116.93975090282174 -133.56396507758109 0 -133.56396507758109 163.23564446346427 0 0 0 0 -3.0494180132691326 -156.44410061042072 0 -156.44410061042072 163.44924918364589 0 0 0 0 118.65944116217548 -121.51524966233717 0 -121.51524966233717 -7.0283600067050429 0 0 0 0 0.26543496102385689 -24.223685992859828 0 -24.223685992859828 99.251831550092902 0 0 0 0 -13.029850185515443 -5.6775665785535239 0 -5.6775665785535239 107.59167455543866 0 0 0 0 14.85654678248693 -40.80448998949214 0 -40.80448998949214 117.92971224777921 0 0 0 0 -59.64367912421551 -14.492439874422416 0 -14.492439874422416 110.03470682565239 0 0 0 0 5.2675229810482653 -27.267895348052164 0 -27.267895348052164 7.6223357299824324 0 0 0 0 3.5957940372973098 -34.3317850803287 0 -34.3317850803287 108.49319561927814 0 0 0 0 4.3187424189100057 -17.233651318384545 0 -17.233651318384545 17.696831718007161 0 0 0 0 2.2088978649176081 -7.1207791105213829 0 -7.1207791105213829 4.4176288464705973 0 0 0 0 0.034666373251874827 -13.678153203702815 0 -13.678153203702815 12.768063867604631 0 0 0 0 15.021845914971436 -55.278502905491223 0 -55.278502905491223 -60.112261054257033 0 0 0 0 11.201092173848565 -33.107631092608244 0 -33.107631092608244 36.479373923333242 0 0 0 0 1.3400382876871326 -21.808726755428687 0 -21.808726755428687 -18.938900167218762 0 0 0 0 27.839235908591945 -45.501011037620628 0 -45.501011037620628 39.2595175615279 0 0 0 0 -6.3291297821091419 -18.41603721338268 0 -18.41603721338268 -1.3010259129030288 0 0 0 0 15.064397860185014 -23.096860343963971 0 -23.096860343963971 -36.123512760859363 0 0 0 0 228.24482142631052 196.63400435732967 0 196.63400435732967 -64.916511096409522 0 0 0 0 477.37398724909121 -831.28044142097406 0 -831.28044142097406 1184.2595575635969 0 0 0 0 954.01096370319476 -1320.5994139326081 0 -1320.5994139326081 1017.7778895527206 0 0 0 0 1625.0766668191868 -1129.4873105237093 0 -1129.4873105237093 358.15172024724143 0 0 0 0 988.64198266116341 -735.30098217075818 0 -735.30098217075818 1111.6197645867196 0 0 0 0 884.75012857446075 -1565.8670877043992 0 -1565.8670877043992 3481.5269089937647 0 0 0 0 76.686279961199574 558.09159774313775 0 558.09159774313775 3494.8338007399548 0 0 0 0 -456.57173602990633 369.26033590637053 0 369.26033590637053 -123.19335340600787 0 0 0 0 3.0182769765793358 -4.2301718759505329 0 -4.2301718759505329 7.9996294027552501 0 0 0 0 967.02577070654695 -571.86639867791837 0 -571.86639867791837 479.4934896750724 0 0 0 0 -105.47045777468925 135.19484665809739 0 135.19484665809739 2513.2736528244677 0 0 0 0 -756.55881997545669 -411.62104176329603 0 -411.62104176329603 3496.5639355095882 0 0 0 0 -1.5874565420959008 -3.2572875531610572 0 -3.2572875531610572 8.3856726372206349 0 0 0 0 -158.98311782013843 146.42234454988557 0 146.42234454988557 38.963794492479337 0 0 0 0 -358.87197650550519 9.9534338731309617 0 9.9534338731309617 656.77264572301601 0 0 0 0 355.02777930202808 20.738892722406035 0 20.738892722406035 -398.61373544851472 0 0 0 0 327.19278075628756 -319.86437014329886 0 -319.86437014329886 82.992281413943829 0 0 0 0 -138.16494797357123 -733.90813562347989 0 -733.90813562347989 3130.5242617656004 0 0 0 0 4.071643170419712 2.1765442745364032 0 2.1765442745364032 13.784645921196459 0 0 0 0 841.64991439247581 -959.69902706776566 0 -959.69902706776566 1270.878926437103 0 0 0 0 1309.5589455177774 -418.4954136483118 0 -418.4954136483118 156.10102790927886 0 0 0 0 1496.2324346620912 1440.3860133557648 0 1440.3860133557648 1004.4488185839364 0 0 0 0 370.61544736879432 1482.5278134632435 0 1482.5278134632435 3493.7343031183918 0 0 0 0 -0.29722594708540112 3.0898307161203817 0 3.0898307161203817 1.1935364301109903 0 0 0 0 -326.3045405414332 -211.38617633055401 0 -211.38617633055401 189.6096565888538 0 0 0 0 3.1860992555247041 -5.3485411614339773 0 -5.3485411614339773 13.578588110674918 0 0 0 0 3.8949500968454838 -2.3276410829178493 0 -2.3276410829178493 22.263872760065674 0 0 0 0 -5.7589481321747371 -4.3602097897835392 0 -4.3602097897835392 18.617093490520347 0 0 0 0 -2.7131728189148205 -7.1284032318885195 0 -7.1284032318885195 52.364871108520944 0 0 0 0 -4.4125411742393226 -20.063993230674896 0 -20.063993230674896 25.483686106066557 0 0 0 0 6.2264600689809715 -13.415884347868406 0 -13.415884347868406 34.729089391340956 0 0 0 0 1.8147866287680403 -19.457538636265674 0 -19.457538636265674 30.685667553193692 0 0 0 0 -5.8386188970416697 -15.512024923902572 0 -15.512024923902572 25.993964051623266 0 0 0 0 3.6174118533167432 -22.912452439154162 0 -22.912452439154162 41.952222025023083 0 0 0 0 9.7050232872886681 -28.863170788362368 0 -28.863170788362368 74.230231969253509 0 0 0 0 8.9037974735067014 -21.918302469026081 0 -21.918302469026081 14.981508764586131 0 0 0 0 2.41980251002974 -111.54532924754355 0 -111.54532924754355 -5.842567860141795 0 0 0 0 16.045518886392315 -74.221130674575278 0 -74.221130674575278 -110.77578032785459 0 0 0 0 45.123459249890828 -21.028069663730435 0 -21.028069663730435 -34.445748596358847 0 0 0 0 -230.39123181655037 219.80931616787097 0 219.80931616787097 -41.941122631584676 0 0 0 0 -16.330730763682624 63.930905450902458 0 63.930905450902458 -73.589005026538871 0 0 0 0 -2.4359639188678472 -1.1683481997263758 0 -1.1683481997263758 14.891360092672539 0 0 0 0 -478.99372139394313 -540.73362351354831 0 -540.73362351354831 1148.1361187549655 0 0 0 0 -207.58404045335985 409.68465575021264 0 409.68465575021264 3492.1491821289055 0 0 0 0 121.52048116926663 750.11111011502908 0 750.11111011502908 1509.0331007771213 0 0 0 0 911.97825811237396 644.65100463042563 0 644.65100463042563 635.52418879192373 0 0 0 0 3.2476938429187463 -0.69251129421992275 0 -0.69251129421992275 8.5671822994404501 0 0 0 0 137.32653890380288 -56.580618250749467 0 -56.580618250749467 29.351819988514421 0 0 0 0 362.19952597621295 399.5194685667966 0 399.5194685667966 1445.9683682830066 0 0 0 0 111.65495246166961 619.47301427205321 0 619.47301427205321 543.28015618196514 0 0 0 0 375.51214131393692 316.30829044193229 0 316.30829044193229 418.23678632324481 0 0 0 0 553.55809629516034 511.78127510619834 0 511.78127510619834 385.02225356093004 0 0 0 0 337.32299167196152 23.187457679379349 0 23.187457679379349 19.077377970315865 0 0 0 0 42.290956607692806 98.0389402337305 0 98.0389402337305 163.30166806857233 0 0 0 0 2.3122307432766664 -19.476406140979115 0 -19.476406140979115 19.293425270766068 0 0 0 0 179.62674133016048 77.170571413656944 0 77.170571413656944 108.91689527369635 0 0 0 0 -56.764665867715848 -83.040453267687553 0 -83.040453267687553 25.085607205281121 0 0 0 0 -21.165446052488647 136.50409687151296 0 136.50409687151296 196.1459632600172 0 0 0 0 40.425317046270152 396.04595652765397 0 396.04595652765397 673.14619873101765 0 0 0 0 -6.299987927246093 -3.6526873522088863 0 -3.6526873522088863 59.565796991320894 0 0 0 0 -2.6215250827517771 -0.61543137623175781 0 -0.61543137623175781 50.351157684060688 0 0 0 0 -2.9690927995279708 -2.4717443493664177 0 -2.4717443493664177 87.905749169560295 0 0 0 0 -1.6592599775008239 -6.0098105311517429 0 -6.0098105311517429 95.911098425195405 0 0 0 0 9.436626245057596 -21.233685041763238 0 -21.233685041763238 97.12157815631781 0 0 0 0 5.3073173989412226 -10.961991274123648 0 -10.961991274123648 71.803072208807862 0 0 0 0 -14.725750550332464 -14.264457469874515 0 -14.264457469874515 45.861151292733439 0 0 0 0 -2.1998704872207089 -1.7057416093997304 0 -1.7057416093997304 39.811724842011543 0 0 0 0 -87.843504525103072 -41.458505585010244 0 -41.458505585010244 160.94034112547524 0 0 0 0 -2.0100919999149367 -8.0881453603889053 0 -8.0881453603889053 46.521294456809649 0 0 0 0 3.679312961911819 2.4960964710712688 0 2.4960964710712688 60.055492931291155 0 0 0 0 -2.7152642228333739 -20.766277963104923 0 -20.766277963104923 35.590552189114661 0 0 0 0 86.41959770492349 49.781853280979703 0 49.781853280979703 -47.517128277127995 0 0 0 0 10.311539652669126 -5.622206426626235 0 -5.622206426626235 84.292825944304013 0 0 0 0 9.5668634656694582 -22.199578456262227 0 -22.199578456262227 17.462430769365842 0 0 0 0 -16.123446863297431 -31.404148584359973 0 -31.404148584359973 -2.6345499325507262 0 0 0 0 2.4694111175108038 -18.98356052381649 0 -18.98356052381649 40.055938395981983 0 0 0 0 -0.8813367348592962 3.4934360967725033 0 3.4934360967725033 77.817825218436241 0 0 0 0 142.56991427262608 299.95389025220356 0 299.95389025220356 170.05628934214474 0 0 0 0 159.94026969957895 214.37206327254535 0 214.37206327254535 20.479724873825035 0 0 0 0 -21.132267082258522 111.98318724213823 0 111.98318724213823 461.5252765202531 0 0 0 0 -30.668180738959336 12.479351487934764 0 12.479351487934764 202.77195545572249 0 0 0 0 -28.305184632692772 19.169668046350125 0 19.169668046350125 138.79375369104673 0 0 0 0 -28.079369093386049 0.82040075022814563 0 0.82040075022814563 85.378999838325399 0 0 0 0 -33.35764114869562 0.24369594008749118 0 0.24369594008749118 110.87308078110436 0 0 0 0 -58.868622460681763 -32.987271145575505 0 -32.987271145575505 123.66054281545803 0 0 0 0 -39.632528188451943 -13.763217509098467 0 -13.763217509098467 83.566674880101345 0 0 0 0 -26.64975313545574 -2.3739805838195025 0 -2.3739805838195025 86.616390070514171 0 0 0 0 -31.798082757832162 5.3575256933108903 0 5.3575256933108903 80.172904387023664 0 0 0 0 -39.205572926834975 -14.921905684946978 0 -14.921905684946978 48.369966336489597 0 0 0 0 -70.574488122168077 -36.529385917059699 0 -36.529385917059699 108.52426851919881 0 0 0 0 -79.648029223038975 -58.950040778774564 0 -58.950040778774564 65.980952874415379 0 0 0 0 -30.669069216333696 -1.1303007628084742 0 -1.1303007628084742 70.150103644627961 0 0 0 0 -38.119988571244903 -20.86466463261786 0 -20.86466463261786 60.936931159332744 0 0 0 0 -60.925387852826134 -28.704830036553176 0 -28.704830036553176 114.8638569384857 0 0 0 0 -56.535973666147584 -75.293335528909665 0 -75.293335528909665 126.49895969363115 0 0 0 0 -55.945535209051599 -80.588932833301442 0 -80.588932833301442 173.63266276392824 0 0 0 0 -59.384179196748619 -19.475338445432499 0 -19.475338445432499 204.03902156594268 0 0 0 0 -89.175083871530433 -47.011743378716346 0 -47.011743378716346 102.28987629415496 0 0 0 0 -103.60110378269368 -43.848089184480159 0 -43.848089184480159 51.413911004812689 0 0 0 0 -15.852797306760408 -48.292692823148172 0 -48.292692823148172 -25.968210675062437 0 0 0 0 -42.595413515945893 -83.896972838909278 0 -83.896972838909278 77.331985065386107 0 0 0 0 -39.172116998245258 -40.779440912203427 0 -40.779440912203427 32.312417653158263 0 0 0 0 -8.3252591866714667 -11.557416013803524 0 -11.557416013803524 94.125599200107885 0 0 0 0 -120.06050907007665 -27.342149650263309 0 -27.342149650263309 372.46273103453859 0 0 0 0 19.887136091952335 -7.1946421581078539 0 -7.1946421581078539 50.421670942665514 0 0 0 0 -50.894465053870761 -73.272728127185474 0 -73.272728127185474 102.59292230893334 0 0 0 0 20.797564695482492 -119.06720262155977 0 -119.06720262155977 268.36820927691588 0 0 0 0 -1.9029058907169656 -57.679508393735887 0 -57.679508393735887 106.69908824223967 0 0 0 0 93.804559467540471 -58.956896911010517 0 -58.956896911010517 77.271759492381534 0 0 0 0 -1.5204803080286029 10.959774510943895 0 10.959774510943895 15.508740092969205 0 0 0 0 8.5817919059304586 -2.4192627245438416 0 -2.4192627245438416 109.35079888001292 0 0 0 0 -4.4020755796576054 20.441064068353882 0 20.441064068353882 77.050857561209341 0 0 0 0 -1.9798409542020181 -9.3502661491052095 0 -9.3502661491052095 104.85014008268172 0 0 0 0 -13.051509645825263 15.351490797138467 0 15.351490797138467 80.514402760583835 0 0 0 0 -46.193647608339688 -28.550604030326213 0 -28.550604030326213 56.539928515496285 0 0 0 0 -6.7564425426051402 0.67737747812446925 0 0.67737747812446925 68.58662241793931 0 0 0 0 -29.311124810212888 -31.708040409739624 0 -31.708040409739624 27.032901771166507 0 0 0 0 -0.60091383674649523 -8.9241661608049814 0 -8.9241661608049814 49.144526656657263 0 0 0 0 -7.4060077228309638 23.882535602755524 0 23.882535602755524 92.28289303556312 0 0 0 0 -32.596429470064095 -8.6711224673451852 0 -8.6711224673451852 44.883835564640322 0 0 0 0 -7.1833821704011003 -10.429722968823654 0 -10.429722968823654 58.48969263252441 0 0 0 0 -77.902845060813206 122.93883227383321 0 122.93883227383321 22.795838558145988 0 0 0 0 -156.87332642651438 29.220859129282871 0 29.220859129282871 79.608956394163783 0 0 0 0 -259.46872837374758 -580.24304495296383 0 -580.24304495296383 1182.2930758539587 0 0 0 0 -9.4366103368379761 -12.003950564769442 0 -12.003950564769442 56.340205017012536 0 0 0 0 -26.366697039421297 -21.298250743812218 0 -21.298250743812218 60.322160548677061 0 0 0 0 -4.679092738287645 -8.5462513475927064 0 -8.5462513475927064 64.941430563076764 0 0 0 0 -61.892118395699811 -15.529035535570983 0 -15.529035535570983 112.4260814959016 0 0 0 0 -61.560194818891716 29.527994287303954 0 29.527994287303954 168.53828264234471 0 0 0 0 -89.493985626333995 -45.586778967242935 0 -45.586778967242935 148.34951430244018 0 0 0 0 -160.81631575590927 -7.7744828581271577 0 -7.7744828581271577 443.08701208585148 0 0 0 0 -0.44284064512727195 -1.7477376078545745 0 -1.7477376078545745 3.1011543410509077 0 0 0 0 -206.87438069729598 300.87718797709067 0 300.87718797709067 417.89958834166828 0 0 0 0 -78.244379340958176 -164.21661965557996 0 -164.21661965557996 -149.95995502149162 0 0 0 0 -128.96007673353645 -117.29998925402015 0 -117.29998925402015 29.439568296675134 0 0 0 0 -67.137675463172172 -48.141013243635825 0 -48.141013243635825 40.337947414867813 0 0 0 0 -3.9977870298197331 42.363140099978409 0 42.363140099978409 33.179665240019858 0 0 0 0 -15.89416033762231 -27.584311875620642 0 -27.584311875620642 130.58391105782721 0 0 0 0 52.413358599976902 -17.889176773211148 0 -17.889176773211148 67.068832024417134 0 0 0 0 -78.21794514628337 20.033736707458957 0 20.033736707458957 61.362065849476494 0 0 0 0 -70.988271025905533 123.07560516798458 0 123.07560516798458 1.2628957726592489 0 0 0 0 -4.7396413077201487 32.583836892938962 0 32.583836892938962 37.622468446588755 0 0 0 0 149.35044100949426 -84.580746716011163 0 -84.580746716011163 103.55856633531221 0 0 0 0 -16.302488346164182 -24.35201017102554 0 -24.35201017102554 327.52365022705999 0 0 0 0 1.6063066183774888 2.9291425837990919 0 2.9291425837990919 7.639615737315566 0 0 0 0 212.58483048902735 -68.445093000835186 0 -68.445093000835186 -267.40669899022942 0 0 0 0 286.9214731471161 -376.78064536123566 0 -376.78064536123566 514.02248777665136 0 0 0 0 -344.383822509928 283.40380081194235 0 283.40380081194235 1022.0972398408339 0 0 0 0 3.6630475698798066 8.8281913832905321 0 8.8281913832905321 23.592805663004746 0 0 0 0 48.039579078402767 65.177617203450154 0 65.177617203450154 32.776605804404426 0 0 0 0 63.190328560094258 -62.188302565331469 0 -62.188302565331469 98.010305894590601 0 0 0 0 83.203769214176646 -74.419012584670782 0 -74.419012584670782 79.330654796480303 0 0 0 0 61.142435796214613 -44.960421505909835 0 -44.960421505909835 66.394414331456574 0 0 0 0 74.91213807157601 -63.915340914612898 0 -63.915340914612898 66.090580292644518 0 0 0 0 -11.037478133609511 6.8141205617603191 0 6.8141205617603191 61.443827641518055 0 0 0 0 -29.161871103736985 50.87204961979387 0 50.87204961979387 46.099284761109629 0 0 0 0 -21.696711734569362 19.143835281990505 0 19.143835281990505 96.516964359374469 0 0 0 0 -25.837673761945098 7.3589309851904545 0 7.3589309851904545 86.132965994542246 0 0 0 0 -0.99185792256065497 -0.084423636207702657 0 -0.084423636207702657 93.161817942633206 0 0 0 0 1.3269583219449848 12.901449096470165 0 12.901449096470165 41.366931700577766 0 0 0 0 58.990301482015525 -65.09315348491873 0 -65.09315348491873 155.84995877203801 0 0 0 0 1224.9492312130992 -297.87116235613939 0 -297.87116235613939 1120.6357661007851 0 0 0 0 -1.6684516227881616 3.2437103461335113 0 3.2437103461335113 8.1316686290564757 0 0 0 0 -666.59134638153887 274.15569228509776 0 274.15569228509776 1541.9229772559047 0 0 0 0 79.905740955819056 -58.292808344951482 0 -58.292808344951482 70.789646997960517 0 0 0 0 236.54541815204948 -54.062637425990033 0 -54.062637425990033 70.248759188787517 0 0 0 0 48.854008328584626 -21.074924758955603 0 -21.074924758955603 65.478240257325524 0 0 0 0 -39.542678164424785 53.852740710842227 0 53.852740710842227 116.88774505442416 0 0 0 0 -13.624934678624612 87.037401938906896 0 87.037401938906896 108.13311598736618 0 0 0 0 -323.73659156260942 -107.69639822206534 0 -107.69639822206534 186.76105834821283 0 0 0 0 -335.48316570488822 -44.629263180297812 0 -44.629263180297812 704.68357444540015 0 0 0 0 172.81725274097676 294.30747930320467 0 294.30747930320467 215.82480730628595 0 0 0 0 -626.04385158283492 333.62054619851187 0 333.62054619851187 219.82864526030244 0 0 0 0 -268.77105603779626 -666.0786855513179 0 -666.0786855513179 38.508209790198634 0 0 0 0 -399.9348633640127 -380.70265337225464 0 -380.70265337225464 -39.425037270157191 0 0 0 0 -0.9759903461685191 -3.6896467318852402 0 -3.6896467318852402 12.849653239815247 0 0 0 0 -690.90073094167178 -1169.12297364396 0 -1169.12297364396 194.174523353111 0 0 0 0 -479.12520297999174 -624.95863509157425 0 -624.95863509157425 1180.1297382915791 0 0 0 0 79.021322264293758 624.50081245939873 0 624.50081245939873 224.6116650631659 0 0 0 0 -58.887126550074242 -1159.0906746016608 0 -1159.0906746016608 22.800378961015667 0 0 0 0 2.7139146657446336 -4.7418020383316772 0 -4.7418020383316772 3.0576727550327183 0 0 0 0 -59.684197041854986 -443.73124068456127 0 -443.73124068456127 -558.74949361784093 0 0 0 0 -83.452332856303769 221.35114166946551 0 221.35114166946551 3036.0619464062474 0 0 0 0 -9.6265496728490838 -17.617079324924902 0 -17.617079324924902 11.764711191958494 0 0 0 0 150.58349044181386 32.108501961069123 0 32.108501961069123 249.83961077314416 0 0 0 0 22.778553857189763 624.35093184625111 0 624.35093184625111 1175.4780659875441 0 0 0 0 707.55047964036908 1673.6032460936513 0 1673.6032460936513 1355.2886963747251 0 0 0 0 1296.4921469321789 1211.1495653170678 0 1211.1495653170678 1717.0820285244372 0 0 0 0 1147.0598479725786 1509.0892519074587 0 1509.0892519074587 1524.3626701857866 0 0 0 0 -69.498123247299645 -193.57881050545984 0 -193.57881050545984 952.21859573405527 0 0 0 0 -224.30488515977936 13.206211244344559 0 13.206211244344559 2000.0340330772196 0 0 0 0 -1.8430307342773924 -0.99945485395996503 0 -0.99945485395996503 6.8512007051030253 0 0 0 0 433.73588106972636 641.67729019219496 0 641.67729019219496 481.51752463131197 0 0 0 0 103.24592419571002 478.19899406154036 0 478.19899406154036 539.34226534132677 0 0 0 0 -4.1580693206775994 -6.3508839647746385 0 -6.3508839647746385 25.780473528516858 0 0 0 0 58.467469329300343 583.44654243245623 0 583.44654243245623 564.7481527501875 0 0 0 0 -17.54492373464177 457.29546038465014 0 457.29546038465014 608.43319930881262 0 0 0 0 -286.03781304150164 304.67412202159539 0 304.67412202159539 1613.4472186800513 0 0 0 0 -689.08957991792363 418.15411203802796 0 418.15411203802796 1582.6332049312732 0 0 0 0 234.83496949813821 1259.914317280728 0 1259.914317280728 2050.9451221241288 0 0 0 0 716.35697186076743 2099.6615399253751 0 2099.6615399253751 3495.5257277687242 0 0 0 0 -315.00393386925168 943.01494449815254 0 943.01494449815254 2584.3895220846844 0 0 0 0 50.365934456976447 -57.223131868903693 0 -57.223131868903693 1893.6558555522715 0 0 0 0 -635.6344995088383 1061.4516322530817 0 1061.4516322530817 3500.7077001821594 0 0 0 0 -396.50057148059426 801.89064346656005 0 801.89064346656005 2680.7436161540427 0 0 0 0 -297.84739462223399 515.9865600099065 0 515.9865600099065 3498.9908293085064 0 0 0 0 -274.51716578282503 272.35914699142268 0 272.35914699142268 2913.3492737434735 0 0 0 0 4.3797029163230263 194.86776959303279 0 194.86776959303279 2919.3541790575605 0 0 0 0 -261.74379675150271 119.12364848430661 0 119.12364848430661 3499.7698445898495 0 0 0 0 -249.63210183927441 -340.77624674914841 0 -340.77624674914841 3499.7654136890096 0 0 0 0 13.677931627521239 -128.79401351787419 0 -128.79401351787419 2826.3990105476623 0 0 0 0 -250.57170469187719 -93.808148868329226 0 -93.808148868329226 3120.1956338068121 0 0 0 0 -253.85971637880749 -64.895673048786193 0 -64.895673048786193 2973.0809552808969 0 0 0 0 -124.80555184527543 88.896570896438789 0 88.896570896438789 2891.2835273903784 0 0 0 0 43.226197433876536 -195.09324851984275 0 -195.09324851984275 2072.3483810345388 0 0 0 0 -12.536835401935257 -438.03813815309877 0 -438.03813815309877 3025.7546824758028 0 0 0 0 14.093450153087687 -21.515959624966236 0 -21.515959624966236 12.85460515566429 0 0 0 0 -15.062163688168779 13.944186225907654 0 13.944186225907654 53.576422818618056 0 0 0 0 -7.7517925397412455 16.251844360352152 0 16.251844360352152 20.299741403421649 0 0 0 0 12.577713507530461 -8.0790373081827056 0 -8.0790373081827056 77.489955190972978 0 0 0 0 19.223460189800335 -20.086189551160714 0 -20.086189551160714 98.202473778547528 0 0 0 0 -35.676036805748481 -65.211110682976141 0 -65.211110682976141 42.409271941572115 0 0 0 0 -115.71206706632756 -81.706099768640343 0 -81.706099768640343 0.7527345834132575 0 0 0 0 -121.79744572512175 -50.299494880329235 0 -50.299494880329235 98.823369502963033 0 0 0 0 8.5131417127990296 -13.947940575641368 0 -13.947940575641368 4.6344428718716566 0 0 0 0 -86.221969828555913 78.180221351455657 0 78.180221351455657 2769.0853853183798 0 0 0 0 243.75196081227671 -556.68170801236465 0 -556.68170801236465 111.41841072510579 0 0 0 0 36.897701562723626 -881.80709910151563 0 -881.80709910151563 2239.6741373653003 0 0 0 0 592.45565970918642 -1478.1550277616952 0 -1478.1550277616952 2469.5105924300005 0 0 0 0 -245.5368073635459 -1114.5322534254847 0 -1114.5322534254847 3500.6935545625129 0 0 0 0 -295.51360551271137 -877.27696992251731 0 -877.27696992251731 2674.6960298558333 0 0 0 0 53.926635072735266 -708.04694230007135 0 -708.04694230007135 1549.8956634642236 0 0 0 0 -139.54871567932565 -794.32762460049707 0 -794.32762460049707 2707.211815825618 0 0 0 0 -158.60323028227526 -224.94074797266967 0 -224.94074797266967 1760.7810048457686 0 0 0 0 -362.50448913234021 -694.59009440264072 0 -694.59009440264072 3499.057117110322 0 0 0 0 -281.32863933395316 -493.77599789031592 0 -493.77599789031592 2826.9717553705414 0 0 0 0 231.72795714995385 -330.42752143313919 0 -330.42752143313919 2762.0585054671465 0 0 0 0 419.89243418625807 332.97705246566511 0 332.97705246566511 311.71287524238505 0 0 0 0 2.108965869563336 -0.98239258576297317 0 -0.98239258576297317 12.522135810364986 0 0 0 0 -6.3290070838048695 1.3694429269761628 0 1.3694429269761628 11.789264155115781 0 0 0 0 -23.34867899459698 5.901652939410269 0 5.901652939410269 83.039011559842038 0 0 0 0 -24.015998776011088 30.491509530449548 0 30.491509530449548 71.221370594497785 0 0 0 0 -59.883272338172702 329.81028615708874 0 329.81028615708874 690.27141196035518 0 0 0 0 -13.195424232790401 -33.083945806109114 0 -33.083945806109114 21.858913817060966 0 0 0 0 -72.697181135121014 -661.24342136185078 0 -661.24342136185078 2441.1930943046827 0 0 0 0 -202.58687449424156 -49.681428967709508 0 -49.681428967709508 2315.9722992048846 0 0 0 0 61.635681825773432 -323.10514819846139 0 -323.10514819846139 1596.1795760568984 0 0 0 0 -139.17625035984378 4.4733528531651245 0 4.4733528531651245 1187.0387603291601 0 0 0 0 -0.62266070850369637 1.6620526944651033 0 1.6620526944651033 -0.76265966757265602 0 0 0 0 92.282179958999961 26.473839189879072 0 26.473839189879072 288.23013597633872 0 0 0 0 -48.91152520645791 -3.6441728527679516 0 -3.6441728527679516 68.660203938681661 0 0 0 0 -36.658153792595613 257.86285103068803 0 257.86285103068803 121.39743961719432 0 0 0 0 56.42674893305707 90.801603888819955 0 90.801603888819955 -190.26031856769623 0 0 0 0 -2.2413264044409016 1.4552186309134072 0 1.4552186309134072 -2.9920364418111163 0 0 0 0 -97.322457778218194 -69.174054250185691 0 -69.174054250185691 -43.102189186749456 0 0 0 0 -30.085601485620259 101.64710461545837 0 101.64710461545837 -104.60978262379649 0 0 0 0 -152.78880090077064 81.654168541892432 0 81.654168541892432 75.104718424583552 0 0 0 0 -5.9220452888164345 43.32890923346622 0 43.32890923346622 3.9269126434955979 0 0 0 0 8.9491082606828058 9.6182394440002099 0 9.6182394440002099 -37.413036629219278 0 0 0 0 1.3625090713908321 41.19257176028259 0 41.19257176028259 -22.636155448788486 0 0 0 0 4.9878668626612352 31.152308198292303 0 31.152308198292303 0.24459548029699363 0 0 0 0 -3.3542366176746299 31.190805901803401 0 31.190805901803401 0.52682098087097984 0 0 0 0 57.274008400148205 11.020597217957402 0 11.020597217957402 17.656152922170804 0 0 0 0 4.8613479550480179 -67.959708869711903 0 -67.959708869711903 94.432140430737491 0 0 0 0 -97.254296440914459 -5.3179453655247926 0 -5.3179453655247926 76.272239732039452 0 0 0 0 -3.5213733667824272 28.794692708695948 0 28.794692708695948 9.3722109506361448 0 0 0 0 -89.346615819679755 31.844181265969382 0 31.844181265969382 73.545347745282925 0 0 0 0 -70.180926531044861 37.546589318197221 0 37.546589318197221 80.442434901095112 0 0 0 0 -88.63158427839798 36.979673272173841 0 36.979673272173841 110.13192229004926 0 0 0 0 -107.04407621673556 4.1815473270471557 0 4.1815473270471557 128.73346911204499 0 0 0 0 -102.88107346868367 21.125596260993916 0 21.125596260993916 174.38034625269211 0 0 0 0 -96.448707189736766 0.49948215975837229 0 0.49948215975837229 118.13967432573554 0 0 0 0 -100.92836265528013 30.657891223931074 0 30.657891223931074 146.85559081154679 0 0 0 0 -47.426114241796299 149.2375333748314 0 149.2375333748314 329.43466287758201 0 0 0 0 -43.93131632466023 77.102178762688709 0 77.102178762688709 139.624767643209 0 0 0 0 8.2245409297308569 28.048490636194401 0 28.048490636194401 43.011003673353116 0 0 0 0 -111.79174659203079 14.255243403104032 0 14.255243403104032 101.93236121849401 0 0 0 0 -95.753744692493342 65.062892378995457 0 65.062892378995457 256.70368545921883 0 0 0 0 -43.792181530652215 -26.341365704388409 0 -26.341365704388409 105.62195615824021 0 0 0 0 -44.077863049398616 -21.186434476853833 0 -21.186434476853833 90.064979732942447 0 0 0 0 5.2298144584151487 10.580268974509636 0 10.580268974509636 16.499605187484121 0 0 0 0 1.8092443924804229 30.214453095612043 0 30.214453095612043 4.142964398557524 0 0 0 0 -20.227892394863829 60.580604304268491 0 60.580604304268491 -12.964139003262972 0 0 0 0 -14.124676373947526 17.036598960859394 0 17.036598960859394 53.370544386253606 0 0 0 0 2.5648582298390465 39.476055336559511 0 39.476055336559511 -5.5225019298159168 0 0 0 0 17.857575335497131 46.866980769802467 0 46.866980769802467 -3.714586749796581 0 0 0 0 20.649958964132111 8.5311700607962848 0 8.5311700607962848 20.610312900444114 0 0 0 0 45.328261065805918 16.111081559498416 0 16.111081559498416 18.108997400653607 0 0 0 0 27.742004833773308 92.772838530880108 0 92.772838530880108 26.064432769024279 0 0 0 0 -4.6468723312541442 51.852498614762226 0 51.852498614762226 -19.253874132624333 0 0 0 0 -72.428005524252058 107.24449687948709 0 107.24449687948709 -18.712173940479261 0 0 0 0 -13.060386047340961 18.572921625814672 0 18.572921625814672 55.694590990735833 0 0 0 0 -94.382101915128146 76.823919554304666 0 76.823919554304666 98.879680852550621 0 0 0 0 -61.25889104697012 28.905622960300207 0 28.905622960300207 40.330415085647473 0 0 0 0 -12.492959974792095 19.542217575401992 0 19.542217575401992 56.910295946682581 0 0 0 0 -63.106637084542399 35.815629576090942 0 35.815629576090942 44.245243606390432 0 0 0 0 -91.894421239393978 124.47717242349017 0 124.47717242349017 -8.3102464837684238 0 0 0 0 -50.835197648860458 14.190132686683683 0 14.190132686683683 57.647865073377034 0 0 0 0 -73.896142845368558 10.982961929295925 0 10.982961929295925 246.59718529981546 0 0 0 0 -45.271111163255227 65.944063315871972 0 65.944063315871972 95.008789385217824 0 0 0 0 8.3657752966519183 54.975957045935502 0 54.975957045935502 90.11417195377453 0 0 0 0 31.303979815472303 19.990656285153818 0 19.990656285153818 41.941170003239677 0 0 0 0 195.76576243075101 23.856986540095022 0 23.856986540095022 41.021188894894294 0 0 0 0 176.58158127089541 203.28474413694858 0 203.28474413694858 328.30040210622974 0 0 0 0 381.75102309604904 -25.367760025802454 0 -25.367760025802454 122.26472434723837 0 0 0 0 4.7302504190067793 55.761245644149312 0 55.761245644149312 211.97007459785164 0 0 0 0 -37.161459045671336 -23.632324761845666 0 -23.632324761845666 239.56178079223901 0 0 0 0 -58.404484293643236 -69.662038981889054 0 -69.662038981889054 505.02257108934646 0 0 0 0 73.903212168496793 -146.93913860327484 0 -146.93913860327484 118.56340528652072 0 0 0 0 7.3660058164109614 24.68919910472323 0 24.68919910472323 29.324022067972692 0 0 0 0 -35.122480908578837 -13.750929435540456 0 -13.750929435540456 236.39870273453562 0 0 0 0 -60.261992586043107 0.88374794945775648 0 0.88374794945775648 299.49659718684416 0 0 0 0 -106.81120682876895 -81.613408019478811 0 -81.613408019478811 306.6984041862961 0 0 0 0 -121.93266588836741 -43.992053470003157 0 -43.992053470003157 267.53708060338249 0 0 0 0 -51.663555965672913 -40.761143751360578 0 -40.761143751360578 230.19333541042943 0 0 0 0 -35.798290955530774 -99.935346108140948 0 -99.935346108140948 278.35136147031517 0 0 0 0 -20.844476432778265 -39.85704150481979 0 -39.85704150481979 208.51648235823814 0 0 0 0 -7.2399641033543265 -1.046929388045271 0 -1.046929388045271 -2.2387824553533413 0 0 0 0 -6.1710802444231376 -61.49688904420691 0 -61.49688904420691 120.79554413897858 0 0 0 0 -30.956453920924218 -59.905313017623484 0 -59.905313017623484 139.88155100470613 0 0 0 0 -37.160638056687084 -135.90090603491626 0 -135.90090603491626 -111.14749331722851 0 0 0 0 -88.548392363647849 26.423513295525481 0 26.423513295525481 18.402345602429705 0 0 0 0 -42.782031969637046 -142.67520254462215 0 -142.67520254462215 110.89155851719079 0 0 0 0 -2.7882691648160889 -0.24379506155148079 0 -0.24379506155148079 0.30115103723496617 0 0 0 0 19.405035529350243 -75.493039220642459 0 -75.493039220642459 134.36091147140542 0 0 0 0 -71.339212676934949 164.53439449619145 0 164.53439449619145 151.27101827559363 0 0 0 0 -177.46692450397722 16.391424829002062 0 16.391424829002062 134.8527730380556 0 0 0 0 -170.73483165938143 -93.189998857318983 0 -93.189998857318983 106.06628078733775 0 0 0 0 136.30294768445083 -174.68147952274012 0 -174.68147952274012 64.281085837334103 0 0 0 0 55.852173227817957 6.0964700493168493 0 6.0964700493168493 128.23898923187517 0 0 0 0 314.91705397889962 356.68182685924148 0 356.68182685924148 348.49273239886679 0 0 0 0 3.0241157015146882 -34.921481485816912 0 -34.921481485816912 610.53941324384141 0 0 0 0 0.94379307333431495 -1.4865390958738516 0 -1.4865390958738516 4.6260073579879446 0 0 0 0 35.946552769382379 107.339200604496 0 107.339200604496 178.97987888398347 0 0 0 0 36.316122885890991 116.13427007466089 0 116.13427007466089 167.7106638998157 0 0 0 0 -1.4206389816556566 116.39308477638042 0 116.39308477638042 246.85343607130926 0 0 0 0 -219.53812776806717 -95.643171214180256 0 -95.643171214180256 248.73561071281438 0 0 0 0 -73.639021805950051 15.9287402680784 0 15.9287402680784 321.18942394766054 0 0 0 0 -84.81078014019522 -48.60199203160164 0 -48.60199203160164 143.84248371206922 0 0 0 0 -27.05874384128947 68.400428012575503 0 68.400428012575503 157.78767243139737 0 0 0 0 -15.436487657995031 51.511817249054729 0 51.511817249054729 180.72162712017598 0 0 0 0 -10.755450218773603 38.372958713945991 0 38.372958713945991 124.81344482233908 0 0 0 0 -63.725681844126484 -48.336723419113696 0 -48.336723419113696 27.893276652815985 0 0 0 0 -122.372764712155 -4.5402506992286362 0 -4.5402506992286362 71.065135795266542 0 0 0 0 8.2504176443314918 20.359348694282744 0 20.359348694282744 43.771279745953507 0 0 0 0 -85.035955558561 -39.359983928588917 0 -39.359983928588917 92.292373991935165 0 0 0 0 -32.334717389609523 -67.560304272668873 0 -67.560304272668873 135.34425978635409 0 0 0 0 -9.1214308428452568 -41.473563260271476 0 -41.473563260271476 75.342082461036625 0 0 0 0 -77.607228381845744 -68.041093792220636 0 -68.041093792220636 121.60112355844831 0 0 0 0 -196.44315852555019 408.21817658779099 0 408.21817658779099 290.59011988525162 0 0 0 0 -29.483264637253114 -5.7835363509566378 0 -5.7835363509566378 100.65629173559864 0 0 0 0 -2.6831325148604916 4.0404691339741445 0 4.0404691339741445 4.8357850632650923 0 0 0 0 116.15809125204481 215.7346014935265 0 215.7346014935265 224.93023993229144 0 0 0 0 -55.761692645040966 54.647112297465355 0 54.647112297465355 264.48097020177374 0 0 0 0 223.67498064228971 -30.210067266205442 0 -30.210067266205442 -55.823032627318753 0 0 0 0 4.9361486724237693 100.60796900957575 0 100.60796900957575 107.88018033520439 0 0 0 0 5.9185506574349347 111.90409155726229 0 111.90409155726229 167.80451988303048 0 0 0 0 0.039420379249122561 108.0269172310509 0 108.0269172310509 184.05046661162487 0 0 0 0 -30.883876191264562 51.318251015982241 0 51.318251015982241 170.48324994045106 0 0 0 0 -5.9409473643390811 83.475180687339162 0 83.475180687339162 91.666419931581913 0 0 0 0 -24.704892157358245 52.36112639953717 0 52.36112639953717 95.772632983760559 0 0 0 0 -30.974113421441416 27.487952051571483 0 27.487952051571483 117.04168147546443 0 0 0 0 -28.511610757751896 2.4251911002575071 0 2.4251911002575071 54.888843138989614 0 0 0 0 -23.025822695994975 15.341842171274038 0 15.341842171274038 14.450423089961987 0 0 0 0 -13.789366121535176 10.994640059638726 0 10.994640059638726 -3.7613525035975215 0 0 0 0 -11.34966272017482 9.1792118704142922 0 9.1792118704142922 3.5035421009088168 0 0 0 0 -15.929947558409875 19.793197105773629 0 19.793197105773629 8.8757909494005887 0 0 0 0 -3.9814740185756818 17.64938065838578 0 17.64938065838578 10.948960893438198 0 0 0 0 -10.545234920306227 1.4792550052282465 0 1.4792550052282465 25.365562783033184 0 0 0 0 -53.25743896703807 -17.012098899533157 0 -17.012098899533157 76.407075416937005 0 0 0 0 -0.93484449252395851 -0.1550423648119903 0 -0.1550423648119903 6.5581047632748977 0 0 0 0 -1.0661732288463099 21.224747944601404 0 21.224747944601404 79.462584583408898 0 0 0 0 73.871810606540521 78.029840618321032 0 78.029840618321032 119.10996866401183 0 0 0 0 -2.5800919172391445 92.934744244218564 0 92.934744244218564 173.91594347848877 0 0 0 0 85.6136945766184 125.18923273562177 0 125.18923273562177 152.20665466003993 0 0 0 0 0.98540765413992459 -4.750318096760445 0 -4.750318096760445 13.12600600690908 0 0 0 0 -30.204300956191787 4.7051634877789184 0 4.7051634877789184 31.88353834386362 0 0 0 0 -4.2107761196013751 1.5504706887803152 0 1.5504706887803152 3.6743935264182213 0 0 0 0 37.493044129268583 -4.5903568353751325 0 -4.5903568353751325 29.501690663049885 0 0 0 0 6.9437428766314042 -16.084676234308063 0 -16.084676234308063 47.893144917943573 0 0 0 0 18.50714728474577 -3.9899876580439013 0 -3.9899876580439013 35.346842195374848 0 0 0 0 -1.6691985612923554 -0.74988701459113827 0 -0.74988701459113827 8.2100669375619617 0 0 0 0 -33.909945946205198 59.042041275609336 0 59.042041275609336 94.271571210920229 0 0 0 0 -11.959242656186689 46.349263491825695 0 46.349263491825695 5.1176504425893654 0 0 0 0 1.7553487406885324 28.299091331537056 0 28.299091331537056 3.5058215237149852 0 0 0 0 -6.9957073812543005 12.956598368909169 0 12.956598368909169 27.643931738346879 0 0 0 0 43.083666123623516 35.579241227282182 0 35.579241227282182 34.106625718035502 0 0 0 0 -2.5017091381866976 25.426881107363442 0 25.426881107363442 32.155957209950429 0 0 0 0 7.617136832869619 37.556834393626559 0 37.556834393626559 11.520977747335564 0 0 0 0 -4.0341887401740024 4.332580239988971 0 4.332580239988971 3.339289500255461 0 0 0 0 -15.172844276395153 46.542990914284019 0 46.542990914284019 -10.164846821651736 0 0 0 0 -53.0669614049757 5.9491618539359479 0 5.9491618539359479 36.2577012755537 0 0 0 0 -129.41542094709075 -72.979495626990683 0 -72.979495626990683 110.71248804018978 0 0 0 0 -19.741647233182448 -14.648429237848177 0 -14.648429237848177 -56.296307279328175 0 0 0 0 -24.658663102094124 6.7941520052931992 0 6.7941520052931992 21.008704444437171 0 0 0 0 -3.7351094824933888 -2.1176338892043631 0 -2.1176338892043631 8.9807150819205361 0 0 0 0 -42.933930856512234 -21.975155209092918 0 -21.975155209092918 115.28396598302788 0 0 0 0 -15.275369481547386 15.011031072339392 0 15.011031072339392 57.57902425633074 0 0 0 0 -1.9967580322819145 6.9687788017619479 0 6.9687788017619479 50.141248832479818 0 0 0 0 -11.216582537263093 12.25983901618747 0 12.25983901618747 59.418406417826191 0 0 0 0 -5.0315780401501584 11.485934246513494 0 11.485934246513494 30.311435533667179 0 0 0 0 1722.3244997912689 -1115.8109079173155 0 -1115.8109079173155 -1650.4776915277471 0 0 0 0 -7.6196539147667197 17.027199521044381 0 17.027199521044381 15.742698741458526 0 0 0 0 -14.507002675119365 12.390311760664337 0 12.390311760664337 24.23408052654122 0 0 0 0 -17.778366903476375 13.663321616643771 0 13.663321616643771 -2.8551004301153569 0 0 0 0 -11.969682701676314 20.918905592082467 0 20.918905592082467 25.185761290214913 0 0 0 0 -24.807513312668561 47.030043756723899 0 47.030043756723899 32.575160458785831 0 0 0 0 2.6885051093977381 2.3958177345557488 0 2.3958177345557488 -17.867215437090636 0 0 0 0 5.4498378142325237 20.684504742479476 0 20.684504742479476 1.7560803867672803 0 0 0 0 -38.75122859196199 -7.6916206037494703 0 -7.6916206037494703 41.540061827799946 0 0 0 0 -26.245513138278966 9.4198219080617491 0 9.4198219080617491 62.70138707067963 0 0 0 0 -38.18152551506364 37.501604292086995 0 37.501604292086995 73.463637471402762 0 0 0 0 -57.918050155631136 16.514021342416527 0 16.514021342416527 79.909857423088397 0 0 0 0 -8.0996569251501569 31.37768811013666 0 31.37768811013666 68.471582231115462 0 0 0 0 2.4277268939049463 49.941644568054471 0 49.941644568054471 77.198888061269827 0 0 0 0 -106.13009331106275 3.0775738730640114 0 3.0775738730640114 155.3661988765125 0 0 0 0 -0.34695840878391948 0.41941094535031453 0 0.41941094535031453 -0.047256760963236388 0 0 0 0 -64.486949614650484 -74.975482170560554 0 -74.975482170560554 -38.856911627601221 0 0 0 0 -28.418055351503881 -0.55105932370497612 0 -0.55105932370497612 34.752570412110799 0 0 0 0 64.079324448987677 -44.418636860284096 0 -44.418636860284096 67.75173636931504 0 0 0 0 -30.365861143913946 -10.631399676703495 0 -10.631399676703495 32.58282623955165 0 0 0 0 -1.8847439796071459 0.62529714534614556 0 0.62529714534614556 -0.5510296241502175 0 0 0 0 -15.332002148978972 -10.736919775306887 0 -10.736919775306887 3.4211353912996856 0 0 0 0 -15.471682640769359 -1.6902254059787083 0 -1.6902254059787083 55.021399917161034 0 0 0 0 -14.388026878960346 9.2677113438589913 0 9.2677113438589913 28.349148360393883 0 0 0 0 -24.023773291487942 -6.8650183989957441 0 -6.8650183989957441 48.007047661907563 0 0 0 0 -22.933492310506608 1.2478610931393632 0 1.2478610931393632 37.207573974172192 0 0 0 0 -28.095265939201738 -5.2818596027102558 0 -5.2818596027102558 55.325744412184577 0 0 0 0 -11.919153021601232 2.0213100944492908 0 2.0213100944492908 54.845856921233462 0 0 0 0 -20.236223125454671 0.49566543106629979 0 0.49566543106629979 59.932749172738113 0 0 0 0 -8.759004869132923 -0.16064407937665237 0 -0.16064407937665237 50.413224529300351 0 0 0 0 -20.315701070197065 1.3431332290092541 0 1.3431332290092541 51.006432690584916 0 0 0 0 -33.089461239405864 10.247377575709834 0 10.247377575709834 57.026842848705201 0 0 0 0 -33.519716898994147 46.630563833630731 0 46.630563833630731 31.222480984713911 0 0 0 0 -8.4671754220198636 26.571121896700788 0 26.571121896700788 31.657337329903726 0 0 0 0 -0.74694134159013803 15.83219873740348 0 15.83219873740348 34.967048719808744 0 0 0 0 -10.424119172285373 84.838601056191692 0 84.838601056191692 37.687208305773765 0 0 0 0 16.968559615076629 12.374697310860938 0 12.374697310860938 54.273445809105397 0 0 0 0 -18.383556412740745 -11.686441251406904 0 -11.686441251406904 47.770070752725587 0 0 0 0 -17.999530357436925 3.426137975679012 0 3.426137975679012 117.29826202859476 0 0 0 0 -3.8714665973230762 2.9487115692796024 0 2.9487115692796024 1.0924030947818864 0 0 0 0 -18.213556194999001 10.102601862639858 0 10.102601862639858 64.83607726667833 0 0 0 0 -4.7088433899143638 38.585083599420614 0 38.585083599420614 94.1005813266529 0 0 0 0 -21.523023292046673 18.026415997053846 0 18.026415997053846 73.705568882010994 0 0 0 0 -16.057046166152759 19.742274430881025 0 19.742274430881025 72.358664377774403 0 0 0 0 -20.131184137189109 29.246869227314619 0 29.246869227314619 81.142869562740088 0 0 0 0 -32.265200246310769 23.676486669801307 0 23.676486669801307 80.52075538533245 0 0 0 0 -24.645786100342775 10.559385963155364 0 10.559385963155364 62.727058735326864 0 0 0 0 -15.995089374757299 22.419732817470504 0 22.419732817470504 84.62984274252085 0 0 0 0 -31.147049133393011 32.144512820093951 0 32.144512820093951 78.558410712877958 0 0 0 0 -27.34107871278411 20.944349209246866 0 20.944349209246866 70.3572987653788 0 0 0 0 -21.71515567163177 7.7470755789201888 0 7.7470755789201888 12.46303609567461 0 0 0 0 -22.328386518794105 33.758357881190022 0 33.758357881190022 105.20013419275347 0 0 0 0 -21.033526522140164 35.438003145041876 0 35.438003145041876 84.352655533068855 0 0 0 0 -23.832297551384272 28.947820937906727 0 28.947820937906727 84.938956915924791 0 0 0 0 -20.108339351222696 3.691296624712713 0 3.691296624712713 8.809262716418587 0 0 0 0 4.0833572052506497 7.4334299246984301 0 7.4334299246984301 43.357795333631657 0 0 0 0 -39.088197282981128 24.712580799856369 0 24.712580799856369 48.890638736411347 0 0 0 0 0.49534414357329482 18.21541017044256 0 18.21541017044256 34.282188397557533 0 0 0 0 -2.9264128933791653 40.872759627935011 0 40.872759627935011 74.123064448067453 0 0 0 0 -16.726166548711966 -8.1389914996829198 0 -8.1389914996829198 12.753642889136714 0 0 0 0 -113.3672090475302 19.383753212217925 0 19.383753212217925 80.013459036170389 0 0 0 0 -61.721756980434293 7.6977695492751081 0 7.6977695492751081 64.127141518518329 0 0 0 0 -27.739038127800086 10.867125303178909 0 10.867125303178909 80.147053287138988 0 0 0 0 -23.097244650550238 9.3561084515495168 0 9.3561084515495168 79.156019893716802 0 0 0 0 -42.898506013281761 -11.66378598599848 0 -11.66378598599848 31.44666007367092 0 0 0 0 -19.985894045332316 18.95912602685712 0 18.95912602685712 73.673629878932843 0 0 0 0 -19.986107148937663 19.080447762818949 0 19.080447762818949 81.19714387737622 0 0 0 0 -39.761391107726467 17.283128467892311 0 17.283128467892311 108.30411413360707 0 0 0 0 -17.094081224062393 23.025729265886184 0 23.025729265886184 70.263847007208824 0 0 0 0 -16.93164588573427 25.573336848125109 0 25.573336848125109 75.967412896992755 0 0 0 0 -13.940083907223652 8.7349634429920116 0 8.7349634429920116 55.020008348896226 0 0 0 0 -3.2440277452260489 21.793935771660472 0 21.793935771660472 69.332821825410974 0 0 0 0 -3.9060626969676377 -1.6044171660741995 0 -1.6044171660741995 39.720969396777946 0 0 0 0 20.33683247256613 21.250697586219758 0 21.250697586219758 57.301542829801747 0 0 0 0 -212.33078622694302 -101.3333029848327 0 -101.3333029848327 598.55334519831376 0 0 0 0 -36.84798923755443 174.4899898505646 0 174.4899898505646 -26.311237011435878 0 0 0 0 -50.707256376246733 -18.937550813905546 0 -18.937550813905546 274.26884489119402 0 0 0 0 -27.257762381326756 -35.913856708189996 0 -35.913856708189996 258.24761706106074 0 0 0 0 11.223423867981182 -63.848544692962605 0 -63.848544692962605 210.03922874780619 0 0 0 0 -12.151168721043632 27.873927582548276 0 27.873927582548276 157.75844439853972 0 0 0 0 -47.062516846305243 6.5126006248920021 0 6.5126006248920021 71.400832360515778 0 0 0 0 -17.812400760372839 -25.129668351721193 0 -25.129668351721193 118.62800058902212 0 0 0 0 -3.5472907833952512 1.5040696876235273 0 1.5040696876235273 23.566665354723014 0 0 0 0 -20.831732604547369 12.377097430411141 0 12.377097430411141 72.700036743997771 0 0 0 0 15.641213373507526 -61.390173817002506 0 -61.390173817002506 -98.969423001042742 0 0 0 0 -9.1226077292831178 -22.816954032287867 0 -22.816954032287867 68.594435625197548 0 0 0 0 -7.2413673872013504 -24.626615683668355 0 -24.626615683668355 34.759108635934993 0 0 0 0 -16.748248026196961 -35.140809353384611 0 -35.140809353384611 74.831764414017016 0 0 0 0 -2.3824521278780466 -1.8214108162340672 0 -1.8214108162340672 13.539132939116691 0 0 0 0 -56.818383246893063 2.9748378377921654 0 2.9748378377921654 83.614805063361928 0 0 0 0 -11.375195627717403 -46.028994470791076 0 -46.028994470791076 36.045279549602128 0 0 0 0 -30.877329288038553 -19.767873782823642 0 -19.767873782823642 35.131544981400715 0 0 0 0 -67.575511085080961 -17.335221337533085 0 -17.335221337533085 96.785656501262565 0 0 0 0 -42.334794136444543 -9.4676605660170026 0 -9.4676605660170026 75.651012082020316 0 0 0 0 43.180852822915767 -55.068833041266771 0 -55.068833041266771 81.405566724565688 0 0 0 0 53.907667909704287 -112.73347585788997 0 -112.73347585788997 371.15919973358541 0 0 0 0 -42.07080030306679 -24.37430239744026 0 -24.37430239744026 237.01200963765586 0 0 0 0 5.4815796569692594 3.3199420914796285 0 3.3199420914796285 -2.8213603795236111 0 0 0 0 148.10366437472749 174.95791874630959 0 174.95791874630959 85.033942420719541 0 0 0 0 40.772337869878356 190.2319733321292 0 190.2319733321292 380.21833315923504 0 0 0 0 40.424237143879509 158.47042959686223 0 158.47042959686223 181.90061818662434 0 0 0 0 16.187856184639713 143.57921219966101 0 143.57921219966101 172.7524306159612 0 0 0 0 5.334024457828491 -16.154452466323164 0 -16.154452466323164 94.794477345913037 0 0 0 0 22.116858894654797 168.67447124850992 0 168.67447124850992 278.86258416061537 0 0 0 0 78.878483460304778 108.53481011754047 0 108.53481011754047 173.07733363443367 0 0 0 0 35.348455278897745 9.6441565143122716 0 9.6441565143122716 -6.4866551310942668 0 0 0 0 -85.272791846270366 -213.92687538735572 0 -213.92687538735572 -24.36255050967884 0 0 0 0 -151.37361824231584 -466.77370971442542 0 -466.77370971442542 -110.5138860930424 0 0 0 0 128.59627630296382 143.63680605826448 0 143.63680605826448 64.976469169355369 0 0 0 0 -58.683874581626242 43.295096243193257 0 43.295096243193257 135.98791852389786 0 0 0 0 283.75732271489505 344.51164094731666 0 344.51164094731666 324.91026093518667 0 0 0 0 -24.170496249643293 72.739638235549137 0 72.739638235549137 240.65154556892685 0 0 0 0 -12.334685335148606 195.76742269083115 0 195.76742269083115 634.18504830515303 0 0 0 0 -0.66282823110075184 1.1674072589003952 0 1.1674072589003952 6.6920780586441211 0 0 0 0 -16.612905954169719 -92.583274034496753 0 -92.583274034496753 795.83515902477302 0 0 0 0 124.67420473665561 -171.86025304279792 0 -171.86025304279792 -251.29163453796173 0 0 0 0 -10.378453908586152 46.179785329528386 0 46.179785329528386 -271.77901985787821 0 0 0 0 5.4993575047885246 0.026224686958409293 0 0.026224686958409293 -2.5668399186092898 0 0 0 0 210.80665501544536 -73.978525809185157 0 -73.978525809185157 18.269768748255956 0 0 0 0 443.47287696469994 307.75776102242571 0 307.75776102242571 180.28935602671572 0 0 0 0 295.51639464563755 85.029395697456039 0 85.029395697456039 -73.839907207100623 0 0 0 0 20.041481366814423 -149.68186874482444 0 -149.68186874482444 65.417089671895155 0 0 0 0 -63.194928365064698 -141.37905402671095 0 -141.37905402671095 477.14569618507812 0 0 0 0 10.566996739764363 11.911124376098087 0 11.911124376098087 29.739540568365982 0 0 0 0 -2.4083475628818221 17.731964649204198 0 17.731964649204198 0.44385685696417809 0 0 0 0 13.269814428888139 5.1874207204584764 0 5.1874207204584764 30.381666585451967 0 0 0 0 11.065599271944301 -2.0165447887976429 0 -2.0165447887976429 5.903596261601507 0 0 0 0 5.78901895409399 20.076797250629625 0 20.076797250629625 19.674116844155833 0 0 0 0 14.796652151281705 10.310192307905197 0 10.310192307905197 22.240834610583079 0 0 0 0 63.00187792876477 -13.563914997126176 0 -13.563914997126176 1.3541057175534661 0 0 0 0 34.10094522044119 76.48873774324511 0 76.48873774324511 -23.404507373702927 0 0 0 0 135.71784658887191 56.695605527422231 0 56.695605527422231 -29.208694530807861 0 0 0 0 47.70932186963887 128.38057151603698 0 128.38057151603698 -56.380268844908642 0 0 0 0 -3.9286179119922053 -7.5317707671088101 0 -7.5317707671088101 87.835454290740017 0 0 0 0 -16.163410241419115 15.868051268448653 0 15.868051268448653 307.35704976024772 0 0 0 0 21.487183827420267 -64.405246803954469 0 -64.405246803954469 55.521508327488846 0 0 0 0 33.048484409120647 -11.792207636044623 0 -11.792207636044623 -35.883175360694167 0 0 0 0 329.42753025095226 -473.0238410445163 0 -473.0238410445163 39.740431709833501 0 0 0 0 9.4283021320313551 -35.411811362112218 0 -35.411811362112218 50.505582059252887 0 0 0 0 120.61622593918764 341.45965565454753 0 341.45965565454753 -49.968083667562041 0 0 0 0 -321.62389698574407 283.89872179748636 0 283.89872179748636 492.05895537332981 0 0 0 0 -12.960065999739527 70.174920097909308 0 70.174920097909308 85.461034480701528 0 0 0 0 2.820640994746384 55.5711996049791 0 55.5711996049791 66.940349448955985 0 0 0 0 -153.78475304419408 12.664212303192471 0 12.664212303192471 -258.49028073638328 0 0 0 0 -11.311515226444762 28.78081810675328 0 28.78081810675328 16.608347999012778 0 0 0 0 -2.0981329648543579 96.581932302797668 0 96.581932302797668 146.95900296066247 0 0 0 0 -32.669815466513683 67.630888496565603 0 67.630888496565603 115.25489739827208 0 0 0 0 25.443549688337953 28.31467408874687 0 28.31467408874687 129.31265027123118 0 0 0 0 -31.142232899851479 19.400291873754668 0 19.400291873754668 77.843271016521612 0 0 0 0 -70.070092806377943 39.571260485825405 0 39.571260485825405 139.02286100268066 0 0 0 0 -13.745494383802111 17.570389377832242 0 17.570389377832242 79.554507914420469 0 0 0 0 -20.522603409082876 11.447176440080511 0 11.447176440080511 -35.59061190354987 0 0 0 0 24.560490871564525 65.503315556187886 0 65.503315556187886 20.328969169269385 0 0 0 0 -2.378934252942579 16.011341441654576 0 16.011341441654576 -14.382154379413015 0 0 0 0 52.338889539722913 48.166007138651821 0 48.166007138651821 16.788785061335602 0 0 0 0 36.40300712368844 76.417103255939764 0 76.417103255939764 1.3052827290866844 0 0 0 0 46.402561597385102 1.436480565702368 0 1.436480565702368 -101.87766688079955 0 0 0 0 0.12948265829775352 -3.4904677816702048 0 -3.4904677816702048 -0.046907329440922574 0 0 0 0 -21.180852292589407 115.78750399575256 0 115.78750399575256 429.07182410745372 0 0 0 0 91.537393625142613 145.13148979482594 0 145.13148979482594 223.69845381352206 0 0 0 0 38.164029464625855 20.218478141114247 0 20.218478141114247 160.88680389947513 0 0 0 0 43.077227359781318 104.67463472085728 0 104.67463472085728 213.93715471761425 0 0 0 0 29.951926323649786 28.802398696770979 0 28.802398696770979 291.14519463858051 0 0 0 0 -4.3604892727619244 51.669107056540952 0 51.669107056540952 221.20271604647496 0 0 0 0 40.447547405783553 77.763119782704962 0 77.763119782704962 233.87913479565032 0 0 0 0 1.7769983295152221 -2.6651437267966855 0 -2.6651437267966855 -9.6628402673203588 0 0 0 0 -7.5124932092920744 58.058562911981653 0 58.058562911981653 318.70529254311259 0 0 0 0 -1.2440001825343643 40.386897595903974 0 40.386897595903974 126.4939205722585 0 0 0 0 24.437588527915977 80.980057550543279 0 80.980057550543279 171.73087572301847 0 0 0 0 15.214630088928971 37.662751456402248 0 37.662751456402248 168.82294345714399 0 0 0 0 35.151388569940536 55.0145853400536 0 55.0145853400536 102.11222180434925 0 0 0 0 -6.0826385996952013 43.112655188077042 0 43.112655188077042 149.40061874034654 0 0 0 0 12.395102444649183 1.9199845696493867 0 1.9199845696493867 91.447728777598968 0 0 0 0 -39.300758472879807 -13.720093601564713 0 -13.720093601564713 97.180990601271333 0 0 0 0 -20.96441613963907 36.035552949968405 0 36.035552949968405 103.59740021704738 0 0 0 0 -12.483821580725817 35.311904740770842 0 35.311904740770842 129.35198791101811 0 0 0 0 131.84749714153304 -14.859454883659055 0 -14.859454883659055 91.919918242158019 0 0 0 0 19.518930862542675 25.369637422276355 0 25.369637422276355 59.380199850500503 0 0 0 0 -20.041715005434309 -1.1558909366584729 0 -1.1558909366584729 -0.94922033781136417 0 0 0 0 -15.511478088310943 10.161472610871662 0 10.161472610871662 68.651693300881433 0 0 0 0 -88.074836229019638 -17.648178645775261 0 -17.648178645775261 97.862276596957599 0 0 0 0 -14.40091902088534 -27.969720639304796 0 -27.969720639304796 81.47203857009481 0 0 0 0 -16.228626286722829 -7.6345150945971909 0 -7.6345150945971909 34.638736775472353 0 0 0 0 -73.084805002544499 -0.91060430449397245 0 -0.91060430449397245 95.831704795607948 0 0 0 0 -34.719646552731618 2.2282833792843775 0 2.2282833792843775 18.703601506717543 0 0 0 0 -4.4575480463108761 13.764657965966876 0 13.764657965966876 70.938574577958661 0 0 0 0 -17.606641195873635 -7.3026645393582896 0 -7.3026645393582896 60.399232722786792 0 0 0 0 -3.8529312889455554 -0.27043637961583089 0 -0.27043637961583089 35.860917268031002 0 0 0 0 -57.399756970439284 -185.30571343435076 0 -185.30571343435076 -351.09658965632843 0 0 0 0 -12.704752034573383 -0.49728682451232054 0 -0.49728682451232054 49.983393276577516 0 0 0 0 183.48296878737801 265.0280804846825 0 265.0280804846825 -829.21380892686648 0 0 0 0 -173.72256108392139 736.3274477118739 0 736.3274477118739 177.30150461917583 0 0 0 0 17.006273763523495 165.24739327436873 0 165.24739327436873 111.39826209079001 0 0 0 0 35.468188656904204 139.38040382847612 0 139.38040382847612 112.85117145308323 0 0 0 0 1.9929553048059461 25.761905049743291 0 25.761905049743291 69.846811500879994 0 0 0 0 0.9711700966272474 19.537100108099708 0 19.537100108099708 64.984878025178659 0 0 0 0 -29.089942404486123 -37.127442333088084 0 -37.127442333088084 -24.731372303413082 0 0 0 0 -31.273097424410025 43.102885747475739 0 43.102885747475739 -30.595051187469608 0 0 0 0 -32.580069479651002 41.807519265586052 0 41.807519265586052 33.346560307264554 0 0 0 0 -15.639094858284892 16.430070605712594 0 16.430070605712594 59.556463606362058 0 0 0 0 24.477130483938225 61.909726743300325 0 61.909726743300325 -33.809334721925552 0 0 0 0 19.537465526262167 35.045620459171005 0 35.045620459171005 -149.79466124753708 0 0 0 0 20.896841482356422 180.45216181019941 0 180.45216181019941 87.448539352273656 0 0 0 0 37.752556850032903 156.18627400474725 0 156.18627400474725 81.887834147342801 0 0 0 0 -45.315877126007422 115.42512325745702 0 115.42512325745702 -28.991942339192974 0 0 0 0 -12.148918076978186 19.549103021846022 0 19.549103021846022 55.811575934627385 0 0 0 0 -53.1225180008405 74.493586385019626 0 74.493586385019626 90.907895906387239 0 0 0 0 -104.72462984613236 137.74957725687341 0 137.74957725687341 -17.926185614596761 0 0 0 0 -86.875895422162102 17.001406019604474 0 17.001406019604474 69.076592938023168 0 0 0 0 -61.791399902827379 -22.157665426915628 0 -22.157665426915628 166.34790476931448 0 0 0 0 -119.92332101718239 124.76155237207604 0 124.76155237207604 19.50620147393056 0 0 0 0 47.78754149299948 32.544076641323045 0 32.544076641323045 -28.156802714391915 0 0 0 0 294.10325401429009 -5.9809861708690732 0 -5.9809861708690732 -8.8358643842148012 0 0 0 0 -206.66772562163806 161.90726658126368 0 161.90726658126368 588.83878714415005 0 0 0 0 -31.396079120620925 -86.64672149774924 0 -86.64672149774924 167.10276719629283 0 0 0 0 49.336429099643738 -222.04613018526288 0 -222.04613018526288 393.2009377002978 0 0 0 0 -70.57250672537873 34.920812665245194 0 34.920812665245194 466.28970990310336 0 0 0 0 -67.437985821405164 23.689219533316646 0 23.689219533316646 164.89890712335546 0 0 0 0 1.4847641589914762 2.5191741585702552 0 2.5191741585702552 4.4167029760060927 0 0 0 0 65.074577567897904 -425.95458544982466 0 -425.95458544982466 599.52543001371669 0 0 0 0 55.331837513986102 145.46801219590634 0 145.46801219590634 96.322361655514214 0 0 0 0 112.03496182101185 -183.49117197773057 0 -183.49117197773057 301.67439752152131 0 0 0 0 -231.22465401297086 -160.3370781663034 0 -160.3370781663034 514.80473582144987 0 0 0 0 -93.650898960418999 -29.370602887422137 0 -29.370602887422137 272.63812224949652 0 0 0 0 -74.371761816222715 218.39424010070798 0 218.39424010070798 -48.421808997059998 0 0 0 0 -235.9911181813477 166.03423588562146 0 166.03423588562146 385.63460304046748 0 0 0 0 -87.437831156387801 -55.002381351614531 0 -55.002381351614531 358.76238225222914 0 0 0 0 24.408192612096173 -226.71981914832213 0 -226.71981914832213 422.17735481298587 0 0 0 0 -138.29012120244079 70.604248001152882 0 70.604248001152882 -122.93184176289651 0 0 0 0 -46.928603720412866 -59.870403397737391 0 -59.870403397737391 353.28512436282472 0 0 0 0 0.43215197532428107 8.1297357962081875 0 8.1297357962081875 0.15903975423479721 0 0 0 0 -103.92031558863528 142.81106825774077 0 142.81106825774077 -24.041886845247063 0 0 0 0 -14.624476940791581 17.997976157410136 0 17.997976157410136 62.833534199078919 0 0 0 0 89.932606135978858 -28.981290115600132 0 -28.981290115600132 176.76780637088814 0 0 0 0 -16.950461866037362 17.953023312281061 0 17.953023312281061 40.612362278176377 0 0 0 0 -12.989618527599305 38.596160295375739 0 38.596160295375739 66.598887978792845 0 0 0 0 0.11931934182836557 34.588801263967419 0 34.588801263967419 32.732402309177814 0 0 0 0 11.314851248871491 44.484807558193779 0 44.484807558193779 76.052996697762865 0 0 0 0 -7.8612302220026322 27.889862659962546 0 27.889862659962546 88.411627740953918 0 0 0 0 -155.19586772976072 94.810291819103441 0 94.810291819103441 109.93784419595613 0 0 0 0 -4.5274501304283135 -1.6519003216245025 0 -1.6519003216245025 14.211908817459872 0 0 0 0 -132.93021064724235 221.44960557767627 0 221.44960557767627 -262.88144082974759 0 0 0 0 -193.29478686979473 275.64373457484908 0 275.64373457484908 204.87285613898894 0 0 0 0 -190.50631723322294 224.31052055618784 0 224.31052055618784 -216.56127469678177 0 0 0 0 -6.2412296705588233 -41.125189488317119 0 -41.125189488317119 25.058460709929932 0 0 0 0 -21.849998631831113 23.273855537314375 0 23.273855537314375 1.2317650017212145 0 0 0 0 -28.346888305299217 92.646073964540847 0 92.646073964540847 -141.73617321664642 0 0 0 0 -7.0001592375049597 12.38941253365391 0 12.38941253365391 25.882716071431048 0 0 0 0 -4.2188472167597162 4.3909086254949372 0 4.3909086254949372 5.933996124725482 0 0 0 0 -18.323386223217707 24.13153754593629 0 24.13153754593629 67.551117410445741 0 0 0 0 -17.919118730669432 30.255933389900747 0 30.255933389900747 162.32653788594325 0 0 0 0 26.682511975181541 37.549113443405076 0 37.549113443405076 66.279017214698797 0 0 0 0 -0.01224500857294241 -6.8359990124808974 0 -6.8359990124808974 87.928847529779887 0 0 0 0 6.1910451796506898 25.943252662276791 0 25.943252662276791 40.664302782904997 0 0 0 0 -1.8131482992065351 -8.8589900255537941 0 -8.8589900255537941 58.874640580143932 0 0 0 0 -4.9772729473991841 18.906768724838003 0 18.906768724838003 7.2480828104016837 0 0 0 0 -21.091739374949697 -27.036653704577475 0 -27.036653704577475 33.802410780932405 0 0 0 0 -106.6772171079901 -45.760323681811769 0 -45.760323681811769 24.071325508732116 0 0 0 0 0.41217028048810067 -1.434513393529258 0 -1.434513393529258 2.7996190126679608 0 0 0 0 -96.791704711365696 77.378848461274174 0 77.378848461274174 84.175124597932154 0 0 0 0 -6.8834025354119603 32.21199430818524 0 32.21199430818524 76.590887436410412 0 0 0 0 17.73217182108516 10.132451231460436 0 10.132451231460436 24.362600722568459 0 0 0 0 1.8085465729392141 0.78970549368386855 0 0.78970549368386855 80.77477722230833 0 0 0 0 17.222911297345764 53.355995109795913 0 53.355995109795913 130.32859867310617 0 0 0 0 -72.643200456622097 158.33890903735636 0 158.33890903735636 27.55450596906303 0 0 0 0 -73.700445577568928 87.414102981456381 0 87.414102981456381 215.82501183900604 0 0 0 0 1.8119222677943583 19.192920577352197 0 19.192920577352197 94.152442890714156 0 0 0 0 1.5957447468910786 66.921388340118028 0 66.921388340118028 57.81423216269468 0 0 0 0 54.782924841230539 119.8721885969062 0 119.8721885969062 282.65907897388388 0 0 0 0 16.156699586630722 10.772487982481834 0 10.772487982481834 276.04541845139465 0 0 0 0 -7.6091648961886804 29.26902657689061 0 29.26902657689061 221.32766744297987 0 0 0 0 40.530272204407574 59.567497240290322 0 59.567497240290322 156.11737596296007 0 0 0 0 0.2627277279887611 4.310844242303574 0 4.310844242303574 313.67907390785695 0 0 0 0 108.47329384562703 82.193234223377658 0 82.193234223377658 46.887639366759686 0 0 0 0 -0.0044260216851356431 0.1021063073798274 0 0.1021063073798274 0.94683501704895434 0 0 0 0 1.0819682803167447 74.019642085276942 0 74.019642085276942 806.82957847190846 0 0 0 0 1.6848895238906536 162.05860236077206 0 162.05860236077206 380.99249909241553 0 0 0 0 -5.6782174185361463 132.84448682715356 0 132.84448682715356 320.03909653738083 0 0 0 0 -0.044150785715340729 -0.08533900790325788 0 -0.08533900790325788 0.68455033653259534 0 0 0 0 -20.295321012926081 -66.453806033321598 0 -66.453806033321598 82.747269441362732 0 0 0 0 -13.314703894403905 -18.109130721095426 0 -18.109130721095426 63.165962074010167 0 0 0 0 -63.047336517964148 433.14750409708722 0 433.14750409708722 2332.6915425013576 0 0 0 0 -121.20430813591113 1485.0830823583965 0 1485.0830823583965 3490.8147196347118 0 0 0 0 -6.8792151215132975 33.519391100358916 0 33.519391100358916 75.63443068737979 0 0 0 0 -0.12759517386020308 2.0220521463608634 0 2.0220521463608634 -0.6450044567857276 0 0 0 0 98.223108143194636 46.890276704051757 0 46.890276704051757 49.651733106278698 0 0 0 0 2.0538037736181423 0.68254111797432415 0 0.68254111797432415 -32.823373483595788 0 0 0 0 -0.83759615323054959 22.588451321898901 0 22.588451321898901 19.781970681855455 0 0 0 0 0.055344481846452909 5.1553153200457587 0 5.1553153200457587 18.776682939905669 0 0 0 0 -219.4683146608171 329.86195923486957 0 329.86195923486957 3492.1689847497328 0 0 0 0 1.0316926420738359 6.0109114115730335 0 6.0109114115730335 1.9079647695667461 0 0 0 0 -1.3236086759142014 16.166710804239528 0 16.166710804239528 5.0424229751452003 0 0 0 0 -0.45072025244855574 11.796782602787658 0 11.796782602787658 8.5475867923616136 0 0 0 0 -0.73489427833874288 10.904564999829745 0 10.904564999829745 13.326457739982288 0 0 0 0 635.37186210990239 -932.43616703018779 0 -932.43616703018779 1400.3169654308585 0 0 0 0 0.27058315029845326 13.40576477446055 0 13.40576477446055 6.467007569481666 0 0 0 0 27.883844582110981 3.9869169567828067 0 3.9869169567828067 -4.8619335195980966 0 0 0 0 -1.9338589823808625 7.8034084545877533 0 7.8034084545877533 -4.0187519075047078 0 0 0 0 -2.461505143046137 3.9956074877190986 0 3.9956074877190986 3495.2318055302894 0 0 0 0 1537.5902768023732 950.24957573254142 0 950.24957573254142 532.97425580670097 0 0 0 0 3.1226378823864716 1.8854807488253016 0 1.8854807488253016 1.3180314942039502 0 0 0 0 72.313616543798346 -44.855696712638746 0 -44.855696712638746 45.280216139974073 0 0 0 0 -17.332280164607287 4.7259116124987486 0 4.7259116124987486 -42.732942822287441 0 0 0 0 -0.054902438698061454 2.0731246294913888 0 2.0731246294913888 6.012272626543961 0 0 0 0 -44.069705029049913 16.748347739834571 0 16.748347739834571 45.595945557040977 0 0 0 0 36.112814336806593 -13.580560240858176 0 -13.580560240858176 21.333963439130457 0 0 0 0 -3.8350711825956552 5.4862592569443223 0 5.4862592569443223 32.842521593498532 0 0 0 0 57.344711205005467 45.415604195393826 0 45.415604195393826 24.525249099999201 0 0 0 0 43.446216047810196 125.69597668411006 0 125.69597668411006 289.82376783079235 0 0 0 0 0.070775819446113136 -0.39308991288707773 0 -0.39308991288707773 1.8964582083750656 0 0 0 0 158.40096112289774 144.09068025582383 0 144.09068025582383 99.567127001202607 0 0 0 0 -11.903439636754644 -56.103995943602058 0 -56.103995943602058 65.590921698967577 0 0 0 0 9.5172104675954188 48.836561348318355 0 48.836561348318355 341.53478405097121 0 0 0 0 3.2633957149073751 62.363170554450335 0 62.363170554450335 332.46436276048189 0 0 0 0 -12.538951406821184 20.462963495476288 0 20.462963495476288 293.63921781245153 0 0 0 0 33.826223501440097 49.663785385622759 0 49.663785385622759 214.11003176213126 0 0 0 0 -9.4526918102753825 29.103046713891672 0 29.103046713891672 188.05441582464118 0 0 0 0 -22.349822830263179 39.579738485241251 0 39.579738485241251 202.84510250576568 0 0 0 0 10.014697978248876 74.705675281204094 0 74.705675281204094 139.86228979131556 0 0 0 0 52.307553226414655 95.454819585382211 0 95.454819585382211 110.15442531972076 0 0 0 0 -5.4823567784635543 65.423068246171169 0 65.423068246171169 222.61816657600502 0 0 0 0 15.242082031968835 18.030141886309138 0 18.030141886309138 31.316033152572345 0 0 0 0 18.48795405640783 54.249568614002783 0 54.249568614002783 112.01780735316424 0 0 0 0 -8.7963683451440318 57.08784546460447 0 57.08784546460447 134.84563857774629 0 0 0 0 109.01030491061076 -722.40653937239949 0 -722.40653937239949 3373.9070987749583 0 0 0 0 1.4652332710176179 19.216700764920347 0 19.216700764920347 10.973261666900441 0 0 0 0 33.761424902301428 44.447508188644861 0 44.447508188644861 -8.0307042672357056 0 0 0 0 506.57720324407217 -1230.9454997854955 0 -1230.9454997854955 3067.8913663896747 0 0 0 0 130.52725912455782 -781.78983961850463 0 -781.78983961850463 3497.8542857469329 0 0 0 0 -109.93591404870291 -310.36265193758481 0 -310.36265193758481 2838.2927579149182 0 0 0 0 2.9888046835787678 29.228038310005928 0 29.228038310005928 17.737138767218809 0 0 0 0 68.918909103905676 -655.7869401373755 0 -655.7869401373755 3500.4938745996164 0 0 0 0 4.4431886393668947 46.687982517891214 0 46.687982517891214 79.840480945946183 0 0 0 0 4.8481516990528748 38.674362941974223 0 38.674362941974223 21.505300836568544 0 0 0 0 -6.4852529100176071 37.175198687516968 0 37.175198687516968 159.60253227136855 0 0 0 0 -0.52053397855530648 42.017392067104083 0 42.017392067104083 157.24567999990541 0 0 0 0 -17.270708274033268 42.956733830083976 0 42.956733830083976 157.28160361041205 0 0 0 0 -22.661816178343059 43.156739928559546 0 43.156739928559546 164.5658731211297 0 0 0 0 -11.293868370571545 25.279263575032928 0 25.279263575032928 148.14854441444913 0 0 0 0 -36.868258953058557 -9.3529441931605106 0 -9.3529441931605106 129.98663347127149 0 0 0 0 -20.092161963246951 14.624545217064224 0 14.624545217064224 126.94329568376997 0 0 0 0 -18.826808732862901 -16.206331526969734 0 -16.206331526969734 102.06938044782146 0 0 0 0 -24.710332160574808 -12.475156461121514 0 -12.475156461121514 100.09532428944658 0 0 0 0 -21.024297095995337 -12.702087046347515 0 -12.702087046347515 157.70885963295586 0 0 0 0 3.5371347117006735 -51.097768803869258 0 -51.097768803869258 104.88105487779922 0 0 0 0 -2.6491265259392094 -26.116564736250439 0 -26.116564736250439 106.87504900180465 0 0 0 0 -30.207005321826955 16.678935995543725 0 16.678935995543725 178.30504528599704 0 0 0 0 -21.855924003534028 4.2641829095446155 0 4.2641829095446155 146.37351262639277 0 0 0 0 -21.937146909443207 2.7877606070351248 0 2.7877606070351248 222.55946977493295 0 0 0 0 0.41720020429966098 -39.10073309155996 0 -39.10073309155996 189.80003568541724 0 0 0 0 9.6956645195169813 -71.345791878778982 0 -71.345791878778982 299.48841509915655 0 0 0 0 2.560641225991958 -41.494225672402536 0 -41.494225672402536 171.62934279079491 0 0 0 0 -12.080455978544478 -17.884859881422017 0 -17.884859881422017 436.82859656048822 0 0 0 0 -0.35835502123127894 0.42414938596252227 0 0.42414938596252227 0.77956790287910849 0 0 0 0 38.072279409078192 -152.42371851101052 0 -152.42371851101052 398.12265427893362 0 0 0 0 11.617222914696868 7.1392930467118276 0 7.1392930467118276 265.49975997884758 0 0 0 0 336.01950246647357 134.81863692367915 0 134.81863692367915 -247.09868601197377 0 0 0 0 80.805615270008957 -113.19505877213669 0 -113.19505877213669 198.21364196573268 0 0 0 0 -221.23132696126126 108.37820676653428 0 108.37820676653428 155.11489687260473 0 0 0 0 -410.77390779348184 206.48281832020984 0 206.48281832020984 170.10410044982564 0 0 0 0 -318.63343455081201 -286.3092584478436 0 -286.3092584478436 -375.74702812991745 0 0 0 0 24.622270407817496 -34.819542101933621 0 -34.819542101933621 106.81653340815683 0 0 0 0 -327.67614866398321 185.87706359877484 0 185.87706359877484 -107.47888492268976 0 0 0 0 -3.9167456211870393 -0.71078196943881267 0 -0.71078196943881267 2.4657938818836556 0 0 0 0 16.426227587920494 -45.564656856280635 0 -45.564656856280635 117.75375822535716 0 0 0 0 -2.0776675182904967 -32.119679835957868 0 -32.119679835957868 167.59585599973798 0 0 0 0 17.168249558982097 -57.551632160495501 0 -57.551632160495501 181.82136189686571 0 0 0 0 63.464506767940293 -69.185445816045103 0 -69.185445816045103 98.236718803149415 0 0 0 0 4.4987202191937286 -44.804760577928391 0 -44.804760577928391 119.07903592762887 0 0 0 0 -49.769134301991926 -6.885294526029611 0 -6.885294526029611 68.840486187138595 0 0 0 0 -184.55999280772477 102.55605669151737 0 102.55605669151737 -9.9527445392450318 0 0 0 0 -0.02168370842297751 -1.511253477973554 0 -1.511253477973554 1.6042925624030886 0 0 0 0 -142.13579024599204 -150.35485297470768 0 -150.35485297470768 161.4702630979591 0 0 0 0 0.2007019826665572 -0.83244147810205504 0 -0.83244147810205504 3.0109756340480658 0 0 0 0 0.51026683399793882 -0.8310944794160946 0 -0.8310944794160946 1.3102636831639529 0 0 0 0 269.09822918693283 -227.77535611041822 0 -227.77535611041822 12.448333987093065 0 0 0 0 142.88820008655512 -240.38629879208747 0 -240.38629879208747 209.20777421898674 0 0 0 0 145.14622393683771 -55.661140440148301 0 -55.661140440148301 -202.06812518436345 0 0 0 0 -139.53055753858627 -244.85602713793924 0 -244.85602713793924 409.43500135163777 0 0 0 0 -128.66176663598634 -13.136096474394435 0 -13.136096474394435 -85.00466470484389 0 0 0 0 110.47739671099941 -37.065123415348353 0 -37.065123415348353 35.49354284684523 0 0 0 0 -37.177933601685211 -19.754147951658524 0 -19.754147951658524 69.166970653313911 0 0 0 0 -38.824649841913555 -11.035233339149272 0 -11.035233339149272 48.521813232437125 0 0 0 0 -49.397947477910293 -8.3132194993668236 0 -8.3132194993668236 50.149553497001762 0 0 0 0 -44.769612264944726 -18.73933853955532 0 -18.73933853955532 38.736324743571458 0 0 0 0 -48.784126498869227 -3.9904356003462453 0 -3.9904356003462453 49.501282987632749 0 0 0 0 -38.351690493701881 9.5032076114512165 0 9.5032076114512165 35.583766403457048 0 0 0 0 -42.995879441658872 -13.095895673090126 0 -13.095895673090126 48.978874952881597 0 0 0 0 -27.407972263230931 -14.075628214450262 0 -14.075628214450262 28.433657333705924 0 0 0 0 -5.3492640441349977 11.755608659019344 0 11.755608659019344 35.250685422607603 0 0 0 0 -6.8191249354813408 2.8862486696452834 0 2.8862486696452834 34.426297672915098 0 0 0 0 -8.6982426295645183 -6.7348097573424468 0 -6.7348097573424468 21.481912098678123 0 0 0 0 -8.2328928891960302 2.1961455595650392 0 2.1961455595650392 26.380498960240487 0 0 0 0 -0.64298417482950754 -11.72053312585922 0 -11.72053312585922 53.1872353637591 0 0 0 0 -1.3015048502425106 -0.38626108136719495 0 -0.38626108136719495 28.133053697545904 0 0 0 0 -6.34071012545337 -17.210343447521154 0 -17.210343447521154 48.911017497885041 0 0 0 0 -19.892780440511512 -8.4900057863868597 0 -8.4900057863868597 14.628418159630982 0 0 0 0 -27.582090513988533 -15.667892376244708 0 -15.667892376244708 48.781572516134474 0 0 0 0 -8.1866604446728388 -37.367751066105484 0 -37.367751066105484 71.011871980997967 0 0 0 0 -8.7477191553338418 4.6658279833575875 0 4.6658279833575875 16.629484627897568 0 0 0 0 -1.6956494598346126 -23.924492487567477 0 -23.924492487567477 57.209570277263992 0 0 0 0 -2.4168157847151037 -8.0603528045183737 0 -8.0603528045183737 -0.64163309444586503 0 0 0 0 -32.424078638811807 14.654297154367669 0 14.654297154367669 103.82961338270979 0 0 0 0 21.408608955243835 23.585732049090439 0 23.585732049090439 68.877259465338284 0 0 0 0 -44.597686448255558 -42.885683738237276 0 -42.885683738237276 66.382076737791067 0 0 0 0 -25.111384279228069 -13.730285452731778 0 -13.730285452731778 60.144621456385153 0 0 0 0 -8.1851419283530049 -4.8401037026887934 0 -4.8401037026887934 46.941981378695345 0 0 0 0 2.889899035507618 12.49353803796879 0 12.49353803796879 17.670042931940458 0 0 0 0 -5.0261469777424459 -8.7280561191059007 0 -8.7280561191059007 11.022611275219518 0 0 0 0 -5.0862762539836694 0.48841597004502546 0 0.48841597004502546 41.800815945956856 0 0 0 0 -24.299400370149669 4.6270827922271565 0 4.6270827922271565 33.498183009109198 0 0 0 0 0.53906510519209405 19.143704225214606 0 19.143704225214606 72.836369338714576 0 0 0 0 -0.82882635285454853 28.052895766872098 0 28.052895766872098 20.243047983429278 0 0 0 0 -60.81512729228416 20.659972613095306 0 20.659972613095306 2.5379752631197334 0 0 0 0 1.6727782635601258 -2.9391993786651653 0 -2.9391993786651653 0.98070588353809285 0 0 0 0 40.348551241648238 32.124864860830712 0 32.124864860830712 100.55829115738743 0 0 0 0 -14.881398043137324 84.379652023391827 0 84.379652023391827 53.534418830648065 0 0 0 0 -2.3403588293354893 -2.4828148933397927 0 -2.4828148933397927 4.337019060970249 0 0 0 0 10.849737999585614 40.608147710481717 0 40.608147710481717 158.49414669901307 0 0 0 0 5.1671243719486029 62.705559389956761 0 62.705559389956761 74.416070889114053 0 0 0 0 -9.9145268800789381 61.50781129212919 0 61.50781129212919 113.38682924717432 0 0 0 0 32.858404670484248 27.528696498462523 0 27.528696498462523 94.783118655170256 0 0 0 0 -14.680611300295368 22.952312121189607 0 22.952312121189607 111.27270716746716 0 0 0 0 -26.294250064698645 9.9306923627664219 0 9.9306923627664219 97.447425022406605 0 0 0 0 -75.046703861308288 29.560562784186914 0 29.560562784186914 93.783788181390264 0 0 0 0 -20.227086661864178 0.37262271273357328 0 0.37262271273357328 22.778086015030567 0 0 0 0 -30.857880732261037 13.20009106152429 0 13.20009106152429 107.3361537063829 0 0 0 0 -27.950583869234833 2.2284238552965689 0 2.2284238552965689 121.32180558136315 0 0 0 0 -30.295070959104503 9.1167418639465723 0 9.1167418639465723 114.08137791266199 0 0 0 0 -6.6895415717691549 13.254110139208933 0 13.254110139208933 107.01859101041919 0 0 0 0 -60.883275192533802 -19.690604372695816 0 -19.690604372695816 167.1426974348542 0 0 0 0 -14.18829779409074 -24.43463833296974 0 -24.43463833296974 72.358206313164828 0 0 0 0 -58.205416157323725 -47.171382593463932 0 -47.171382593463932 82.594149847209337 0 0 0 0 -10.69998846259341 -0.026210315998469014 0 -0.026210315998469014 97.250529214192284 0 0 0 0 -19.807295361506576 -18.194466057538222 0 -18.194466057538222 68.149654656502264 0 0 0 0 -41.761689229284457 -20.472841518421774 0 -20.472841518421774 95.3424844221081 0 0 0 0 -26.397263644072837 10.562626023860503 0 10.562626023860503 104.71260151790921 0 0 0 0 -19.408204189385287 0.61953479914518539 0 0.61953479914518539 84.11595187648345 0 0 0 0 -24.730992405033664 -32.898505293347682 0 -32.898505293347682 60.051994811175973 0 0 0 0 -25.068815587157019 23.820523023554415 0 23.820523023554415 149.37701328078401 0 0 0 0 -4.4275407534084934 22.825735851685749 0 22.825735851685749 136.80238636446302 0 0 0 0 -1.939199881714103 22.182605979665823 0 22.182605979665823 201.31635487730091 0 0 0 0 1.0434730514360808 1.4026793284319865 0 1.4026793284319865 148.32797938693511 0 0 0 0 5.8864365364856894 34.497234254773502 0 34.497234254773502 152.05485732212401 0 0 0 0 7.0611114384218228 43.998403158484194 0 43.998403158484194 20.104331259238208 0 0 0 0 -14.592402886621585 616.46039221811225 0 616.46039221811225 1600.7224571795014 0 0 0 0 -371.15315556490333 176.07490598586082 0 176.07490598586082 2032.2588857288065 0 0 0 0 -366.64889748288778 -197.99231265292474 0 -197.99231265292474 3498.5608255583938 0 0 0 0 1127.9145885476655 1047.4527769601918 0 1047.4527769601918 509.68722565610369 0 0 0 0 53.733045093346959 2.02455116647252 0 2.02455116647252 22.47657997913484 0 0 0 0 2.7698130909013354 3.0357598313341825 0 3.0357598313341825 1.4574491331442232 0 0 0 0 1078.8300437592404 2151.9963826390376 0 2151.9963826390376 4971.0119928838831 0 0 0 0 548.77533901451375 1278.7638708947343 0 1278.7638708947343 2528.7575451119192 0 0 0 0 4.4139168387303531 2.4662955818151602 0 2.4662955818151602 3.397369341848723 0 0 0 0 440.20714796886978 1008.2122189331567 0 1008.2122189331567 2980.152107282629 0 0 0 0 443.07001521690125 1577.8948180981388 0 1577.8948180981388 2234.9859930135281 0 0 0 0 159.9493294352329 1169.3737744629034 0 1169.3737744629034 3499.3256170003028 0 0 0 0 -471.69996474955479 775.65926861244225 0 775.65926861244225 3397.6003062263535 0 0 0 0 705.54147859780096 -160.76508161650418 0 -160.76508161650418 -110.47542458648968 0 0 0 0 -177.56211571203841 253.72798215925286 0 253.72798215925286 1392.2477293417469 0 0 0 0 1.8001564639402661 8.044415562953148 0 8.044415562953148 0.96829556266752093 0 0 0 0 -11.380863922432127 -5.4309052535645606 0 -5.4309052535645606 -97.44439650739514 0 0 0 0 2.0844102459520855 3.2219599575237226 0 3.2219599575237226 191.96426377132593 0 0 0 0 2.3542415221774222 43.067018525898249 0 43.067018525898249 35.582450126008979 0 0 0 0 -11.262249997851313 -92.042241656890837 0 -92.042241656890837 32.765004302240413 0 0 0 0 -10.957884172899526 -24.023174667380118 0 -24.023174667380118 88.352781401961352 0 0 0 0 19.427578458048856 8.1564617417316185 0 8.1564617417316185 130.00584549625637 0 0 0 0 -10.608782993048749 -14.464902582853028 0 -14.464902582853028 116.50061001813447 0 0 0 0 -20.211674082171157 -25.18420464979863 0 -25.18420464979863 75.299199399989448 0 0 0 0 22.765490358516217 -95.686309225609875 0 -95.686309225609875 31.874166828223679 0 0 0 0 117.28768242886406 -78.288664406019961 0 -78.288664406019961 57.225346116683795 0 0 0 0 181.0320259192531 -77.928461563780729 0 -77.928461563780729 -376.04343562234135 0 0 0 0 -64.326198961780392 -62.327223596490512 0 -62.327223596490512 -13.261572576622711 0 0 0 0 28.978124888579941 -38.164326965255896 0 -38.164326965255896 39.227731657796539 0 0 0 0 -230.14235863950444 171.45796613021957 0 171.45796613021957 258.8237854536128 0 0 0 0 -1.2246358286458958 2.7572335324172776 0 2.7572335324172776 84.050897147659441 0 0 0 0 -236.728967475839 145.75115423280658 0 145.75115423280658 127.1313176479016 0 0 0 0 105.88495449214724 469.09275985319255 0 469.09275985319255 228.13507191293297 0 0 0 0 262.53350658789714 84.656247474238626 0 84.656247474238626 -179.19079054193571 0 0 0 0 -24.801864251990082 -12.32143538937089 0 -12.32143538937089 -90.939917494397378 0 0 0 0 40.505557431515626 -70.964389809800196 0 -70.964389809800196 20.939636952854926 0 0 0 0 -143.83816039258318 19.458631728787623 0 19.458631728787623 106.60403625747131 0 0 0 0 -51.482943835518114 -177.86796439472414 0 -177.86796439472414 223.13246211298974 0 0 0 0 -64.531500225483569 34.336753303898149 0 34.336753303898149 73.51034794919542 0 0 0 0 -48.125293176423867 36.342532577476504 0 36.342532577476504 17.413586249342188 0 0 0 0 0.57834015395685934 -1.0167938338942832 0 -1.0167938338942832 17.183752172131612 0 0 0 0 -1.4048757372327478 -3.2520232331809993 0 -3.2520232331809993 10.684518795943859 0 0 0 0 -79.103353767910903 -7.3110519826732343 0 -7.3110519826732343 113.31579425787641 0 0 0 0 -20.698780111725284 -50.720846129937854 0 -50.720846129937854 37.561992127426493 0 0 0 0 -63.058186229775174 -27.918075643501652 0 -27.918075643501652 64.398076084529748 0 0 0 0 -31.281760702618953 -21.682517540903063 0 -21.682517540903063 26.134618637821404 0 0 0 0 -7.8817893676750295 4.3188323596381224 0 4.3188323596381224 29.730686155521653 0 0 0 0 -3.2295642399762983 6.8689992929339496 0 6.8689992929339496 56.452726722709485 0 0 0 0 -7.6013423940917164 13.491460250083037 0 13.491460250083037 61.110203121279483 0 0 0 0 -56.259179813010405 -48.729106277057326 0 -48.729106277057326 65.32256422554201 0 0 0 0 -21.062047206883335 34.809460735436005 0 34.809460735436005 38.354326811343526 0 0 0 0 0.21045175319365583 -2.9310466818576266 0 -2.9310466818576266 64.432583715092704 0 0 0 0 18.351287223220879 -24.922655897404184 0 -24.922655897404184 70.403488330528489 0 0 0 0 8.2735226151107781 10.018688551339437 0 10.018688551339437 52.8057096019038 0 0 0 0 3.552325827598632 -0.56154459699727965 0 -0.56154459699727965 34.866185531752905 0 0 0 0 7.7238899454530827 -12.228514747162663 0 -12.228514747162663 36.027990473871114 0 0 0 0 -1.8235945605018742 -3.667073802484083 0 -3.667073802484083 15.438127659377642 0 0 0 0 7.2769404828488149 -4.269361663302476 0 -4.269361663302476 26.402554493765528 0 0 0 0 7.1440646199696065 -2.4292119990391825 0 -2.4292119990391825 3.0388181191275407 0 0 0 0 -176.49567633885673 136.87144298720523 0 136.87144298720523 3486.5494232916317 0 0 0 0 9.5851709506362806 0.71736064762727203 0 0.71736064762727203 2.8191127577131851 0 0 0 0 635.43941041671962 -444.35045036746305 0 -444.35045036746305 331.22549067990622 0 0 0 0 11.771407092627285 7.3363067062659724 0 7.3363067062659724 12.55689184551786 0 0 0 0 358.63468628489346 925.10544987733829 0 925.10544987733829 2490.7447365889529 0 0 0 0 -96.087864067712104 -353.82593468712003 0 -353.82593468712003 3500.2449256820319 0 0 0 0 8.0779479010266186 21.986119893161231 0 21.986119893161231 61.322838270179886 0 0 0 0 5.1874673722149964 12.988004858183558 0 12.988004858183558 49.948787887544313 0 0 0 0 81.892472598293139 -1377.9901568286441 0 -1377.9901568286441 3495.6965927670244 0 0 0 0 316.87316948019395 -1681.4445596667119 0 -1681.4445596667119 3860.2546736861477 0 0 0 0 9.0338411583839218 -10.794335597553797 0 -10.794335597553797 5.9201767148294451 0 0 0 0 1652.7317936697518 -1475.0427149515672 0 -1475.0427149515672 1322.9751293451154 0 0 0 0 -22.4834775033396 -77.019211267208448 0 -77.019211267208448 5.3964374830684392 0 0 0 0 -23.728717423487751 -142.86414043144032 0 -142.86414043144032 83.317346262701903 0 0 0 0 -84.556343143834965 -82.919627395363932 0 -82.919627395363932 130.61611108786747 0 0 0 0 128.39310866492633 -107.66643862207275 0 -107.66643862207275 -426.9048640154615 0 0 0 0 4.1278746946663896 -3.6231902154248701 0 -3.6231902154248701 0.3549713923425486 0 0 0 0 -145.86271025493784 -89.151423234598042 0 -89.151423234598042 623.9133099560695 0 0 0 0 -134.04213198998696 -64.231862927066686 0 -64.231862927066686 124.62743205717197 0 0 0 0 -65.988135677446735 -57.971883656322461 0 -57.971883656322461 112.01788896776998 0 0 0 0 -48.766805966820812 81.9347617057756 0 81.9347617057756 96.336600108672428 0 0 0 0 -128.78118297480705 -22.435933065873542 0 -22.435933065873542 208.79904447420267 0 0 0 0 -15.030664528698708 182.09822662857914 0 182.09822662857914 312.02060201040877 0 0 0 0 -46.381432283467802 70.626780455235348 0 70.626780455235348 142.86933900518852 0 0 0 0 5.7115061442613069 114.3655495743551 0 114.3655495743551 97.862308587238658 0 0 0 0 18.235389202778649 7.8834767847365583 0 7.8834767847365583 60.0497866591395 0 0 0 0 16.246775057661864 19.826428412136011 0 19.826428412136011 47.78962165084522 0 0 0 0 -18.103931843535349 15.915642169138664 0 15.915642169138664 87.02387340014684 0 0 0 0 -31.996212153152101 77.994689073973859 0 77.994689073973859 64.199011665523358 0 0 0 0 -8.9792749910311613 49.810213708260562 0 49.810213708260562 95.606389423948713 0 0 0 0 -7.3502164495812892 5.8300959939759309 0 5.8300959939759309 16.915207233281617 0 0 0 0 3.1473735738842645 11.480826428509403 0 11.480826428509403 141.33082814137109 0 0 0 0 -89.078335713954857 77.562687259291124 0 77.562687259291124 107.03778532913566 0 0 0 0 -49.204476050059384 -292.5078041684792 0 -292.5078041684792 220.42557436922999 0 0 0 0 0.0986994741150371 9.4165835223459204 0 9.4165835223459204 98.268635633990328 0 0 0 0 -214.20310212200684 224.92193318140926 0 224.92193318140926 414.30290144996252 0 0 0 0 1.9553957863725495 -6.6329960079936683 0 -6.6329960079936683 12.565911846184832 0 0 0 0 3.3811086271252146 3.4017164881705853 0 3.4017164881705853 -1.0269405417570852 0 0 0 0 231.22039790905137 238.58892189554172 0 238.58892189554172 -13.771580397340585 0 0 0 0 47.129575440834515 5.2717530212830752 0 5.2717530212830752 163.68178652293864 0 0 0 0 159.72445213290712 -186.2106720874508 0 -186.2106720874508 248.62684080738109 0 0 0 0 -8.3837179390668553 -70.758091473595414 0 -70.758091473595414 243.98958285656408 0 0 0 0 7.1725545910339861 74.742502817724016 0 74.742502817724016 547.72264344971336 0 0 0 0 -10.675237711506895 13.179011584477848 0 13.179011584477848 183.14875201246468 0 0 0 0 144.78172152326943 5.5307477097157971 0 5.5307477097157971 -49.432102307466266 0 0 0 0 -1.1948251459887729 0.13997420552138351 0 0.13997420552138351 22.947599615578881 0 0 0 0 -86.318959320882641 -137.41403358355456 0 -137.41403358355456 -137.2593144780476 0 0 0 0 -2.4927144736532831 -4.4460809351064725 0 -4.4460809351064725 76.539090052912769 0 0 0 0 -4.50297598221767 0.19045922959457329 0 0.19045922959457329 57.630439017709818 0 0 0 0 -17.959130468712829 -4.7500425229954999 0 -4.7500425229954999 29.934063599619549 0 0 0 0 -12.470574713081533 22.268163746164646 0 22.268163746164646 131.70579172947691 0 0 0 0 -56.855798969120315 79.656556318594085 0 79.656556318594085 69.157606588705676 0 0 0 0 46.644713740858606 -29.436573685889016 0 -29.436573685889016 111.25038714939728 0 0 0 0 65.786024140043764 32.955369763076305 0 32.955369763076305 -90.261058115080232 0 0 0 0 49.284372127223833 -13.41995342959126 0 -13.41995342959126 85.732172018215351 0 0 0 0 54.448077978453398 -5.1591790705824678 0 -5.1591790705824678 98.505737999716075 0 0 0 0 15.27014218924927 16.305487400532002 0 16.305487400532002 95.76616114850367 0 0 0 0 16.54739998409741 -15.435281751309958 0 -15.435281751309958 198.14248075299838 0 0 0 0 -3.5454442021755312 61.233433892062749 0 61.233433892062749 205.89733476740457 0 0 0 0 45.118997594730899 98.167691337665019 0 98.167691337665019 312.67311154217532 0 0 0 0 118.18197544694885 -252.01640858184692 0 -252.01640858184692 -26.253959051318816 0 0 0 0 -12.728523666539786 -112.8515590987372 0 -112.8515590987372 359.77160418065614 0 0 0 0 4.1363378209507573 -56.326438948191935 0 -56.326438948191935 99.985903933265945 0 0 0 0 -167.53805247603032 13.90003655903638 0 13.90003655903638 485.96322717270232 0 0 0 0 -423.56908004440629 -37.977203583912342 0 -37.977203583912342 394.77245189727546 0 0 0 0 -6.2552820792004251 8.2506989239838902 0 8.2506989239838902 128.91716412753635 0 0 0 0 275.55034909658389 -384.4277560215437 0 -384.4277560215437 269.43082406160102 0 0 0 0 226.14315409079518 132.48899491982957 0 132.48899491982957 -88.392816406456404 0 0 0 0 160.95144538167659 93.228790022301837 0 93.228790022301837 62.855840035314031 0 0 0 0 0.91319171312516501 3.1572172109272429 0 3.1572172109272429 8.8811298605853892 0 0 0 0 162.75324154359797 208.50530408202758 0 208.50530408202758 237.42528674362256 0 0 0 0 2.4224069785241795 242.00836984241323 0 242.00836984241323 443.1667792040389 0 0 0 0 82.994899886758731 83.492306864016427 0 83.492306864016427 62.666754738340387 0 0 0 0 88.258155472214298 -15.324928078773155 0 -15.324928078773155 -27.746947203399031 0 0 0 0 56.93654739541995 69.561015481573122 0 69.561015481573122 67.736327910128239 0 0 0 0 -18.472845539024661 -27.342040109506343 0 -27.342040109506343 26.800858217313362 0 0 0 0 -32.932764935493338 -139.64111049847384 0 -139.64111049847384 128.94568659499055 0 0 0 0 1.7775654570325363 4.7717509659843884 0 4.7717509659843884 96.418395927506481 0 0 0 0 -19.105081299671383 -0.006492159311164869 0 -0.006492159311164869 82.488369341119324 0 0 0 0 -35.079860732961436 -1.4927829272346571 0 -1.4927829272346571 75.928181313849564 0 0 0 0 2.4768902495054412 5.1540378704057517 0 5.1540378704057517 32.462497321055054 0 0 0 0 -26.695683157111489 37.413131542176416 0 37.413131542176416 105.98388704804529 0 0 0 0 -166.14185847769841 28.911103500089666 0 28.911103500089666 166.12595227050042 0 0 0 0 6.5765621426373944 21.507706339374717 0 21.507706339374717 65.609100742224825 0 0 0 0 -78.166662097590233 69.33632689499791 0 69.33632689499791 162.22333003583481 0 0 0 0 -108.52494084845557 -3.9814441371854628 0 -3.9814441371854628 199.16620762095408 0 0 0 0 -40.997132761386638 -6.1476720032478624 0 -6.1476720032478624 146.9509330107976 0 0 0 0 -80.295539615794951 -48.202130556404882 0 -48.202130556404882 189.71862430575857 0 0 0 0 35.060628858673226 -70.684106667413289 0 -70.684106667413289 178.23617317820936 0 0 0 0 -6.5503727591158167 32.103965956637694 0 32.103965956637694 201.83866299888905 0 0 0 0 475.54833011163737 378.53838430854012 0 378.53838430854012 -392.20784559525782 0 0 0 0 -77.956234323453373 -23.342822561971843 0 -23.342822561971843 272.11059177961579 0 0 0 0 -16.44399382043003 -2.9031933293076406 0 -2.9031933293076406 37.271231771578179 0 0 0 0 -277.74386256844082 -347.1564375807975 0 -347.1564375807975 603.55817624030169 0 0 0 0 -107.82078844009163 -63.167176838654996 0 -63.167176838654996 854.56062373344321 0 0 0 0 583.14619963743871 770.87365696037887 0 770.87365696037887 173.07558296856587 0 0 0 0 -0.80407841459692442 -12.713486394194739 0 -12.713486394194739 9.8327408708603343 0 0 0 0 -164.50291073039216 -299.47892609837618 0 -299.47892609837618 171.26043548916641 0 0 0 0 -88.42159006950169 14.408280944626313 0 14.408280944626313 -42.408127032220364 0 0 0 0 -7.8540878114890802 -77.92554345420649 0 -77.92554345420649 135.31688181537993 0 0 0 0 4.8732629717796847 13.778541231741128 0 13.778541231741128 81.618935821880342 0 0 0 0 -23.691408180140343 14.352917499920295 0 14.352917499920295 104.35116935975384 0 0 0 0 -47.008580047568557 12.401803267610376 0 12.401803267610376 22.135069689014927 0 0 0 0 -7.5323978934702129 4.6365514420843894 0 4.6365514420843894 71.587698218012349 0 0 0 0 -31.232050713548961 -5.0250138341539525 0 -5.0250138341539525 190.81912654109215 0 0 0 0 -7.5711745389480711 42.629597562656272 0 42.629597562656272 56.212115963913675 0 0 0 0 0.76672797106230739 -3.8154022819400382 0 -3.8154022819400382 21.067646647433193 0 0 0 0 11.49981318522191 40.03984950913582 0 40.03984950913582 234.80895324007724 0 0 0 0 -13.092383015710766 61.695326418746845 0 61.695326418746845 89.628867561710649 0 0 0 0 -23.865692977986669 78.430634860407736 0 78.430634860407736 162.79953933728393 0 0 0 0 -0.012874046870365419 47.613568455541099 0 47.613568455541099 154.00891744866385 0 0 0 0 -8.2483787243561437 76.659917149416287 0 76.659917149416287 135.56543247417721 0 0 0 0 -25.228784541745426 32.283017248759279 0 32.283017248759279 130.33440962160239 0 0 0 0 -23.066292374745899 33.128907485443051 0 33.128907485443051 129.49351535807364 0 0 0 0 -23.764781727458285 37.875459343591501 0 37.875459343591501 115.67375470986008 0 0 0 0 -24.206438181612612 20.151998339089914 0 20.151998339089914 116.05036751936996 0 0 0 0 -31.237641949618592 36.339855873869965 0 36.339855873869965 113.04411431524568 0 0 0 0 -32.611057699311459 32.666024182988622 0 32.666024182988622 112.92659540190652 0 0 0 0 -23.034026847860332 29.166455688995484 0 29.166455688995484 91.356251363176852 0 0 0 0 -14.641764579614801 6.5242448052849795 0 6.5242448052849795 96.953944960143417 0 0 0 0 -20.290000421098739 3.9370615754596656 0 3.9370615754596656 112.49402950979857 0 0 0 0 -32.971408286574665 0.63421602606831584 0 0.63421602606831584 125.74816237474442 0 0 0 0 -26.191402476763528 25.321891793748364 0 25.321891793748364 137.31826045332127 0 0 0 0 0.22148053543060087 -3.1076954826712608 0 -3.1076954826712608 110.69048819235468 0 0 0 0 -51.199652314633681 -18.55521872612735 0 -18.55521872612735 151.20566555579717 0 0 0 0 -56.708883676772643 17.993847214055677 0 17.993847214055677 91.959805296137347 0 0 0 0 -19.632269359291513 -23.744270373535983 0 -23.744270373535983 157.74910970420751 0 0 0 0 -19.214146157714822 -17.589535529899877 0 -17.589535529899877 100.45119581482686 0 0 0 0 5.3244259138268717 -3.1373332575021777 0 -3.1373332575021777 120.78822056061472 0 0 0 0 -31.117029264441044 11.527115090597363 0 11.527115090597363 107.12936913045451 0 0 0 0 -10.475729555917409 5.5043974228289301 0 5.5043974228289301 16.290203441555235 0 0 0 0 -54.494328145416944 29.5638094416081 0 29.5638094416081 118.2769054180535 0 0 0 0 1.9220501106622128 12.496341599991123 0 12.496341599991123 83.186813428747428 0 0 0 0 -4.5655252900328813 7.9508025550651631 0 7.9508025550651631 96.502617318230108 0 0 0 0 28.710193824927046 23.080430272413651 0 23.080430272413651 -122.45341557625216 0 0 0 0 -130.38865920111971 -44.172608675862648 0 -44.172608675862648 63.112678473204141 0 0 0 0 -56.183206352921388 -36.842257552485535 0 -36.842257552485535 59.774014149908908 0 0 0 0 -125.86223802040422 -19.98509101694799 0 -19.98509101694799 146.93287659416819 0 0 0 0 -90.893623835813742 -1.012157609242422 0 -1.012157609242422 -44.109084897820139 0 0 0 0 -60.581897036613555 -19.67345938521612 0 -19.67345938521612 9.2129124190541916 0 0 0 0 -113.16765448967999 -14.744406672547484 0 -14.744406672547484 75.89181547643966 0 0 0 0 47.776634940768304 -19.667637245085643 0 -19.667637245085643 83.308239334055543 0 0 0 0 22.422282010298886 -19.096165595794446 0 -19.096165595794446 182.23383570588339 0 0 0 0 2.2835876826013783 12.627917991191111 0 12.627917991191111 51.230248773090096 0 0 0 0 -431.60268422372155 62.913590316555201 0 62.913590316555201 130.89220768829182 0 0 0 0 -194.27964252906622 8.141256349379546 0 8.141256349379546 78.336833028981346 0 0 0 0 -147.84845457486426 95.649883374084311 0 95.649883374084311 -34.844479537930056 0 0 0 0 33.392492224462558 -31.494794801295939 0 -31.494794801295939 82.848817592021078 0 0 0 0 -290.83409054107392 -198.51955553079642 0 -198.51955553079642 105.3344980020338 0 0 0 0 -7.3961972227830302 -219.13692734327196 0 -219.13692734327196 -37.765386537699669 0 0 0 0 -8.9453483877168285 -8.9667816057973084 0 -8.9667816057973084 59.43861660843595 0 0 0 0 -23.067330737687257 6.4433476394051468 0 6.4433476394051468 68.662535512266913 0 0 0 0 -3.7040018869088134 -12.467466824899702 0 -12.467466824899702 63.163072295258416 0 0 0 0 -18.526497628301001 -10.759973095026908 0 -10.759973095026908 66.67981547502859 0 0 0 0 -11.814808901891134 4.6646115011749316 0 4.6646115011749316 47.932557418162304 0 0 0 0 -13.830135309757679 2.4028610227469471 0 2.4028610227469471 81.26719248628433 0 0 0 0 -5.524358503937985 5.0454021378944809 0 5.0454021378944809 65.098655451017066 0 0 0 0 0.096717201334978409 3.15404747200758 0 3.15404747200758 19.109974619580839 0 0 0 0 28.921987763514323 8.5601824794357526 0 8.5601824794357526 74.525333412258988 0 0 0 0 155.11507464433635 -198.80193160947783 0 -198.80193160947783 76.080258939648047 0 0 0 0 -171.11087069397604 359.98406080064251 0 359.98406080064251 108.33473703227355 0 0 0 0 -591.85996614308272 424.87125205856137 0 424.87125205856137 755.07777522328252 0 0 0 0 -15.425258778092029 11.676096879666147 0 11.676096879666147 40.378239862096962 0 0 0 0 -5.7769545138586924 10.053403498974408 0 10.053403498974408 54.042537859027561 0 0 0 0 -10.257820147933383 11.093024806568792 0 11.093024806568792 45.408558621141708 0 0 0 0 -10.743581075521011 15.044990274834475 0 15.044990274834475 57.45731172146445 0 0 0 0 -9.3218944231339265 12.778975560351682 0 12.778975560351682 78.937770265387371 0 0 0 0 1.389495921017442 11.614812663116027 0 11.614812663116027 73.319053900690051 0 0 0 0 -7.5652737245438857 10.237290581400885 0 10.237290581400885 55.961786618063343 0 0 0 0 -11.582151781242342 19.608491605238115 0 19.608491605238115 46.306813080733576 0 0 0 0 0.16254418065202181 3.3293397737817543 0 3.3293397737817543 16.244783538197296 0 0 0 0 -16.313301676881565 17.758922972279834 0 17.758922972279834 56.115182797555462 0 0 0 0 -13.057455619414213 32.149244861146144 0 32.149244861146144 68.506114397383499 0 0 0 0 -0.92345357511903892 9.6953482230415631 0 9.6953482230415631 46.728435244072983 0 0 0 0 -13.367931571094346 18.567905523254922 0 18.567905523254922 44.519373883173103 0 0 0 0 -7.0751247964353752 12.169067202768929 0 12.169067202768929 54.16127490636427 0 0 0 0 -11.240317799786908 14.262298434959916 0 14.262298434959916 61.545066846563714 0 0 0 0 -70.878125928355075 128.51977553723555 0 128.51977553723555 78.212863703927724 0 0 0 0 -57.174460817610452 171.3247189760732 0 171.3247189760732 -314.1545065594255 0 0 0 0 -216.71903683087442 270.97416690302089 0 270.97416690302089 -89.237610128358938 0 0 0 0 -99.718665733256785 246.15433619220858 0 246.15433619220858 -95.889839745039353 0 0 0 0 -201.00312780243439 317.29545073267946 0 317.29545073267946 -124.73340764953173 0 0 0 0 -60.537240771548568 154.25536320048013 0 154.25536320048013 -75.695512074365979 0 0 0 0 -111.23987250109622 231.40914218741818 0 231.40914218741818 -90.769793770130491 0 0 0 0 -34.459034863833949 -128.45927267913066 0 -128.45927267913066 192.75691451353487 0 0 0 0 0.93093219316556741 -2.6594555547519008 0 -2.6594555547519008 12.600310898583189 0 0 0 0 -15.032096521734275 218.93313623506401 0 218.93313623506401 -124.86978120366985 0 0 0 0 102.42373539524715 108.82884442976501 0 108.82884442976501 67.209359939512069 0 0 0 0 -10.565947269585763 5.8625621946048341 0 5.8625621946048341 73.321036537774489 0 0 0 0 -12.485717408264216 19.306745116538053 0 19.306745116538053 54.272815907144121 0 0 0 0 -25.29597483633097 -41.731558974788641 0 -41.731558974788641 -43.409931009344291 0 0 0 0 -14.682551177620553 -3.642434743938793 0 -3.642434743938793 -82.05893401306821 0 0 0 0 -57.855300723366099 122.52996851271928 0 122.52996851271928 -319.19805384770734 0 0 0 0 -6.8237078882848996 9.6334487507950826 0 9.6334487507950826 0.99955945026511017 0 0 0 0 -2.1189831187006369 -1.1143013801982136 0 -1.1143013801982136 4.1169895551493596 0 0 0 0 -248.15654171910819 220.7354240845234 0 220.7354240845234 -156.15952039726835 0 0 0 0 -16.382783984431214 -29.445616224412333 0 -29.445616224412333 66.972480022363015 0 0 0 0 -19.543029257647163 -2.472192288878432 0 -2.472192288878432 50.490586084211827 0 0 0 0 -14.871342963677762 -1.0641280239942716 0 -1.0641280239942716 70.525301163754193 0 0 0 0 -10.799261895349495 -5.946034273661212 0 -5.946034273661212 40.127228992143188 0 0 0 0 -16.244177738225517 14.060493691438751 0 14.060493691438751 45.207491880835732 0 0 0 0 -3.6834624427811224 -3.8720082234513455 0 -3.8720082234513455 12.144444596179881 0 0 0 0 -78.333415707160384 -15.9780553442979 0 -15.9780553442979 66.065096679798444 0 0 0 0 -28.526981056673094 26.386019658788427 0 26.386019658788427 90.239880142151378 0 0 0 0 -108.58170040626578 90.286879834340652 0 90.286879834340652 39.221250158559997 0 0 0 0 -135.68541182451827 18.817409656210657 0 18.817409656210657 121.36908323106763 0 0 0 0 -147.65549637737962 39.441447189759856 0 39.441447189759856 -16.462523224734468 0 0 0 0 -64.734897187719071 99.13476917110529 0 99.13476917110529 15.430777563829906 0 0 0 0 -103.0320621120029 170.34126790337905 0 170.34126790337905 -98.39113019494107 0 0 0 0 -137.40668370756157 100.87753162866284 0 100.87753162866284 -312.8386003748019 0 0 0 0 -175.52846000984619 117.81225607252054 0 117.81225607252054 -102.15201267522934 0 0 0 0 -67.731614207305938 95.35775494412519 0 95.35775494412519 -300.18266848111307 0 0 0 0 -246.7991956062906 218.5207329106488 0 218.5207329106488 -221.36429805037915 0 0 0 0 -258.63554579284664 135.92532303475309 0 135.92532303475309 -38.475260717841593 0 0 0 0 -311.13386594101212 -336.92807515433378 0 -336.92807515433378 263.03878761133092 0 0 0 0 -139.60880117252191 230.67177694179554 0 230.67177694179554 -434.83619183705014 0 0 0 0 -516.52555614126868 1143.5485130396337 0 1143.5485130396337 -99.387253195120138 0 0 0 0 -440.08459803637243 572.38972727918735 0 572.38972727918735 908.86256935837446 0 0 0 0 -87.05195677278607 -43.200019974545285 0 -43.200019974545285 -615.34396330275558 0 0 0 0 6.2482093607549363 -0.41741491345968029 0 -0.41741491345968029 0.1556141564705058 0 0 0 0 -319.18814332990951 -78.69988138624467 0 -78.69988138624467 -200.81327259232057 0 0 0 0 455.34940559577308 -35.471817278550589 0 -35.471817278550589 137.39325231099792 0 0 0 0 261.22616360149232 -133.19965146922914 0 -133.19965146922914 279.32549156829919 0 0 0 0 98.899706081576369 -56.95038706593914 0 -56.95038706593914 246.48636832671036 0 0 0 0 211.48645108237133 94.685802729829447 0 94.685802729829447 68.128391882986762 0 0 0 0 -25.849008980802409 119.1252176596754 0 119.1252176596754 19.29077959494316 0 0 0 0 -912.58830325764484 125.86216077352583 0 125.86216077352583 91.585737803001393 0 0 0 0 -517.86626600123645 521.71453876714804 0 521.71453876714804 -281.1573831558926 0 0 0 0 -273.29971362607853 -187.71609217418882 0 -187.71609217418882 -268.67571503328509 0 0 0 0 3.6552109803246822 -1.4304384858202184 0 -1.4304384858202184 0.35494108251577217 0 0 0 0 68.564764473639798 143.55130393644504 0 143.55130393644504 172.74947869146126 0 0 0 0 -625.55873022989181 -92.70108298206469 0 -92.70108298206469 182.28504345787223 0 0 0 0 -35.3680581037504 20.532860120078112 0 20.532860120078112 104.93865131650819 0 0 0 0 -21.930208048659914 66.878378544435691 0 66.878378544435691 115.28278229438001 0 0 0 0 212.92522440648372 194.59094798650767 0 194.59094798650767 107.43149052213994 0 0 0 0 20.304019040266418 -0.23776180928859958 0 -0.23776180928859958 -1.2418253949379903 0 0 0 0 216.83591278732456 233.83427044738346 0 233.83427044738346 209.91909775938257 0 0 0 0 648.4994783506263 -33.980838159914128 0 -33.980838159914128 -60.953028607269516 0 0 0 0 312.04208970226682 52.106149407685734 0 52.106149407685734 -27.334405532528763 0 0 0 0 240.24850533118661 157.84480842677294 0 157.84480842677294 81.94207374958205 0 0 0 0 446.3630973917775 165.36237852113845 0 165.36237852113845 75.112240015405405 0 0 0 0 537.55731972629837 52.320368513072026 0 52.320368513072026 -312.2675979771011 0 0 0 0 150.06955864502561 429.97968046808091 0 429.97968046808091 -154.03451288904034 0 0 0 0 -362.79707935234001 173.7461323592288 0 173.7461323592288 -89.708655449154321 0 0 0 0 139.62336179494014 177.94115282452549 0 177.94115282452549 -237.41471368563361 0 0 0 0 136.08697648194538 107.02537992633006 0 107.02537992633006 -213.56920681931661 0 0 0 0 113.02904572824991 -107.56313557666726 0 -107.56313557666726 -38.681053528205666 0 0 0 0 117.34480971799348 -8.0920725891628535 0 -8.0920725891628535 -137.27499170868441 0 0 0 0 120.86313386434995 -53.360386166008539 0 -53.360386166008539 -135.98293403710704 0 0 0 0 290.29061988398644 -144.55540866117371 0 -144.55540866117371 -97.867441847920418 0 0 0 0 117.92090355223604 -17.505585738685568 0 -17.505585738685568 -81.568662572622998 0 0 0 0 118.32645994779341 -56.958962062857609 0 -56.958962062857609 -70.96246725495439 0 0 0 0 169.43403219197353 24.014778855242184 0 24.014778855242184 -120.17269445559941 0 0 0 0 108.55545699864751 41.306395236406388 0 41.306395236406388 -123.32820580972475 0 0 0 0 65.912598741640977 101.3415866702635 0 101.3415866702635 -57.26272765151225 0 0 0 0 105.44638794872435 41.675383281552058 0 41.675383281552058 -50.009184850903694 0 0 0 0 -61.186212051021357 200.15569986747141 0 200.15569986747141 -163.16118252269371 0 0 0 0 34.924442360253124 108.75105483021616 0 108.75105483021616 -119.76065984353772 0 0 0 0 145.12561362788074 114.40098764488357 0 114.40098764488357 -221.52340637960151 0 0 0 0 63.277242158310401 123.63505929881649 0 123.63505929881649 -128.55984046681988 0 0 0 0 23.311896034353595 120.64484793361044 0 120.64484793361044 5.4241863921051845 0 0 0 0 -52.326378551636481 161.13962405117491 0 161.13962405117491 -16.234164491135743 0 0 0 0 18.766865168266122 135.75351998022234 0 135.75351998022234 45.818410838735872 0 0 0 0 86.929185068220704 100.59560489844534 0 100.59560489844534 12.567961990745971 0 0 0 0 89.573347399464183 70.810843858409498 0 70.810843858409498 -30.454213498625904 0 0 0 0 57.506903856845838 89.787826270157893 0 89.787826270157893 94.600022764352616 0 0 0 0 28.778695933448034 163.52524642284698 0 163.52524642284698 84.262074611731805 0 0 0 0 36.597526219959036 174.32894896450307 0 174.32894896450307 30.505736207807786 0 0 0 0 10.935705039649292 71.527135577445733 0 71.527135577445733 -4.3574373501469381 0 0 0 0 18.041601948816606 105.01101330169331 0 105.01101330169331 114.2132934368492 0 0 0 0 29.809437602868002 100.75428387123611 0 100.75428387123611 95.422534813114908 0 0 0 0 24.478962611943643 146.51665344414505 0 146.51665344414505 53.344313782654353 0 0 0 0 79.401910810889603 109.90277147262532 0 109.90277147262532 95.33923415094614 0 0 0 0 31.395528217469291 107.77300064478186 0 107.77300064478186 78.428337962130172 0 0 0 0 -43.18554087756911 112.0792416713557 0 112.0792416713557 78.607758017911692 0 0 0 0 -38.939350222527537 128.23161585829803 0 128.23161585829803 21.297813114482778 0 0 0 0 -98.529495155521431 35.105569610677776 0 35.105569610677776 98.697420059907017 0 0 0 0 -47.911840031861175 53.359918265145097 0 53.359918265145097 104.8447234891355 0 0 0 0 -73.16986889166219 0.28664926034252858 0 0.28664926034252858 134.60786100500263 0 0 0 0 -24.756553072999395 14.631939192375285 0 14.631939192375285 138.77967410181009 0 0 0 0 -48.588312574753218 15.516438378876046 0 15.516438378876046 168.19221366061538 0 0 0 0 -2.0134711693981444 20.743228905121214 0 20.743228905121214 126.10576575761661 0 0 0 0 -21.383701150887191 79.75726755640062 0 79.75726755640062 128.55763680681412 0 0 0 0 36.9818112496514 40.092834451010276 0 40.092834451010276 154.07953284015821 0 0 0 0 16.496220237268062 -10.344823032195563 0 -10.344823032195563 259.467369353908 0 0 0 0 132.46533242605437 52.514288002952526 0 52.514288002952526 154.50556446695919 0 0 0 0 -32.940509748504155 38.533937866464839 0 38.533937866464839 182.68427218105353 0 0 0 0 -14.113285651401839 43.067392640055914 0 43.067392640055914 167.61902078188245 0 0 0 0 -19.674078491731962 76.353457818542665 0 76.353457818542665 179.51510544556368 0 0 0 0 -23.587670836322104 82.288902062980924 0 82.288902062980924 174.09528884918291 0 0 0 0 -22.177522976066939 114.07141778503865 0 114.07141778503865 145.25396120401274 0 0 0 0 -35.66515295228055 109.04943303804612 0 109.04943303804612 283.84045418952883 0 0 0 0 86.618149404851465 150.53578173758433 0 150.53578173758433 162.8525616887855 0 0 0 0 1.7012490637403062 47.693805820690613 0 47.693805820690613 95.020818422650336 0 0 0 0 -0.60806917090485513 -22.586403068387881 0 -22.586403068387881 37.832917412379174 0 0 0 0 96.868439949794265 82.535309007347678 0 82.535309007347678 -4.1977331674461311 0 0 0 0 3.4982392901574464 -0.13070518668239117 0 -0.13070518668239117 -1.638184656337387 0 0 0 0 8.3038620665010967 -23.516665564187861 0 -23.516665564187861 133.76290821591829 0 0 0 0 -8.7386437967670645 -18.504083648200321 0 -18.504083648200321 132.50867369519256 0 0 0 0 2.8474067289276803 0.62811082510737037 0 0.62811082510737037 5.6562803669370112 0 0 0 0 45.208330534303968 93.658113218458311 0 93.658113218458311 100.46439196786378 0 0 0 0 -31.079661145976729 27.803305330468902 0 27.803305330468902 202.26026612064743 0 0 0 0 36.016758958892751 76.469142762602132 0 76.469142762602132 182.2311642767163 0 0 0 0 88.70739000665526 145.48305542381058 0 145.48305542381058 254.39375138613104 0 0 0 0 10.329035644308533 -53.362438044488954 0 -53.362438044488954 416.24549766680866 0 0 0 0 -89.968770454246624 18.905144471042149 0 18.905144471042149 94.615375561639667 0 0 0 0 105.79165613256919 56.253081581540755 0 56.253081581540755 14.78942848497536 0 0 0 0 -50.183747460110681 74.727189591583738 0 74.727189591583738 59.653876807733468 0 0 0 0 -52.980605660466608 24.960568251699442 0 24.960568251699442 87.991304317292816 0 0 0 0 -29.568244448855694 35.321609871006331 0 35.321609871006331 92.279384531575488 0 0 0 0 -37.177532555537255 8.5285655391417095 0 8.5285655391417095 118.23580328837852 0 0 0 0 -11.87455388610644 -6.0371313903764872 0 -6.0371313903764872 18.306706115229787 0 0 0 0 -10.450645005429351 -9.9377848916483345 0 -9.9377848916483345 92.614902516404982 0 0 0 0 -18.447736049827654 56.059508571990591 0 56.059508571990591 98.244649444608513 0 0 0 0 -25.709567800249111 -3.356401092839107 0 -3.356401092839107 30.475910203800879 0 0 0 0 -36.745450208731995 -27.421754563103605 0 -27.421754563103605 18.492873946634063 0 0 0 0 1.9139732919196089 5.389255175984033 0 5.389255175984033 7.7181299336879334 0 0 0 0 7.6220471590052057 37.589905304841523 0 37.589905304841523 49.741117293495336 0 0 0 0 -57.093396739083119 -26.202646335819736 0 -26.202646335819736 40.549957659881329 0 0 0 0 -60.786074826408139 -16.828336351463804 0 -16.828336351463804 47.90372341568218 0 0 0 0 -21.864466103995937 8.7740933831264556 0 8.7740933831264556 7.6777172680594958 0 0 0 0 -26.29221042610277 -17.325030440566479 0 -17.325030440566479 7.1637326772761298 0 0 0 0 13.613799302201414 -20.547515857986582 0 -20.547515857986582 23.511760955792852 0 0 0 0 -17.249550476034472 18.751918286528962 0 18.751918286528962 20.651283465282177 0 0 0 0 47.678462406381328 20.765163008430591 0 20.765163008430591 1.764774320734432 0 0 0 0 0.10620620698659256 -0.81749334887476444 0 -0.81749334887476444 10.198411217499711 0 0 0 0 1.8527107091217658 1.3903795928781619 0 1.3903795928781619 31.542812400322873 0 0 0 0 -13.926023983552 -1.6716665305793867 0 -1.6716665305793867 26.643826681087376 0 0 0 0 -1.0428128139272501 0.35613189953511259 0 0.35613189953511259 18.683705697457697 0 0 0 0 -21.667670755522991 2.4284580062956138 0 2.4284580062956138 26.594622155185789 0 0 0 0 92.094220494197543 79.227130301165744 0 79.227130301165744 37.652724186860723 0 0 0 0 -21.371682137353559 21.267429685132811 0 21.267429685132811 47.079119757274384 0 0 0 0 -25.063882811143301 11.232020938475955 0 11.232020938475955 26.788926568507264 0 0 0 0 -58.060298683298385 3.5146511166240089 0 3.5146511166240089 52.332725084197591 0 0 0 0 40.847613356114181 43.427433038992604 0 43.427433038992604 27.925259847645066 0 0 0 0 74.956400829985796 71.507154608727433 0 71.507154608727433 47.248135853595159 0 0 0 0 35.108908700175334 24.601870948077703 0 24.601870948077703 20.441810731572332 0 0 0 0 36.863897212596598 31.808796839778665 0 31.808796839778665 18.268615882546968 0 0 0 0 -18.231305882089515 9.2279371414138041 0 9.2279371414138041 18.539085857541068 0 0 0 0 -10.365579304195107 5.4345485035104275 0 5.4345485035104275 19.769451551862574 0 0 0 0 -4.3284983293551704 11.818979947594926 0 11.818979947594926 21.219760877014778 0 0 0 0 5.9282339000442645 9.0887701634241012 0 9.0887701634241012 9.3209667454167118 0 0 0 0 -2.3871477802180681 5.8330899650272059 0 5.8330899650272059 14.347606073278826 0 0 0 0 -0.40199622896118226 2.1696377618502538 0 2.1696377618502538 1.9061290308570733 0 0 0 0 -3.6696538545661115 22.708370948837228 0 22.708370948837228 -1.2715772028459469 0 0 0 0 106.68036825129184 40.843963119288674 0 40.843963119288674 17.169489061903732 0 0 0 0 0.1331244721480708 1.4525727195185123 0 1.4525727195185123 9.463775562468868 0 0 0 0 -6.3658857073464992 21.827182891613582 0 21.827182891613582 29.444076547890234 0 0 0 0 28.724321429114752 41.132063195138471 0 41.132063195138471 41.324733400411787 0 0 0 0 -16.385207848963546 16.004542197719275 0 16.004542197719275 64.953236144676339 0 0 0 0 -3.8545742425994831 25.340275674399891 0 25.340275674399891 48.532803208538098 0 0 0 0 -60.032576878820691 78.773349865434284 0 78.773349865434284 -14.391565053898375 0 0 0 0 -0.43623471121581758 1.7620406191743996 0 1.7620406191743996 5.6069577492317819 0 0 0 0 -91.057320973887272 39.060061405383749 0 39.060061405383749 28.68718585879833 0 0 0 0 4.4646475321930623 6.8510668558538868 0 6.8510668558538868 2.6512182267734943 0 0 0 0 66.693919040357287 57.971298809177824 0 57.971298809177824 41.453985726548126 0 0 0 0 -18.707996747225479 96.963219683166244 0 96.963219683166244 49.610540496505564 0 0 0 0 -55.546454847235509 34.79077383812546 0 34.79077383812546 -21.298735204138211 0 0 0 0 -9.0690004289608623 36.650024627393577 0 36.650024627393577 294.61073711431527 0 0 0 0 2.4405355314421584 -1.3929872303935156 0 -1.3929872303935156 -1.6798531474196494 0 0 0 0 34.860307976187869 143.18275349402575 0 143.18275349402575 -160.1068072127091 0 0 0 0 -5.7419064919358789 8.9557123940758174 0 8.9557123940758174 85.412245589395752 0 0 0 0 91.505305722255343 173.98873587333583 0 173.98873587333583 114.84438150843198 0 0 0 0 50.354920452955412 79.254738495234051 0 79.254738495234051 62.912485040535103 0 0 0 0 63.679453887122691 97.371692004580837 0 97.371692004580837 44.882560271929833 0 0 0 0 31.61475523666013 64.963281929725781 0 64.963281929725781 30.296387838207011 0 0 0 0 0.88976362640710249 35.013441331193462 0 35.013441331193462 32.474418965895893 0 0 0 0 5.9915621424552228 62.042278797191102 0 62.042278797191102 120.35521142964717 0 0 0 0 34.748352220328343 70.284320122837016 0 70.284320122837016 23.227540176958428 0 0 0 0 36.071818053569586 60.769717000468518 0 60.769717000468518 41.437184601731133 0 0 0 0 28.05860330451651 58.886241102794884 0 58.886241102794884 22.522808775785961 0 0 0 0 20.208285484273802 41.255775385259767 0 41.255775385259767 -1.3532860720697499 0 0 0 0 38.726446608598053 62.649737214091147 0 62.649737214091147 2.9525440711004194 0 0 0 0 26.383259677022579 43.656112914803089 0 43.656112914803089 22.830581575166434 0 0 0 0 37.500430426345702 59.918791063959361 0 59.918791063959361 10.385511836248043 0 0 0 0 64.550430147693987 49.143149519906729 0 49.143149519906729 -38.980406795453746 0 0 0 0 62.785260418848338 74.854917207769176 0 74.854917207769176 4.3779439302597893 0 0 0 0 35.287239632330966 44.767357449716656 0 44.767357449716656 -17.233440749056172 0 0 0 0 27.979798520587792 38.94877010001801 0 38.94877010001801 -12.968916089637787 0 0 0 0 46.552237057403545 2.7347099411854288 0 2.7347099411854288 -64.454767063965846 0 0 0 0 55.919706702274198 26.42692335267202 0 26.42692335267202 -41.607065019459696 0 0 0 0 -29.285324399292222 -47.796921495595598 0 -47.796921495595598 -34.408433927834267 0 0 0 0 -14.974421132221323 40.049885117376107 0 40.049885117376107 -71.727850194954954 0 0 0 0 31.200622438968821 22.484247000422329 0 22.484247000422329 -121.78348940545402 0 0 0 0 24.488922268763417 7.3415594350080937 0 7.3415594350080937 -49.39972033072263 0 0 0 0 8.9463337375827905 34.545914186859591 0 34.545914186859591 -28.012083909095963 0 0 0 0 30.890105594920897 33.79244043387007 0 33.79244043387007 -28.795655690104468 0 0 0 0 14.553491945422138 22.084495562827215 0 22.084495562827215 -13.276793765293405 0 0 0 0 31.058711696316095 46.100158615619875 0 46.100158615619875 -14.484948619356146 0 0 0 0 1.6926696299078685 12.859901446836375 0 12.859901446836375 -18.995165328669827 0 0 0 0 38.518742293901596 30.854974007314013 0 30.854974007314013 -44.384159814100713 0 0 0 0 16.301900933794968 16.788221581431571 0 16.788221581431571 -53.424804384536401 0 0 0 0 29.952412833437847 26.375620129067102 0 26.375620129067102 -56.25489359383937 0 0 0 0 8.1112443173151405 -23.61152640664659 0 -23.61152640664659 -88.654332292207982 0 0 0 0 -36.535987514278759 -83.901706454693795 0 -83.901706454693795 65.616437998440233 0 0 0 0 12.465381470812872 130.17959245458405 0 130.17959245458405 -7.4574263387185056 0 0 0 0 39.885895909637838 -1.419287212062045 0 -1.419287212062045 -132.25915513187647 0 0 0 0 29.044063709067796 -2.0799462036303566 0 -2.0799462036303566 -1.5052977962882608 0 0 0 0 126.01518706661955 15.906484313469264 0 15.906484313469264 -161.36737194938905 0 0 0 0 13.151107638452196 -2.7185706806704673 0 -2.7185706806704673 0.32438635899619328 0 0 0 0 426.55309799507086 27.877842663496267 0 27.877842663496267 -190.9058478743973 0 0 0 0 46.193651409695121 -40.252248006821901 0 -40.252248006821901 -6.7379289482487366 0 0 0 0 -86.009355786536389 -64.484363358889823 0 -64.484363358889823 -184.49296318358392 0 0 0 0 -35.920052545043063 26.828081076848321 0 26.828081076848321 -81.513888803892769 0 0 0 0 -127.93206933120133 32.939271679417288 0 32.939271679417288 2.8213949535565916 0 0 0 0 -11.04217113681932 91.206244498956949 0 91.206244498956949 -57.55388905314976 0 0 0 0 -66.333502166997732 -61.631032275419784 0 -61.631032275419784 -37.327169764379505 0 0 0 0 2.4510986699264024 11.593256956306874 0 11.593256956306874 0.79030636329387249 0 0 0 0 -58.057344634246874 21.690203168807784 0 21.690203168807784 26.675302077041124 0 0 0 0 9.6042860278916695 8.1369699206577835 0 8.1369699206577835 5.0692773884829307 0 0 0 0 -110.59972521109057 64.000704294448951 0 64.000704294448951 -7.3878393553022761 0 0 0 0 34.369341098597033 -19.523931206786074 0 -19.523931206786074 13.490569876692462 0 0 0 0 26.411967073409095 0.90923715934707161 0 0.90923715934707161 0.67846879214079081 0 0 0 0 46.123782445552933 33.434330604388379 0 33.434330604388379 -20.494250391562673 0 0 0 0 74.651681924304285 35.896734768510214 0 35.896734768510214 -31.889892438426614 0 0 0 0 50.227153187856857 28.903670153355051 0 28.903670153355051 -64.250192508694454 0 0 0 0 -9.0034555174461275 72.63164587423671 0 72.63164587423671 59.095830460952129 0 0 0 0 80.841237479902702 30.587659789853205 0 30.587659789853205 -28.030931522574974 0 0 0 0 -9.8932142754334471 23.006195460477123 0 23.006195460477123 10.638437955843301 0 0 0 0 39.841982624344382 22.777848613339302 0 22.777848613339302 -6.0891941511072218 0 0 0 0 54.756999480086961 39.838401165528921 0 39.838401165528921 -26.300691493641352 0 0 0 0 46.160714576002647 26.250782204941061 0 26.250782204941061 39.458873509138357 0 0 0 0 72.655050388510062 17.819762088271091 0 17.819762088271091 -4.4536041569081135 0 0 0 0 40.219911189538834 43.925660041306401 0 43.925660041306401 -13.036933882976882 0 0 0 0 -144.3668571153965 -69.127744598015852 0 -69.127744598015852 75.95193579995248 0 0 0 0 174.40409716953627 -239.87339036625963 0 -239.87339036625963 61.466456759546418 0 0 0 0 -82.583550538679106 117.14468661710634 0 117.14468661710634 63.152546891884413 0 0 0 0 -12.942522094939648 111.10466580417415 0 111.10466580417415 51.67889246957202 0 0 0 0 42.085316940879522 173.57632808378912 0 173.57632808378912 117.49262104817899 0 0 0 0 -36.693155942592 115.39467827457702 0 115.39467827457702 157.10451316555555 0 0 0 0 313.31603107227704 269.13854786209413 0 269.13854786209413 -63.127846119199603 0 0 0 0 -76.459047711432277 17.696074503575801 0 17.696074503575801 55.385929186682915 0 0 0 0 -35.573324282365093 64.95255385353812 0 64.95255385353812 98.583889508197899 0 0 0 0 0.17797524633935291 0.36017392080340738 0 0.36017392080340738 3.086719395743728 0 0 0 0 41.3059409878515 67.387530496132968 0 67.387530496132968 26.5013171335886 0 0 0 0 -12.7625609653083 21.372521595770657 0 21.372521595770657 21.305129434547041 0 0 0 0 36.710282443589676 63.40761363535421 0 63.40761363535421 39.43516200558345 0 0 0 0 56.239197908520225 75.322541123758128 0 75.322541123758128 34.174121702861157 0 0 0 0 41.254973181803564 2.8113689416877605 0 2.8113689416877605 57.671443046798231 0 0 0 0 -4.5423032000256853 -4.3263623121529236 0 -4.3263623121529236 -9.7149061033996986 0 0 0 0 28.43124305713603 15.419695417687763 0 15.419695417687763 -6.6343910381256137 0 0 0 0 0.85238483075490246 -2.1006851475522978 0 -2.1006851475522978 2.5632182179551251 0 0 0 0 -41.591291010141902 -54.507198147897725 0 -54.507198147897725 -9.5865040377702826 0 0 0 0 15.946718221529778 -23.40855734692741 0 -23.40855734692741 -77.524981751135783 0 0 0 0 114.01255534336485 100.68004635511898 0 100.68004635511898 -110.35949606015492 0 0 0 0 -29.957995592541579 24.309251762742861 0 24.309251762742861 7.4196158651611768 0 0 0 0 -0.49203833078763637 106.17650033532118 0 106.17650033532118 73.492638937794254 0 0 0 0 -10.048268115292444 92.291655821885797 0 92.291655821885797 68.704195551414159 0 0 0 0 21.417034164870984 138.88860403324361 0 138.88860403324361 72.443072656533332 0 0 0 0 -10.386473489483905 134.59794545712066 0 134.59794545712066 102.71954381503747 0 0 0 0 4.088650397360766 153.41302405737224 0 153.41302405737224 124.20431755112077 0 0 0 0 29.405751264269838 151.440487176631 0 151.440487176631 88.647781875508372 0 0 0 0 85.800859947663071 213.86450853956921 0 213.86450853956921 80.070027842324635 0 0 0 0 24.332582750091774 98.043279874174914 0 98.043279874174914 367.79670389871171 0 0 0 0 126.41856702226289 -175.29060223401757 0 -175.29060223401757 359.58415955628152 0 0 0 0 50.806536872080414 -384.80633375398611 0 -384.80633375398611 37.847378759142885 0 0 0 0 104.0478163122375 -61.072653520226595 0 -61.072653520226595 6.9558695903615444 0 0 0 0 108.1914568180172 23.510030459452537 0 23.510030459452537 0.71822809045261238 0 0 0 0 37.62206922857996 -9.8070920378559094 0 -9.8070920378559094 142.34329255172634 0 0 0 0 112.31113210520414 -57.515497748332564 0 -57.515497748332564 4.1630355545930797 0 0 0 0 -0.041419477894671416 -18.817451980066835 0 -18.817451980066835 -25.776408084046125 0 0 0 0 -62.242295125070704 302.20666514062941 0 302.20666514062941 415.71284394360555 0 0 0 0 0.33920987257117319 -1.2078933304661348 0 -1.2078933304661348 3.12759610483198 0 0 0 0 0.4115640738900801 -1.7197298883295744 0 -1.7197298883295744 5.3204762748423491 0 0 0 0 -33.18991533425276 332.39626475819387 0 332.39626475819387 353.57236530683622 0 0 0 0 138.02296982555902 -363.4151521227318 0 -363.4151521227318 191.58225191994279 0 0 0 0 -22.29896424428377 -47.85207171519869 0 -47.85207171519869 -29.948376261076191 0 0 0 0 1.478685002322228 -3.0567962577801779 0 -3.0567962577801779 4.7100621113810917 0 0 0 0 -13.377350200507742 -20.029579855057818 0 -20.029579855057818 -24.999556148406555 0 0 0 0 0.021919725202480585 -27.347258033860271 0 -27.347258033860271 -22.980720397012192 0 0 0 0 2.4667219543617449 -25.695958604686894 0 -25.695958604686894 -31.169187264634729 0 0 0 0 -42.39976797469788 -37.332667040093611 0 -37.332667040093611 11.563714887277456 0 0 0 0 28.812635372855844 -23.77647795300436 0 -23.77647795300436 14.142010599396599 0 0 0 0 -6.0399076071409974 -11.524257372944703 0 -11.524257372944703 10.011021472644643 0 0 0 0 0.016402901355466112 14.779000589521653 0 14.779000589521653 112.43863433407387 0 0 0 0 -21.787253120246952 -28.706118867019541 0 -28.706118867019541 1.1297312766109826 0 0 0 0 -26.205477021204594 -20.887632497397135 0 -20.887632497397135 101.1658040055554 0 0 0 0 -0.013669911677260897 -6.9945573540026089 0 -6.9945573540026089 2.5976798803312704 0 0 0 0 -0.0069805451839377447 -0.24800943477829662 0 -0.24800943477829662 0.82395632935885033 0 0 0 0 21.040227224594318 65.937879353485187 0 65.937879353485187 110.50782539722877 0 0 0 0 26.155514194052195 45.304228557855822 0 45.304228557855822 68.453407028109723 0 0 0 0 -5.1292781077515599 -9.417210907304252 0 -9.417210907304252 119.7283811589441 0 0 0 0 0.59740822566319096 -31.213915982582876 0 -31.213915982582876 41.459579996633693 0 0 0 0 -21.73234898409936 -8.1353565246608923 0 -8.1353565246608923 17.682846168898323 0 0 0 0 -23.417230642340144 -28.197011415715679 0 -28.197011415715679 -14.459345246150406 0 0 0 0 -42.126035140965826 -2.9149861005425919 0 -2.9149861005425919 43.763672157045221 0 0 0 0 -42.038851841888288 -9.6771982908976497 0 -9.6771982908976497 11.526127815639484 0 0 0 0 -44.432474133370647 13.580605747840309 0 13.580605747840309 34.752143056241039 0 0 0 0 -40.700628488377788 26.668598528252915 0 26.668598528252915 5.6084944250324043 0 0 0 0 -17.463738855171869 11.207526691141538 0 11.207526691141538 25.703620199332363 0 0 0 0 -9.5558343983313492 -1.6279141584418539 0 -1.6279141584418539 27.630782924679806 0 0 0 0 -25.722952712666824 2.3832036409621651 0 2.3832036409621651 36.852059193843161 0 0 0 0 -17.921131544274637 29.176530684249883 0 29.176530684249883 30.330130529509916 0 0 0 0 0.11088320259106152 -0.89046950838539374 0 -0.89046950838539374 2.1335597859446693 0 0 0 0 -11.538684878035895 -5.2365424075978808 0 -5.2365424075978808 41.951908260627533 0 0 0 0 -30.711159159394924 0.49475599405559478 0 0.49475599405559478 40.320679675573047 0 0 0 0 -0.68429340119588544 -0.4517179469767143 0 -0.4517179469767143 4.5547016782829246 0 0 0 0 -36.002044914520695 11.002007657047216 0 11.002007657047216 22.826551150385058 0 0 0 0 -15.185371632273649 -30.783600548624236 0 -30.783600548624236 -5.5709079738699074 0 0 0 0 0.01676831658111946 -9.8789767418347765 0 -9.8789767418347765 16.234463200606115 0 0 0 0 -1.4537557014229936 -15.3668980626353 0 -15.3668980626353 -18.245207127401954 0 0 0 0 -3.5847300901969597 4.5752387279135291 0 4.5752387279135291 -9.0491744916507741 0 0 0 0 -92.908566909115336 -116.32404802453129 0 -116.32404802453129 308.40200835495489 0 0 0 0 3.0658117912527132 1.3534746143159282 0 1.3534746143159282 64.072802848604624 0 0 0 0 0.28018721195122948 -158.89902561576673 0 -158.89902561576673 407.92492816274171 0 0 0 0 -123.7733249650199 -119.09038065421919 0 -119.09038065421919 70.452928900801908 0 0 0 0 -116.72383179843473 -66.348922537479666 0 -66.348922537479666 28.811403676998452 0 0 0 0 -4.8425877237333115 -0.48967736966341135 0 -0.48967736966341135 -0.57708527466803616 0 0 0 0 -25.315959821951878 -116.6552014572444 0 -116.6552014572444 -113.78120790891262 0 0 0 0 -92.480818305979597 -44.488942268199025 0 -44.488942268199025 170.3783167158108 0 0 0 0 -26.29890154024497 -2.0586679750558687 0 -2.0586679750558687 -6.1991377283266047 0 0 0 0 -44.303053847473166 -34.834950510434282 0 -34.834950510434282 21.973921332761165 0 0 0 0 -116.50302513059933 88.914402122070896 0 88.914402122070896 341.45471109140726 0 0 0 0 -123.98543352059141 71.296260071008874 0 71.296260071008874 304.11549465105054 0 0 0 0 -27.793398946007983 55.721203797624185 0 55.721203797624185 154.04451156691357 0 0 0 0 2.197730174863409 121.2452505966794 0 121.2452505966794 238.14650989460642 0 0 0 0 -81.076881224740191 116.2855671661946 0 116.2855671661946 355.27803811008926 0 0 0 0 -31.844966904068315 192.58626797374745 0 192.58626797374745 404.04092599974683 0 0 0 0 -75.653814469782589 130.39414380130802 0 130.39414380130802 331.99649953469634 0 0 0 0 -182.04339951525731 126.61114322923822 0 126.61114322923822 445.41850230144337 0 0 0 0 -12.199189079450434 383.00158838612697 0 383.00158838612697 632.87736658216454 0 0 0 0 -194.35723726871151 23.541057409216592 0 23.541057409216592 328.0562819078732 0 0 0 0 -29.743807307019154 434.35515647769716 0 434.35515647769716 689.07746968175343 0 0 0 0 -0.97268665039506574 -0.36998418082524154 0 -0.36998418082524154 2.3808643775529106 0 0 0 0 -53.528823111641259 57.595720508732484 0 57.595720508732484 336.27270827894972 0 0 0 0 -0.74639833139685741 -0.29076923682004008 0 -0.29076923682004008 2.2427681015333576 0 0 0 0 -0.57548419865280409 275.45111470375559 0 275.45111470375559 718.62212756105873 0 0 0 0 110.08576447648795 525.66176715806068 0 525.66176715806068 733.86283464317967 0 0 0 0 2.1559411667863655 -269.6705667818751 0 -269.6705667818751 471.07994157621579 0 0 0 0 0.023575260280122017 -13.985759953407978 0 -13.985759953407978 -21.353056822204962 0 0 0 0 -0.13971713264052518 0.094167059509118189 0 0.094167059509118189 4.8410308050690674 0 0 0 0 337.43698921696983 582.94795899899327 0 582.94795899899327 541.74779879218841 0 0 0 0 287.60949250036856 441.26280214367216 0 441.26280214367216 437.1421860588307 0 0 0 0 115.51573582497088 155.53389338276611 0 155.53389338276611 98.945475090818945 0 0 0 0 -83.311113187315073 244.65902721681778 0 244.65902721681778 633.17050069666584 0 0 0 0 -51.175877554124213 209.06691323893392 0 209.06691323893392 124.76818524542614 0 0 0 0 -272.23566352612113 5.2387211455934448 0 5.2387211455934448 217.59855788222558 0 0 0 0 -0.38386183756067627 -2.1898844066967555 0 -2.1898844066967555 10.801022697833616 0 0 0 0 -112.87845896461059 -131.00399028601078 0 -131.00399028601078 -51.860795359214535 0 0 0 0 -0.32721232402846023 -95.784840143700421 0 -95.784840143700421 -92.817106926173437 0 0 0 0 -99.2616732270358 -41.168983670431771 0 -41.168983670431771 -25.962390605520341 0 0 0 0 -92.384378659023156 -43.764217859628843 0 -43.764217859628843 -72.929154407382157 0 0 0 0 -56.28367410165086 -132.72949755725131 0 -132.72949755725131 -91.984847743267892 0 0 0 0 -510.08828338103808 -225.68194483393745 0 -225.68194483393745 209.40613920864416 0 0 0 0 -249.61503815623155 -101.54749485052889 0 -101.54749485052889 220.82658981296117 0 0 0 0 -84.201168756708057 -101.94619263204368 0 -101.94619263204368 -37.831425225762359 0 0 0 0 -0.03832045918759186 -3.3407541289589773 0 -3.3407541289589773 11.863314255849673 0 0 0 0 0.86866969319517695 -178.74395953051862 0 -178.74395953051862 101.02876256451418 0 0 0 0 -196.55593749212824 -195.02482687487645 0 -195.02482687487645 312.905393203524 0 0 0 0 6.7589457205064596 -0.50744207409587716 0 -0.50744207409587716 1.4431786158680922 0 0 0 0 129.5982752758631 14.19653144802578 0 14.19653144802578 24.021389605375589 0 0 0 0 69.633992744189072 -136.0728001180978 0 -136.0728001180978 368.15767875603342 0 0 0 0 333.6022678695258 -43.526763576337544 0 -43.526763576337544 -30.583535218851466 0 0 0 0 -296.25456620387763 71.366668944290723 0 71.366668944290723 328.79663013123354 0 0 0 0 409.2531979103743 -314.17605457550235 0 -314.17605457550235 -88.092653846062603 0 0 0 0 165.59916561481691 214.46259300216479 0 214.46259300216479 111.96165711554204 0 0 0 0 411.29246553673136 -86.577957838922885 0 -86.577957838922885 228.62722511663742 0 0 0 0 265.6461971577196 -278.29647271084832 0 -278.29647271084832 281.97662895379472 0 0 0 0 117.70635213220385 -208.70993928590906 0 -208.70993928590906 343.7246636604541 0 0 0 0 59.798116224879095 -154.29245811116562 0 -154.29245811116562 327.72220389138965 0 0 0 0 131.43306961732378 -52.216902002284769 0 -52.216902002284769 472.85003149077238 0 0 0 0 -16.821639089272139 88.970347814698471 0 88.970347814698471 324.48112734218012 0 0 0 0 60.392332079774405 103.71933053020621 0 103.71933053020621 154.68137031408696 0 0 0 0 -26.830268014392914 219.5122763958716 0 219.5122763958716 351.84154778061747 0 0 0 0 -75.25260290762597 192.60516340085633 0 192.60516340085633 481.564985786943 0 0 0 0 -91.474611663556402 135.98054241944101 0 135.98054241944101 524.02763102977769 0 0 0 0 -8.2898700972682491 61.351543720411428 0 61.351543720411428 406.80771339853527 0 0 0 0 -33.869303963985644 168.47874010893702 0 168.47874010893702 603.65283810145047 0 0 0 0 -22.4362084628292 127.76738166394352 0 127.76738166394352 977.00065672741039 0 0 0 0 -16.362369186219041 11.574533757926474 0 11.574533757926474 703.21753432656988 0 0 0 0 11.811581180159919 60.750198480323888 0 60.750198480323888 585.71779295402121 0 0 0 0 284.91720962101681 121.37260541271826 0 121.37260541271826 -343.16007189593802 0 0 0 0 1.8679381025144259 0.16270117416439689 0 0.16270117416439689 6.9308928752189445 0 0 0 0 213.04859131910962 436.22040757692594 0 436.22040757692594 804.87768184416927 0 0 0 0 108.40357691263534 -55.275390662180143 0 -55.275390662180143 1170.4093252316525 0 0 0 0 751.01730016945294 29.814730367826996 0 29.814730367826996 996.77253375379951 0 0 0 0 525.43929816687887 433.82782916604629 0 433.82782916604629 2578.1992034941795 0 0 0 0 141.42416062572738 -797.43184236087836 0 -797.43184236087836 2609.8647037247429 0 0 0 0 526.91527975574809 51.412294332374586 0 51.412294332374586 1287.5773513725726 0 0 0 0 298.45216868681473 -600.4258466977335 0 -600.4258466977335 1022.721384375589 0 0 0 0 292.57042768643805 53.80334504970233 0 53.80334504970233 1793.8496403157478 0 0 0 0 350.78666501196585 -830.02784757003246 0 -830.02784757003246 1955.1463334572618 0 0 0 0 232.74210368541389 -39.58413481633761 0 -39.58413481633761 748.63723169181321 0 0 0 0 616.52759561987659 107.82883445243351 0 107.82883445243351 776.89341585183865 0 0 0 0 310.61203167884742 -63.169223421093193 0 -63.169223421093193 1245.9254459216827 0 0 0 0 300.60918458057677 -212.67612410969741 0 -212.67612410969741 1078.8431434947124 0 0 0 0 241.16323235882192 -64.636645333128399 0 -64.636645333128399 755.45784740382805 0 0 0 0 123.32232960732836 -82.16258707313682 0 -82.16258707313682 500.22291358354141 0 0 0 0 385.52271664020964 -75.653644695637922 0 -75.653644695637922 500.0019563063106 0 0 0 0 140.50137602460973 -189.27331269689603 0 -189.27331269689603 759.83147734054364 0 0 0 0 378.51360154211079 19.979223455906322 0 19.979223455906322 460.134083264129 0 0 0 0 25.071309857840788 -127.85758411302231 0 -127.85758411302231 531.60969439326436 0 0 0 0 25.741586073973394 -113.86913625028683 0 -113.86913625028683 745.47084391725366 0 0 0 0 141.45838430658205 -195.1661598222563 0 -195.1661598222563 800.72020900344069 0 0 0 0 167.82008743131655 -188.30638556633494 0 -188.30638556633494 549.54159057966899 0 0 0 0 11.553549621656202 -176.67248614526761 0 -176.67248614526761 554.64926868656767 0 0 0 0 45.359346218194332 -168.41393048707687 0 -168.41393048707687 561.94417958162376 0 0 0 0 74.14971316969104 -202.32586114614969 0 -202.32586114614969 378.26578436864656 0 0 0 0 44.405826186728746 -320.83982086506876 0 -320.83982086506876 274.28937325027073 0 0 0 0 -138.43789830590322 -194.29745451342023 0 -194.29745451342023 378.10952072974942 0 0 0 0 -20.246308109925394 18.527701581675501 0 18.527701581675501 133.97593088421854 0 0 0 0 148.96933431178968 35.317252336826641 0 35.317252336826641 240.59784858199419 0 0 0 0 203.34595904335129 -81.983558076535701 0 -81.983558076535701 346.54513512071571 0 0 0 0 71.478556270747504 -140.74995810991095 0 -140.74995810991095 329.56027906760573 0 0 0 0 282.74000255999545 -77.343712653397233 0 -77.343712653397233 313.79883636758314 0 0 0 0 190.02629808457846 95.642992611930822 0 95.642992611930822 433.55233433149988 0 0 0 0 153.23281977954719 -78.508292524940771 0 -78.508292524940771 134.78722855844535 0 0 0 0 187.05185389018794 76.874546508262938 0 76.874546508262938 147.22271444447688 0 0 0 0 78.449959999849852 27.540241027003503 0 27.540241027003503 48.685472117344034 0 0 0 0 111.42821397679552 -92.723980963784925 0 -92.723980963784925 -56.19769860219094 0 0 0 0 107.33698243706226 -140.35829674568595 0 -140.35829674568595 -173.39429015382484 0 0 0 0 30.149572988294757 -1.87785339924298 0 -1.87785339924298 -1.3716190118588969 0 0 0 0 102.35227557979124 -24.020889516439638 0 -24.020889516439638 -127.57925244466605 0 0 0 0 186.23044554523312 -77.869612203445286 0 -77.869612203445286 -103.98566017569101 0 0 0 0 83.067457601416663 -41.992765301285544 0 -41.992765301285544 82.175013586558634 0 0 0 0 -91.228693957468977 5.2406629827164579 0 5.2406629827164579 33.647307860330329 0 0 0 0 16.622245063271293 64.352151717495872 0 64.352151717495872 49.819406291906489 0 0 0 0 6.6687052855004936 0.59879175503174054 0 0.59879175503174054 -1.2486961520051523 0 0 0 0 -266.40538428888703 -113.23243561493291 0 -113.23243561493291 -43.518875439738622 0 0 0 0 89.532543976029046 68.735563440164697 0 68.735563440164697 80.59450360952178 0 0 0 0 88.481189698372987 85.686753749141644 0 85.686753749141644 94.113641643139999 0 0 0 0 143.72040534584596 123.29423268428945 0 123.29423268428945 88.72693104899372 0 0 0 0 130.97359650054386 90.022226512097404 0 90.022226512097404 -62.549660359421978 0 0 0 0 106.44186536883899 115.49878700188128 0 115.49878700188128 -61.267095339251682 0 0 0 0 2.5222625886153764 123.39446852964466 0 123.39446852964466 -59.652590402882197 0 0 0 0 -132.78242681632628 -0.94356646372762043 0 -0.94356646372762043 23.940451101952931 0 0 0 0 0.50727867075420363 -34.95428240338515 0 -34.95428240338515 25.84070379503828 0 0 0 0 184.76638133232973 51.271739887073636 0 51.271739887073636 45.993696969126177 0 0 0 0 64.047325048703669 40.453335825812246 0 40.453335825812246 208.92437585978769 0 0 0 0 184.54916368158047 -21.881838197281468 0 -21.881838197281468 274.94684959501319 0 0 0 0 208.80734608790235 151.30923876996167 0 151.30923876996167 265.91272700270929 0 0 0 0 118.02844745811262 24.800249125692062 0 24.800249125692062 426.98406853927008 0 0 0 0 139.53227238386171 134.18963178402919 0 134.18963178402919 367.25851499798591 0 0 0 0 157.67955921334715 109.16266353422543 0 109.16266353422543 83.222798887883073 0 0 0 0 109.60587730804968 144.01939447862969 0 144.01939447862969 220.1286866068549 0 0 0 0 129.57325112842818 61.569092715115403 0 61.569092715115403 273.45159556911676 0 0 0 0 120.32371236000245 -19.694399618747411 0 -19.694399618747411 456.80324813383049 0 0 0 0 95.20176810042085 15.24202819760103 0 15.24202819760103 588.75609338073991 0 0 0 0 169.51011988935898 111.64223575247161 0 111.64223575247161 762.31669721455546 0 0 0 0 215.09993813812252 117.8266658988141 0 117.8266658988141 484.28592145556468 0 0 0 0 126.52999977497029 -55.023356007310213 0 -55.023356007310213 680.95179057661153 0 0 0 0 133.19107217359283 27.434925747082161 0 27.434925747082161 830.63227823906345 0 0 0 0 235.74975788160646 -48.22731714611291 0 -48.22731714611291 789.21649619988239 0 0 0 0 119.1581704830287 -239.01664700279798 0 -239.01664700279798 965.14741872050217 0 0 0 0 147.02054687288091 -392.55352369773027 0 -392.55352369773027 1458.5251228979323 0 0 0 0 279.32694290392146 -116.18614107821486 0 -116.18614107821486 1147.4586081391317 0 0 0 0 255.51644679629351 121.81574396487486 0 121.81574396487486 1220.9333751106751 0 0 0 0 139.78477932234455 -245.04950962784642 0 -245.04950962784642 927.30184892719262 0 0 0 0 312.88777221383225 -454.41054155236634 0 -454.41054155236634 817.73709592454543 0 0 0 0 128.22293776830313 -102.82943401297916 0 -102.82943401297916 458.11810477415565 0 0 0 0 103.2502182164078 -159.29754142580714 0 -159.29754142580714 737.99021534102212 0 0 0 0 134.38517263319272 -162.74166904867161 0 -162.74166904867161 694.47597841140669 0 0 0 0 3.4972227708109358 -8.1636502698092954 0 -8.1636502698092954 105.54415152185538 0 0 0 0 214.6318739427179 -376.8776978083406 0 -376.8776978083406 727.82261552478076 0 0 0 0 3.0269692475646934 1.3077877774121589 0 1.3077877774121589 40.164758447815984 0 0 0 0 191.58911137027496 -275.00775788391456 0 -275.00775788391456 482.27590684920142 0 0 0 0 -10.267117492383932 -20.368501403412665 0 -20.368501403412665 61.268860536387365 0 0 0 0 191.5976022418522 -359.13900753169582 0 -359.13900753169582 816.49628132158387 0 0 0 0 1.9280981406419215 -5.623483136280953 0 -5.623483136280953 -4.8308310799055789 0 0 0 0 -0.92266279659224892 148.11178675365227 0 148.11178675365227 179.99734353245003 0 0 0 0 0.45319584345636232 -1.7426501102619421 0 -1.7426501102619421 33.600286124213596 0 0 0 0 -136.32280188498271 -4.6965205479682481 0 -4.6965205479682481 268.37729345369735 0 0 0 0 110.6422121581395 250.99077835221397 0 250.99077835221397 309.00526442192495 0 0 0 0 100.435177262259 77.881858734421257 0 77.881858734421257 216.24399854098738 0 0 0 0 59.179737453628604 34.332251530111535 0 34.332251530111535 -3.327298578195041 0 0 0 0 -20.290146317115159 61.614725172592443 0 61.614725172592443 222.46791894309354 0 0 0 0 -2.356591709966497 -2.1920823358572683 0 -2.1920823358572683 48.266319109996573 0 0 0 0 -74.406989690858609 -36.0738733401231 0 -36.0738733401231 65.064850897393626 0 0 0 0 -26.957802226799366 -55.396372285871593 0 -55.396372285871593 15.019729313949938 0 0 0 0 -19.282583469648671 4.8844694892395637 0 4.8844694892395637 82.353101181663078 0 0 0 0 -9.5117637818103624 1.4699137798338029 0 1.4699137798338029 11.716718932166089 0 0 0 0 -470.25851776345985 -250.81648600993867 0 -250.81648600993867 8.2842516412856639 0 0 0 0 -197.13749410445416 -203.31305607969261 0 -203.31305607969261 -122.95861131784477 0 0 0 0 -184.7315012259858 -246.40223692462314 0 -246.40223692462314 -108.98200993360661 0 0 0 0 -0.49590395489681871 1.1762511795700732 0 1.1762511795700732 -1.3712296559304207 0 0 0 0 -38.444060937177483 -398.57830628599186 0 -398.57830628599186 -451.20875145041282 0 0 0 0 -25.122863487643926 -0.17287054838368476 0 -0.17287054838368476 80.150432041351451 0 0 0 0 -5.1993507093923448 1.8272837701490516 0 1.8272837701490516 15.029247863982874 0 0 0 0 120.20798251070289 136.205748556662 0 136.205748556662 -616.33896577451196 0 0 0 0 -0.88458550231145949 -1.5389566888945438 0 -1.5389566888945438 -1.0206714544284523 0 0 0 0 -48.793257764716145 -152.160323358592 0 -152.160323358592 -294.27756161000434 0 0 0 0 128.73930055915554 -48.517864792709588 0 -48.517864792709588 -236.66195049239468 0 0 0 0 119.22117001181959 -274.94393015535024 0 -274.94393015535024 -204.69445718811039 0 0 0 0 369.11026761594354 -84.18414590514476 0 -84.18414590514476 -594.6945101832971 0 0 0 0 330.10239283113572 -258.9817798541917 0 -258.9817798541917 -304.90567991684657 0 0 0 0 259.56397997446447 -28.991174924307415 0 -28.991174924307415 -40.79204538113845 0 0 0 0 331.72241769973789 -36.599446870073734 0 -36.599446870073734 -203.48615098762593 0 0 0 0 428.2172465866804 -268.90614389217808 0 -268.90614389217808 -183.66470886143225 0 0 0 0 380.97547447333915 -547.33587697823486 0 -547.33587697823486 479.55646424675069 0 0 0 0 284.23708519454726 -221.13791270422735 0 -221.13791270422735 243.82706024017534 0 0 0 0 61.470830146262415 -69.927920911854017 0 -69.927920911854017 163.17764619319314 0 0 0 0 108.64729321806408 -58.078919609459263 0 -58.078919609459263 129.54204785532784 0 0 0 0 176.53496888515656 -172.86609527716064 0 -172.86609527716064 138.94324676178076 0 0 0 0 -44.165272799205923 32.9674158343405 0 32.9674158343405 170.81483523950737 0 0 0 0 36.261355688965182 22.312565666908995 0 22.312565666908995 134.68433153175283 0 0 0 0 95.916731927443834 -44.787584639751003 0 -44.787584639751003 246.86445240141381 0 0 0 0 285.24119243541116 -255.03892035180615 0 -255.03892035180615 372.94400894982391 0 0 0 0 202.65394567454882 -158.56836941416623 0 -158.56836941416623 295.85428047348978 0 0 0 0 138.88598906856828 -180.8933997155691 0 -180.8933997155691 428.15662610012077 0 0 0 0 179.57805836449938 -227.30201581563233 0 -227.30201581563233 452.62380256032338 0 0 0 0 0.2626578946601259 -4.2497535311063643 0 -4.2497535311063643 -4.642865100254653 0 0 0 0 -78.232986690879557 -151.19178577605817 0 -151.19178577605817 -26.453343261149712 0 0 0 0 218.52916374427463 -338.48261183952854 0 -338.48261183952854 519.86792044028698 0 0 0 0 169.11357356517527 -140.48601272920132 0 -140.48601272920132 366.11903785535833 0 0 0 0 133.00394804973132 -207.98077643888973 0 -207.98077643888973 588.69699832711922 0 0 0 0 125.85705429773623 -123.02583743393188 0 -123.02583743393188 402.75487961494946 0 0 0 0 103.92622005173087 -29.681448149446624 0 -29.681448149446624 274.46056646459328 0 0 0 0 121.97879050179714 -16.317994304441527 0 -16.317994304441527 232.00958715996239 0 0 0 0 104.05700910261174 15.895979087443266 0 15.895979087443266 333.39166690887578 0 0 0 0 140.43205865963438 -4.667706072988949 0 -4.667706072988949 300.7117524799105 0 0 0 0 98.39296550285178 -12.482206335280353 0 -12.482206335280353 536.20264229066379 0 0 0 0 117.93066034466366 87.488763316410768 0 87.488763316410768 315.00366465464504 0 0 0 0 152.25818475073407 115.10611313264053 0 115.10611313264053 185.81329421306145 0 0 0 0 117.88942754718937 142.41681563023303 0 142.41681563023303 179.74650168282096 0 0 0 0 101.25898590606221 73.006261121525313 0 73.006261121525313 227.65621449404807 0 0 0 0 131.94835283993854 82.034300583931326 0 82.034300583931326 148.68805350910407 0 0 0 0 76.822634498535763 20.7303561044464 0 20.7303561044464 140.43245576937625 0 0 0 0 133.7128152911493 79.251078578514353 0 79.251078578514353 99.254288659823942 0 0 0 0 132.98413295305727 78.023319054438616 0 78.023319054438616 144.60455926328723 0 0 0 0 176.12761611958638 129.31550959212473 0 129.31550959212473 97.745359840882884 0 0 0 0 197.33330692445884 76.11845258347239 0 76.11845258347239 47.647459092375357 0 0 0 0 239.08746296714799 136.19491639929765 0 136.19491639929765 41.652746324311011 0 0 0 0 179.61031737016688 114.79515110088323 0 114.79515110088323 62.100243427732494 0 0 0 0 136.4095746477725 145.81987770766136 0 145.81987770766136 86.80053741694428 0 0 0 0 115.60386798323725 158.39107103229617 0 158.39107103229617 130.47008112759067 0 0 0 0 42.738447167731522 63.341413808666402 0 63.341413808666402 39.349309632307268 0 0 0 0 119.5063758224876 133.12516319322458 0 133.12516319322458 78.589344950356463 0 0 0 0 135.38988598935973 108.21371386402461 0 108.21371386402461 115.03071353072301 0 0 0 0 157.98051769598996 151.50388609044603 0 151.50388609044603 87.870511996181449 0 0 0 0 -192.96879618351613 50.295154935061873 0 50.295154935061873 123.71611449403281 0 0 0 0 -409.44740641288354 52.835772624952369 0 52.835772624952369 99.682260842379037 0 0 0 0 -249.50959204493302 126.64767023315835 0 126.64767023315835 100.57588080540881 0 0 0 0 -178.62483694197363 -136.96392723351892 0 -136.96392723351892 18.555683159367135 0 0 0 0 82.606062300686062 38.568304659936985 0 38.568304659936985 50.872872215084499 0 0 0 0 93.646295843809185 18.54143073062005 0 18.54143073062005 30.962321500963299 0 0 0 0 69.494621185800042 51.603898589048185 0 51.603898589048185 88.723814567798399 0 0 0 0 53.369727865889672 -4.9549203414499061 0 -4.9549203414499061 44.906683766716014 0 0 0 0 -119.43697613494459 28.803587126923958 0 28.803587126923958 131.91256913778489 0 0 0 0 36.93694600814456 63.038520952410181 0 63.038520952410181 157.01433148275828 0 0 0 0 -38.326391275254537 7.0380226986453636 0 7.0380226986453636 131.21975419094724 0 0 0 0 -115.07898274307399 48.967985109840811 0 48.967985109840811 176.64724571748229 0 0 0 0 -66.00245898957678 79.505548256747716 0 79.505548256747716 118.18377690124908 0 0 0 0 -132.66312337780141 93.888120188756147 0 93.888120188756147 127.14280637985212 0 0 0 0 -270.48376216545444 198.73919488656975 0 198.73919488656975 97.609305183985271 0 0 0 0 -126.33465206057662 134.61446238482267 0 134.61446238482267 122.22689847600122 0 0 0 0 -31.167070617487752 9.7384990372083848 0 9.7384990372083848 201.79580986722067 0 0 0 0 -54.460609717564353 91.000430991130997 0 91.000430991130997 144.73544635387952 0 0 0 0 62.341586659046925 40.281175792857539 0 40.281175792857539 228.00627951757633 0 0 0 0 17.358947622004507 -0.48546580577385612 0 -0.48546580577385612 191.07024124672171 0 0 0 0 -30.002681842241145 76.944730386443553 0 76.944730386443553 166.15095659514191 0 0 0 0 69.180163421470752 -57.065226479979174 0 -57.065226479979174 253.86905709008533 0 0 0 0 46.808613884026954 34.836425684011374 0 34.836425684011374 185.7337174705317 0 0 0 0 52.523348729148438 -70.733951832851744 0 -70.733951832851744 248.23086921873619 0 0 0 0 -83.71003143973212 35.764834534871625 0 35.764834534871625 199.21020380625851 0 0 0 0 -92.213735541680762 86.231323011983477 0 86.231323011983477 116.03219385816192 0 0 0 0 -127.44429948025027 66.599732569680782 0 66.599732569680782 154.54552900078124 0 0 0 0 -138.21476161211467 69.992328417749377 0 69.992328417749377 132.6842086630204 0 0 0 0 -243.75796689328126 113.58005109475198 0 113.58005109475198 100.86017843199079 0 0 0 0 -124.5040647641672 76.59387605858501 0 76.59387605858501 90.155449011799647 0 0 0 0 -181.27138584185195 111.38503885682439 0 111.38503885682439 122.44165127784072 0 0 0 0 -184.98051689880958 96.345315037171531 0 96.345315037171531 66.743057628933457 0 0 0 0 -243.81996691065433 120.50250795240572 0 120.50250795240572 98.309468010796991 0 0 0 0 -183.91725474738155 148.02634707508696 0 148.02634707508696 59.581639773168718 0 0 0 0 -214.59243702089225 168.81648573489656 0 168.81648573489656 83.487669216279755 0 0 0 0 -127.69474296295812 78.068542987086403 0 78.068542987086403 166.54504866449861 0 0 0 0 -147.28131242088693 139.58046875324362 0 139.58046875324362 114.4409587439095 0 0 0 0 -175.94746264853643 121.42831299827048 0 121.42831299827048 109.72447581253073 0 0 0 0 -181.17661891969874 125.17855886234611 0 125.17855886234611 143.435554450989 0 0 0 0 -187.9992300645099 185.91025225655358 0 185.91025225655358 82.523432982678059 0 0 0 0 -184.12847456490726 176.37159115629038 0 176.37159115629038 59.76385523735371 0 0 0 0 -197.36739870334532 168.88076043649926 0 168.88076043649926 117.13633973015021 0 0 0 0 -193.63412523190254 163.71866307069649 0 163.71866307069649 69.026771555247251 0 0 0 0 -192.64757680072216 163.01355503200466 0 163.01355503200466 27.670208750932943 0 0 0 0 -189.01688991758965 180.98837039338832 0 180.98837039338832 71.196634343172263 0 0 0 0 -97.117398642399621 163.49548522374971 0 163.49548522374971 -69.667850587982684 0 0 0 0 -159.83505073470633 208.71989468689208 0 208.71989468689208 -20.804092951671919 0 0 0 0 -138.81912465328878 171.84766635938649 0 171.84766635938649 21.928114291542443 0 0 0 0 -135.2936925777085 230.48921024719311 0 230.48921024719311 -30.641378704211093 0 0 0 0 -77.065524522149644 209.00874512120208 0 209.00874512120208 -78.121996378904441 0 0 0 0 -150.06979963312006 273.07402321731206 0 273.07402321731206 -87.481637884618976 0 0 0 0 -190.70623955102837 203.23514894334949 0 203.23514894334949 46.159074499897542 0 0 0 0 -259.15743275597379 255.94147408060962 0 255.94147408060962 40.188472212743363 0 0 0 0 -388.21433840889404 367.04225528911047 0 367.04225528911047 -51.640103407593415 0 0 0 0 -201.3025198516807 210.02644858630083 0 210.02644858630083 52.87380587437292 0 0 0 0 -8.4432737013830774 15.336118568273378 0 15.336118568273378 46.890451969025889 0 0 0 0 2.3642435875121919 0.34879483900476771 0 0.34879483900476771 41.296421040358837 0 0 0 0 -5.8481980418834318 9.7578184361654223 0 9.7578184361654223 44.34554738983104 0 0 0 0 -1.6803548225223697 20.376562614728925 0 20.376562614728925 17.589519722045338 0 0 0 0 -6.698286078677711 13.42821698861917 0 13.42821698861917 37.220597715611802 0 0 0 0 -4.0613389103712976 7.5067262831358335 0 7.5067262831358335 33.681899884235492 0 0 0 0 -6.9294663701563994 -0.94370523503056347 0 -0.94370523503056347 43.628486347530384 0 0 0 0 -145.79495746878092 57.790546900818299 0 57.790546900818299 64.613921849493636 0 0 0 0 -139.68371072832815 116.14223864256201 0 116.14223864256201 5.8030779498512857 0 0 0 0 -134.43763441637384 135.53359706461197 0 135.53359706461197 -54.938346915550937 0 0 0 0 -180.36525507148917 136.47112239568378 0 136.47112239568378 76.76222735956253 0 0 0 0 -229.74065136543868 148.16117771042627 0 148.16117771042627 74.020745779489516 0 0 0 0 -220.70242436690569 146.04357452302793 0 146.04357452302793 57.875198108959012 0 0 0 0 -258.07689622093858 45.67379126232845 0 45.67379126232845 114.00379684167274 0 0 0 0 -109.21560776884508 58.184357817670389 0 58.184357817670389 52.505758291314123 0 0 0 0 -39.848742592076633 -84.436167958006081 0 -84.436167958006081 56.747021611372475 0 0 0 0 -3.7129694428489732 -0.45220575851381106 0 -0.45220575851381106 74.151077592862066 0 0 0 0 -0.34099258851162872 -1.6117202665816706 0 -1.6117202665816706 21.919917103937337 0 0 0 0 -7.3456846500472448 1.9952930592526661 0 1.9952930592526661 80.775507549841961 0 0 0 0 -53.280407202497372 -67.043153433260159 0 -67.043153433260159 163.86892008409632 0 0 0 0 -344.3460480605188 -284.23699593642596 0 -284.23699593642596 383.7153959453135 0 0 0 0 -393.36760053631963 234.01054844508599 0 234.01054844508599 -11.112561783738784 0 0 0 0 -4.5759436336748465 -4.6921071330615547 0 -4.6921071330615547 13.1097000553859 0 0 0 0 -222.76567045013144 137.07652776782925 0 137.07652776782925 46.144530504738213 0 0 0 0 -231.24097588989935 139.42111423888127 0 139.42111423888127 64.319322616152931 0 0 0 0 -380.95092210248913 100.99044627555122 0 100.99044627555122 64.286186975703458 0 0 0 0 -331.05579096932615 88.147267265514529 0 88.147267265514529 91.533849865707452 0 0 0 0 -247.86921550561965 144.27072504753596 0 144.27072504753596 32.343678289660602 0 0 0 0 -273.42770818462304 70.615233378877747 0 70.615233378877747 39.565744011029892 0 0 0 0 -317.87378757838633 111.38527961450018 0 111.38527961450018 -24.367213612019441 0 0 0 0 -297.7247160823481 64.154026342599536 0 64.154026342599536 1.9388821638276568 0 0 0 0 -324.41920087048766 90.160195394219045 0 90.160195394219045 49.857153226199443 0 0 0 0 -1.008262772659152 6.2245328466245393 0 6.2245328466245393 14.657139507427814 0 0 0 0 -301.44074234157415 -4.3440622915823042 0 -4.3440622915823042 24.98177239150391 0 0 0 0 -188.81971722895014 -115.30329381669071 0 -115.30329381669071 125.97038307110051 0 0 0 0 -309.84137225909262 -18.378620186667831 0 -18.378620186667831 119.51687105491874 0 0 0 0 -311.05362535005224 52.19931236695993 0 52.19931236695993 70.549255889054621 0 0 0 0 -278.95173001683906 63.671492896988639 0 63.671492896988639 99.691786880650398 0 0 0 0 -342.69348207279563 126.81530488957651 0 126.81530488957651 99.134776860126294 0 0 0 0 -431.97343070245188 -10.14863717793196 0 -10.14863717793196 164.22441887231253 0 0 0 0 -252.54458314064595 92.506565868257894 0 92.506565868257894 91.754296736253309 0 0 0 0 -311.60398337237802 46.763435664590361 0 46.763435664590361 99.799465319389128 0 0 0 0 -271.90986747343959 95.644232721970184 0 95.644232721970184 71.470551375750802 0 0 0 0 -191.10230653716735 94.528871899972728 0 94.528871899972728 92.249097518157214 0 0 0 0 -251.44550740280465 57.284367075095361 0 57.284367075095361 94.498805051296586 0 0 0 0 -175.3216121859864 49.130651639137795 0 49.130651639137795 134.28788610213087 0 0 0 0 -207.39196879122028 40.343006012502883 0 40.343006012502883 103.81306024829973 0 0 0 0 -44.233035887422375 25.310636369336862 0 25.310636369336862 121.47043939880677 0 0 0 0 -102.44745652695929 20.328280183923198 0 20.328280183923198 120.82001291864344 0 0 0 0 -115.52446621538729 79.702800906867196 0 79.702800906867196 115.52070892530901 0 0 0 0 -72.040361132756516 20.651939038551063 0 20.651939038551063 88.897638950344117 0 0 0 0 -27.21628589766533 45.974720352998702 0 45.974720352998702 74.125751954721636 0 0 0 0 -159.5750262241645 87.247742307648878 0 87.247742307648878 80.577820867038099 0 0 0 0 -64.654980737275764 34.729677794057352 0 34.729677794057352 48.268768165966321 0 0 0 0 -170.22381263312764 129.47629815022447 0 129.47629815022447 4.6728939192253165 0 0 0 0 -214.63745902145638 99.207381807791535 0 99.207381807791535 4.9684733145113569 0 0 0 0 130.06059293654414 -13.65853618406436 0 -13.65853618406436 -50.927751328708837 0 0 0 0 61.333374630516118 -3.5329290371446405 0 -3.5329290371446405 -51.33306491631447 0 0 0 0 282.3273682034287 84.5357613704291 0 84.5357613704291 -48.738809247188328 0 0 0 0 52.263413386595346 133.23273134321153 0 133.23273134321153 -133.56478764640633 0 0 0 0 44.768655938361917 32.446499333658721 0 32.446499333658721 -75.254338876853581 0 0 0 0 -125.86883172248599 100.88635907404387 0 100.88635907404387 -31.196548233911017 0 0 0 0 -116.98739844749593 156.24908612917079 0 156.24908612917079 -245.09259768592892 0 0 0 0 -488.38860279831897 164.07145249142923 0 164.07145249142923 -84.241889397570048 0 0 0 0 -428.92244768430101 77.698913660831749 0 77.698913660831749 -39.842463920118462 0 0 0 0 -753.61511654957121 340.45394120325727 0 340.45394120325727 -110.06751211278606 0 0 0 0 -385.75181337073809 108.04411007139424 0 108.04411007139424 -313.72777936862667 0 0 0 0 -371.48788683208295 562.97757913390524 0 562.97757913390524 -834.56649171531899 0 0 0 0 -1.2897205772283087 -0.86457084177447996 0 -0.86457084177447996 7.3236439913525366 0 0 0 0 -218.31095269619982 287.21760655581602 0 287.21760655581602 -338.58593122166349 0 0 0 0 -4.3340120016573316 -1.975093149100033 0 -1.975093149100033 7.9509472453504202 0 0 0 0 -87.191463087812735 -87.283277810493018 0 -87.283277810493018 410.0026758134627 0 0 0 0 -760.1946931401726 513.17461245696177 0 513.17461245696177 -339.2883941523105 0 0 0 0 -830.09081536594931 479.89577909016953 0 479.89577909016953 -252.08536776198889 0 0 0 0 -459.97188434285272 -160.4510724607826 0 -160.4510724607826 398.73729381087469 0 0 0 0 -752.90813233549488 -5.7826940885061049 0 -5.7826940885061049 338.93403413577471 0 0 0 0 -282.16572697097763 -8.9808453769219341 0 -8.9808453769219341 397.44317805659375 0 0 0 0 -366.27056574345443 -129.49400680690405 0 -129.49400680690405 317.79952978789515 0 0 0 0 -354.30927316479597 -40.990803214523112 0 -40.990803214523112 174.57358486263547 0 0 0 0 -546.49914794434608 248.20390427887469 0 248.20390427887469 55.591337909776485 0 0 0 0 -232.82028899993929 185.33430596702965 0 185.33430596702965 -112.32932223602256 0 0 0 0 -160.58210049621175 -75.493108919337828 0 -75.493108919337828 299.48453392938245 0 0 0 0 -203.15046216101109 -28.78204296513286 0 -28.78204296513286 196.94724049351498 0 0 0 0 -239.74989978362646 2.380109912581247 0 2.380109912581247 485.73571619042195 0 0 0 0 -316.9089169934723 52.055347452253045 0 52.055347452253045 363.2087306965841 0 0 0 0 -151.89200700712536 24.804177894046006 0 24.804177894046006 135.57820388570872 0 0 0 0 -379.27511901940852 214.29019997999785 0 214.29019997999785 91.375275270591374 0 0 0 0 -260.21160561038596 149.23303166348705 0 149.23303166348705 -37.28957260545576 0 0 0 0 -424.95750189034197 366.68659314885372 0 366.68659314885372 -206.04997091018595 0 0 0 0 -456.64075003884091 127.95265184456275 0 127.95265184456275 -13.25539050673251 0 0 0 0 -360.41917481670316 64.138151752253179 0 64.138151752253179 265.17349566407574 0 0 0 0 -231.60650341896053 -49.752915567321907 0 -49.752915567321907 66.785549300984712 0 0 0 0 -189.17372810502911 57.292464755788387 0 57.292464755788387 283.98643737386737 0 0 0 0 -156.59076156697483 111.10442949656863 0 111.10442949656863 -67.095688027060532 0 0 0 0 103.97220551875989 124.46881851907165 0 124.46881851907165 66.816551928975969 0 0 0 0 -181.67782221290986 17.073102551834381 0 17.073102551834381 105.014439348015 0 0 0 0 -35.339031285451711 -10.834590549304266 0 -10.834590549304266 230.4710205797237 0 0 0 0 -16.952140521305409 8.6897955177773838 0 8.6897955177773838 80.858491089347808 0 0 0 0 354.61205586304482 88.350024347833823 0 88.350024347833823 104.05502649439586 0 0 0 0 198.89031220290008 -30.334899436997148 0 -30.334899436997148 19.758206322891056 0 0 0 0 134.1678269215472 -46.32880701724207 0 -46.32880701724207 498.03511733582855 0 0 0 0 82.797439462712987 57.144564102574805 0 57.144564102574805 528.52575459444779 0 0 0 0 96.31140437551403 58.612199930417773 0 58.612199930417773 267.08099769261025 0 0 0 0 -71.381423302907933 -77.95951289038203 0 -77.95951289038203 495.19396039709682 0 0 0 0 -93.626249428634765 33.225831875839503 0 33.225831875839503 456.31492719631933 0 0 0 0 64.513570533455095 68.647594991307415 0 68.647594991307415 644.79377693321294 0 0 0 0 -137.41944712527766 -144.21142564595357 0 -144.21142564595357 914.65526639339078 0 0 0 0 -133.27767966770716 -99.873973957095131 0 -99.873973957095131 675.71223929979897 0 0 0 0 214.8421015233896 -176.11786658384881 0 -176.11786658384881 882.78055872274854 0 0 0 0 203.40344633855307 136.01860255665088 0 136.01860255665088 917.43550023564603 0 0 0 0 -49.089309570205842 -118.82898520273375 0 -118.82898520273375 1232.714186847028 0 0 0 0 115.64121626603628 -367.90565525041166 0 -367.90565525041166 995.32932529324171 0 0 0 0 -80.899782089491964 -240.74021975451251 0 -240.74021975451251 806.51363874359231 0 0 0 0 -147.90878884875201 -201.44638854455843 0 -201.44638854455843 917.05506515943853 0 0 0 0 -184.60951465898506 -276.20178869792289 0 -276.20178869792289 784.76894656179866 0 0 0 0 -196.85913443053687 -211.92273565648793 0 -211.92273565648793 721.4080219140742 0 0 0 0 -178.30555141822333 -228.24415093223797 0 -228.24415093223797 645.20597559402086 0 0 0 0 -239.71401115100343 -121.53745350152894 0 -121.53745350152894 622.55315927884658 0 0 0 0 -176.46154417290973 -103.40292220918309 0 -103.40292220918309 419.39009907544823 0 0 0 0 -196.22172727740326 -145.47382295813441 0 -145.47382295813441 642.81646087366244 0 0 0 0 -161.25856518870387 -172.19981211498452 0 -172.19981211498452 519.1570563191417 0 0 0 0 -181.72661447536666 -54.304978736030534 0 -54.304978736030534 349.94884797283157 0 0 0 0 -134.44630114336178 -272.73762445092143 0 -272.73762445092143 685.4107371107566 0 0 0 0 -164.78992320529323 -237.41231605185385 0 -237.41231605185385 772.74178412323818 0 0 0 0 -211.49508226180478 -146.71884171564307 0 -146.71884171564307 607.46486340460251 0 0 0 0 -110.63140144580757 -306.52186067341972 0 -306.52186067341972 808.5257949991792 0 0 0 0 -156.31001551519148 -318.48548032044346 0 -318.48548032044346 834.03531963717251 0 0 0 0 -205.88618586059874 -305.99226357887528 0 -305.99226357887528 850.93624394260405 0 0 0 0 -176.32480421453147 -341.33831854188975 0 -341.33831854188975 822.99429724682705 0 0 0 0 -118.01203723798972 -227.01291949187726 0 -227.01291949187726 848.56681402630056 0 0 0 0 -134.22543141001188 -330.74026178840722 0 -330.74026178840722 795.58554465047928 0 0 0 0 -128.52351629725399 -282.99486040015654 0 -282.99486040015654 900.92794282714021 0 0 0 0 79.496502327612689 -66.531966395275958 0 -66.531966395275958 885.06567201204462 0 0 0 0 273.36663259293346 316.40456447055476 0 316.40456447055476 345.17566707124206 0 0 0 0 -67.211771562757917 -64.603715955421194 0 -64.603715955421194 1031.8862589492346 0 0 0 0 -67.503597989808952 -52.046096897741108 0 -52.046096897741108 564.10157348639041 0 0 0 0 -22.773897754032987 -133.35793819631363 0 -133.35793819631363 364.38930553633691 0 0 0 0 34.396385405198089 128.85251085475829 0 128.85251085475829 290.82643300604741 0 0 0 0 131.57640418967367 32.745132678475784 0 32.745132678475784 22.157790059638501 0 0 0 0 104.36506705469219 36.449654224248661 0 36.449654224248661 158.84364902817106 0 0 0 0 3.3110547721110017 13.497324946324547 0 13.497324946324547 38.189562222208536 0 0 0 0 -177.97620093879959 179.33490964588054 0 179.33490964588054 142.81075035920458 0 0 0 0 -27.863398578346278 -5.1137141629078542 0 -5.1137141629078542 14.272395976986445 0 0 0 0 -68.871621954483544 -104.83862498745111 0 -104.83862498745111 502.42274226264271 0 0 0 0 54.196843824109237 -121.12340252171998 0 -121.12340252171998 60.86489456439449 0 0 0 0 -79.299928714107182 -136.91961115916274 0 -136.91961115916274 362.5171623004062 0 0 0 0 0.62464906447216961 7.2401225496011392 0 7.2401225496011392 26.837575681789758 0 0 0 0 141.3433432940069 -197.15506697426281 0 -197.15506697426281 274.53423045683303 0 0 0 0 -64.184955947974231 -366.90995143415421 0 -366.90995143415421 724.17434567241435 0 0 0 0 -85.278941394246885 -222.88276926145409 0 -222.88276926145409 462.27293077140348 0 0 0 0 -72.672189398263072 -374.4904118917184 0 -374.4904118917184 721.57566436330671 0 0 0 0 -160.0044848065354 -382.08960131525964 0 -382.08960131525964 902.34795363508874 0 0 0 0 441.8899672694447 -537.92242803158661 0 -537.92242803158661 456.67466728599538 0 0 0 0 -54.121969158967659 -461.12085034638585 0 -461.12085034638585 1075.5571472712254 0 0 0 0 169.20823996360141 -206.04699861620975 0 -206.04699861620975 -178.20525527697828 0 0 0 0 645.48861424902714 -936.9265146826674 0 -936.9265146826674 1193.9510107787937 0 0 0 0 -1.0909926663583414 0.39224536187096248 0 0.39224536187096248 11.639832107296911 0 0 0 0 1260.8048543534401 3.028308138706052 0 3.028308138706052 -290.98706750644487 0 0 0 0 56.910348173578711 -274.96187423139054 0 -274.96187423139054 1856.0469439497683 0 0 0 0 3.3738853744818438 6.2100362416949153 0 6.2100362416949153 16.970740361308799 0 0 0 0 289.99855756769597 362.4445105357936 0 362.4445105357936 -662.51252414518967 0 0 0 0 6.9431759184561059 19.62418399017227 0 19.62418399017227 50.563007292712882 0 0 0 0 -63.448543166024578 185.51723431066057 0 185.51723431066057 10.981082546268226 0 0 0 0 27.283786039785632 73.765399057323521 0 73.765399057323521 -2.2986695629297174 0 0 0 0 310.30113601505946 892.79793771989353 0 892.79793771989353 -488.56997121230233 0 0 0 0 7.22089587767932 7.1922951064131695 0 7.1922951064131695 3.6545504145039729 0 0 0 0 -91.41961160387973 361.71338232826565 0 361.71338232826565 156.80111554864561 0 0 0 0 -789.02896826441611 -764.85784298699582 0 -764.85784298699582 666.00489709365138 0 0 0 0 -189.86937809110805 572.99109440397297 0 572.99109440397297 286.18299662748177 0 0 0 0 -29.466659934329982 502.69946950516169 0 502.69946950516169 284.53433146352472 0 0 0 0 -1329.5535647489523 433.90790423383442 0 433.90790423383442 601.27317830198444 0 0 0 0 5.5664683929492735 23.049361786568731 0 23.049361786568731 76.736848876253532 0 0 0 0 51.89741292108738 10.33228998008417 0 10.33228998008417 -4.6319536793997713 0 0 0 0 -306.86553431550283 124.76761082529265 0 124.76761082529265 567.25749763391832 0 0 0 0 361.94285450495136 -127.33494848512782 0 -127.33494848512782 538.05122189076246 0 0 0 0 -38.739281123372166 203.15904118608887 0 203.15904118608887 493.63453330311404 0 0 0 0 -452.28633294087376 423.94471869060362 0 423.94471869060362 510.32575076473131 0 0 0 0 -148.39865721990463 247.64559090411785 0 247.64559090411785 258.4730866051832 0 0 0 0 -675.23936961328491 59.621977031398274 0 59.621977031398274 219.16770871660265 0 0 0 0 -664.36917933580389 631.32010070086108 0 631.32010070086108 335.09985607983617 0 0 0 0 -53.962257971336385 -42.852240377047565 0 -42.852240377047565 294.35256741920603 0 0 0 0 -393.66793787554661 696.93943899208898 0 696.93943899208898 -515.52684306194715 0 0 0 0 -431.86639966104838 301.5095513970814 0 301.5095513970814 127.52360595855862 0 0 0 0 -56.726553767634414 489.84294766354287 0 489.84294766354287 77.934379458485637 0 0 0 0 11.990945566906763 14.268265854281736 0 14.268265854281736 11.071001430320166 0 0 0 0 -246.76302142106078 -99.594176244936534 0 -99.594176244936534 279.33434134373238 0 0 0 0 -197.41920001792471 1193.6219337584184 0 1193.6219337584184 -428.91357534150302 0 0 0 0 -440.66695344727771 -259.29937431112194 0 -259.29937431112194 -32.360110636673198 0 0 0 0 6.2882337411817328 7.2896041649612187 0 7.2896041649612187 6.0847874199095315 0 0 0 0 -836.16848523499834 589.92039445574301 0 589.92039445574301 1467.7268768216745 0 0 0 0 -166.71159605710733 11.973455221928816 0 11.973455221928816 878.47047204789123 0 0 0 0 -120.49543703455458 171.74205733618328 0 171.74205733618328 1415.5466091536655 0 0 0 0 453.11981061532504 -808.26037927845027 0 -808.26037927845027 1921.8164486726 0 0 0 0 229.26328705923402 850.67394685216641 0 850.67394685216641 1760.557110933747 0 0 0 0 639.36802401600187 39.167697253746155 0 39.167697253746155 2025.3598513853576 0 0 0 0 97.783525717149686 -434.67242859264388 0 -434.67242859264388 1753.536940440521 0 0 0 0 331.26347233456363 113.18507430939644 0 113.18507430939644 1507.1099938810694 0 0 0 0 671.07850076146372 -99.287916250908893 0 -99.287916250908893 986.54204119095812 0 0 0 0 484.21798646815483 203.94451760075754 0 203.94451760075754 1039.6112767894247 0 0 0 0 1072.0648282109191 79.207891878177179 0 79.207891878177179 761.21011022776656 0 0 0 0 774.09108494313455 -198.65459918030137 0 -198.65459918030137 531.48382181403576 0 0 0 0 496.41166333178785 29.154238595932839 0 29.154238595932839 371.55680302237306 0 0 0 0 479.86408360112296 14.616022858586803 0 14.616022858586803 389.57059113371361 0 0 0 0 318.97949703866107 83.281677337479778 0 83.281677337479778 411.69006079732753 0 0 0 0 415.32410982262257 -164.7907239531869 0 -164.7907239531869 171.45795243662724 0 0 0 0 549.59229802654886 27.047925922677678 0 27.047925922677678 -47.025150240311632 0 0 0 0 220.18958036094136 -229.52927163746608 0 -229.52927163746608 159.62933770514792 0 0 0 0 414.63120665685591 -13.512279728369322 0 -13.512279728369322 -117.2073725485825 0 0 0 0 -57.984031093746808 -330.93571540182165 0 -330.93571540182165 206.86549270329851 0 0 0 0 264.53878723193816 -171.84197856180253 0 -171.84197856180253 -193.77184389444619 0 0 0 0 148.5822820578984 -198.57523065395435 0 -198.57523065395435 935.11837205324264 0 0 0 0 190.72903747544046 -153.05726011581282 0 -153.05726011581282 76.026098465561518 0 0 0 0 579.14047274439429 -273.02419942738197 0 -273.02419942738197 164.72560084362158 0 0 0 0 -954.66634883149493 -75.343766226276784 0 -75.343766226276784 329.12363185873255 0 0 0 0 -69.526861596738172 -249.85823828260254 0 -249.85823828260254 -114.89845454065835 0 0 0 0 -215.92056244710136 -411.21051458147667 0 -411.21051458147667 68.439579565354506 0 0 0 0 -33.726570435408291 18.221266485559568 0 18.221266485559568 73.003498636942822 0 0 0 0 -1.9506277663814706 -4.4869326324592613 0 -4.4869326324592613 57.954446976579732 0 0 0 0 -18.672959306209975 5.791604871283198 0 5.791604871283198 70.24004977340519 0 0 0 0 -46.613874434551832 -15.983184256798268 0 -15.983184256798268 69.271518233124425 0 0 0 0 -0.67869076913050641 -1.8319018305570958 0 -1.8319018305570958 60.670662622040652 0 0 0 0 -2.3850793458093165 -8.0586710349525674 0 -8.0586710349525674 54.854940316618013 0 0 0 0 -1.5280463413030105 -21.741132830880815 0 -21.741132830880815 59.506435511721065 0 0 0 0 -26.500721310680888 -13.378618064403497 0 -13.378618064403497 66.610585960122989 0 0 0 0 -1.5866777913140893 2.1045976731610505 0 2.1045976731610505 54.187304892828593 0 0 0 0 -812.81228220262597 638.77991005323565 0 638.77991005323565 855.46872065754724 0 0 0 0 -59.70971562635043 1033.2843391806309 0 1033.2843391806309 363.52185589829605 0 0 0 0 -1078.5674254990499 356.83782461920782 0 356.83782461920782 573.81262479771976 0 0 0 0 -24.936635594032168 -421.57509223630404 0 -421.57509223630404 184.84451353517943 0 0 0 0 162.18393249424844 282.34894306215574 0 282.34894306215574 703.94620587463578 0 0 0 0 467.31934469287103 695.13440570370585 0 695.13440570370585 -241.90394242049661 0 0 0 0 411.60488167621406 383.75920609921013 0 383.75920609921013 -669.06697716990311 0 0 0 0 -239.76231903857121 449.54539541020495 0 449.54539541020495 -709.02035839602468 0 0 0 0 -1.0307621882796683 -1.786300887098065 0 -1.786300887098065 12.442273169685024 0 0 0 0 200.15852706508235 231.35538693993294 0 231.35538693993294 316.26476512216323 0 0 0 0 211.00934194323776 301.20488908860352 0 301.20488908860352 178.4978106670751 0 0 0 0 288.40788273055932 639.93286462285232 0 639.93286462285232 -255.93897577014286 0 0 0 0 -34.353403967746999 267.19399018846161 0 267.19399018846161 451.44880688974081 0 0 0 0 78.322321027248563 283.5234394240324 0 283.5234394240324 420.36112158207834 0 0 0 0 1144.7591346341046 692.65709676111874 0 692.65709676111874 294.26243737590266 0 0 0 0 79.326552708139872 325.1168717437746 0 325.1168717437746 1718.9426969890483 0 0 0 0 766.69316894081931 -578.74539094767533 0 -578.74539094767533 1112.1521398650148 0 0 0 0 199.19424942964565 -156.94327363937919 0 -156.94327363937919 798.72620920842019 0 0 0 0 88.550247269836291 -390.54466098733246 0 -390.54466098733246 844.51022328722684 0 0 0 0 -116.39414613413726 0.30238265676962328 0 0.30238265676962328 1055.4876203545282 0 0 0 0 124.63262842732496 101.62683859806566 0 101.62683859806566 820.56068483019772 0 0 0 0 769.76534503977223 541.57219473402802 0 541.57219473402802 1107.1865523362576 0 0 0 0 480.48204925627283 -705.46799334044044 0 -705.46799334044044 669.88284513712279 0 0 0 0 0.8575421099469227 1.5798652183736062 0 1.5798652183736062 12.293395916603288 0 0 0 0 -84.384613709676671 -99.079175954204402 0 -99.079175954204402 1628.3689417296955 0 0 0 0 226.07090467032864 -239.93000794257205 0 -239.93000794257205 273.26167883101152 0 0 0 0 -1.3597443272020582 2.1951059477693775 0 2.1951059477693775 33.306257794027204 0 0 0 0 99.367155384637329 -6.5395000638109195 0 -6.5395000638109195 222.22305794758722 0 0 0 0 -28.088616133922415 -77.588746774032188 0 -77.588746774032188 183.52370196022093 0 0 0 0 -3.9610330193755994 -2.3349837256446335 0 -2.3349837256446335 9.4253585526285519 0 0 0 0 -39.441703390463694 -59.797380165600771 0 -59.797380165600771 265.45563191149267 0 0 0 0 108.43782801692419 16.205405112472363 0 16.205405112472363 18.528233861310582 0 0 0 0 82.136098687515698 -79.103410080431786 0 -79.103410080431786 99.027706545988622 0 0 0 0 -19.080568021353233 -106.85698163227789 0 -106.85698163227789 391.55432124927665 0 0 0 0 15.449960158118596 -65.630876381505004 0 -65.630876381505004 192.63417365655187 0 0 0 0 -3.3144442683903357 -115.44691484693249 0 -115.44691484693249 390.73349489891552 0 0 0 0 -41.283091564396727 -150.92846958216978 0 -150.92846958216978 736.25193370253692 0 0 0 0 -49.782311359093264 -156.25507253852993 0 -156.25507253852993 740.38523820455885 0 0 0 0 -42.980908408657378 -85.61590903490287 0 -85.61590903490287 611.32915954367081 0 0 0 0 -94.75941282131069 24.158588703535315 0 24.158588703535315 710.92102692631306 0 0 0 0 -36.136691458531288 13.666898575960658 0 13.666898575960658 619.03857490172004 0 0 0 0 -83.008420227534245 78.577962794268387 0 78.577962794268387 962.8765153928689 0 0 0 0 118.47298593997539 241.58468404402811 0 241.58468404402811 762.03646939440659 0 0 0 0 -0.095268850023753238 15.184681409271434 0 15.184681409271434 579.09229779214365 0 0 0 0 -51.120482111026945 -28.048091447009938 0 -28.048091447009938 542.59439280281003 0 0 0 0 -0.098995588120040195 -9.0776903845217021 0 -9.0776903845217021 535.67124584611884 0 0 0 0 -10.738459858158485 -83.986912786647736 0 -83.986912786647736 371.60090839621989 0 0 0 0 -17.723280535747751 -88.658971038545133 0 -88.658971038545133 370.75848683224194 0 0 0 0 0.0052405374022747031 -0.26384864840096611 0 -0.26384864840096611 0.17146995648765539 0 0 0 0 0.14584002820919734 -25.290787177361448 0 -25.290787177361448 216.49470131724956 0 0 0 0 -21.546118512779408 -43.495642788016994 0 -43.495642788016994 71.842460022344312 0 0 0 0 -0.022728411677424426 -45.852239360199746 0 -45.852239360199746 58.008550839629606 0 0 0 0 0.32648934613474623 -11.851809700763624 0 -11.851809700763624 86.397035829766537 0 0 0 0 10.780253785253919 -14.599033460581268 0 -14.599033460581268 75.867777149214817 0 0 0 0 -0.32667804145484175 -0.50416598894500453 0 -0.50416598894500453 0.13429364026818291 0 0 0 0 -1.4303620784276916 -18.860550527853775 0 -18.860550527853775 72.03764692848199 0 0 0 0 -1.1652641927137801 -1.0224373832340348 0 -1.0224373832340348 -1.1649577079427615 0 0 0 0 -2.2278014883847845 -14.118511888271314 0 -14.118511888271314 82.980387781404715 0 0 0 0 7.123871104409929 -21.037198569651082 0 -21.037198569651082 70.850590481692052 0 0 0 0 1.7643038078142013 -6.8420444013536326 0 -6.8420444013536326 80.308917655022015 0 0 0 0 -7.0898550109690248 -9.2657437708439829 0 -9.2657437708439829 89.482784292915312 0 0 0 0 -5.9575360734122604 32.702552807035318 0 32.702552807035318 117.1007168737633 0 0 0 0 -1.6411190150097912 -0.50442817847169863 0 -0.50442817847169863 0.5760310254457579 0 0 0 0 -1.7171869002426519 -165.89942655725099 0 -165.89942655725099 -273.7766846015511 0 0 0 0 -0.0270597891229723 -71.348313278966089 0 -71.348313278966089 -46.055562264387845 0 0 0 0 -37.162720289564184 -101.8838387318126 0 -101.8838387318126 -15.42455939372303 0 0 0 0 -39.265705605958374 -47.295589039043989 0 -47.295589039043989 82.501653475433159 0 0 0 0 -5.8301156570847006 18.49743312972987 0 18.49743312972987 181.37909612344811 0 0 0 0 -20.137239215977388 207.32876519295314 0 207.32876519295314 424.38482296061193 0 0 0 0 121.84754404998694 317.49612037734732 0 317.49612037734732 -122.0275803870245 0 0 0 0 -238.57877363706211 -46.314268826805346 0 -46.314268826805346 224.9586203293693 0 0 0 0 12.25335410787261 2.220749507049959 0 2.220749507049959 57.262245023150172 0 0 0 0 -16.885702285529987 -40.444604286380127 0 -40.444604286380127 69.50369622965809 0 0 0 0 -27.839738955842222 -24.034280940741155 0 -24.034280940741155 53.641118542058393 0 0 0 0 4.6156841783995333 -104.12809240692513 0 -104.12809240692513 82.550391788391607 0 0 0 0 121.98211899007219 -193.99551244574468 0 -193.99551244574468 -270.11476793869952 0 0 0 0 51.9934634148849 190.68246928731969 0 190.68246928731969 2.0113226630237477 0 0 0 0 -2.0833629548198118 -0.19985086033297961 0 -0.19985086033297961 0.96520795799616366 0 0 0 0 -6.0678487128971028 108.40992777511929 0 108.40992777511929 131.96305272457175 0 0 0 0 75.938124266949217 186.33035989092468 0 186.33035989092468 -7.6503821222577244 0 0 0 0 -31.542748907985697 88.990310465771245 0 88.990310465771245 120.87832326019998 0 0 0 0 3.1580809459919692 110.70402736979668 0 110.70402736979668 31.474498622425472 0 0 0 0 -2.7501994221620407 47.667555411351714 0 47.667555411351714 35.522661992821668 0 0 0 0 14.31141506629865 59.329483049190458 0 59.329483049190458 41.04390155577903 0 0 0 0 -1.6653811695550544 3.3109415427445725 0 3.3109415427445725 2.7122094871284332 0 0 0 0 47.508864056966559 39.415865026909159 0 39.415865026909159 -136.92812329236222 0 0 0 0 65.350624598890136 313.29954881112644 0 313.29954881112644 303.04090470743904 0 0 0 0 -1.8140088214393018 1.7598479943843159 0 1.7598479943843159 -1.119519978899028 0 0 0 0 165.20608545135838 73.296233990131441 0 73.296233990131441 -9.2954687169403769 0 0 0 0 120.44598717775989 84.598550932036233 0 84.598550932036233 -9.681910591214546 0 0 0 0 132.77647042210447 96.977721667622973 0 96.977721667622973 75.414295431328355 0 0 0 0 18.896775902307127 24.892889339971589 0 24.892889339971589 30.373642539929278 0 0 0 0 164.70396105275722 6.6778150839054433 0 6.6778150839054433 7.9331793204255519 0 0 0 0 143.37050997215192 31.956439115940157 0 31.956439115940157 18.92081725258322 0 0 0 0 219.70259841512598 45.321686237773974 0 45.321686237773974 20.677552953718987 0 0 0 0 134.54137645865558 53.113128883536774 0 53.113128883536774 133.70860919622646 0 0 0 0 168.14619585971377 -9.412520556968957 0 -9.412520556968957 46.923954523692373 0 0 0 0 163.34778455745254 37.112662238181656 0 37.112662238181656 -36.894493790565321 0 0 0 0 88.84893384565612 68.144430263513641 0 68.144430263513641 27.180514737767226 0 0 0 0 77.640141679898079 34.155373830366443 0 34.155373830366443 57.121350011366303 0 0 0 0 146.7154782738944 53.267783646697353 0 53.267783646697353 62.327809101869207 0 0 0 0 -26.974150266705692 -28.413952112019615 0 -28.413952112019615 112.17733708343076 0 0 0 0 -70.349802289802028 82.564944473466312 0 82.564944473466312 154.74286752548505 0 0 0 0 -96.153823428547184 17.491151690537663 0 17.491151690537663 50.141624223095278 0 0 0 0 -167.21208709492385 -49.689236376025292 0 -49.689236376025292 -15.842395294777816 0 0 0 0 -250.12008099236755 169.12309592120255 0 169.12309592120255 6.0277806282683741 0 0 0 0 158.46775731161688 -9.655862494394114 0 -9.655862494394114 -224.95330303245282 0 0 0 0 12.454591956118747 -52.907896139728109 0 -52.907896139728109 -59.048784798840643 0 0 0 0 -2.1887036544396281 -2.7287028015249817 0 -2.7287028015249817 -2.5871585716519121 0 0 0 0 -109.14302284916994 223.11381876193991 0 223.11381876193991 -280.34673686893075 0 0 0 0 -91.161912733326972 72.514705326102558 0 72.514705326102558 -32.757678379337449 0 0 0 0 -163.51325404586532 105.26528657591916 0 105.26528657591916 111.04263815637387 0 0 0 0 -92.628818281432643 97.414114027141977 0 97.414114027141977 -29.762541498850624 0 0 0 0 -162.81442486191554 54.35772095683933 0 54.35772095683933 39.31801486952827 0 0 0 0 9.8275112255521151 6.7974916795138753 0 6.7974916795138753 8.498662375771481 0 0 0 0 8.8064049312069983 11.32472314840561 0 11.32472314840561 37.388044887777141 0 0 0 0 -1.4106624837294532 0.75145160126341892 0 0.75145160126341892 14.130836849270224 0 0 0 0 16.046000627062313 4.922478459917329 0 4.922478459917329 -2.0711177592020249 0 0 0 0 31.661771115426745 15.568296031004138 0 15.568296031004138 21.668921009173573 0 0 0 0 -7.874421139428887 13.108557676945505 0 13.108557676945505 36.373749103501794 0 0 0 0 -49.523510542714575 -23.12415535486798 0 -23.12415535486798 32.92004554585219 0 0 0 0 -11.829435949876668 -4.6122465752277719 0 -4.6122465752277719 4.3729252349423717 0 0 0 0 5.4664150098282143 15.434565301514944 0 15.434565301514944 11.707423596297815 0 0 0 0 -97.817989620212757 110.29705456255397 0 110.29705456255397 -430.54053143522469 0 0 0 0 101.9171542145923 56.951603559955402 0 56.951603559955402 -166.31304781838844 0 0 0 0 -126.60890003546228 434.53018924243224 0 434.53018924243224 -118.95328126735967 0 0 0 0 -7.7183058170694494 9.8489702527585905 0 9.8489702527585905 19.834856474182743 0 0 0 0 6.4127785994406281 4.7315396712877202 0 4.7315396712877202 4.8413562502541652 0 0 0 0 -12.526469393345906 26.457531732332427 0 26.457531732332427 27.583247566850332 0 0 0 0 8.5753420479549334 1.6944023365587668 0 1.6944023365587668 19.047770236207725 0 0 0 0 65.500902857661913 4.7214917864648669 0 4.7214917864648669 -83.674384319438104 0 0 0 0 -5.0590751953831514 4.7476670390858118 0 4.7476670390858118 1.8098012003585637 0 0 0 0 -161.65512681478322 -71.769597990860348 0 -71.769597990860348 97.053734230648843 0 0 0 0 -24.216588872928696 37.263358883054025 0 37.263358883054025 -69.270548924303512 0 0 0 0 1.9734640996167121 14.931833555087531 0 14.931833555087531 24.429671411428764 0 0 0 0 -70.042761499398694 56.282611254943276 0 56.282611254943276 76.32041495095109 0 0 0 0 0.10127738665323704 -74.323765772615843 0 -74.323765772615843 217.74239726957012 0 0 0 0 5.5986976829899504 -1.7766614393358395 0 -1.7766614393358395 -17.619335081191821 0 0 0 0 1.8230337830391363 10.943906294663975 0 10.943906294663975 41.377423760459351 0 0 0 0 21.834648726246087 25.943498785532938 0 25.943498785532938 28.534055604408422 0 0 0 0 -4.7078766979866487 27.944156860367002 0 27.944156860367002 44.683637590671424 0 0 0 0 5.1944369522806264 19.634283410633248 0 19.634283410633248 35.982672843884046 0 0 0 0 -56.951227290524912 -4.836562092018994 0 -4.836562092018994 70.966742869654809 0 0 0 0 2.8914799991635434 -0.37952239707482782 0 -0.37952239707482782 0.27274502525605726 0 0 0 0 -42.439664188648749 8.682544592229533 0 8.682544592229533 46.376021341407068 0 0 0 0 -19.537207134100754 -29.362297695323377 0 -29.362297695323377 29.163671728238114 0 0 0 0 -7.6494116483129719 11.434010764832642 0 11.434010764832642 38.464321171853101 0 0 0 0 -89.068142910980441 -12.741768744340789 0 -12.741768744340789 75.916856661391648 0 0 0 0 -72.712212904645639 0.29787519889396208 0 0.29787519889396208 76.558585877923178 0 0 0 0 -49.420009791560005 59.558551636600896 0 59.558551636600896 60.145707146264613 0 0 0 0 -98.912144587791772 32.71839328380338 0 32.71839328380338 76.101986957063332 0 0 0 0 -3.5274063337097665 18.018370962885569 0 18.018370962885569 43.800503772429806 0 0 0 0 -120.06375243228649 -18.542523654839897 0 -18.542523654839897 12.894226232987421 0 0 0 0 8.8849207412258693 40.930120311153587 0 40.930120311153587 65.44894278459833 0 0 0 0 -2.8447892910081194 1.7792160167052486 0 1.7792160167052486 7.8551229032910612 0 0 0 0 -7.2486904926379516 9.910006433548288 0 9.910006433548288 45.523027290529257 0 0 0 0 1.585798798387259 -25.233168298153032 0 -25.233168298153032 14.082867245560919 0 0 0 0 -72.671349742578968 5.2782715185057896 0 5.2782715185057896 17.186269328823073 0 0 0 0 -71.654615440005728 57.686527935202321 0 57.686527935202321 43.479733114792566 0 0 0 0 8.8231152368098265 101.6490073929599 0 101.6490073929599 14.384543923996716 0 0 0 0 -44.778516540504825 126.04657412838787 0 126.04657412838787 68.356279931045719 0 0 0 0 -144.26738761524302 31.887937160416186 0 31.887937160416186 42.221322548131866 0 0 0 0 -165.43607908394733 175.99704439553693 0 175.99704439553693 -86.707460842088949 0 0 0 0 -77.304481291201228 16.733849261603893 0 16.733849261603893 -67.432085809509061 0 0 0 0 -1.2372675220958627 27.248988078205912 0 27.248988078205912 44.545498289578973 0 0 0 0 9.7297045548318692 21.084268978069044 0 21.084268978069044 42.552779567391333 0 0 0 0 122.75340133994541 118.01095673170209 0 118.01095673170209 14.63742215060347 0 0 0 0 2.3778573804949916 9.2597437012091603 0 9.2597437012091603 -0.094261054262509525 0 0 0 0 -26.794487657269201 3.0065652806624712 0 3.0065652806624712 33.899893396392144 0 0 0 0 -19.394058996275085 11.579561572504726 0 11.579561572504726 65.384943127691741 0 0 0 0 -10.507238005007601 3.5552212284881364 0 3.5552212284881364 42.223317090193348 0 0 0 0 -291.0167289400124 131.78136206479849 0 131.78136206479849 283.75410410356926 0 0 0 0 -329.05418058593023 81.330733827503593 0 81.330733827503593 302.55044720748128 0 0 0 0 -172.15066289064453 50.731932224122602 0 50.731932224122602 114.92781611311557 0 0 0 0 -130.19110808398909 -97.176370944228438 0 -97.176370944228438 493.49562527509215 0 0 0 0 9.2501449416477044 -143.67201315537113 0 -143.67201315537113 -7.7492381455585928 0 0 0 0 -138.2203541493036 -11.515455751142326 0 -11.515455751142326 162.96067238240903 0 0 0 0 -122.22218281085043 -124.40305579185315 0 -124.40305579185315 194.47743160870823 0 0 0 0 -39.222860907107304 -14.39380631918622 0 -14.39380631918622 58.144176710687368 0 0 0 0 -7.7288925202747301 -8.919722480041159 0 -8.919722480041159 20.13474616730899 0 0 0 0 -73.511935924797854 -48.398693372063462 0 -48.398693372063462 65.798434708936838 0 0 0 0 -42.939718996168978 -18.523604184317492 0 -18.523604184317492 -215.50988040425727 0 0 0 0 -1.2461591756813375 1.553170541262114 0 1.553170541262114 17.155613581157752 0 0 0 0 62.596911242096667 372.80970098429498 0 372.80970098429498 -110.88363139653711 0 0 0 0 -376.66700418238742 -60.762754291650936 0 -60.762754291650936 482.55523585236369 0 0 0 0 -195.73734323811186 -272.97650506957234 0 -272.97650506957234 1087.3801801955415 0 0 0 0 3.6176808957182303 0.4829431176351946 0 0.4829431176351946 -3.2834203579668824 0 0 0 0 130.12911312218057 104.45432095803699 0 104.45432095803699 -25.488507718223218 0 0 0 0 70.362864062570225 140.8514198357625 0 140.8514198357625 22.69256576767657 0 0 0 0 -0.51616853629184334 41.424724090717064 0 41.424724090717064 -21.753748530427401 0 0 0 0 1.3288453454740932 -1.1017986765630887 0 -1.1017986765630887 1.4770196557946349 0 0 0 0 -6.9884812558793783 -30.250780309910624 0 -30.250780309910624 23.111355099374123 0 0 0 0 0.52709947394032497 -34.247993888377096 0 -34.247993888377096 19.631075044911995 0 0 0 0 -9.9444699177547591 -21.051554125286202 0 -21.051554125286202 17.537309375107725 0 0 0 0 59.149823872458001 -44.967787945583041 0 -44.967787945583041 25.081187532055992 0 0 0 0 36.897656345904579 62.175391799844874 0 62.175391799844874 74.896286690971465 0 0 0 0 -22.179784033129181 -68.582962837923333 0 -68.582962837923333 66.918957221931123 0 0 0 0 25.614264224857834 18.373590684870578 0 18.373590684870578 295.80706871730399 0 0 0 0 231.52478749554393 -58.383637500308396 0 -58.383637500308396 291.02447154586207 0 0 0 0 87.121647446158022 81.992939397076043 0 81.992939397076043 155.07473876166114 0 0 0 0 33.320223684463599 -0.9095931330411986 0 -0.9095931330411986 173.94726449365044 0 0 0 0 197.4884045388153 218.97101260149429 0 218.97101260149429 295.43847415227992 0 0 0 0 49.311695654154391 127.49662699321925 0 127.49662699321925 141.85676526037241 0 0 0 0 62.625233496200963 77.706009584722779 0 77.706009584722779 149.42851122460706 0 0 0 0 1.9110920986277051 51.243957135328856 0 51.243957135328856 20.472000212212151 0 0 0 0 -70.418861694499356 61.597327578746444 0 61.597327578746444 153.72043404588476 0 0 0 0 -10.153466148916777 55.228224485115788 0 55.228224485115788 -65.314072797122208 0 0 0 0 23.010692243347876 121.05700941005307 0 121.05700941005307 48.364209846546146 0 0 0 0 90.018083898772602 122.92710808576157 0 122.92710808576157 -34.311951928277267 0 0 0 0 93.352746262018627 135.82176448113751 0 135.82176448113751 10.984995305789198 0 0 0 0 102.611743582082 181.66814750231879 0 181.66814750231879 57.815220457810938 0 0 0 0 49.765353626700744 173.96845463040518 0 173.96845463040518 128.53284915314362 0 0 0 0 138.61733694925715 171.3246541680528 0 171.3246541680528 -10.742441729144048 0 0 0 0 -26.107922340160258 142.81474725514909 0 142.81474725514909 -15.571621409366344 0 0 0 0 48.706852401990545 62.49780634664603 0 62.49780634664603 -38.072728665276372 0 0 0 0 586.55369104924648 -139.31204309472923 0 -139.31204309472923 175.63652507779625 0 0 0 0 471.26792786944861 234.58891449818475 0 234.58891449818475 -30.803501699165736 0 0 0 0 36.965833685673715 294.5976527021412 0 294.5976527021412 539.9269808111203 0 0 0 0 93.399042353850746 -236.04794084064633 0 -236.04794084064633 546.81429760286846 0 0 0 0 2.6679109628761353 4.2008180770111831 0 4.2008180770111831 -0.77338876245120503 0 0 0 0 2.8251302890021179 274.43074568396332 0 274.43074568396332 559.49562898236763 0 0 0 0 -62.952534097050375 44.880020041851822 0 44.880020041851822 244.78821363314455 0 0 0 0 -25.489947973165272 108.67474555829267 0 108.67474555829267 100.15198011977191 0 0 0 0 -43.225300901740411 38.43857060751543 0 38.43857060751543 114.21547363032641 0 0 0 0 -67.648775339017448 51.856289774459583 0 51.856289774459583 112.99886253692239 0 0 0 0 23.579387930205485 -44.406001809129521 0 -44.406001809129521 151.88034073928065 0 0 0 0 17.231664174658363 146.80357605000972 0 146.80357605000972 149.9638042540264 0 0 0 0 -49.893431326490827 40.53518949883437 0 40.53518949883437 273.39062584306157 0 0 0 0 15.489852847596921 27.372397691982769 0 27.372397691982769 -26.774396300465014 0 0 0 0 3.5332951610221279 2.9595365146504591 0 2.9595365146504591 -2.8880993998116935 0 0 0 0 -3.0223619556907551 4.2027040404998814 0 4.2027040404998814 7.0361440132424065 0 0 0 0 15.556215486474684 -58.716256470032022 0 -58.716256470032022 154.59000532842083 0 0 0 0 11.698426511433354 -10.397841635167424 0 -10.397841635167424 57.100487260486261 0 0 0 0 -65.686076987127308 -33.367661559030239 0 -33.367661559030239 90.769442790005996 0 0 0 0 -16.013202272497281 -2.6639658050483881 0 -2.6639658050483881 6.4278679264293359 0 0 0 0 -55.371225304872496 -20.883171327466698 0 -20.883171327466698 72.871553577181658 0 0 0 0 -20.299168025239396 29.997103292978863 0 29.997103292978863 -0.3926998959541379 0 0 0 0 15.081049897271441 1.0075015603506472 0 1.0075015603506472 2.8840668015982374 0 0 0 0 7.6325058123792324 10.836122932188243 0 10.836122932188243 14.4121544976895 0 0 0 0 -43.782218135249423 -7.6530708308646354 0 -7.6530708308646354 12.831527120921237 0 0 0 0 -168.4561967069003 90.239485425342536 0 90.239485425342536 54.812441708048937 0 0 0 0 -61.521258148312882 44.98254853204071 0 44.98254853204071 5.4789539861485537 0 0 0 0 -35.649982086100863 2.7503396321881155 0 2.7503396321881155 -3.9758773971916526 0 0 0 0 -32.793197739778407 3.187014282144446 0 3.187014282144446 32.307045128916798 0 0 0 0 -19.052258742622143 27.54336551265078 0 27.54336551265078 33.046807786871796 0 0 0 0 6.9723012755857781 31.138333636589778 0 31.138333636589778 27.978348292617738 0 0 0 0 -2.9877276921426805 1.0241835310849723 0 1.0241835310849723 0.7150959363394378 0 0 0 0 13.332267269121076 58.52925819470147 0 58.52925819470147 37.559781605292073 0 0 0 0 -62.089026540244049 -2.0628721856865013 0 -2.0628721856865013 30.326552138634725 0 0 0 0 -5.6398834140000034 18.38329605211192 0 18.38329605211192 22.716787699406105 0 0 0 0 -37.817023669076661 -5.4339318597576494 0 -5.4339318597576494 53.237555145344231 0 0 0 0 -18.961858246015254 27.503953448569519 0 27.503953448569519 23.632288644561413 0 0 0 0 -6.0266185866377624 16.256782266325452 0 16.256782266325452 26.222717182869275 0 0 0 0 -7.2731436618823935 14.44181406550284 0 14.44181406550284 38.762175176221305 0 0 0 0 -23.81253806759014 26.000011551222997 0 26.000011551222997 40.186037098726956 0 0 0 0 -18.02452392703708 13.469251299706229 0 13.469251299706229 49.655756588890654 0 0 0 0 -8.0308911755151797 13.522727433464794 0 13.522727433464794 27.283334829142106 0 0 0 0 -17.880929228927016 23.468324915940229 0 23.468324915940229 32.884336614981294 0 0 0 0 -18.414030914151226 17.830203120371152 0 17.830203120371152 32.273921018862893 0 0 0 0 -30.531382113886139 34.541596193692385 0 34.541596193692385 -12.59424800546185 0 0 0 0 -16.169460478848578 19.157588736274306 0 19.157588736274306 13.41590794151454 0 0 0 0 -1.9843843706529558 23.904482774378508 0 23.904482774378508 38.129883491996665 0 0 0 0 -24.294584362372817 5.9735131147141942 0 5.9735131147141942 14.485508151914473 0 0 0 0 -19.67072986221342 40.010276711000188 0 40.010276711000188 55.970325895628775 0 0 0 0 -15.344898113215095 19.16905355152403 0 19.16905355152403 50.532334523850295 0 0 0 0 -17.881790683576916 0.13996229088400014 0 0.13996229088400014 3.9618840281615775 0 0 0 0 -14.641988403951018 26.800476575583161 0 26.800476575583161 64.59861505936351 0 0 0 0 -12.267186024500234 22.28082177854003 0 22.28082177854003 66.373499657005596 0 0 0 0 -12.454116877488559 24.007582074562379 0 24.007582074562379 50.604874825865409 0 0 0 0 -19.519487977740937 15.253304255322291 0 15.253304255322291 42.347107263096404 0 0 0 0 -21.019972880390924 16.393622177507496 0 16.393622177507496 59.91389572461776 0 0 0 0 -21.799405544707724 19.904224398324914 0 19.904224398324914 61.484862512719701 0 0 0 0 -4.0769843653870339 14.981692789515364 0 14.981692789515364 58.904105330853781 0 0 0 0 -10.352636127172445 20.037440714077093 0 20.037440714077093 59.305101940175518 0 0 0 0 -17.685679884870297 18.519301409283798 0 18.519301409283798 60.92791319061871 0 0 0 0 -16.947751873955895 15.758530503640941 0 15.758530503640941 52.532278535272781 0 0 0 0 -16.501383312490361 21.315717727742594 0 21.315717727742594 58.013061428660876 0 0 0 0 -6.9041635805443313 11.516292336744094 0 11.516292336744094 57.345049107419285 0 0 0 0 -89.496250585500093 1.4771625836765452 0 1.4771625836765452 86.283496045893116 0 0 0 0 -67.927705461195728 -8.296156420112311 0 -8.296156420112311 75.930099815239373 0 0 0 0 -12.283168854301827 -2.2217547423211528 0 -2.2217547423211528 15.242395292323295 0 0 0 0 -121.50813860636299 50.828408488407149 0 50.828408488407149 42.805260031323996 0 0 0 0 -18.248953692711439 12.290053477259789 0 12.290053477259789 69.919385121640516 0 0 0 0 -13.680182738832627 25.390675109999393 0 25.390675109999393 62.606186350865755 0 0 0 0 -1.0488125778979978 23.375461774830825 0 23.375461774830825 38.245967429662656 0 0 0 0 -9.7920887241798482 19.911433209697861 0 19.911433209697861 62.221648301874666 0 0 0 0 4.3773684136277895 56.397809222362483 0 56.397809222362483 -19.291748516348889 0 0 0 0 -0.26002247037639037 9.1799497331063478 0 9.1799497331063478 3.7483833266101669 0 0 0 0 -8.411825370589213 14.426956206909381 0 14.426956206909381 37.952939375551068 0 0 0 0 -2.5377304933189939 11.404013575268543 0 11.404013575268543 48.782883667539153 0 0 0 0 -21.089067748203888 9.7864162518817466 0 9.7864162518817466 53.258956296449469 0 0 0 0 -76.704026463916307 45.836133810968022 0 45.836133810968022 60.159012276322755 0 0 0 0 -19.005858253395587 44.772986340542829 0 44.772986340542829 37.563290554055129 0 0 0 0 64.817818112989698 79.523240867467393 0 79.523240867467393 64.038729112420697 0 0 0 0 -0.89396918466697706 0.7109972085667664 0 0.7109972085667664 0.57502360602146041 0 0 0 0 4.5245276017094511 50.983581032975053 0 50.983581032975053 104.75151483801892 0 0 0 0 -11.997565029299722 13.904620146183333 0 13.904620146183333 68.891466471133754 0 0 0 0 -7.9367517265250171 21.532762901628303 0 21.532762901628303 58.477588479585393 0 0 0 0 -5.2200318709983549 34.049189713758096 0 34.049189713758096 39.120657006740657 0 0 0 0 -11.725256902243927 11.779518914292566 0 11.779518914292566 50.472938333849015 0 0 0 0 1.6640184176902721 16.462198432627702 0 16.462198432627702 59.493941866370733 0 0 0 0 -12.178142435725931 23.494589867710602 0 23.494589867710602 70.239893874742847 0 0 0 0 -15.46342421349982 31.337124001813208 0 31.337124001813208 55.510259237635182 0 0 0 0 -10.63472459164359 19.062681484592758 0 19.062681484592758 59.548882511625379 0 0 0 0 -4.5910920398280268 15.631519611852127 0 15.631519611852127 80.130271311725664 0 0 0 0 -9.191646508326663 27.899923369236802 0 27.899923369236802 40.901322447883814 0 0 0 0 -7.4111593343950517 10.258735756044189 0 10.258735756044189 77.326015140642994 0 0 0 0 -7.3300089355743694 8.0853603018076683 0 8.0853603018076683 134.59282008683294 0 0 0 0 -14.814224405525124 -0.76100667969480185 0 -0.76100667969480185 21.954201390829823 0 0 0 0 -8.1943240330101155 21.379172783725764 0 21.379172783725764 33.923690930923073 0 0 0 0 -110.92549846178008 -26.526229366383632 0 -26.526229366383632 70.405516758787599 0 0 0 0 -4.2317604720082116 4.2080268870991233 0 4.2080268870991233 16.47174689768589 0 0 0 0 -61.272846749245218 34.525770157648367 0 34.525770157648367 74.748908983630827 0 0 0 0 -61.417520572810872 36.530279741907407 0 36.530279741907407 99.14938347741554 0 0 0 0 -99.026746637875476 67.708327921424825 0 67.708327921424825 156.2258676624042 0 0 0 0 -1.2673287584307218 -22.947459753781004 0 -22.947459753781004 73.573553006463044 0 0 0 0 183.23127376047501 -360.02974377881674 0 -360.02974377881674 500.56470456154784 0 0 0 0 135.91762107165778 -138.93762620334746 0 -138.93762620334746 -118.12193413320347 0 0 0 0 298.7501058652706 240.12375618307851 0 240.12375618307851 -182.33121377840871 0 0 0 0 -173.35073584902239 139.65362068677496 0 139.65362068677496 294.97023329038348 0 0 0 0 1.3109999465842144 1.4465222876116286 0 1.4465222876116286 -2.208025632363146 0 0 0 0 -12.6622485464516 13.962153856925923 0 13.962153856925923 57.584921693426054 0 0 0 0 288.56903038984274 385.08008030132623 0 385.08008030132623 35.461007076592068 0 0 0 0 1.2914149791086973 -0.95274564498277847 0 -0.95274564498277847 5.4955839737472161 0 0 0 0 167.06849669652803 80.695619163418016 0 80.695619163418016 49.142609366419492 0 0 0 0 107.82003063828961 69.725868892870494 0 69.725868892870494 -18.442121692956789 0 0 0 0 193.82051395060716 -37.853250753090833 0 -37.853250753090833 -6.0843290838420216 0 0 0 0 74.015671077875595 54.875569556308619 0 54.875569556308619 90.922489865261014 0 0 0 0 108.53611747698051 146.65723847259505 0 146.65723847259505 16.985532720311312 0 0 0 0 0.22604578814441822 -0.86094760494134448 0 -0.86094760494134448 1.9064640770284598 0 0 0 0 0.0070433452489346848 -0.78688377667050347 0 -0.78688377667050347 5.8642438349075974 0 0 0 0 253.08743559384311 121.54718222971314 0 121.54718222971314 82.659701177472016 0 0 0 0 28.45915908666575 113.2160156907994 0 113.2160156907994 165.2868920826586 0 0 0 0 148.07239459461562 15.386216964223422 0 15.386216964223422 -4.3588254294809303 0 0 0 0 1.4667076256773726 29.354000263634589 0 29.354000263634589 -26.266449024609756 0 0 0 0 -30.780259200162618 14.481102981160802 0 14.481102981160802 17.919214610767085 0 0 0 0 5.8441465639252783 3.1183400654444995 0 3.1183400654444995 61.300460387290514 0 0 0 0 -9.3845994360847023 22.963670828312161 0 22.963670828312161 50.905274627885944 0 0 0 0 -16.436529439388664 162.15948050755333 0 162.15948050755333 -21.837847932765726 0 0 0 0 11.122123411627399 47.954361803553184 0 47.954361803553184 -31.704143658298563 0 0 0 0 -1.7315890118443349 10.746239108586451 0 10.746239108586451 72.556927761546831 0 0 0 0 -7.4939619568282971 24.699945769180516 0 24.699945769180516 55.043668026640546 0 0 0 0 5.5102656194367228 1.9107220256591972 0 1.9107220256591972 76.904044422830339 0 0 0 0 -0.51231689162341354 2.319443309919734 0 2.319443309919734 81.574128704065515 0 0 0 0 0.51422042651574884 5.6175288441590965 0 5.6175288441590965 80.955363974440843 0 0 0 0 -15.434623757708323 20.393118030784535 0 20.393118030784535 74.168247927565972 0 0 0 0 -14.875727667415049 -9.5893264466576511 0 -9.5893264466576511 72.628498874963952 0 0 0 0 -34.043971076976504 34.626070647655979 0 34.626070647655979 139.74176496895961 0 0 0 0 -10.351887858414081 -15.996149528565724 0 -15.996149528565724 13.091598551847584 0 0 0 0 0.69917424425329955 -14.721320397777163 0 -14.721320397777163 56.743490000233578 0 0 0 0 -8.8137185807380831 27.199604513142781 0 27.199604513142781 57.747350894270483 0 0 0 0 -3.9384928247221396 -15.858848254822618 0 -15.858848254822618 -1.8235188787174961 0 0 0 0 52.049016259443306 36.84114695333119 0 36.84114695333119 50.46273571124766 0 0 0 0 -9.0433797253826924 -16.850421604714938 0 -16.850421604714938 98.839236631552922 0 0 0 0 -51.421615521494459 -6.7110232205013745 0 -6.7110232205013745 209.23045495462429 0 0 0 0 -7.4628244031049178 -1.6786177499663495 0 -1.6786177499663495 9.67345716124521 0 0 0 0 -84.740381325555063 105.05850511636527 0 105.05850511636527 55.264242580815335 0 0 0 0 -8.8061230409207383 -38.481294480537144 0 -38.481294480537144 99.5923142718093 0 0 0 0 -96.465459339465497 12.638818886389345 0 12.638818886389345 150.68301580067782 0 0 0 0 -63.444895466601565 2.1107941359750839 0 2.1107941359750839 331.26430179554154 0 0 0 0 -61.057850340890582 14.319595463035512 0 14.319595463035512 136.44262302403513 0 0 0 0 -34.392526728799567 -110.30009539234379 0 -110.30009539234379 170.72171038649685 0 0 0 0 -3.4478690319753653 -0.95063074832555117 0 -0.95063074832555117 11.641549754290494 0 0 0 0 11.429604054352239 -60.040700151657802 0 -60.040700151657802 167.03533760628488 0 0 0 0 -13.093169971358293 -77.031560838579026 0 -77.031560838579026 146.477073905 0 0 0 0 -28.591300879805203 -42.430480029281171 0 -42.430480029281171 76.575948477686779 0 0 0 0 -2.8029739838239038 -21.75869482201233 0 -21.75869482201233 93.506044277623005 0 0 0 0 -0.89854094567207454 0.69897916946254668 0 0.69897916946254668 0.97102297710615915 0 0 0 0 72.383952495340054 -40.331283540203003 0 -40.331283540203003 95.19990939355921 0 0 0 0 -17.630093451687816 12.095853576263337 0 12.095853576263337 27.73636357131312 0 0 0 0 2.5214555509358476 -17.422662234562296 0 -17.422662234562296 2.1537018371914165 0 0 0 0 526.51785707045929 183.79834381854744 0 183.79834381854744 349.57107575586997 0 0 0 0 -130.23158624932694 -131.71984841697849 0 -131.71984841697849 219.91087971463276 0 0 0 0 -227.51538103196799 -27.754272984369891 0 -27.754272984369891 638.64612922325614 0 0 0 0 4.2262457169235859 65.404593566687254 0 65.404593566687254 145.29595958723803 0 0 0 0 71.467642440096824 222.96302686755371 0 222.96302686755371 394.78736982093687 0 0 0 0 -18.600873403047689 19.81812657731745 0 19.81812657731745 44.644702251429052 0 0 0 0 1.5416673613290186 34.132790675690558 0 34.132790675690558 72.138213585374615 0 0 0 0 3.2292324499670926 17.109694872731218 0 17.109694872731218 35.39410723374268 0 0 0 0 -19.268962225849464 49.554065048860139 0 49.554065048860139 61.685370974164471 0 0 0 0 -35.277360050653442 48.897346386022377 0 48.897346386022377 70.90211218798504 0 0 0 0 -6.8167139354326487 19.054924317024543 0 19.054924317024543 49.951186735643802 0 0 0 0 -30.75047702091274 25.498386120987561 0 25.498386120987561 47.199927631514583 0 0 0 0 -11.499804468765646 24.266423451526293 0 24.266423451526293 35.995717255646341 0 0 0 0 0.90967791042385215 -1.4881523463072881 0 -1.4881523463072881 85.828564057410404 0 0 0 0 -4.8502289592743182 4.7324524497889797 0 4.7324524497889797 82.874963088681397 0 0 0 0 -2.1817850690167688 -8.0798836737667443 0 -8.0798836737667443 108.26215321452764 0 0 0 0 1.819201677770252 -4.3290504646647605 0 -4.3290504646647605 92.299270953473751 0 0 0 0 -5.0586369228149124 10.247895941771276 0 10.247895941771276 90.294502453688438 0 0 0 0 3.1735160558291682 2.0022284526548901 0 2.0022284526548901 82.226704096232424 0 0 0 0 -9.3676983167279104 17.69342614562629 0 17.69342614562629 72.580830807863094 0 0 0 0 -6.006543951749336 5.8193826713431918 0 5.8193826713431918 82.517115235576057 0 0 0 0 -10.054205785058912 14.901232499943944 0 14.901232499943944 63.139902827198966 0 0 0 0 -11.774911458988683 -12.383429193904277 0 -12.383429193904277 34.033568954322249 0 0 0 0 -13.155315239262563 -0.039377411994792055 0 -0.039377411994792055 70.992419058355154 0 0 0 0 -14.268534464294774 9.5572323197294367 0 9.5572323197294367 30.135934050208185 0 0 0 0 -10.703821071849234 -8.7863700600428274 0 -8.7863700600428274 55.009565636821208 0 0 0 0 -16.422370153405801 5.6940835580655715 0 5.6940835580655715 41.680076593426037 0 0 0 0 -8.6621536699584851 -7.0034083106282452 0 -7.0034083106282452 24.340788743186806 0 0 0 0 -8.1864257465837511 6.4920080291254294 0 6.4920080291254294 24.003770446131597 0 0 0 0 -7.2126303522927628 5.3865635360189117 0 5.3865635360189117 84.792785187732079 0 0 0 0 -6.3225214708727435 9.8698596155809355 0 9.8698596155809355 66.738626851147274 0 0 0 0 -13.247955127928435 18.293188765921514 0 18.293188765921514 76.316712702719087 0 0 0 0 -26.415599269326776 2.6345238945505116 0 2.6345238945505116 80.660187828774497 0 0 0 0 -3.5435839608871902 4.112152172558126 0 4.112152172558126 52.501778928674184 0 0 0 0 -0.60680015549330335 1.1087681604433612 0 1.1087681604433612 16.874697629433559 0 0 0 0 -91.99374176604033 -86.548232087676297 0 -86.548232087676297 -80.481193822538216 0 0 0 0 -10.439022594392554 5.484037158321371 0 5.484037158321371 81.994620340323308 0 0 0 0 -8.4077720769083832 -5.844944767153109 0 -5.844944767153109 48.816606575582398 0 0 0 0 -4.9251720934450027 -0.5012615856761613 0 -0.5012615856761613 58.628175395038966 0 0 0 0 6.2903026573658281 9.618321462708991 0 9.618321462708991 97.413151258791913 0 0 0 0 38.234258951604716 -25.997810090222629 0 -25.997810090222629 61.917958744670614 0 0 0 0 -6.8609912472909613 -6.7842262927711943 0 -6.7842262927711943 30.924879163624063 0 0 0 0 -10.361407266160768 8.7007997649698154 0 8.7007997649698154 42.639054933781154 0 0 0 0 -70.893029673439742 -47.731562411827326 0 -47.731562411827326 57.591644809985155 0 0 0 0 110.2324708856213 -64.015333565039327 0 -64.015333565039327 -28.191022225495544 0 0 0 0 -10.902368149989343 11.109602496668231 0 11.109602496668231 55.96914286728861 0 0 0 0 126.91157520607521 20.246440392587829 0 20.246440392587829 28.958028224795271 0 0 0 0 153.83615454447863 17.438583746641598 0 17.438583746641598 182.50314847411937 0 0 0 0 187.59200003136357 -33.900469272033661 0 -33.900469272033661 34.494442969429656 0 0 0 0 -13.22620711950367 -55.770582947607181 0 -55.770582947607181 172.14958288452181 0 0 0 0 211.31111800046347 -17.842973726330456 0 -17.842973726330456 126.57287326476217 0 0 0 0 321.56747432067641 46.615166066563688 0 46.615166066563688 165.87348061260673 0 0 0 0 150.15585297652433 58.823382514343393 0 58.823382514343393 328.96611007821048 0 0 0 0 520.61064369262749 218.76717490778901 0 218.76717490778901 324.59025105337787 0 0 0 0 173.05803361658764 46.08838751699659 0 46.08838751699659 401.83625748549821 0 0 0 0 -16.071268715488259 70.825350388382503 0 70.825350388382503 231.62042400075006 0 0 0 0 167.05717194479803 87.079135773921735 0 87.079135773921735 170.75461461306259 0 0 0 0 16.420118200381694 -3.8307427273757639 0 -3.8307427273757639 131.24876003887039 0 0 0 0 143.96096953936467 220.87511720040493 0 220.87511720040493 3.486594037458417 0 0 0 0 119.74041874280374 568.23750141433266 0 568.23750141433266 126.57208674127469 0 0 0 0 114.12483728985535 246.79601219460892 0 246.79601219460892 460.26562195940642 0 0 0 0 533.21343827063924 719.49114896520837 0 719.49114896520837 1169.9984443511785 0 0 0 0 408.84813590082922 117.07165786178666 0 117.07165786178666 512.1982564717473 0 0 0 0 -343.07558268630237 673.23995482733881 0 673.23995482733881 1161.178796232547 0 0 0 0 539.00747033410369 158.35424109733287 0 158.35424109733287 357.93611911975313 0 0 0 0 406.77028416229587 261.04336524706741 0 261.04336524706741 332.87580972212891 0 0 0 0 -203.68115070195563 -54.319541036416922 0 -54.319541036416922 -6.4431843103157007 0 0 0 0 -30.213766293094523 -5.1664775753379217 0 -5.1664775753379217 3.4644536767300451 0 0 0 0 -3.4378031237595632 -1.3843802128765077 0 -1.3843802128765077 46.356764113371497 0 0 0 0 108.48232876428665 228.10209441150073 0 228.10209441150073 -202.27818535984989 0 0 0 0 -86.364825668017147 21.062147205782821 0 21.062147205782821 232.10501303049386 0 0 0 0 -85.719885057169449 59.508234140637796 0 59.508234140637796 86.597335249272874 0 0 0 0 -22.887686290619968 9.449489668928436 0 9.449489668928436 67.543475564016262 0 0 0 0 -3.3792556031750554 -2.1039842805315345 0 -2.1039842805315345 55.917471693020332 0 0 0 0 -162.02925522548139 -111.64818999442468 0 -111.64818999442468 72.49643841033685 0 0 0 0 -69.69107915119821 -126.3236799298611 0 -126.3236799298611 15.688627225950768 0 0 0 0 -35.486860012446414 -13.054317329759215 0 -13.054317329759215 92.230573459499283 0 0 0 0 -86.446051673059628 -128.89133464555016 0 -128.89133464555016 68.328653377582668 0 0 0 0 -26.590844877769996 15.709393908407947 0 15.709393908407947 72.203166695402615 0 0 0 0 -25.110249208344612 55.089914159761975 0 55.089914159761975 46.30080560274655 0 0 0 0 -8.081601805313305 14.123821481603606 0 14.123821481603606 40.623095356077329 0 0 0 0 56.454375727436855 21.498420230869669 0 21.498420230869669 -14.579722219976247 0 0 0 0 -63.630968431170913 -3.0419062038999982 0 -3.0419062038999982 88.28019057882193 0 0 0 0 -32.656724783397294 40.400285292895205 0 40.400285292895205 16.911816423817072 0 0 0 0 -22.597720959252911 -17.670273028990778 0 -17.670273028990778 140.75385645104689 0 0 0 0 -19.806836131450837 28.575268509091984 0 28.575268509091984 -21.421319695131388 0 0 0 0 -1.2133795403756267 2.2808382563107301 0 2.2808382563107301 2.2396527030931708 0 0 0 0 -7.2607369179804238 1.7807149795715844 0 1.7807149795715844 17.627708283837947 0 0 0 0 -17.844609658655827 13.566309788904618 0 13.566309788904618 130.96131381589657 0 0 0 0 -6.7943437523608736 -25.425446452998585 0 -25.425446452998585 119.48857450728246 0 0 0 0 -3.4579413857916421 -7.5004750630476593 0 -7.5004750630476593 7.6976261378364548 0 0 0 0 18.809103977062477 -21.765528232164797 0 -21.765528232164797 9.0146168771170778 0 0 0 0 -27.238380945713288 -12.771154707028472 0 -12.771154707028472 84.634246194453226 0 0 0 0 -4.6987824033130892 -10.199791907740291 0 -10.199791907740291 84.012475093622925 0 0 0 0 3.2679912022049393 -17.253720664093379 0 -17.253720664093379 37.196446368777941 0 0 0 0 -3.3277800013092929 -27.362809018861299 0 -27.362809018861299 36.797586619548383 0 0 0 0 -26.832213395271538 -50.808485916037171 0 -50.808485916037171 55.063767073566851 0 0 0 0 -2.4845804602314416 -4.942654423937455 0 -4.942654423937455 12.612364712117682 0 0 0 0 -10.52403600646872 -5.4924756893180842 0 -5.4924756893180842 24.127738320791991 0 0 0 0 -31.530479474899039 -27.914148358846433 0 -27.914148358846433 51.406641347341065 0 0 0 0 -1.7981443204167089 -0.48372943688931258 0 -0.48372943688931258 23.721578354207793 0 0 0 0 30.939652796860173 -12.22814233849931 0 -12.22814233849931 9.3231642402242869 0 0 0 0 -9.3467259606914013 -4.079848935471091 0 -4.079848935471091 52.572340119899309 0 0 0 0 -13.774184857393266 4.762388686023769 0 4.762388686023769 35.68510579989379 0 0 0 0 -47.571291402942734 -30.960799094158574 0 -30.960799094158574 19.309712567112001 0 0 0 0 6.9663450968928373 -60.173731306491391 0 -60.173731306491391 -45.531375802849652 0 0 0 0 -4.8761984252068942 -8.6266383181955462 0 -8.6266383181955462 32.887821952623199 0 0 0 0 -0.8562353858469578 -5.1772971437349042 0 -5.1772971437349042 38.119784904301923 0 0 0 0 -3.1059870179897686 -9.2847004201271375 0 -9.2847004201271375 22.740468856054378 0 0 0 0 -2.500118888867874 -3.1404337705261938 0 -3.1404337705261938 8.5714033567820564 0 0 0 0 -80.099930368481637 -158.27817076351175 0 -158.27817076351175 148.11139466134773 0 0 0 0 -3.2178819562400776 -6.7003230190794056 0 -6.7003230190794056 29.495814351631566 0 0 0 0 108.85991528830709 117.75897886075472 0 117.75897886075472 -341.9496987364837 0 0 0 0 -88.689773928770592 25.931709337066422 0 25.931709337066422 12.872342238435522 0 0 0 0 45.474552682266221 -251.92916045835591 0 -251.92916045835591 181.19110866077244 0 0 0 0 145.81068640953163 37.647770336086978 0 37.647770336086978 311.84251238480647 0 0 0 0 82.919302406844508 -199.22859559721837 0 -199.22859559721837 133.91428222376271 0 0 0 0 -0.0079071469543769979 1.4294692389472701 0 1.4294692389472701 9.1667062042380678 0 0 0 0 983.20588405971284 749.26693852779863 0 749.26693852779863 581.08797073922324 0 0 0 0 148.74030728793878 -163.14540685544853 0 -163.14540685544853 293.65839751967724 0 0 0 0 -159.34466566053015 216.42005839091871 0 216.42005839091871 -102.35521273330551 0 0 0 0 2.9467673932667822 -80.203918540952145 0 -80.203918540952145 -87.624728226539446 0 0 0 0 251.35325284983264 -163.21132746840885 0 -163.21132746840885 -114.97379468976578 0 0 0 0 346.98911839291395 485.9797327232809 0 485.9797327232809 700.40485661782441 0 0 0 0 801.87156314027743 461.75576790503692 0 461.75576790503692 125.96785595611436 0 0 0 0 290.7082569303966 261.89889949392818 0 261.89889949392818 294.34965866628772 0 0 0 0 120.34177047107573 166.59698710445377 0 166.59698710445377 853.49231723122648 0 0 0 0 345.30731376423137 430.54538057564787 0 430.54538057564787 427.90937185326766 0 0 0 0 121.27967505364722 176.11317166005756 0 176.11317166005756 538.83051298647479 0 0 0 0 147.6814854566037 83.992349201616889 0 83.992349201616889 386.55823435325692 0 0 0 0 146.35421702802159 185.88879039198218 0 185.88879039198218 -72.119451358230435 0 0 0 0 161.85744031470676 325.54130339109543 0 325.54130339109543 306.01225948134379 0 0 0 0 290.97470122143204 249.13641616307541 0 249.13641616307541 209.59264342894312 0 0 0 0 236.44147429813711 385.22386897350043 0 385.22386897350043 189.77833057061071 0 0 0 0 266.00508227576938 390.74110763651697 0 390.74110763651697 168.85305877996871 0 0 0 0 180.97176888347985 551.85717785588167 0 551.85717785588167 -282.40560893523798 0 0 0 0 -365.0224499218366 853.59037710227676 0 853.59037710227676 351.3095164859842 0 0 0 0 43.020816030967126 815.64144923792628 0 815.64144923792628 -128.31478103894915 0 0 0 0 60.788382787831324 704.68599212526624 0 704.68599212526624 252.27095817944792 0 0 0 0 -0.60655444222602739 -1.6009869916442483 0 -1.6009869916442483 7.6984556988117188 0 0 0 0 132.84472456282674 434.3573248646353 0 434.3573248646353 580.9389479408128 0 0 0 0 265.77744109542982 289.8005944629258 0 289.8005944629258 427.79496629531059 0 0 0 0 302.24700713958737 280.4419712630588 0 280.4419712630588 375.89192118751816 0 0 0 0 139.54191868690486 19.941820885420384 0 19.941820885420384 112.61653242996545 0 0 0 0 276.09390557088591 343.3349617048716 0 343.3349617048716 387.54878548943088 0 0 0 0 305.48366786833503 297.93194540472905 0 297.93194540472905 262.09903101094096 0 0 0 0 -287.14962675760216 120.06415905118411 0 120.06415905118411 187.80870148584654 0 0 0 0 -239.1541393814332 159.98098598825163 0 159.98098598825163 -34.158935164523427 0 0 0 0 -204.92803843402817 314.33239108288035 0 314.33239108288035 -296.37297116534319 0 0 0 0 -148.73398502160126 235.08622728126647 0 235.08622728126647 -289.12228362684255 0 0 0 0 -3.1802960226377763 63.221910851152643 0 63.221910851152643 34.437366848575039 0 0 0 0 -20.009107057707212 8.4325799395925003 0 8.4325799395925003 28.277777598741892 0 0 0 0 -216.1519504451735 230.88718643893299 0 230.88718643893299 -107.45414770984644 0 0 0 0 -96.955470441582293 127.70841581319837 0 127.70841581319837 -98.404720530508257 0 0 0 0 -297.63799256008224 193.34644930664763 0 193.34644930664763 9.7554853577166796 0 0 0 0 -15.622731722910252 -0.36820591985959084 0 -0.36820591985959084 31.775964681675703 0 0 0 0 -17.76864934394689 0.70518199790967628 0 0.70518199790967628 36.551372232090216 0 0 0 0 -13.303657770455175 -6.3435541874496266 0 -6.3435541874496266 14.124303356045857 0 0 0 0 -8.0627312835814422 -2.7270094304196277 0 -2.7270094304196277 11.236173184690955 0 0 0 0 119.74414759533101 70.255079511858639 0 70.255079511858639 -76.817765202758892 0 0 0 0 -5.0933973576178673 2.4565409663047859 0 2.4565409663047859 -0.027764235988911423 0 0 0 0 -68.712105898586742 -63.006631235417444 0 -63.006631235417444 154.63764832814923 0 0 0 0 -7.1729965044069104 -90.065692545613274 0 -90.065692545613274 96.636568291549338 0 0 0 0 15.55325235244527 -117.6253381292845 0 -117.6253381292845 128.59651735742227 0 0 0 0 -60.446411283292946 -101.12453236458168 0 -101.12453236458168 228.78808179791667 0 0 0 0 2.7744380637807851 0.24738707761115108 0 0.24738707761115108 -1.3456488659856092 0 0 0 0 -10.307078196899319 -1.0819721702708875 0 -1.0819721702708875 2.1961039197557426 0 0 0 0 -21.310891982160683 25.650084493812756 0 25.650084493812756 221.06472701687017 0 0 0 0 19.140102434240305 -15.553062687513034 0 -15.553062687513034 3.504913370241411 0 0 0 0 21.13770395469146 6.8971187637325784 0 6.8971187637325784 116.65009616270254 0 0 0 0 -0.68492095673354925 -80.720083183834504 0 -80.720083183834504 81.166924465502234 0 0 0 0 -40.779369427338679 -59.876383167385939 0 -59.876383167385939 182.73014550709195 0 0 0 0 0.15821001208747987 -1.0380607069445773 0 -1.0380607069445773 2.0556595222831078 0 0 0 0 -10.841988858965067 2.6924898756558946 0 2.6924898756558946 20.483421307090921 0 0 0 0 -9.1850860681261111 -17.566824747802457 0 -17.566824747802457 35.876441565233108 0 0 0 0 -17.992498895768222 2.7408135591758764 0 2.7408135591758764 57.340999173340606 0 0 0 0 -430.42320955379546 385.84901395734778 0 385.84901395734778 42.444426040485268 0 0 0 0 -18.462583065400395 -0.17122585828110459 0 -0.17122585828110459 37.786050926034477 0 0 0 0 -12.592089401306914 -9.5411495701259383 0 -9.5411495701259383 36.220239660776883 0 0 0 0 172.35662246964057 -170.67252289866883 0 -170.67252289866883 100.23520518446458 0 0 0 0 -245.91895208842288 -97.922912182696564 0 -97.922912182696564 193.45998698510812 0 0 0 0 -26.943256833943451 50.196162880216434 0 50.196162880216434 -71.935705695374054 0 0 0 0 -159.26321151183947 -93.620640408309555 0 -93.620640408309555 343.19677862816025 0 0 0 0 24.75917584517083 -289.3781633396793 0 -289.3781633396793 479.8878524485408 0 0 0 0 -55.567261126278026 -70.679117277781188 0 -70.679117277781188 343.49738245656044 0 0 0 0 -75.351525178584779 -165.04123376686221 0 -165.04123376686221 657.80571934732143 0 0 0 0 -138.96528560346997 -224.15163096447941 0 -224.15163096447941 556.94016670092969 0 0 0 0 -69.402382600652345 -186.1456766861229 0 -186.1456766861229 574.86806580920529 0 0 0 0 -65.22384903712009 -55.4229274219324 0 -55.4229274219324 163.03408406686594 0 0 0 0 -210.9576520065466 -46.038648661326079 0 -46.038648661326079 416.85172412038082 0 0 0 0 81.208613507140399 -11.278605082123249 0 -11.278605082123249 1126.4608686466618 0 0 0 0 50.582417626541428 114.77957859756862 0 114.77957859756862 1303.2102523209614 0 0 0 0 -145.20661236243177 -165.70164217240381 0 -165.70164217240381 1164.6417032772733 0 0 0 0 13.334138324576998 -157.51731360905251 0 -157.51731360905251 917.04652481382072 0 0 0 0 -151.45929334775792 -312.64917787894956 0 -312.64917787894956 818.89899058569063 0 0 0 0 -146.61948805235443 -301.14892607052752 0 -301.14892607052752 799.92398704385414 0 0 0 0 -2.5813773684858461 -155.71021483449294 0 -155.71021483449294 857.72567723075917 0 0 0 0 -63.705719585221232 -247.56948524638574 0 -247.56948524638574 967.47022865711187 0 0 0 0 -274.86466289007512 -189.51084409250689 0 -189.51084409250689 1471.617213250167 0 0 0 0 -198.98330004516902 -102.98373319233724 0 -102.98373319233724 1514.838359288784 0 0 0 0 -52.800091536875698 376.13524674960354 0 376.13524674960354 1581.6373707622843 0 0 0 0 -406.79620233250898 155.15357447955466 0 155.15357447955466 1451.0956412637661 0 0 0 0 -405.46211529147331 223.67832069581345 0 223.67832069581345 2223.3787190202565 0 0 0 0 -295.94150355752208 631.59973846617504 0 631.59973846617504 1301.5790020876157 0 0 0 0 -425.41692557697388 1034.4255791760806 0 1034.4255791760806 3014.4915352933458 0 0 0 0 -494.1020016589755 -612.00396572800673 0 -612.00396572800673 3463.6002173122579 0 0 0 0 -532.99950583875034 -348.38008559648733 0 -348.38008559648733 1680.0791980611903 0 0 0 0 31.115759761596564 -626.17623328250193 0 -626.17623328250193 964.71560358944407 0 0 0 0 89.566789431737561 -398.01625611392228 0 -398.01625611392228 498.898132590155 0 0 0 0 208.10329620235643 -1086.1040004957249 0 -1086.1040004957249 1822.0433128373697 0 0 0 0 140.48685102310446 -436.88449846663389 0 -436.88449846663389 441.50913833818049 0 0 0 0 2.3484430445855295 -10.295824695751662 0 -10.295824695751662 22.657420051079129 0 0 0 0 274.13900055838121 -664.62628018043279 0 -664.62628018043279 414.96123028057627 0 0 0 0 783.66996505794668 1099.0549543206544 0 1099.0549543206544 1621.3940674573823 0 0 0 0 176.38393321193598 37.788904173703486 0 37.788904173703486 -262.60112222618773 0 0 0 0 -2.1174888983285172 -7.5034505086595367 0 -7.5034505086595367 7.1624517681893849 0 0 0 0 1861.0707453077484 -1033.6090610995379 0 -1033.6090610995379 1963.79883945232 0 0 0 0 -332.77975295031501 712.25348589383793 0 712.25348589383793 2735.5389186706398 0 0 0 0 -4.133367846342324 0.64789963150765573 0 0.64789963150765573 1.1350811276718957 0 0 0 0 -155.1343018662883 -304.40734098364192 0 -304.40734098364192 312.17404194806295 0 0 0 0 242.50658068322809 311.70506458372256 0 311.70506458372256 1274.2746516101834 0 0 0 0 3.5321523727522788 1.4268882142013837 0 1.4268882142013837 -2.3071805937292424 0 0 0 0 165.33422019232239 -98.485291864344617 0 -98.485291864344617 117.0982725595095 0 0 0 0 162.14466553347756 -75.602448099598405 0 -75.602448099598405 -1.7397457440238213 0 0 0 0 98.630302805147949 -8.7241141172853531 0 -8.7241141172853531 171.24768364331976 0 0 0 0 88.50445577962455 -95.856320214563311 0 -95.856320214563311 320.87615644521429 0 0 0 0 3.9766123163014271 4.3293795645053592 0 4.3293795645053592 3.7137169060390676 0 0 0 0 101.31922027520704 -80.093125821433205 0 -80.093125821433205 29.816380912874592 0 0 0 0 146.4261648037027 -100.20893373524086 0 -100.20893373524086 110.26765957541647 0 0 0 0 135.13712316425153 -26.868739792254928 0 -26.868739792254928 12.525665867782664 0 0 0 0 124.34642973263908 0.73941582862607902 0 0.73941582862607902 1.3484744970705833 0 0 0 0 172.8777879563786 -57.798783397607622 0 -57.798783397607622 17.185632655455265 0 0 0 0 34.517636215910898 -36.667750497188536 0 -36.667750497188536 59.442725822329521 0 0 0 0 0.053139457038923865 1.2501620763760002 0 1.2501620763760002 1.9473853645904455 0 0 0 0 2.5619908596672758 -0.35568241623332142 0 -0.35568241623332142 3.2729095463291742 0 0 0 0 8.6330132885245945 3.4863316540986631 0 3.4863316540986631 -1.9729707579070066 0 0 0 0 0.97820325262829044 4.9210993584403866 0 4.9210993584403866 5.6666420041440233 0 0 0 0 242.59156354566039 510.32976845833764 0 510.32976845833764 -54.224931691627717 0 0 0 0 -193.21650520786716 -365.60953556262393 0 -365.60953556262393 -7.0148634906945517 0 0 0 0 896.38815939992492 -395.67159743722004 0 -395.67159743722004 -47.022750970354537 0 0 0 0 137.91867136203655 590.59205543450662 0 590.59205543450662 1288.4751613915723 0 0 0 0 -156.34073932696992 -88.950589209751342 0 -88.950589209751342 125.66342304329737 0 0 0 0 -247.41600581002422 154.99689104256686 0 154.99689104256686 1645.8814106775862 0 0 0 0 -1.8031439014683599 2.8535869816998982 0 2.8535869816998982 5.5848936215718652 0 0 0 0 3.2040951519193186 -24.060506286397867 0 -24.060506286397867 19.779963212182338 0 0 0 0 15.943239264919612 10.709659694890433 0 10.709659694890433 -18.21835881723382 0 0 0 0 1.8714976816168942 5.6542300441998492 0 5.6542300441998492 5.7746193995475181 0 0 0 0 -24.780111350661173 18.035097413310723 0 18.035097413310723 -1.7868649911433749 0 0 0 0 -29.81896497703292 8.8372274584307888 0 8.8372274584307888 25.476221030883607 0 0 0 0 50.542558676148474 -70.323489027257892 0 -70.323489027257892 59.156138954302151 0 0 0 0 162.10883331283003 26.141989687144815 0 26.141989687144815 -5.9875011391122825 0 0 0 0 -0.67116760071182568 3.074847010686824 0 3.074847010686824 4.5712990052499691 0 0 0 0 74.828291595368228 319.182184442172 0 319.182184442172 1207.4497367100121 0 0 0 0 215.12179585016929 70.359688122109219 0 70.359688122109219 -31.230931876056275 0 0 0 0 -95.365892602989334 -6.0502043888945991 0 -6.0502043888945991 1425.3625563183086 0 0 0 0 -2.6745153070210677 -1.8639271776448112 0 -1.8639271776448112 1.1198768428260593 0 0 0 0 -25.608721933302149 -105.21115373682551 0 -105.21115373682551 832.11307178957395 0 0 0 0 -89.212605593302669 -66.52643039592931 0 -66.52643039592931 808.63571727056842 0 0 0 0 -1.8014514875776513 -169.7956431711209 0 -169.7956431711209 912.71508756660114 0 0 0 0 -79.145868683290246 -12.266305063509208 0 -12.266305063509208 1182.6976699263723 0 0 0 0 68.246087477156379 423.46117672693345 0 423.46117672693345 1511.2516602469987 0 0 0 0 16.500810668640042 140.28026385304474 0 140.28026385304474 851.29720162109152 0 0 0 0 722.7112898571213 13.565572406103456 0 13.565572406103456 1101.9124250408349 0 0 0 0 666.36405444943375 816.18619086973194 0 816.18619086973194 982.91299874542892 0 0 0 0 -126.2098582513463 -203.93731325852423 0 -203.93731325852423 1228.4168040769146 0 0 0 0 49.410597357273218 687.97353895706328 0 687.97353895706328 585.57795681331845 0 0 0 0 -83.704795688383456 493.60745942845824 0 493.60745942845824 1578.2619272752563 0 0 0 0 -177.60552856331924 182.47778165833006 0 182.47778165833006 1487.4242226836795 0 0 0 0 -228.72734237262102 429.12660461166433 0 429.12660461166433 1817.1422104699304 0 0 0 0 -453.47531577174232 -467.47865171312878 0 -467.47865171312878 1563.9877950491245 0 0 0 0 -259.10875729469262 320.49027663806919 0 320.49027663806919 1977.7047808979187 0 0 0 0 729.01291616382878 187.44040708013563 0 187.44040708013563 1532.6840902755866 0 0 0 0 -345.00229600386137 -31.960922141824085 0 -31.960922141824085 1631.2293711957609 0 0 0 0 40.373941602112609 466.09187906778971 0 466.09187906778971 966.73079706696808 0 0 0 0 -3.5774752947796422 1.5138543674800076 0 1.5138543674800076 6.0691121697246899 0 0 0 0 80.340666898715426 -36.823316382593475 0 -36.823316382593475 25.457346738428896 0 0 0 0 258.79583583764179 86.725699171678571 0 86.725699171678571 72.791801942745224 0 0 0 0 -15.68547113491789 -4.1374549662733244 0 -4.1374549662733244 3.2400587806263061 0 0 0 0 103.90445529469253 -5.8488657499929104 0 -5.8488657499929104 65.966432598346728 0 0 0 0 116.08887904819858 -57.27879294550803 0 -57.27879294550803 -43.536030390867381 0 0 0 0 121.04988235758356 -78.859804365560194 0 -78.859804365560194 22.540174590889364 0 0 0 0 132.53774320046796 -54.755237112549366 0 -54.755237112549366 45.026186156261247 0 0 0 0 101.67921718017897 -71.069529788204818 0 -71.069529788204818 19.4115075425143 0 0 0 0 129.95333084576123 -76.863372092993814 0 -76.863372092993814 -4.3633278473862447 0 0 0 0 179.53207939909771 -114.37883080219035 0 -114.37883080219035 2.4418757266830653 0 0 0 0 158.81291543773841 -98.453076760764816 0 -98.453076760764816 -8.522601034186664 0 0 0 0 128.83957995884703 -122.74009457913053 0 -122.74009457913053 13.500065639949753 0 0 0 0 125.64100847658119 -115.2928840227687 0 -115.2928840227687 35.792126196523895 0 0 0 0 132.39570574293612 -98.114030754339183 0 -98.114030754339183 21.195327169727534 0 0 0 0 -52.401124878251721 -8.9015168684672972 0 -8.9015168684672972 24.782415633977507 0 0 0 0 75.38140043513431 -21.550604909781214 0 -21.550604909781214 -32.566337761680188 0 0 0 0 -6.7078849899103759 -8.4927382546349399 0 -8.4927382546349399 6.3218994637983883 0 0 0 0 6.2983052262819825 -8.4345585175172317 0 -8.4345585175172317 2.7349374455670805 0 0 0 0 -5.6534027794168651 -8.9549573504737054 0 -8.9549573504737054 13.298213357084023 0 0 0 0 -3.6679367937518066 -4.6215061036883469 0 -4.6215061036883469 1.4940719104474738 0 0 0 0 295.09100563906031 -606.53569440393039 0 -606.53569440393039 970.6556737782339 0 0 0 0 103.99929464812703 -159.55641891824416 0 -159.55641891824416 377.46986084778473 0 0 0 0 -13.292349536361144 -226.48161171922402 0 -226.48161171922402 780.90738063953359 0 0 0 0 8.7182031289921724 -232.04921538866984 0 -232.04921538866984 658.36878409729979 0 0 0 0 3.8754879791631538 -4.4027684047978255 0 -4.4027684047978255 12.306246000553074 0 0 0 0 0.74404365611553658 -7.7351485978506389 0 -7.7351485978506389 8.8785903713869629 0 0 0 0 0.56843747486094287 -0.93869839960483148 0 -0.93869839960483148 0.26827585667031428 0 0 0 0 42.596523337866529 -142.68416396112298 0 -142.68416396112298 493.06379761602693 0 0 0 0 2.0112949659562247 -3.1289220634572672 0 -3.1289220634572672 0.81696665673671731 0 0 0 0 0.17218436970870243 -15.048006987155532 0 -15.048006987155532 -64.50376400028108 0 0 0 0 45.769841494486172 -182.83681666062694 0 -182.83681666062694 705.97571913529828 0 0 0 0 41.433260329108634 0.31482236622559867 0 0.31482236622559867 -105.61449494519911 0 0 0 0 2.2511602272497839 -10.985921052779304 0 -10.985921052779304 -66.157565948131378 0 0 0 0 0.51497725292004759 -1.9263875091225628 0 -1.9263875091225628 1.852120372787688 0 0 0 0 40.539449256557418 -77.324850133583823 0 -77.324850133583823 640.580989063983 0 0 0 0 83.588964775586646 -179.71328882712623 0 -179.71328882712623 590.01473602280021 0 0 0 0 15.112900666779751 -133.74844236495665 0 -133.74844236495665 678.67881090621086 0 0 0 0 -52.403257135096283 18.093917354912264 0 18.093917354912264 497.11404279169801 0 0 0 0 54.529817321285009 -156.93241107303402 0 -156.93241107303402 234.56709561069511 0 0 0 0 -18.035521097666788 -188.99946393943537 0 -188.99946393943537 469.21280168881094 0 0 0 0 62.097800021992043 -121.79486587694009 0 -121.79486587694009 433.92547387104423 0 0 0 0 40.346239068307113 -129.51109745913345 0 -129.51109745913345 605.43883204920894 0 0 0 0 -75.68921566334393 -106.2208770630823 0 -106.2208770630823 601.95323608242325 0 0 0 0 -74.488114465561921 -108.96081632827554 0 -108.96081632827554 605.22047564614331 0 0 0 0 -261.62286686360676 -60.613394261166832 0 -60.613394261166832 662.86151017777593 0 0 0 0 -2.8030148687543956 -1.1977410900947092 0 -1.1977410900947092 0.69822243457306143 0 0 0 0 -208.78344877396194 155.30902155061449 0 155.30902155061449 436.79250733598747 0 0 0 0 -101.75747039554881 -165.18477002375948 0 -165.18477002375948 725.39191934361952 0 0 0 0 -185.18131628211086 52.644191846367903 0 52.644191846367903 208.47125927789784 0 0 0 0 1.7816598749795958 192.45655189975514 0 192.45655189975514 273.62446977349464 0 0 0 0 -148.52351507408457 129.35727294743356 0 129.35727294743356 315.25721290115325 0 0 0 0 -239.97721078897939 100.50119868962975 0 100.50119868962975 340.71255447337171 0 0 0 0 10.898047733087878 -151.41736592681627 0 -151.41736592681627 677.17258634014752 0 0 0 0 8.2288959051475103 -107.34843160939636 0 -107.34843160939636 748.40022548405614 0 0 0 0 -5.8585753399412894 -1.6303685332862585 0 -1.6303685332862585 1.3662971136265512 0 0 0 0 13.562072024240479 -115.69966232753177 0 -115.69966232753177 775.68157553525089 0 0 0 0 -172.64409089844776 -98.459524625955964 0 -98.459524625955964 802.1065544612602 0 0 0 0 91.210485963048995 -145.48033960590692 0 -145.48033960590692 502.40031453048141 0 0 0 0 -31.173952070421365 180.73008227957689 0 180.73008227957689 331.42936972626921 0 0 0 0 19.094884746540629 117.48731699861128 0 117.48731699861128 -668.77496886507288 0 0 0 0 119.75940126089199 220.58325528447403 0 220.58325528447403 181.17102101426281 0 0 0 0 13.264457057604886 222.50581613798931 0 222.50581613798931 201.4359043941331 0 0 0 0 21.578009537683101 -233.71951085261389 0 -233.71951085261389 1147.4790190726708 0 0 0 0 -73.08736990718171 -55.53031389950047 0 -55.53031389950047 1596.2719319879398 0 0 0 0 128.42723516936348 833.25920392979606 0 833.25920392979606 -708.80934815063665 0 0 0 0 3.8390350170538383 3.4325007734470105 0 3.4325007734470105 2.5022901455650413 0 0 0 0 -12.945136520604137 -39.340923968677089 0 -39.340923968677089 494.76110726097431 0 0 0 0 -122.32265995671332 392.53475515763512 0 392.53475515763512 -226.41665541185648 0 0 0 0 -364.6690076799423 46.77957470293768 0 46.77957470293768 278.46227612866096 0 0 0 0 6.091347759158289 9.8505566169864238 0 9.8505566169864238 7.9813264062491811 0 0 0 0 6.0893941023575522 10.803812129732449 0 10.803812129732449 9.0056521423140765 0 0 0 0 -54.802942457539757 269.55943690885033 0 269.55943690885033 105.55896655375909 0 0 0 0 -105.30364952607124 2.6171157529197444 0 2.6171157529197444 298.70783090071927 0 0 0 0 -117.67957753964947 -31.111559686518376 0 -31.111559686518376 535.095399911821 0 0 0 0 -91.63490726807504 -8.3106802129659627 0 -8.3106802129659627 482.55400500927499 0 0 0 0 -140.71536666302927 -36.432176391950634 0 -36.432176391950634 539.14451175953582 0 0 0 0 -99.47065251996537 -88.791556635827874 0 -88.791556635827874 546.63182641348976 0 0 0 0 -79.707712537852785 69.811907629215057 0 69.811907629215057 581.77570235879102 0 0 0 0 -177.32752116247184 -48.654559542930656 0 -48.654559542930656 357.40687557135243 0 0 0 0 -177.81336930792531 -30.299006081018888 0 -30.299006081018888 564.54308656154899 0 0 0 0 -235.53596300492609 -155.69266094567865 0 -155.69266094567865 808.48336825599836 0 0 0 0 -99.058532830224067 -62.630491063311638 0 -62.630491063311638 347.46373375640542 0 0 0 0 -94.896164981510083 22.751358418707241 0 22.751358418707241 121.4930953630319 0 0 0 0 -93.697213671579448 3.4268944712148368 0 3.4268944712148368 325.60718277187698 0 0 0 0 -119.10739203626144 -31.076355627694284 0 -31.076355627694284 298.46020474599209 0 0 0 0 40.226360234049935 82.779692227390115 0 82.779692227390115 450.01595450954119 0 0 0 0 16.01975288630274 55.380509283619176 0 55.380509283619176 270.65894819468667 0 0 0 0 22.751868982024462 23.032473882671184 0 23.032473882671184 253.12340299721473 0 0 0 0 218.94992456323234 83.774831625643856 0 83.774831625643856 141.13698244148509 0 0 0 0 271.28153279360413 62.88807274834835 0 62.88807274834835 64.661654703102613 0 0 0 0 279.39329510885727 212.86071434618498 0 212.86071434618498 375.43422831338103 0 0 0 0 182.252222737181 46.204780629814195 0 46.204780629814195 253.22153044494917 0 0 0 0 129.89928398467237 46.38368372145851 0 46.38368372145851 553.14841051542317 0 0 0 0 150.9629575241961 145.69808038888004 0 145.69808038888004 737.62727589217684 0 0 0 0 284.1066242273173 334.52329171125712 0 334.52329171125712 823.38259920444398 0 0 0 0 76.992991822128715 -197.04347972784217 0 -197.04347972784217 740.29121948206011 0 0 0 0 177.96872993338638 208.23784777399351 0 208.23784777399351 552.41125039741746 0 0 0 0 0.35875456602298073 13.044554523452462 0 13.044554523452462 596.68963645989425 0 0 0 0 -34.269919186994684 218.43433726393505 0 218.43433726393505 915.62549598835903 0 0 0 0 5.4639815090886259 71.705632460350898 0 71.705632460350898 527.77112173519708 0 0 0 0 21.146800202823215 123.45373428005769 0 123.45373428005769 605.78150862152688 0 0 0 0 -62.249771771723317 31.903087356571632 0 31.903087356571632 658.49975547822396 0 0 0 0 -18.138455493228321 -8.7516961850196822 0 -8.7516961850196822 547.92846713113249 0 0 0 0 -53.867797027887718 -3.8270086142474611 0 -3.8270086142474611 563.68420855940712 0 0 0 0 -16.816800731059629 -19.73822662231396 0 -19.73822662231396 555.09392138959583 0 0 0 0 -22.288583244022448 -11.139015316395671 0 -11.139015316395671 555.33399636815261 0 0 0 0 -11.631744916496245 -18.769985914324934 0 -18.769985914324934 543.86827333987458 0 0 0 0 41.901083259614097 7.565265454868495 0 7.565265454868495 533.51260612003171 0 0 0 0 -6.2590434115281823 -25.988607502327795 0 -25.988607502327795 516.1528277680336 0 0 0 0 4.2484124453403638 19.611618043825729 0 19.611618043825729 573.02976992673939 0 0 0 0 31.573662808328663 42.010865238808037 0 42.010865238808037 561.16350785039322 0 0 0 0 6.2237690290778573 -12.276946055629196 0 -12.276946055629196 524.02128013684705 0 0 0 0 2.1907702421063728 2.0953964629937616 0 2.0953964629937616 -0.022904302231779639 0 0 0 0 -2.8585990267174566 194.78553840937684 0 194.78553840937684 416.8872689264681 0 0 0 0 19.071476380882814 -59.427031258011993 0 -59.427031258011993 104.4321392093334 0 0 0 0 30.819506065996393 8.5286278331823269 0 8.5286278331823269 363.95863918704708 0 0 0 0 2.9474465046987461 5.1834089330004645 0 5.1834089330004645 2.5447345969514572 0 0 0 0 7.9273697287042992 4.3711304184397051 0 4.3711304184397051 6.4466450209317756 0 0 0 0 12.901423690183393 5.7919121466966743 0 5.7919121466966743 2.5891286328895973 0 0 0 0 3.9246585492339818 2.8301410071444479 0 2.8301410071444479 22.613393012303277 0 0 0 0 6.2194041809756815 8.0378683942936604 0 8.0378683942936604 8.5949143108339001 0 0 0 0 15.060957043428061 16.78168823125452 0 16.78168823125452 10.852326821404858 0 0 0 0 -0.4583552485281075 -1.9695056849699881 0 -1.9695056849699881 5.5997657943808932 0 0 0 0 7.2271816396350914 20.87637387063296 0 20.87637387063296 30.020993653128244 0 0 0 0 22.114720849740479 13.462490309315399 0 13.462490309315399 15.396002019333537 0 0 0 0 1.8078076556303131 8.9673256625846989 0 8.9673256625846989 15.508853224491759 0 0 0 0 -9.5122194016603316 -17.961076499957926 0 -17.961076499957926 0.71061595749779372 0 0 0 0 22.137055462315402 41.280363658483111 0 41.280363658483111 60.144040473038331 0 0 0 0 52.459194640421629 16.376641201291932 0 16.376641201291932 -13.143104769262209 0 0 0 0 -69.828398297733656 21.40683882781741 0 21.40683882781741 -36.038372106078896 0 0 0 0 165.56832663734167 307.62297070654949 0 307.62297070654949 558.34391759020946 0 0 0 0 -116.06565960889566 -240.88104464593198 0 -240.88104464593198 294.16596323707563 0 0 0 0 -0.36957234432154351 0.3557875333035696 0 0.3557875333035696 5.6168498553122959 0 0 0 0 -47.609938586587305 34.82098193301681 0 34.82098193301681 620.9519714533817 0 0 0 0 -71.870712860891217 33.286493679046544 0 33.286493679046544 1025.9423562410047 0 0 0 0 -1.3733083435589606 -2.011235909363748 0 -2.011235909363748 2.4908027703551596 0 0 0 0 -102.37820454621396 33.783610596441576 0 33.783610596441576 798.01726531451641 0 0 0 0 -147.94826419132005 10.775937290418369 0 10.775937290418369 652.76014919651971 0 0 0 0 74.916033109619093 108.2271925456007 0 108.2271925456007 271.05348251815303 0 0 0 0 -31.447647025990591 241.30987477989402 0 241.30987477989402 702.86155729145867 0 0 0 0 198.44634677775684 -100.71190637432665 0 -100.71190637432665 448.68315450572845 0 0 0 0 -90.766759501068009 -58.515624731364369 0 -58.515624731364369 181.715211838904 0 0 0 0 -31.007449381737388 -17.702629075589357 0 -17.702629075589357 287.24793449115396 0 0 0 0 -158.77233566670657 58.313609714306949 0 58.313609714306949 279.87783372289732 0 0 0 0 -50.539279489976252 -58.513680811520317 0 -58.513680811520317 254.88553801998205 0 0 0 0 -129.11606443365599 -15.751714474758046 0 -15.751714474758046 604.73503426527168 0 0 0 0 -85.344292269611287 -87.205271446757251 0 -87.205271446757251 441.08887628406228 0 0 0 0 -104.7551351436332 -35.681095182648278 0 -35.681095182648278 474.80670207837102 0 0 0 0 -16.702610682459635 -31.350923465146479 0 -31.350923465146479 475.00069881198579 0 0 0 0 -5.9216311823947763 -45.321235775016248 0 -45.321235775016248 478.26176039324491 0 0 0 0 -42.412584075205814 -21.342704105947632 0 -21.342704105947632 547.30375002442088 0 0 0 0 50.218572095221589 -2.1084885934669728 0 -2.1084885934669728 446.11565182113554 0 0 0 0 -11.257402379476844 -45.363051890853967 0 -45.363051890853967 417.5401995800421 0 0 0 0 -16.587502474736539 7.4265135016030399 0 7.4265135016030399 327.46794331651472 0 0 0 0 90.699353935161525 -0.17882651829677343 0 -0.17882651829677343 304.2466450605134 0 0 0 0 109.32592096208191 230.76505662966156 0 230.76505662966156 131.1362374119999 0 0 0 0 -2.9401929956620734 29.271821722777531 0 29.271821722777531 335.61318779998692 0 0 0 0 -33.090380397519311 138.48447605836645 0 138.48447605836645 80.716214206579025 0 0 0 0 -36.265394572197692 -62.409769349924318 0 -62.409769349924318 -109.50910300788746 0 0 0 0 3.3377836600339492 2.3759229425533164 0 2.3759229425533164 2.0132666584574821 0 0 0 0 -141.69801126367383 7.8000071322385338 0 7.8000071322385338 1691.0625127046114 0 0 0 0 34.088449641770694 514.08305702065218 0 514.08305702065218 -481.59339942770748 0 0 0 0 -0.041652069681731518 433.37629409301007 0 433.37629409301007 471.1420329582179 0 0 0 0 -57.655252398300036 393.53524968869533 0 393.53524968869533 697.17422515912767 0 0 0 0 81.504165515680143 22.439063084631925 0 22.439063084631925 489.07335428696024 0 0 0 0 -64.788074627531842 -160.7569798234872 0 -160.7569798234872 619.63014682045832 0 0 0 0 5.5160446204859142 8.1555912494601159 0 8.1555912494601159 6.8749539299514311 0 0 0 0 -95.303194935752799 272.34577971769431 0 272.34577971769431 -230.97574773309316 0 0 0 0 -194.4779545060137 -38.573095842220937 0 -38.573095842220937 133.83382163431088 0 0 0 0 115.28847542250696 -72.404098779613378 0 -72.404098779613378 734.4098634132497 0 0 0 0 32.801367016092627 100.76369992034233 0 100.76369992034233 613.20596939676761 0 0 0 0 -226.74128115465271 140.46845365679542 0 140.46845365679542 619.99033935296029 0 0 0 0 28.723603872332859 160.88736061693351 0 160.88736061693351 829.37510867141827 0 0 0 0 19.053420332245878 -45.414027563605487 0 -45.414027563605487 96.91414852141861 0 0 0 0 -11.115902183335947 -0.59272531738224643 0 -0.59272531738224643 52.810079357135692 0 0 0 0 29.462887742767634 -5.1176558539591497 0 -5.1176558539591497 54.293314316681062 0 0 0 0 -107.20668535521554 97.880740989483456 0 97.880740989483456 631.93154854098975 0 0 0 0 -62.017583433167601 22.133289139150293 0 22.133289139150293 138.61289212257543 0 0 0 0 1.8073942452439553 -30.657110735323613 0 -30.657110735323613 18.296793748255709 0 0 0 0 -49.952908677358209 285.38335356250172 0 285.38335356250172 722.41277064208407 0 0 0 0 245.27135540065501 9.2102717369562015 0 9.2102717369562015 513.20294722965264 0 0 0 0 -1.7507244842891296 -64.019401053185192 0 -64.019401053185192 45.272158641130581 0 0 0 0 83.623798628535951 -25.289230172800671 0 -25.289230172800671 178.73881890305529 0 0 0 0 145.93348886589229 263.10529174328258 0 263.10529174328258 703.56326026300667 0 0 0 0 -2.6094012894521939 -27.495668244495775 0 -27.495668244495775 29.782888436278128 0 0 0 0 -11.717070806209112 -23.425580960354623 0 -23.425580960354623 20.267555942595095 0 0 0 0 -17.232866170044872 -11.158083455484302 0 -11.158083455484302 116.03716790022372 0 0 0 0 -0.89672979627357563 -10.191566910987603 0 -10.191566910987603 92.507934701134218 0 0 0 0 -4.5222772715060273 -26.600805887246679 0 -26.600805887246679 92.027065172880953 0 0 0 0 -3.8077302265933213 -16.762844634317432 0 -16.762844634317432 40.651753808980907 0 0 0 0 -35.644949503694761 -33.748146497727248 0 -33.748146497727248 53.971136069874774 0 0 0 0 -5.8482304231868127 -4.9692223278878895 0 -4.9692223278878895 89.273864060143737 0 0 0 0 -42.072940275334986 49.442066974886984 0 49.442066974886984 205.07249366709857 0 0 0 0 11.978697407756044 0.60051583445965662 0 0.60051583445965662 237.16018984601305 0 0 0 0 1.381945274297351 -3.8504628844303319 0 -3.8504628844303319 19.274574122660567 0 0 0 0 -6.2298365652574752 -5.9192554505646271 0 -5.9192554505646271 41.426410046689824 0 0 0 0 -8.1951821466523143 -6.219653084120182 0 -6.219653084120182 47.944510425553744 0 0 0 0 -37.064237442493322 -23.633965377482582 0 -23.633965377482582 57.900386632445361 0 0 0 0 8.3323925991480792 -10.6798503292639 0 -10.6798503292639 41.106120606370496 0 0 0 0 -0.090944346015021438 -14.678186538470982 0 -14.678186538470982 49.061167203697551 0 0 0 0 -4.8576151569050126 -5.4774285173893986 0 -5.4774285173893986 45.134472239355091 0 0 0 0 -7.8504769348310219 -8.6902289776589896 0 -8.6902289776589896 59.946163047672599 0 0 0 0 -1.8563641653165988 -4.3160299697362206 0 -4.3160299697362206 14.783565104029769 0 0 0 0 6.6311150058611474 -17.169620547804016 0 -17.169620547804016 60.922690825125756 0 0 0 0 18.831513310979062 -42.418249994014332 0 -42.418249994014332 40.883049985939579 0 0 0 0 2.2091002789856802 -23.855984841633571 0 -23.855984841633571 27.043482553403237 0 0 0 0 -5.3838446396334341 2.0742433588238747 0 2.0742433588238747 18.289674792508194 0 0 0 0 0.92870557240166818 -6.7950353836022259 0 -6.7950353836022259 15.420456181011104 0 0 0 0 1.8486848508009075 -17.423364899729854 0 -17.423364899729854 23.377441402328849 0 0 0 0 5.4242109775443623 -22.202858071455239 0 -22.202858071455239 5.0894665476989758 0 0 0 0 -50.894993242789496 -46.21063038102875 0 -46.21063038102875 28.041410395961066 0 0 0 0 10.921979709228253 -12.327635040404857 0 -12.327635040404857 10.133789047593382 0 0 0 0 10.683477759156858 -17.613548145805112 0 -17.613548145805112 16.909011947012914 0 0 0 0 12.476605666248361 -2.5921771340563282 0 -2.5921771340563282 21.916154182868922 0 0 0 0 10.118551952242342 -7.9721603548714484 0 -7.9721603548714484 15.366634103069373 0 0 0 0 10.191471761290813 3.4415208540613094 0 3.4415208540613094 35.61899335083217 0 0 0 0 23.594501757177568 -7.0446152390077259 0 -7.0446152390077259 22.873524475602608 0 0 0 0 12.927339204203236 -8.4340496381373669 0 -8.4340496381373669 34.800182062255772 0 0 0 0 30.153700743754598 -8.1900476187365712 0 -8.1900476187365712 34.776499085199248 0 0 0 0 23.274207160888182 -8.0967748046768975 0 -8.0967748046768975 22.02106758741138 0 0 0 0 8.566082771465517 -21.893147866041545 0 -21.893147866041545 48.46842681611156 0 0 0 0 10.58345251482433 -9.7437550404383728 0 -9.7437550404383728 36.062311767131177 0 0 0 0 -4.9336999981559657 6.3624749275967787 0 6.3624749275967787 9.3675079528730478 0 0 0 0 2.9579021967656445 8.1246451852784958 0 8.1246451852784958 21.308139984397712 0 0 0 0 -0.49660629339632578 2.9283220989746042 0 2.9283220989746042 25.947138180134061 0 0 0 0 8.2434275931336742 4.1043711303864256 0 4.1043711303864256 21.887443591087958 0 0 0 0 7.3785964108046755 -2.0694715017016279 0 -2.0694715017016279 27.448178123581783 0 0 0 0 -7.1957322810940241 3.1210617734577681 0 3.1210617734577681 42.988126045609533 0 0 0 0 -6.2287740939718788 9.7475403780663328 0 9.7475403780663328 43.80798414287824 0 0 0 0 -8.1810295890809357 10.224272852708964 0 10.224272852708964 50.833287620313058 0 0 0 0 -3.5667199350912142 17.90134343691841 0 17.90134343691841 40.91991211995628 0 0 0 0 -39.545440828569554 12.80085790335761 0 12.80085790335761 51.977097336373845 0 0 0 0 -68.595796255391178 34.476822610631643 0 34.476822610631643 41.403752768439517 0 0 0 0 0.10267816067153035 41.312947728700237 0 41.312947728700237 -2.7538061891209509 0 0 0 0 -3.3308515140254258 20.562103793315373 0 20.562103793315373 45.637818558323488 0 0 0 0 23.374197658926278 -7.3828883254245738 0 -7.3828883254245738 35.998946377962056 0 0 0 0 38.064472760106582 -33.188729020763276 0 -33.188729020763276 103.12225585759734 0 0 0 0 54.426523785026802 -28.649656279954797 0 -28.649656279954797 65.393672813181183 0 0 0 0 32.353132885995365 3.4954588139407861 0 3.4954588139407861 47.986168337374693 0 0 0 0 39.21490828345668 2.495451440632678 0 2.495451440632678 41.854325297083051 0 0 0 0 18.20830026090016 -0.6150476642301328 0 -0.6150476642301328 49.880728118565457 0 0 0 0 27.286453427303059 0.57314951501030009 0 0.57314951501030009 35.524971672512663 0 0 0 0 21.295933516044897 10.725112067935697 0 10.725112067935697 39.882690832335356 0 0 0 0 8.4241828347767296 17.486952235216449 0 17.486952235216449 41.854562638072821 0 0 0 0 8.2961867057845922 7.0862887200963911 0 7.0862887200963911 47.827307576255407 0 0 0 0 16.089437370037558 -5.0919170912738991 0 -5.0919170912738991 51.985679778703343 0 0 0 0 31.191270165818423 -3.0121998973445443 0 -3.0121998973445443 52.143012740598351 0 0 0 0 22.021883063880523 -5.2721435277653654 0 -5.2721435277653654 52.185500288076582 0 0 0 0 22.39082062270316 -20.593218179795201 0 -20.593218179795201 45.141791983336589 0 0 0 0 25.644027676755286 -18.760171234709105 0 -18.760171234709105 65.490941702235432 0 0 0 0 19.572017848847281 -10.296450862930214 0 -10.296450862930214 97.378172838900355 0 0 0 0 28.373244582100597 -8.5935306990722893 0 -8.5935306990722893 72.556318022234336 0 0 0 0 25.097171831281344 -12.069670257894927 0 -12.069670257894927 96.973729014447599 0 0 0 0 11.800766363656294 -5.0462060797181039 0 -5.0462060797181039 126.51383881023503 0 0 0 0 23.809359965837302 -25.061377386456797 0 -25.061377386456797 107.07083364250138 0 0 0 0 30.347973266204463 -16.042918321908019 0 -16.042918321908019 78.326361814550182 0 0 0 0 37.931605970432429 -19.18642656792872 0 -19.18642656792872 65.104525344289868 0 0 0 0 19.713276187540032 -17.753061853505642 0 -17.753061853505642 95.389814172936894 0 0 0 0 24.5038416796815 -28.278997052737395 0 -28.278997052737395 121.090072634026 0 0 0 0 27.758532810432371 -33.545387837210001 0 -33.545387837210001 122.000236291693 0 0 0 0 42.333039605542581 -29.438725454590895 0 -29.438725454590895 76.79619712313297 0 0 0 0 30.06531939683191 -63.090478384221569 0 -63.090478384221569 157.81374916841014 0 0 0 0 0.20589440121693769 -30.065828205948492 0 -30.065828205948492 187.04388700213349 0 0 0 0 4.1127534502120398 -20.520139654039667 0 -20.520139654039667 166.87488275357828 0 0 0 0 -3.0939830154493393 -12.729303641401202 0 -12.729303641401202 166.65203712137611 0 0 0 0 -4.4813756180428754 -4.781130755380218 0 -4.781130755380218 204.73901499494968 0 0 0 0 -25.431056146781884 15.69700982863651 0 15.69700982863651 239.16526047891966 0 0 0 0 -7.0204452925245278 19.252417890624201 0 19.252417890624201 218.19839008223607 0 0 0 0 -12.670939394160996 -4.1358783926707474 0 -4.1358783926707474 304.63801854491976 0 0 0 0 7.396217662264462 -70.426102598366924 0 -70.426102598366924 262.66714379759287 0 0 0 0 -4.0874588214246614 -30.044908144043802 0 -30.044908144043802 244.8188169481291 0 0 0 0 -29.853252148970569 10.137996780444155 0 10.137996780444155 232.41143789762873 0 0 0 0 -29.091203363268505 2.4647233800897084 0 2.4647233800897084 307.0175232064903 0 0 0 0 33.335374890128151 66.1855107450574 0 66.1855107450574 402.40823467197879 0 0 0 0 17.01604470248094 -48.662586435894809 0 -48.662586435894809 219.46120445863926 0 0 0 0 2.9889859596223687 -136.87968313122838 0 -136.87968313122838 341.09351956899809 0 0 0 0 -42.944846463014983 73.564300226071282 0 73.564300226071282 651.29540501825068 0 0 0 0 -30.824413293503312 -81.558134993774729 0 -81.558134993774729 540.1882970750321 0 0 0 0 1.8009804344479576 -3.6572124605326053 0 -3.6572124605326053 9.6816227626996252 0 0 0 0 -7.9806019832813035 -168.65859228057388 0 -168.65859228057388 171.30624889068167 0 0 0 0 48.2470275676651 -26.263118462823513 0 -26.263118462823513 -16.557917157198972 0 0 0 0 80.339997722301632 -82.352647322921257 0 -82.352647322921257 61.405867093054894 0 0 0 0 37.07081368861418 -49.739640667917683 0 -49.739640667917683 100.37740772958932 0 0 0 0 36.636610078574449 -88.114271943959466 0 -88.114271943959466 197.57060912607631 0 0 0 0 46.152961373131802 31.611407617673649 0 31.611407617673649 94.053252483441611 0 0 0 0 15.297405858253114 27.573090802517982 0 27.573090802517982 151.2669803969693 0 0 0 0 32.349402438234392 12.468378566742103 0 12.468378566742103 85.566125347173511 0 0 0 0 54.319445298774554 3.3450919693868855 0 3.3450919693868855 43.154346264960623 0 0 0 0 81.183105838642405 4.22044836602754 0 4.22044836602754 48.043450754510559 0 0 0 0 96.739116004451716 81.485907278483865 0 81.485907278483865 114.28621974400266 0 0 0 0 19.702943005473571 68.895547564323351 0 68.895547564323351 205.98748396929659 0 0 0 0 13.675890128766696 52.996812563507774 0 52.996812563507774 164.27138741307135 0 0 0 0 -5.3265905326979919 34.331163391497284 0 34.331163391497284 232.10510581338895 0 0 0 0 -0.63107678612141171 31.914564204544149 0 31.914564204544149 192.23701930304833 0 0 0 0 5.1244491563502379 20.714619000755192 0 20.714619000755192 186.88217460613214 0 0 0 0 -12.271740821073763 31.907992849890434 0 31.907992849890434 237.08953598724838 0 0 0 0 -7.8619307215885783 10.826259515812126 0 10.826259515812126 201.94337567276671 0 0 0 0 -0.64353686875438143 13.314183991982645 0 13.314183991982645 199.42998224370058 0 0 0 0 2.0656588046203979 1.1396792132200062 0 1.1396792132200062 147.51084356585488 0 0 0 0 7.0555654866057012 15.208893391559286 0 15.208893391559286 149.23263240667075 0 0 0 0 9.884255728469725 -0.11054829964632518 0 -0.11054829964632518 147.87088067872901 0 0 0 0 7.867804990217337 -5.3174332751841575 0 -5.3174332751841575 148.66577342422215 0 0 0 0 17.716193235701212 6.6187223359866039 0 6.6187223359866039 118.85994139581726 0 0 0 0 19.618690974968558 28.299076209684245 0 28.299076209684245 126.24601596091816 0 0 0 0 22.474524860598649 11.416135832381769 0 11.416135832381769 106.05194980018859 0 0 0 0 14.68555793782798 -7.4847165349237912 0 -7.4847165349237912 83.094071307468766 0 0 0 0 15.666028188978089 -11.584227136667323 0 -11.584227136667323 85.913062328279921 0 0 0 0 13.689697564623202 -3.3258418335244642 0 -3.3258418335244642 110.99488047348859 0 0 0 0 23.878813666178758 3.3599046869057929 0 3.3599046869057929 105.28569491589769 0 0 0 0 18.675896274136903 -18.373548615058098 0 -18.373548615058098 85.558933379466907 0 0 0 0 26.680945719377632 -11.666541720187524 0 -11.666541720187524 69.935294356684608 0 0 0 0 21.387103750092137 -5.2897198825266969 0 -5.2897198825266969 66.760884176252148 0 0 0 0 22.872299867362017 -1.2951094136842585 0 -1.2951094136842585 69.927169811136991 0 0 0 0 17.132366800191448 -18.672331719995327 0 -18.672331719995327 57.639897035758622 0 0 0 0 16.715618207887019 -8.6177851516986266 0 -8.6177851516986266 46.193530530516 0 0 0 0 25.869420360025288 -11.612351661514367 0 -11.612351661514367 49.353737896977691 0 0 0 0 18.482824633741984 -25.632926355574455 0 -25.632926355574455 34.359808569657616 0 0 0 0 14.65241915272054 -15.119139685673872 0 -15.119139685673872 51.902702571407644 0 0 0 0 15.671721147788048 -24.533819471078459 0 -24.533819471078459 27.373628136469051 0 0 0 0 12.338261721517938 -29.742268404318565 0 -29.742268404318565 47.590177223195496 0 0 0 0 26.051741032619248 -8.8746369374275673 0 -8.8746369374275673 38.654472666181391 0 0 0 0 18.784526971537161 -11.042262543525794 0 -11.042262543525794 78.434170963861106 0 0 0 0 20.594857099305045 -7.3712855444373417 0 -7.3712855444373417 70.634540398616082 0 0 0 0 25.941502921178653 -7.3104428914666642 0 -7.3104428914666642 69.278633781766985 0 0 0 0 35.036125341110164 5.1534922618775454 0 5.1534922618775454 68.766713810706278 0 0 0 0 29.235891990381788 -11.240134680133451 0 -11.240134680133451 28.948530079844204 0 0 0 0 11.055186193014379 -31.345172916008778 0 -31.345172916008778 45.649939918403106 0 0 0 0 -3.4827735982435115 -54.775772923183695 0 -54.775772923183695 12.901994439711416 0 0 0 0 2.2208594493167766 -32.24066458073321 0 -32.24066458073321 25.046895955183572 0 0 0 0 12.185209794605498 -40.739147473842422 0 -40.739147473842422 30.712164884167578 0 0 0 0 5.1640577135363053 -7.7457228635513076 0 -7.7457228635513076 4.1666820920648036 0 0 0 0 7.9840337435884763 -21.074047976666463 0 -21.074047976666463 26.545936978911413 0 0 0 0 7.0557081290562564 -45.3548857883452 0 -45.3548857883452 13.298622676627019 0 0 0 0 -3.6140908084016701 -39.937025386034293 0 -39.937025386034293 29.876192517999925 0 0 0 0 46.410300782146805 -33.165105037583999 0 -33.165105037583999 -80.137568669320899 0 0 0 0 -111.51180768392078 11.47446139706517 0 11.47446139706517 52.045027375403151 0 0 0 0 4.858085698879222 -22.741351533684792 0 -22.741351533684792 27.32064989267019 0 0 0 0 17.671524072102329 6.8672852041345323 0 6.8672852041345323 25.755076974292024 0 0 0 0 12.357205005533615 -23.254526420565526 0 -23.254526420565526 22.569197770953906 0 0 0 0 20.809871569674215 -9.5295742972175503 0 -9.5295742972175503 32.467559040862398 0 0 0 0 11.312218369491347 -23.481830525018268 0 -23.481830525018268 35.152914002799662 0 0 0 0 9.8153593888455362 -15.98352113466899 0 -15.98352113466899 11.607053805062606 0 0 0 0 -1.648352716131285 -18.458308992167531 0 -18.458308992167531 24.836604496194923 0 0 0 0 17.775168999125526 -23.691852400428616 0 -23.691852400428616 15.615972911240533 0 0 0 0 2.4979048410896212 -24.857127622479311 0 -24.857127622479311 34.577441846564398 0 0 0 0 8.745895317500981 -36.859679268558466 0 -36.859679268558466 -1.8013872350356905 0 0 0 0 7.145331341107628 -20.306017017988623 0 -20.306017017988623 20.809625856999681 0 0 0 0 75.847642736582202 -156.76576685275722 0 -156.76576685275722 -87.508573802420869 0 0 0 0 -0.26781884309275483 -18.678475285272725 0 -18.678475285272725 21.288734241757993 0 0 0 0 -41.071880525036249 13.412559320062428 0 13.412559320062428 50.390189549565548 0 0 0 0 95.82690213562455 -60.993550624199997 0 -60.993550624199997 -97.898444939302863 0 0 0 0 -11.208738189026917 -64.513748117067735 0 -64.513748117067735 246.5733333726821 0 0 0 0 132.86606874437348 -145.44739465658495 0 -145.44739465658495 50.697313542565098 0 0 0 0 58.695554122871727 7.3751155834916062 0 7.3751155834916062 24.773131391058996 0 0 0 0 281.20354115233931 192.49575649439066 0 192.49575649439066 134.98238383751777 0 0 0 0 6.2583603471175593 -33.391093194793129 0 -33.391093194793129 20.712527503363333 0 0 0 0 42.138657379064171 11.549351565519828 0 11.549351565519828 75.480711263957346 0 0 0 0 -98.583762483785904 -35.973493972895085 0 -35.973493972895085 119.04679251638299 0 0 0 0 1.510735381694758 -8.6654850772738428 0 -8.6654850772738428 65.110207646794152 0 0 0 0 -8.5773159013751865 -4.5078077929974825 0 -4.5078077929974825 109.12709728348636 0 0 0 0 12.734052209159927 84.045055382237479 0 84.045055382237479 175.62840037144633 0 0 0 0 4.1165680040685402 20.896747214381321 0 20.896747214381321 64.043746372248279 0 0 0 0 174.53353317838082 11.860179109957244 0 11.860179109957244 -3.0757856669806642 0 0 0 0 -0.12424005126059967 -0.85838897959295224 0 -0.85838897959295224 4.3494342881064085 0 0 0 0 -125.51360883335656 -86.62542336999104 0 -86.62542336999104 294.79494361990146 0 0 0 0 -22.383466496828987 -84.675917243432195 0 -84.675917243432195 50.608671122052328 0 0 0 0 23.912933742889436 -35.237398642348126 0 -35.237398642348126 -124.78349651562894 0 0 0 0 -0.42527431062990217 -41.433131255649641 0 -41.433131255649641 -83.903890763460367 0 0 0 0 8.5432404784549689 -33.600993257289289 0 -33.600993257289289 19.737021253548178 0 0 0 0 7.8321338307505357 -34.633712216498679 0 -34.633712216498679 -31.330961592142557 0 0 0 0 1.637559540006805 -30.625505170687575 0 -30.625505170687575 -27.344542936436483 0 0 0 0 5.8939779752708077 -34.314815486748429 0 -34.314815486748429 23.256241852089033 0 0 0 0 1.9514733904288732 -10.996540515701781 0 -10.996540515701781 77.374577072332613 0 0 0 0 -1.044838395719843 -21.683585774019974 0 -21.683585774019974 3.5100570075780695 0 0 0 0 9.5351436560886214 -37.135442233549838 0 -37.135442233549838 -27.658924516908883 0 0 0 0 4.4442679454878089 -34.114761698969232 0 -34.114761698969232 -23.258989037682113 0 0 0 0 0.83127139888010504 -2.3858070719781779 0 -2.3858070719781779 -0.22452025421934962 0 0 0 0 160.16494490966579 -157.8416773513818 0 -157.8416773513818 76.021458221211105 0 0 0 0 -89.397656369020297 117.57491370937987 0 117.57491370937987 21.226515139205731 0 0 0 0 0.84764987378123635 1.826256218380216 0 1.826256218380216 2.6332045668694946 0 0 0 0 136.53212289401927 -138.5194912097395 0 -138.5194912097395 130.07843547765879 0 0 0 0 28.489622978431726 32.154518193623517 0 32.154518193623517 125.19692517963995 0 0 0 0 -21.013433143136353 -40.043695830085198 0 -40.043695830085198 21.736654546562932 0 0 0 0 -11.740684261414572 -128.68923886968696 0 -128.68923886968696 130.52716247257194 0 0 0 0 198.52771650598152 -160.34000780225324 0 -160.34000780225324 33.752851654644473 0 0 0 0 66.052789713066886 -278.69224285438395 0 -278.69224285438395 270.3573186675203 0 0 0 0 64.158253302774028 168.85304911027197 0 168.85304911027197 -61.755920711577346 0 0 0 0 45.036448724793445 -12.495728987920302 0 -12.495728987920302 -187.50720932125478 0 0 0 0 -243.18685854316573 -73.423021319787949 0 -73.423021319787949 97.751138941617683 0 0 0 0 20.475743259408773 -16.732316115128924 0 -16.732316115128924 24.904070264450638 0 0 0 0 27.191452388484635 -15.467344898259356 0 -15.467344898259356 9.1029058310334534 0 0 0 0 314.42213321157033 -321.46591027764953 0 -321.46591027764953 -67.012830503372243 0 0 0 0 24.850356424471101 -11.76216337050937 0 -11.76216337050937 30.519874714926118 0 0 0 0 25.65016527863677 -9.6997810501793253 0 -9.6997810501793253 3.1952015797633493 0 0 0 0 22.801832505090715 -7.7636180177605638 0 -7.7636180177605638 50.133065944486589 0 0 0 0 21.641170108585357 -18.128507191453537 0 -18.128507191453537 39.369930270881014 0 0 0 0 24.756738891668647 -18.17357538556098 0 -18.17357538556098 30.029890102465288 0 0 0 0 20.902372056184504 -16.896051790545243 0 -16.896051790545243 29.523011403951386 0 0 0 0 21.1761832534321 -18.453269171557622 0 -18.453269171557622 34.6857738951785 0 0 0 0 -0.56569735261625986 -5.7153631534870097 0 -5.7153631534870097 20.086711374253866 0 0 0 0 24.63935932817003 -16.733447619399158 0 -16.733447619399158 28.484631188701314 0 0 0 0 23.562386961475568 -15.329104239888693 0 -15.329104239888693 29.041589661450416 0 0 0 0 11.807683935858222 -19.842436450282548 0 -19.842436450282548 15.738586245755869 0 0 0 0 13.794462831894634 -11.545215839527373 0 -11.545215839527373 22.715803262755799 0 0 0 0 8.1927528465766954 -16.242886185944371 0 -16.242886185944371 25.424699097016855 0 0 0 0 10.207107335885667 -8.0650814259870458 0 -8.0650814259870458 34.453511495754356 0 0 0 0 14.253080338521613 -12.706798747030916 0 -12.706798747030916 30.100259673650726 0 0 0 0 25.587702690350852 -24.942292403451575 0 -24.942292403451575 47.33349725109656 0 0 0 0 -0.23708490284512607 -6.7919212500981807 0 -6.7919212500981807 34.133377493357386 0 0 0 0 42.148028576789784 15.953846290130969 0 15.953846290130969 -17.118974987693946 0 0 0 0 3.121483213743808 -0.87767126551108277 0 -0.87767126551108277 -2.9680319831976192 0 0 0 0 32.253545022295384 -21.937917562786424 0 -21.937917562786424 -15.526995624561096 0 0 0 0 64.981598092284003 -9.6878659662925202 0 -9.6878659662925202 -17.800536805283627 0 0 0 0 61.600939128754362 -3.7579915325040929 0 -3.7579915325040929 -3.2419619988504564 0 0 0 0 4.0770700173227752 0.14774325363350727 0 0.14774325363350727 -2.0988715801983631 0 0 0 0 -20.296451663656626 -6.3084496994270012 0 -6.3084496994270012 7.9875479124693811 0 0 0 0 -21.491810187948431 -18.08236010112887 0 -18.08236010112887 36.280789634862231 0 0 0 0 11.506532942276863 2.5402829562085572 0 2.5402829562085572 -0.70732822661375394 0 0 0 0 11.327874065205833 1.377301058939338 0 1.377301058939338 -6.810696437554725 0 0 0 0 11.338173019743408 9.148714959355857 0 9.148714959355857 -15.918925944908551 0 0 0 0 9.7131560117722984 7.8489061754880822 0 7.8489061754880822 -5.1868240883632097 0 0 0 0 5.7708921486273539 4.874465234541276 0 4.874465234541276 9.3859896064459463 0 0 0 0 0.84180631113187587 3.0279104421129404 0 3.0279104421129404 3.111213268193012 0 0 0 0 7.2634991506020015 9.6389562744952855 0 9.6389562744952855 -1.7964318466547411 0 0 0 0 1.6500330223498167 14.732041194234625 0 14.732041194234625 3.1902106340130558 0 0 0 0 0.27152636442406219 18.413955515554335 0 18.413955515554335 -5.4709385311871301 0 0 0 0 -1.1813283417585012 1.6236980028503538 0 1.6236980028503538 2.5601508777897237 0 0 0 0 24.112748505096533 15.579675254863105 0 15.579675254863105 -9.8312461681489367 0 0 0 0 -19.840762706000532 -8.9293526366600418 0 -8.9293526366600418 52.370285814380622 0 0 0 0 8.1346048700506799 11.890551408803731 0 11.890551408803731 -14.226123045096756 0 0 0 0 18.162313055356208 17.78653503573878 0 17.78653503573878 -18.351114561406575 0 0 0 0 22.689720687610134 -17.20943447819991 0 -17.20943447819991 35.996023434818198 0 0 0 0 5.8378138486623357 -7.8690664354453475 0 -7.8690664354453475 85.71067021167255 0 0 0 0 23.378547227626768 3.4766998590239382 0 3.4766998590239382 65.830989304136892 0 0 0 0 18.134302660834273 -7.8113216445644724 0 -7.8113216445644724 3.2634120171643559 0 0 0 0 14.641441507264972 -2.7666864856364555 0 -2.7666864856364555 -12.299119980609248 0 0 0 0 18.138722267631238 3.6943709538318217 0 3.6943709538318217 -40.617637868217571 0 0 0 0 11.420822478571758 -5.371134943848233 0 -5.371134943848233 1.3940037316972536 0 0 0 0 10.879835679958887 -3.4525823202511674 0 -3.4525823202511674 -3.1439685077202739 0 0 0 0 -25.369210065783591 45.40102552920689 0 45.40102552920689 119.83856089501933 0 0 0 0 30.252757832755947 43.24720628822115 0 43.24720628822115 52.184080780520162 0 0 0 0 25.730840538471966 24.690329083881807 0 24.690329083881807 76.531065367173142 0 0 0 0 2.787401613112312 -0.62367463989747307 0 -0.62367463989747307 -2.632381227967187 0 0 0 0 5.7326512145825745 -12.037492267840662 0 -12.037492267840662 -0.6626880099211121 0 0 0 0 6.7824336740941362 0.6465165743502439 0 0.6465165743502439 -6.6024819582962664 0 0 0 0 122.86455792595461 94.36113272934017 0 94.36113272934017 -37.203121111160726 0 0 0 0 160.49690587008581 -20.217503216061232 0 -20.217503216061232 3.8003290568958619 0 0 0 0 -0.13588740276618694 0.94756399552556658 0 0.94756399552556658 4.1542529165121493 0 0 0 0 -70.681242756832944 76.876240637335286 0 76.876240637335286 48.567614091800351 0 0 0 0 -75.045413227301083 -32.953147727792157 0 -32.953147727792157 54.051505467730749 0 0 0 0 -146.79174833717843 33.612538964387568 0 33.612538964387568 327.63367779002147 0 0 0 0 -139.66621489745376 55.74346863464234 0 55.74346863464234 52.566118394090154 0 0 0 0 -3.367320524947651 0.91118201179391178 0 0.91118201179391178 0.49652321483287665 0 0 0 0 10.552399009877263 -32.469298138286831 0 -32.469298138286831 0.17626685595314484 0 0 0 0 21.580026229794385 -19.998548981180647 0 -19.998548981180647 35.998981760974857 0 0 0 0 26.285563488894695 -28.757152184101869 0 -28.757152184101869 28.035948405693489 0 0 0 0 -0.40985617405105046 -8.2544332537419152 0 -8.2544332537419152 10.036759983850303 0 0 0 0 10.901765095068185 -28.290833366891775 0 -28.290833366891775 30.321154628763907 0 0 0 0 -45.081066399990505 -88.100356287336126 0 -88.100356287336126 32.497659193293657 0 0 0 0 43.794372031094753 -35.898153789847896 0 -35.898153789847896 24.754898024493684 0 0 0 0 347.65803393134274 -441.33093548700526 0 -441.33093548700526 71.74427246873347 0 0 0 0 -132.72218651399544 400.6542439228524 0 400.6542439228524 828.3945036632731 0 0 0 0 -77.717568586855123 -23.215745211728063 0 -23.215745211728063 121.04970357193815 0 0 0 0 -77.778223864737811 -83.879474487026528 0 -83.879474487026528 -39.48636953636742 0 0 0 0 -55.981278577860394 -218.69110326568625 0 -218.69110326568625 282.02976478254277 0 0 0 0 30.502682716050927 -28.062113064029845 0 -28.062113064029845 23.182434552821 0 0 0 0 -54.673041408635981 -304.54068597830337 0 -304.54068597830337 -112.48929294051959 0 0 0 0 -132.89011061794736 -134.63016858406991 0 -134.63016858406991 41.704683481542816 0 0 0 0 197.11684772718399 -167.32522891637564 0 -167.32522891637564 32.334269231399958 0 0 0 0 10.141176154371351 -11.316811977903853 0 -11.316811977903853 29.983812586118802 0 0 0 0 22.314970339454966 -23.468320153046065 0 -23.468320153046065 18.742618389040317 0 0 0 0 1.9847672501136913 -14.740401619988916 0 -14.740401619988916 15.258459519118333 0 0 0 0 -26.261573588137253 -51.324735890872034 0 -51.324735890872034 33.470146210584062 0 0 0 0 8.2783940980522033 -15.716202538261136 0 -15.716202538261136 28.550387441104078 0 0 0 0 17.992176241858033 -42.296609413262559 0 -42.296609413262559 5.3307335599056387 0 0 0 0 18.063779392032302 4.2746709946368355 0 4.2746709946368355 54.419177371222759 0 0 0 0 1.8152844250300078 -11.37804323853193 0 -11.37804323853193 22.623713114037045 0 0 0 0 -31.120507760384498 -33.994265518958855 0 -33.994265518958855 35.550934661478095 0 0 0 0 11.215440146338892 -20.330657414129931 0 -20.330657414129931 24.516204178783795 0 0 0 0 23.625687056745534 -25.547802304689796 0 -25.547802304689796 11.832946708495854 0 0 0 0 23.874377138887212 -16.84579610329456 0 -16.84579610329456 29.402286880322208 0 0 0 0 24.24445934828691 -16.59428100137302 0 -16.59428100137302 29.108543130598264 0 0 0 0 23.001110444598453 -20.461061762067402 0 -20.461061762067402 26.261552246820429 0 0 0 0 22.887070686732841 -19.053076990097907 0 -19.053076990097907 30.247816879721086 0 0 0 0 23.523640608822006 -22.204324936589273 0 -22.204324936589273 23.426550886186305 0 0 0 0 23.304847608897695 -21.517879718534331 0 -21.517879718534331 16.941135294724312 0 0 0 0 28.483257494732243 -24.016939096214628 0 -24.016939096214628 22.905416089417486 0 0 0 0 28.302206217372259 -20.864081585563326 0 -20.864081585563326 14.868023660696053 0 0 0 0 30.782716747766244 -16.598784797214648 0 -16.598784797214648 19.748278025879699 0 0 0 0 22.161171117850245 -21.960155476961518 0 -21.960155476961518 27.981652417343867 0 0 0 0 29.202904082776513 -15.579653233295176 0 -15.579653233295176 26.051736714754952 0 0 0 0 56.307859564651153 104.10055407540312 0 104.10055407540312 -250.55596162065194 0 0 0 0 27.147037296021253 -11.595435207390608 0 -11.595435207390608 3.4045732005483984 0 0 0 0 42.376071866960046 215.61096135046864 0 215.61096135046864 302.52170592614493 0 0 0 0 -68.989856688466716 -137.94829058918549 0 -137.94829058918549 160.24376618160204 0 0 0 0 -50.227173113666595 191.32828555919968 0 191.32828555919968 -15.786707340565044 0 0 0 0 5.6744616429709289 0.80212481233495936 0 0.80212481233495936 -1.7628611649162451 0 0 0 0 21.592980010655182 -4.0329788460465537 0 -4.0329788460465537 -3.6383493040528805 0 0 0 0 55.325551627209279 87.287574303885776 0 87.287574303885776 220.02613443725568 0 0 0 0 -19.885781126036818 15.771508162273676 0 15.771508162273676 27.928487823713112 0 0 0 0 7.7914765429034958 4.203080891243264 0 4.203080891243264 7.1901903555000857 0 0 0 0 -20.470600366602412 -15.95398148221193 0 -15.95398148221193 41.730834900645277 0 0 0 0 21.148969802816964 -27.115746315264232 0 -27.115746315264232 18.97602820519387 0 0 0 0 11.558114662726284 -14.623472945473935 0 -14.623472945473935 23.892828714719371 0 0 0 0 1.8526961221823512 -28.134360997030853 0 -28.134360997030853 63.046925069822464 0 0 0 0 -4.1895478576170717 -12.964017232377955 0 -12.964017232377955 25.935156557205119 0 0 0 0 -1.0359360875972925 -18.803580350087941 0 -18.803580350087941 52.742326101661092 0 0 0 0 -64.049849888066035 -40.311489550645831 0 -40.311489550645831 655.50497281686694 0 0 0 0 1.8505411610393061 2.5747799064272812 0 2.5747799064272812 2.2331639693393868 0 0 0 0 6.7488337698847474 1.3629090923344975 0 1.3629090923344975 0.38897373590130502 0 0 0 0 24.500804084198535 2.3627971560745209 0 2.3627971560745209 220.06335937299809 0 0 0 0 25.93012061680156 97.540888595596698 0 97.540888595596698 457.39740603504652 0 0 0 0 2.8016383920677441 1.3225534878997323 0 1.3225534878997323 0.50073718113419963 0 0 0 0 104.23211472457842 -74.972013831749791 0 -74.972013831749791 313.30448743816555 0 0 0 0 -65.338011328720526 4.3054601239568626 0 4.3054601239568626 362.46359251708418 0 0 0 0 27.53357475104599 24.496012868830803 0 24.496012868830803 307.55460439614762 0 0 0 0 228.80994212949645 6.6893440049698256 0 6.6893440049698256 304.24302633689058 0 0 0 0 -11.318680954258525 -258.5805795927281 0 -258.5805795927281 455.16024734067469 0 0 0 0 -87.339168861173675 -108.44228916080283 0 -108.44228916080283 323.28349211769819 0 0 0 0 97.008346054483809 -180.36969658853559 0 -180.36969658853559 333.85562450677844 0 0 0 0 130.92618309681382 -9.6718040089722308 0 -9.6718040089722308 162.78849429675756 0 0 0 0 89.539070453093927 -203.12712196762095 0 -203.12712196762095 269.37113236644655 0 0 0 0 140.24113899270924 47.982556325874612 0 47.982556325874612 491.09744807613606 0 0 0 0 97.521702998221372 -182.33516634821444 0 -182.33516634821444 339.51202113075124 0 0 0 0 263.02788440157474 13.723572674442948 0 13.723572674442948 287.0731330911658 0 0 0 0 102.01673316290271 -12.374866159922021 0 -12.374866159922021 294.80145230486596 0 0 0 0 96.715483174397377 -12.486785097233223 0 -12.486785097233223 298.70280044886385 0 0 0 0 103.26372435488292 86.495686984600979 0 86.495686984600979 306.39920474602513 0 0 0 0 111.23081124595228 49.625855115647937 0 49.625855115647937 373.84697635574048 0 0 0 0 31.371151414953601 -16.155930406072002 0 -16.155930406072002 337.13248409306743 0 0 0 0 66.392383141102073 -33.156743936144267 0 -33.156743936144267 322.17521989148372 0 0 0 0 65.482648351302487 -71.892989384266912 0 -71.892989384266912 284.82541286002925 0 0 0 0 60.113539504368873 -77.065826094621116 0 -77.065826094621116 295.99518336284018 0 0 0 0 60.767200214267177 -64.107151767901087 0 -64.107151767901087 293.66059344215682 0 0 0 0 57.291687938324685 -54.113970179452735 0 -54.113970179452735 265.02713247816791 0 0 0 0 61.496609928599355 -79.924226290557272 0 -79.924226290557272 273.25889381958677 0 0 0 0 62.393707088494466 -71.431173060022047 0 -71.431173060022047 245.88556734180747 0 0 0 0 74.293621060226542 -59.015183745459581 0 -59.015183745459581 252.47195864158857 0 0 0 0 23.219032514118226 -23.922223792789737 0 -23.922223792789737 247.26407834336351 0 0 0 0 42.297399245660927 -52.371818556885046 0 -52.371818556885046 284.38696720119697 0 0 0 0 -2.1480136802147172 1.6828537970959587 0 1.6828537970959587 263.32302068731951 0 0 0 0 22.468923095629179 -52.83704694649532 0 -52.83704694649532 321.45437590901201 0 0 0 0 126.20815970391436 -60.012143186415869 0 -60.012143186415869 277.68372498413737 0 0 0 0 -97.931243107667797 351.62630696845827 0 351.62630696845827 774.31902896478277 0 0 0 0 16.688225798940493 -177.87252221518338 0 -177.87252221518338 -332.99460355689007 0 0 0 0 17.230039258691175 -15.987510293697675 0 -15.987510293697675 13.651698474959353 0 0 0 0 14.016372859990497 62.035674244272741 0 62.035674244272741 453.42435074045534 0 0 0 0 11.240232093929453 -12.297019610333592 0 -12.297019610333592 11.669906738147951 0 0 0 0 40.325675622090898 -17.981788556697666 0 -17.981788556697666 370.32652939362742 0 0 0 0 -34.39652377811376 -120.0692204739571 0 -120.0692204739571 -133.99112475878246 0 0 0 0 -48.319552329546241 73.229245049674319 0 73.229245049674319 121.29465456881644 0 0 0 0 4.0741987432750602 -4.2590311796025517 0 -4.2590311796025517 4.5721987432988769 0 0 0 0 134.07305011184508 -247.16303909330964 0 -247.16303909330964 299.95036581576642 0 0 0 0 134.48920299302972 -238.61353969498668 0 -238.61353969498668 -169.73972616137326 0 0 0 0 69.018168525027477 15.462368989039533 0 15.462368989039533 217.90301205615833 0 0 0 0 96.530596293990698 -25.364100716678422 0 -25.364100716678422 185.80794600569061 0 0 0 0 88.698836156890138 144.25769893884535 0 144.25769893884535 403.82340240028498 0 0 0 0 27.278209578684709 22.729355443201712 0 22.729355443201712 644.88142478599548 0 0 0 0 3.30817124121495 32.27566766248674 0 32.27566766248674 322.47722175997478 0 0 0 0 110.22494479769284 113.67655781896519 0 113.67655781896519 177.1296125423807 0 0 0 0 -113.66536086336959 -87.426137187061613 0 -87.426137187061613 173.29785788096706 0 0 0 0 1.0584784134655365 90.081993546124068 0 90.081993546124068 130.69424486009052 0 0 0 0 -29.629064078999136 7.1999462995454451 0 7.1999462995454451 196.44407057512217 0 0 0 0 -47.497611878191009 -29.910150349293644 0 -29.910150349293644 166.84145993409402 0 0 0 0 71.770301836014823 3.7286686959496365 0 3.7286686959496365 135.36687943465222 0 0 0 0 -30.865883786557106 30.877495929602446 0 30.877495929602446 138.78053254328188 0 0 0 0 26.935072886590092 -24.196307190553853 0 -24.196307190553853 420.95187178295237 0 0 0 0 31.253846673351291 132.97304682962931 0 132.97304682962931 445.1432359167718 0 0 0 0 156.17868719114233 56.040260006382596 0 56.040260006382596 250.99647224801629 0 0 0 0 -0.66424624982482783 67.422913739303112 0 67.422913739303112 263.64176709445019 0 0 0 0 25.136133282816218 171.43343811335399 0 171.43343811335399 314.38919148858076 0 0 0 0 -43.729565721251674 10.46679936408691 0 10.46679936408691 364.86928918718377 0 0 0 0 -39.282791679787351 -24.40096057079063 0 -24.40096057079063 139.31955737135377 0 0 0 0 -5.7800605783452284 5.6328463466843459 0 5.6328463466843459 154.98233618515951 0 0 0 0 -7.9342600867366855 147.33943987260773 0 147.33943987260773 318.45199119278186 0 0 0 0 35.078960164031741 151.69827256701501 0 151.69827256701501 167.74327240749335 0 0 0 0 0.54794669837600551 2.0116053907317166 0 2.0116053907317166 1.5934497742353706 0 0 0 0 23.085522745316666 97.385794746771353 0 97.385794746771353 -69.033097424195148 0 0 0 0 93.785444020420073 9.2473772023422498 0 9.2473772023422498 -370.24816876351906 0 0 0 0 -118.67059699880883 -69.494568414465903 0 -69.494568414465903 141.76307144318525 0 0 0 0 -55.606958530259362 -4.0178725480291178 0 -4.0178725480291178 202.19859235783588 0 0 0 0 0.39921834155484248 62.031327950937339 0 62.031327950937339 107.00526005056236 0 0 0 0 -3.7907400877044353 -20.816387996078845 0 -20.816387996078845 59.072832709462091 0 0 0 0 -20.764723637294082 -2.8024098229552692 0 -2.8024098229552692 44.291535371425198 0 0 0 0 10.92717275976247 -25.26337603860884 0 -25.26337603860884 6.0480063966206217 0 0 0 0 19.845115530365092 -28.229770345598808 0 -28.229770345598808 27.355497841075703 0 0 0 0 17.722951258607324 -6.7380968539953301 0 -6.7380968539953301 45.756949160575459 0 0 0 0 14.608795647705847 -11.570560444630246 0 -11.570560444630246 5.2656372926867334 0 0 0 0 -5.0643964921242457 -4.1020334495726729 0 -4.1020334495726729 75.005726988762035 0 0 0 0 3.6442725685551522 -44.296028684728299 0 -44.296028684728299 142.3643257426229 0 0 0 0 -2.7147040954350814 -99.172133344405665 0 -99.172133344405665 228.88451576287662 0 0 0 0 37.745501713316798 -32.384033463828928 0 -32.384033463828928 38.61414584274462 0 0 0 0 -4.6849170324594365 2.0795387485798749 0 2.0795387485798749 6.0770216569378022 0 0 0 0 -11.791383131118891 -3.5499733381984697 0 -3.5499733381984697 0.24443735041859327 0 0 0 0 4.4244786340509563 21.114911789845792 0 21.114911789845792 13.474941019380822 0 0 0 0 -0.8505900229704908 -0.29911845574221729 0 -0.29911845574221729 0.42668621063097589 0 0 0 0 -4.6801935533385404 9.25063054893144 0 9.25063054893144 -1.689604345956468 0 0 0 0 0.45203876277069499 1.916887607000838 0 1.916887607000838 0.4164883062931608 0 0 0 0 -3.7001672535122339 1.4094679135262709 0 1.4094679135262709 -33.270464738299779 0 0 0 0 -0.70206956608369242 -0.36078739763809153 0 -0.36078739763809153 3.1432311625021896 0 0 0 0 167.64512205885023 197.48320701485773 0 197.48320701485773 229.85495135130623 0 0 0 0 73.262779849176695 -57.915927070162979 0 -57.915927070162979 22.97547812184348 0 0 0 0 -0.99849536960490681 0.51928770881902153 0 0.51928770881902153 0.88389638177866914 0 0 0 0 92.042469977388464 -120.79178588122159 0 -120.79178588122159 259.50298957384621 0 0 0 0 -85.388255758894957 57.319368221540572 0 57.319368221540572 -28.183510885372016 0 0 0 0 -160.565735642047 3.1202421481848432 0 3.1202421481848432 55.45565417535181 0 0 0 0 -6.8407969068497749 2.4256002295082482 0 2.4256002295082482 5.1044616805388046 0 0 0 0 -5.0102729743230157 -13.544158627304569 0 -13.544158627304569 271.31610664267282 0 0 0 0 244.64771669887341 -216.99574798754111 0 -216.99574798754111 184.29103036247398 0 0 0 0 1.0828696243787412 -1.1333779620479518 0 -1.1333779620479518 0.060474206376543549 0 0 0 0 136.26460321971535 -150.77318915314754 0 -150.77318915314754 425.22998633091629 0 0 0 0 310.00832478129814 -267.16218521999326 0 -267.16218521999326 222.73003356937625 0 0 0 0 -1.7333984348937603 -0.8523997622667121 0 -0.8523997622667121 0.7743137418719428 0 0 0 0 105.11039438851913 -95.690306676884575 0 -95.690306676884575 250.7418508993469 0 0 0 0 139.82593374477619 -83.269043811469601 0 -83.269043811469601 248.41846936709771 0 0 0 0 100.15857048828912 -91.334768609161983 0 -91.334768609161983 246.9132100204979 0 0 0 0 11.545699620436608 -103.52410983650771 0 -103.52410983650771 287.92479444712808 0 0 0 0 53.889626088945079 -118.61200931746134 0 -118.61200931746134 263.2154032045546 0 0 0 0 -1.1653096691523981 4.2128579036660732 0 4.2128579036660732 3.0171162389181951 0 0 0 0 36.305019840238856 -54.920852290868424 0 -54.920852290868424 313.70090379142312 0 0 0 0 62.752490558282261 -47.025197335100529 0 -47.025197335100529 302.18075467547351 0 0 0 0 67.222967398156925 166.43041359888957 0 166.43041359888957 238.27885083789624 0 0 0 0 -168.33100082921283 -212.77275409717913 0 -212.77275409717913 129.18428265626608 0 0 0 0 -118.88003247286289 47.548874026542592 0 47.548874026542592 359.16881676945559 0 0 0 0 -53.823372216417738 -127.10661951766997 0 -127.10661951766997 124.36668939824722 0 0 0 0 230.64006056003291 377.50313702103631 0 377.50313702103631 -179.8806054928682 0 0 0 0 7.6390907717468508 -34.86189611230111 0 -34.86189611230111 4.6904466515770764 0 0 0 0 17.836547379513831 -50.173513384169382 0 -50.173513384169382 22.333358341165876 0 0 0 0 163.31974520387371 -60.491212807996817 0 -60.491212807996817 0.97399256157041236 0 0 0 0 1.5780369890238415 -2.3532327759655445 0 -2.3532327759655445 3.0982835053776441 0 0 0 0 3.0391678073745894 -5.5604425945357008 0 -5.5604425945357008 10.204922443543779 0 0 0 0 16.937540326813178 -26.962367658657968 0 -26.962367658657968 11.268618757265358 0 0 0 0 4.0906109830029891 -24.898936815426168 0 -24.898936815426168 13.077291569175031 0 0 0 0 -8.4289045029590852 -38.945402350083896 0 -38.945402350083896 18.382860181437991 0 0 0 0 -29.777082994535704 -35.110092943949894 0 -35.110092943949894 41.242175043258612 0 0 0 0 -19.502719713234001 -32.050602973080458 0 -32.050602973080458 27.500455086959846 0 0 0 0 -84.605690388927542 -5.0666964609754359 0 -5.0666964609754359 28.818310248803755 0 0 0 0 -47.52421530954598 -63.059333562843676 0 -63.059333562843676 75.245498317228339 0 0 0 0 89.967792859142719 5.5692124767570022 0 5.5692124767570022 8.2831575407399214 0 0 0 0 -35.282635624516843 -0.18338632636459806 0 -0.18338632636459806 13.626908249665576 0 0 0 0 -2.5920843224068397 -5.3483750058680144 0 -5.3483750058680144 4.6020036208009216 0 0 0 0 -44.976519848549287 12.811408109311742 0 12.811408109311742 0.1631597631949262 0 0 0 0 -37.118373122005778 -7.1160343155597729 0 -7.1160343155597729 4.8723895496696059 0 0 0 0 -19.028802946581891 -50.049454470755336 0 -50.049454470755336 0.85876807324439142 0 0 0 0 -54.50185841142229 -141.83561220767479 0 -141.83561220767479 21.301025540195894 0 0 0 0 -17.52090848284297 -105.76086107703486 0 -105.76086107703486 86.910432184744423 0 0 0 0 48.642692313849693 -94.221192833636451 0 -94.221192833636451 83.581071214327039 0 0 0 0 -5.1145876250129731 -98.149812341686811 0 -98.149812341686811 21.351285937802459 0 0 0 0 114.55831071038028 -98.618972070192285 0 -98.618972070192285 49.736528342140446 0 0 0 0 89.61180469226565 -62.830966647259629 0 -62.830966647259629 2.1080897151546196 0 0 0 0 267.26912455359707 -171.37124954586398 0 -171.37124954586398 167.84796544555684 0 0 0 0 97.961767581709864 -62.692958049161462 0 -62.692958049161462 102.08111300534074 0 0 0 0 152.3963889376023 -83.718947259424567 0 -83.718947259424567 210.28690473662573 0 0 0 0 104.51347479402102 -80.560568842607609 0 -80.560568842607609 239.78301118808668 0 0 0 0 53.671771192612141 -48.358252275131235 0 -48.358252275131235 220.72009891007474 0 0 0 0 90.774038361489147 -103.48638378129363 0 -103.48638378129363 203.99583957523282 0 0 0 0 50.04561787016064 -64.61156611394108 0 -64.61156611394108 168.51729069981229 0 0 0 0 47.308665536174885 -109.94777165423056 0 -109.94777165423056 149.74846947874175 0 0 0 0 -0.74278210862212291 -61.983092286604005 0 -61.983092286604005 145.80195262834786 0 0 0 0 -16.440220599413806 -100.61257643715089 0 -100.61257643715089 111.92579073917659 0 0 0 0 15.777321647410645 -88.818339975540766 0 -88.818339975540766 189.22093993625094 0 0 0 0 13.833307333175981 -25.779950375554108 0 -25.779950375554108 212.15932528026678 0 0 0 0 0.88255028567436966 -36.532885175824049 0 -36.532885175824049 150.65056298429681 0 0 0 0 -0.37496295002620172 -44.970643021830256 0 -44.970643021830256 202.76938940904802 0 0 0 0 48.751559285225085 -24.936257704448508 0 -24.936257704448508 195.22656326130164 0 0 0 0 52.099819853792724 -44.396655306774846 0 -44.396655306774846 235.98780040649399 0 0 0 0 96.026741629584649 -88.279654365100214 0 -88.279654365100214 249.92616325550989 0 0 0 0 98.760803438977575 -34.234389905852424 0 -34.234389905852424 228.81066759250825 0 0 0 0 48.959931020001022 -63.429711671538826 0 -63.429711671538826 173.11945787696459 0 0 0 0 -41.137733670846501 -64.418203229648498 0 -64.418203229648498 104.23920103638375 0 0 0 0 -35.653900243103635 -73.042984332152628 0 -73.042984332152628 115.0272335261634 0 0 0 0 -24.9353778984987 -42.024248965686638 0 -42.024248965686638 144.59727717913665 0 0 0 0 -24.652218961025937 -51.404279165484695 0 -51.404279165484695 169.6531480942067 0 0 0 0 -30.345627726537771 -85.194224220271394 0 -85.194224220271394 104.36536672251168 0 0 0 0 -55.071158438810016 -82.072074757392329 0 -82.072074757392329 110.63940286457 0 0 0 0 -28.594620148287504 -57.266423675244368 0 -57.266423675244368 168.34018822714552 0 0 0 0 -45.441978651461341 -112.00423024837505 0 -112.00423024837505 60.28006978045596 0 0 0 0 -50.431178989532782 -89.198938405181252 0 -89.198938405181252 29.864537630025552 0 0 0 0 -53.532763716302725 -161.93414646270139 0 -161.93414646270139 -37.326665779779432 0 0 0 0 -69.107830445947911 -154.36025591962789 0 -154.36025591962789 -11.390485592579353 0 0 0 0 -2.1215381405760851 -17.876331005629197 0 -17.876331005629197 116.6506864489586 0 0 0 0 -38.556843145177481 -134.30764133028424 0 -134.30764133028424 58.424273644754521 0 0 0 0 -52.962618321407717 -104.75100304758962 0 -104.75100304758962 16.873218750055457 0 0 0 0 -17.98419395999008 -76.634167429950139 0 -76.634167429950139 65.653162206021079 0 0 0 0 -28.642691352957087 -61.144905054321498 0 -61.144905054321498 79.094844383045483 0 0 0 0 129.86966177269824 238.21705536725131 0 238.21705536725131 597.83040692385475 0 0 0 0 -75.170244997483678 -370.54761947206862 0 -370.54761947206862 -316.66105435771169 0 0 0 0 -24.800209787572385 -154.48208652929407 0 -154.48208652929407 -44.332024254845237 0 0 0 0 -1.4283168658513645 -15.441769145156631 0 -15.441769145156631 -18.683141259033974 0 0 0 0 30.787715573071182 143.73000021918415 0 143.73000021918415 508.22431893049361 0 0 0 0 -1.1944684975625606 -29.968253311112726 0 -29.968253311112726 40.334192429331694 0 0 0 0 -1.7757352435583016 -29.902058165214839 0 -29.902058165214839 2.4787413309677504 0 0 0 0 -9.7463768979764538 -52.464338536661764 0 -52.464338536661764 45.401492047202865 0 0 0 0 105.55483533387405 194.30204633788617 0 194.30204633788617 604.93862774030276 0 0 0 0 -37.196673263691991 171.39591765009936 0 171.39591765009936 613.58927425373804 0 0 0 0 -54.385568430938292 293.38220766778795 0 293.38220766778795 465.46468671851471 0 0 0 0 -1.0929081083765837 -3.8281617230426903 0 -3.8281617230426903 4.1835154078726191 0 0 0 0 99.148191794004561 188.65873316965371 0 188.65873316965371 651.14578082464141 0 0 0 0 -1.2084446194863638 3.2016003359680152 0 3.2016003359680152 8.4291689300122954 0 0 0 0 -278.52257655152061 -404.80620777695185 0 -404.80620777695185 370.49962513052014 0 0 0 0 -301.12261943085821 -347.61815414266039 0 -347.61815414266039 719.10436069367279 0 0 0 0 -811.31777142877581 77.535358111839741 0 77.535358111839741 1439.0986232683063 0 0 0 0 121.91467731705563 -20.461139009690669 0 -20.461139009690669 10.235802484341548 0 0 0 0 -8.1012186089283205 -37.316521577511594 0 -37.316521577511594 3.0808468991399423 0 0 0 0 -47.347870601334762 -49.417127193897613 0 -49.417127193897613 301.83717011479894 0 0 0 0 11.633975400091035 -47.288261877387484 0 -47.288261877387484 42.978017175938405 0 0 0 0 29.974343956186203 -88.456659605188179 0 -88.456659605188179 56.918228033671767 0 0 0 0 572.33623286904913 -267.51243545840953 0 -267.51243545840953 598.31673338393011 0 0 0 0 4.8367295709219604 -48.124516934932579 0 -48.124516934932579 52.695005511514665 0 0 0 0 6.9308061827058793 -43.718107695661708 0 -43.718107695661708 40.9248227068299 0 0 0 0 0.9321003117937714 -4.6847334820209809 0 -4.6847334820209809 22.281127163204658 0 0 0 0 4.340099029490375 -64.945815213355672 0 -64.945815213355672 19.068966303777415 0 0 0 0 -49.679420309103989 -125.00458138086469 0 -125.00458138086469 28.56430621331674 0 0 0 0 -1.9501540414727856 -51.647393477489274 0 -51.647393477489274 21.477637003969051 0 0 0 0 -1.783794143673731 -47.920512071665144 0 -47.920512071665144 -17.485517288201663 0 0 0 0 19.121327920183376 108.06247797913602 0 108.06247797913602 459.46539512792515 0 0 0 0 -66.396522166791328 105.21073027628154 0 105.21073027628154 477.26142784019612 0 0 0 0 97.818720327405572 242.73101051795766 0 242.73101051795766 579.48824450677057 0 0 0 0 50.747568821791901 71.623732175681653 0 71.623732175681653 400.39212922017032 0 0 0 0 -86.50341512614591 -24.480596072284243 0 -24.480596072284243 402.5712378678727 0 0 0 0 73.31208767594967 48.517325551260001 0 48.517325551260001 424.04917153590941 0 0 0 0 -407.34505847568903 102.47776269322276 0 102.47776269322276 490.04147781976644 0 0 0 0 -46.511318753428554 -53.030615941508586 0 -53.030615941508586 368.21947508746234 0 0 0 0 168.68678288771162 33.406372461351566 0 33.406372461351566 349.87769180430314 0 0 0 0 -171.6331953314866 -250.4829871733964 0 -250.4829871733964 280.23883007517907 0 0 0 0 -324.02814216935599 -227.43170860835198 0 -227.43170860835198 466.3298617489927 0 0 0 0 -25.880006663304584 -117.8067712220145 0 -117.8067712220145 399.83436139138939 0 0 0 0 -225.23052392771478 -141.79804465548659 0 -141.79804465548659 539.20824812186402 0 0 0 0 -116.08948747014711 14.182432784586126 0 14.182432784586126 352.08172740352893 0 0 0 0 -139.61116185024025 -63.355962164023367 0 -63.355962164023367 374.74121169048885 0 0 0 0 1.7496010633232268 -4.8138397192959133 0 -4.8138397192959133 0.041857094700841202 0 0 0 0 -191.72598711509863 -30.61447825680807 0 -30.61447825680807 736.51603964529204 0 0 0 0 166.45729690148983 -166.39499733517732 0 -166.39499733517732 116.03949137077871 0 0 0 0 204.2587556424312 98.991627923303895 0 98.991627923303895 91.800807748608349 0 0 0 0 -0.22458800171285276 -3.086509122964145 0 -3.086509122964145 1.5921856010406117 0 0 0 0 28.529027082264292 -64.310772203189117 0 -64.310772203189117 82.946988466117546 0 0 0 0 -16.496086609026747 -257.18572718334281 0 -257.18572718334281 -14.030088041756244 0 0 0 0 15.4719883270047 -49.343149730581672 0 -49.343149730581672 39.456319255222262 0 0 0 0 5.9975591452659902 -25.380432405240725 0 -25.380432405240725 66.875096277422728 0 0 0 0 1.4728506706451299 -24.343504780808871 0 -24.343504780808871 41.586318480949558 0 0 0 0 -1.8284182399693236 -89.317936988854854 0 -89.317936988854854 128.59100706353274 0 0 0 0 16.67477092229019 -53.565705093109941 0 -53.565705093109941 57.362287103243851 0 0 0 0 0.11100724275357265 -5.9233961866786302 0 -5.9233961866786302 32.8669111294884 0 0 0 0 13.871344552877417 -61.089761699452538 0 -61.089761699452538 19.435678243309667 0 0 0 0 15.166056197236685 -72.717159434188943 0 -72.717159434188943 18.265573077953832 0 0 0 0 17.454637814636953 -82.234081284022977 0 -82.234081284022977 44.369366143027946 0 0 0 0 17.850658861452757 -54.8502633372118 0 -54.8502633372118 29.153346547576803 0 0 0 0 15.041362142537764 -63.242128071025945 0 -63.242128071025945 51.091692604000855 0 0 0 0 22.598761817177987 -47.982760193875436 0 -47.982760193875436 46.084742822436255 0 0 0 0 20.237153568936264 -62.569247334403371 0 -62.569247334403371 50.632864630930271 0 0 0 0 18.062730604386161 -72.263644275482875 0 -72.263644275482875 95.62806875903857 0 0 0 0 -62.601397098004782 -114.98864539858414 0 -114.98864539858414 49.118099991665076 0 0 0 0 -47.854886168142912 -92.794967438481763 0 -92.794967438481763 63.383631154144496 0 0 0 0 -39.384885573626889 -105.52824186080034 0 -105.52824186080034 34.503799336936481 0 0 0 0 -56.316169265783174 -37.820146856903193 0 -37.820146856903193 269.14522861021032 0 0 0 0 -0.43215397301075598 0.68518413781499277 0 0.68518413781499277 1.5237948082504857 0 0 0 0 -45.290827316006471 -122.83220713333685 0 -122.83220713333685 -6.9402695352946466 0 0 0 0 4.5247952388399426 -67.133620563899058 0 -67.133620563899058 -129.82417656332473 0 0 0 0 -1.104851447060355 -53.230535166387199 0 -53.230535166387199 23.40441495795676 0 0 0 0 -70.607928379869918 -55.65762772502967 0 -55.65762772502967 107.65272672275296 0 0 0 0 -43.92650462266954 -91.318764785445296 0 -91.318764785445296 59.743801103395526 0 0 0 0 -12.549863113252286 -17.463092057383619 0 -17.463092057383619 127.94779765852672 0 0 0 0 -32.734543337862192 -65.979181166296996 0 -65.979181166296996 104.74745329152938 0 0 0 0 -44.712151710827129 -82.275874885349367 0 -82.275874885349367 92.08243013716492 0 0 0 0 4.4188060816013603 -58.661044952432349 0 -58.661044952432349 87.24971211339107 0 0 0 0 -2.460074518707188 -11.547473861372964 0 -11.547473861372964 169.60461410969674 0 0 0 0 -41.21956481703819 -53.392838308081082 0 -53.392838308081082 147.85762152229836 0 0 0 0 -32.051194833758018 -27.631060943827833 0 -27.631060943827833 186.19342523163141 0 0 0 0 16.833211487402878 8.0606838459771097 0 8.0606838459771097 191.09074741739278 0 0 0 0 13.579505283583785 -69.649089255570289 0 -69.649089255570289 76.319990502712301 0 0 0 0 10.588873669619716 -74.038565170005313 0 -74.038565170005313 76.337834997426398 0 0 0 0 20.003438625572812 -78.359067071252753 0 -78.359067071252753 86.719554715793493 0 0 0 0 14.907748682551755 -33.097847375485799 0 -33.097847375485799 127.05401302205428 0 0 0 0 -3.8106947644282627 -34.508726683788154 0 -34.508726683788154 140.60792303176822 0 0 0 0 127.45393742901615 -35.077847070335338 0 -35.077847070335338 103.99763467563298 0 0 0 0 76.954816526566447 -179.19530617266855 0 -179.19530617266855 124.70613581743964 0 0 0 0 -228.07939803211048 -216.88500280752305 0 -216.88500280752305 152.92764770987378 0 0 0 0 295.02988231391828 3.6154681383100069 0 3.6154681383100069 79.723096319805336 0 0 0 0 30.788249668852586 -9.8115349772397167 0 -9.8115349772397167 156.40220163065169 0 0 0 0 1.3239724466850333 0.54269998905538586 0 0.54269998905538586 0.17886530501365749 0 0 0 0 81.015574745335471 5.6890621043730789 0 5.6890621043730789 144.26563844526208 0 0 0 0 182.34499352130479 -192.89698892885099 0 -192.89698892885099 3.6207000911235809 0 0 0 0 496.69684601051995 326.71299980810545 0 326.71299980810545 364.79289936313035 0 0 0 0 850.26353060389283 -314.0463002558281 0 -314.0463002558281 57.581089552288176 0 0 0 0 4.0560711115940649 -47.284267807437573 0 -47.284267807437573 107.69186429205729 0 0 0 0 124.15653178766661 -100.13374698230291 0 -100.13374698230291 -101.69450394606974 0 0 0 0 -38.488838382517315 48.360857127868258 0 48.360857127868258 -19.712565958783671 0 0 0 0 -24.968495359322333 -21.119625586151415 0 -21.119625586151415 214.9180145457758 0 0 0 0 3.1340093159804283 0.83107589007163085 0 0.83107589007163085 0.37073502251272616 0 0 0 0 -15.344819360467227 56.919107298786912 0 56.919107298786912 200.76060705823068 0 0 0 0 -31.932744238925807 58.135278032579663 0 58.135278032579663 295.74787221522638 0 0 0 0 -6.129414384262418 30.586546183471 0 30.586546183471 242.75222078376282 0 0 0 0 -10.767055166040791 11.389028799730795 0 11.389028799730795 244.74439183632785 0 0 0 0 4.5705313892592514 0.82078010775283161 0 0.82078010775283161 0.44492136522927561 0 0 0 0 -18.015467182149223 6.8478706249643437 0 6.8478706249643437 244.94362547143646 0 0 0 0 -19.68591723287318 17.00352306921377 0 17.00352306921377 258.06768733168349 0 0 0 0 -13.988243462111768 -1.3517350563270156 0 -1.3517350563270156 297.40995888173347 0 0 0 0 -10.642187210427437 68.991436773028909 0 68.991436773028909 264.08814402969256 0 0 0 0 -7.9676139268649422 73.196646189104285 0 73.196646189104285 207.85200413483017 0 0 0 0 146.57935984033611 97.91671482998936 0 97.91671482998936 1.7813347519950185 0 0 0 0 -92.630234079166257 -140.63507964392556 0 -140.63507964392556 496.20856134361429 0 0 0 0 77.572966883264598 247.90844552902854 0 247.90844552902854 474.56064499989952 0 0 0 0 286.32600299134901 183.78751869251209 0 183.78751869251209 173.59174407301361 0 0 0 0 6.7205386330839083 0.83443639197328423 0 0.83443639197328423 0.37307822805002511 0 0 0 0 4.4110449162726582 13.335072793801373 0 13.335072793801373 229.08323277699662 0 0 0 0 -24.354869942142614 -70.708594969755723 0 -70.708594969755723 190.46650550911181 0 0 0 0 9.9539429698879758 11.963565767331602 0 11.963565767331602 223.13835681735873 0 0 0 0 8.2877419573142106 15.492181577688825 0 15.492181577688825 217.63617970115592 0 0 0 0 10.022608032768403 -7.9475169668448871 0 -7.9475169668448871 216.9514659426095 0 0 0 0 34.382695009580857 -11.725705624870898 0 -11.725705624870898 228.28865016899908 0 0 0 0 7.819502564528193 3.6458920932172987 0 3.6458920932172987 238.06525601687099 0 0 0 0 28.034411797361827 -18.869256734791634 0 -18.869256734791634 241.64249292242675 0 0 0 0 21.818369255643574 -0.67590301567906863 0 -0.67590301567906863 207.10092698706285 0 0 0 0 52.740328265352218 -22.18749366083739 0 -22.18749366083739 217.14946210399648 0 0 0 0 -2.98399711874481 -0.44004595093701937 0 -0.44004595093701937 213.78811601913003 0 0 0 0 19.854312353130808 -20.39049701930162 0 -20.39049701930162 228.47722969453025 0 0 0 0 18.500169967211605 -12.001479898176513 0 -12.001479898176513 176.7890688653024 0 0 0 0 -16.860690979283618 -5.9518621457636982 0 -5.9518621457636982 207.29262155803372 0 0 0 0 -0.44215070795871725 -6.9592913627602684 0 -6.9592913627602684 170.18684274319133 0 0 0 0 -36.85902137991701 -24.110475728167842 0 -24.110475728167842 153.37795001801715 0 0 0 0 -5.4495256513610002 -24.896790657631755 0 -24.896790657631755 142.72905539192834 0 0 0 0 12.717010254559682 1.22175501602851 0 1.22175501602851 198.34414084076889 0 0 0 0 3.6994656852093613 15.85343329504758 0 15.85343329504758 225.59938759933539 0 0 0 0 -4.250048591204866 -6.8089853741475963 0 -6.8089853741475963 -2.8368887347514828 0 0 0 0 -0.0033949433958984469 -12.259125958229561 0 -12.259125958229561 -16.178596661709889 0 0 0 0 -0.10331071662227284 -0.24453581659130919 0 -0.24453581659130919 0.53007671881238139 0 0 0 0 -4.4609923778136942 -10.195416471271983 0 -10.195416471271983 -5.3424159745190991 0 0 0 0 -1.3779224247066395 0.84476925770286471 0 0.84476925770286471 7.4447313098062295 0 0 0 0 -2.5373699055746721 -0.097217393427342813 0 -0.097217393427342813 6.5350911454577272 0 0 0 0 -2.8987295603801613 -2.7089462943840772 0 -2.7089462943840772 15.415479051371221 0 0 0 0 -1.2035724343131733 -4.5751891964318929 0 -4.5751891964318929 10.954018475960765 0 0 0 0 0.36234307375574648 -5.1606473936387545 0 -5.1606473936387545 4.4489815437606239 0 0 0 0 -1.1229624478946849 -0.53537530898269381 0 -0.53537530898269381 6.354957016060041 0 0 0 0 -1.9384961561265754 -1.4398550359619549 0 -1.4398550359619549 12.164367318368022 0 0 0 0 15.462427781490334 -17.585348439592053 0 -17.585348439592053 2.5412705112394178 0 0 0 0 -11.732830579553934 -6.0433352618474601 0 -6.0433352618474601 11.868317332235165 0 0 0 0 6.4022655651270952 -4.8026122351147933 0 -4.8026122351147933 3.6806987517920788 0 0 0 0 -0.15296659948962837 -0.94824670789364518 0 -0.94824670789364518 -0.88571235554468331 0 0 0 0 -17.304368657560047 -11.10531804819766 0 -11.10531804819766 -1.748669213418907 0 0 0 0 28.70034225770047 23.936862750888395 0 23.936862750888395 -16.465533139496983 0 0 0 0 -4.57082717739803 -22.651798373597558 0 -22.651798373597558 13.108778669775347 0 0 0 0 -48.055763622766506 7.11914366990095 0 7.11914366990095 23.879792056570295 0 0 0 0 58.464449657160912 -38.399373108713917 0 -38.399373108713917 19.407538567786105 0 0 0 0 0.069228597861163976 0.23912628348760023 0 0.23912628348760023 -1.3121251809469072 0 0 0 0 57.88832787240775 -39.568114999205136 0 -39.568114999205136 -15.792370654264232 0 0 0 0 0.0013374827448192628 -0.013635792711419015 0 -0.013635792711419015 -0.48934423265490068 0 0 0 0 -49.978596296962991 10.956541447871132 0 10.956541447871132 33.058985770236177 0 0 0 0 3.8105568677430526 -26.518061564338495 0 -26.518061564338495 43.730642161594005 0 0 0 0 5.2269778890953837 -15.448206920191296 0 -15.448206920191296 -6.0208827653259505 0 0 0 0 0.031847114432220026 -10.476427459620027 0 -10.476427459620027 25.712155745983182 0 0 0 0 7.2947681767114396 -0.76327255610522116 0 -0.76327255610522116 -3.2239663939049024 0 0 0 0 49.594228695863016 47.23055163922254 0 47.23055163922254 54.244764942159236 0 0 0 0 0.039373379258083263 18.102193654496659 0 18.102193654496659 142.2085593521042 0 0 0 0 72.10131782773685 86.832762312988052 0 86.832762312988052 65.801237449544715 0 0 0 0 59.551327170907228 46.064810340569238 0 46.064810340569238 123.39659953964292 0 0 0 0 28.823007455668218 46.527024245813664 0 46.527024245813664 201.78070405192557 0 0 0 0 19.95722503707071 120.98908881107309 0 120.98908881107309 331.01223235580255 0 0 0 0 -18.668491632911945 85.170169530060775 0 85.170169530060775 542.39570834893675 0 0 0 0 3.4402067521160831 38.889837669459666 0 38.889837669459666 541.5438562490599 0 0 0 0 0.016870420090824845 30.13108403563092 0 30.13108403563092 365.74950425467796 0 0 0 0 -7.3197380071726599 150.49025111454011 0 150.49025111454011 710.68133406668494 0 0 0 0 2.8692601863956213 176.05216394084709 0 176.05216394084709 628.09254801386123 0 0 0 0 95.143246931659462 158.12566451216844 0 158.12566451216844 586.67777747780929 0 0 0 0 2.4368975963708293 0.56489526411340307 0 0.56489526411340307 0.52784591140974157 0 0 0 0 79.568892237573834 205.13503181053238 0 205.13503181053238 512.21755488625786 0 0 0 0 5.042174331113074 -22.918501290281711 0 -22.918501290281711 109.63127266646188 0 0 0 0 38.315878770636914 -41.881817292007327 0 -41.881817292007327 119.3598803520581 0 0 0 0 168.32522130778395 234.41196898316412 0 234.41196898316412 314.94345678706304 0 0 0 0 148.19608291670346 15.205818524867937 0 15.205818524867937 111.52862473578716 0 0 0 0 32.550352347282654 102.75655188108067 0 102.75655188108067 145.36848717796238 0 0 0 0 72.474423960562916 -15.280618251597843 0 -15.280618251597843 -0.74320104368962348 0 0 0 0 -15.36201566031059 -32.766848156548804 0 -32.766848156548804 112.4207081341192 0 0 0 0 -29.231372076323339 -73.53101069576951 0 -73.53101069576951 34.199216714812792 0 0 0 0 14.063553659097522 -70.776035918737762 0 -70.776035918737762 58.080307467607781 0 0 0 0 33.917934212289993 -36.585880443868518 0 -36.585880443868518 30.105636087522726 0 0 0 0 32.973476915245783 -28.129473778324609 0 -28.129473778324609 31.069558792281896 0 0 0 0 13.466164057126889 -3.7276159165776335 0 -3.7276159165776335 33.42460222291993 0 0 0 0 10.639614627129959 -15.455676046149165 0 -15.455676046149165 72.139058312212001 0 0 0 0 5.19939690206298 0.8353106034650466 0 0.8353106034650466 0.19436298665006291 0 0 0 0 5.3040042489768524 -23.727291488977244 0 -23.727291488977244 79.755779384096968 0 0 0 0 -157.9694135114355 36.822896629488241 0 36.822896629488241 467.08167399780359 0 0 0 0 -56.08638654533479 90.02248950691137 0 90.02248950691137 315.00383879547735 0 0 0 0 257.41172573647555 126.5156841023163 0 126.5156841023163 -78.380622020158626 0 0 0 0 477.24507445804215 -49.393792171664245 0 -49.393792171664245 345.3975642742007 0 0 0 0 84.427544938043567 263.26981496457302 0 263.26981496457302 753.67514740166371 0 0 0 0 165.78485627475857 229.70531006534293 0 229.70531006534293 527.50182170791231 0 0 0 0 58.732310598738422 -363.75037649838123 0 -363.75037649838123 820.74999904067954 0 0 0 0 -86.265745869076454 -261.23145368046971 0 -261.23145368046971 883.33275088053779 0 0 0 0 138.93186685254636 -283.13322660443373 0 -283.13322660443373 740.20600979722076 0 0 0 0 78.403885921854396 -250.16058305983461 0 -250.16058305983461 284.6468334574929 0 0 0 0 71.665021079930057 -66.837741589013604 0 -66.837741589013604 399.75879950779199 0 0 0 0 153.60958802945461 -56.97734771838077 0 -56.97734771838077 -9.4770061530725798 0 0 0 0 3.0068659279095433 -0.41563255023737611 0 -0.41563255023737611 -0.17065213248433508 0 0 0 0 9.5903638680601944 0.2229822916269768 0 0.2229822916269768 115.93499061271359 0 0 0 0 13.546367849595526 -22.746931334011606 0 -22.746931334011606 59.027321496367222 0 0 0 0 8.684569412395831 6.8387906147399917 0 6.8387906147399917 30.576694906871126 0 0 0 0 33.680584712155905 -60.256316861399682 0 -60.256316861399682 -30.141856885275047 0 0 0 0 150.45653773835875 23.492992353705631 0 23.492992353705631 11.752817606422468 0 0 0 0 -34.225745345010608 -43.8631455439197 0 -43.8631455439197 -27.196982557128649 0 0 0 0 4.7090993042047549 -20.49521374572366 0 -20.49521374572366 38.484937372461218 0 0 0 0 34.533346673390042 -68.148678302510234 0 -68.148678302510234 -46.807577543819207 0 0 0 0 -30.439366586159395 -56.429077421191323 0 -56.429077421191323 52.119983769633109 0 0 0 0 -17.583565212735664 -14.505826634214827 0 -14.505826634214827 46.607077051827218 0 0 0 0 -53.757756396025798 -31.892101367258874 0 -31.892101367258874 29.075594712725433 0 0 0 0 2.1038589817132589 -7.4844363162804655 0 -7.4844363162804655 1.6126892661651482 0 0 0 0 -28.387914301240016 -57.903601149082533 0 -57.903601149082533 6.8483951961825369 0 0 0 0 -0.38221933131262631 -18.797148858197033 0 -18.797148858197033 31.437418434565188 0 0 0 0 21.894226027537798 -26.053008022237918 0 -26.053008022237918 -36.003079910755332 0 0 0 0 25.425988290885584 -21.24248210767837 0 -21.24248210767837 12.423571472143522 0 0 0 0 11.353649005593525 -29.747141758321959 0 -29.747141758321959 37.034970944220731 0 0 0 0 47.639856696835068 -20.487108711575274 0 -20.487108711575274 8.573312163061928 0 0 0 0 26.531192990805948 -26.052669214244816 0 -26.052669214244816 30.401985939824954 0 0 0 0 25.63431135905148 -17.611601130614872 0 -17.611601130614872 10.939645182661479 0 0 0 0 21.02507277722151 -35.965160168461807 0 -35.965160168461807 7.0372520678938599 0 0 0 0 3.3799605914496169 -37.931650646729395 0 -37.931650646729395 17.276885968953138 0 0 0 0 2.5569294277302106 -28.84994129955885 0 -28.84994129955885 10.790813481027726 0 0 0 0 4.3065806461901843 -5.1863556890257314 0 -5.1863556890257314 31.521851935758605 0 0 0 0 1.2743691449497927 -11.983785850245141 0 -11.983785850245141 21.162072620515758 0 0 0 0 18.800793309361325 -24.874805540144735 0 -24.874805540144735 5.5003733261255547 0 0 0 0 17.50437859679198 -22.338470892675105 0 -22.338470892675105 2.9630666971934261 0 0 0 0 0.2612462334221084 -2.8456997522338838 0 -2.8456997522338838 -1.5983238047738269 0 0 0 0 0.72819950099255948 -4.0102475733147003 0 -4.0102475733147003 34.807807527293335 0 0 0 0 0.35763301087252053 -13.060151163863367 0 -13.060151163863367 10.470611172868658 0 0 0 0 -2.0972182770133259 -5.8466020995547296 0 -5.8466020995547296 14.397136627638247 0 0 0 0 -0.63971944435860362 -2.9361281302003306 0 -2.9361281302003306 16.823306957709121 0 0 0 0 -1.0869178174948502 -6.8870955716702156 0 -6.8870955716702156 33.355893832675065 0 0 0 0 -1.1754020358266644 -0.99283815440139733 0 -0.99283815440139733 23.106898022691894 0 0 0 0 1.6118184461240346 -3.7662459358736058 0 -3.7662459358736058 25.698438344166675 0 0 0 0 0.62370531584292621 -10.112498240516288 0 -10.112498240516288 36.842353443207685 0 0 0 0 2.4035996666448227 -5.9681114584527677 0 -5.9681114584527677 43.128310832158604 0 0 0 0 -0.28512606788984307 0.58828456901707682 0 0.58828456901707682 6.7588042122107908 0 0 0 0 2.378622848035775 -7.3076260003726929 0 -7.3076260003726929 28.709291749139084 0 0 0 0 4.5030450606432169 -4.2340529739158228 0 -4.2340529739158228 30.711043970106402 0 0 0 0 -1.4161378420578181 -7.8245635278726411 0 -7.8245635278726411 25.660086278645281 0 0 0 0 2.7195126842647426 -1.3406425776252036 0 -1.3406425776252036 55.884665337725892 0 0 0 0 -0.97973029944479428 -3.9580368185590373 0 -3.9580368185590373 19.230516722502941 0 0 0 0 2.631427134070691 -2.7619390761828981 0 -2.7619390761828981 49.847212907247012 0 0 0 0 -16.037921258492361 -6.7186027756943076 0 -6.7186027756943076 51.589763961412245 0 0 0 0 -2.9326636463520117 -6.7209638627100503 0 -6.7209638627100503 52.180654610463534 0 0 0 0 -5.7240059873904556 0.34905533579149051 0 0.34905533579149051 56.338915243235533 0 0 0 0 2.1827251606294453 -6.1475402664345893 0 -6.1475402664345893 47.33871136061498 0 0 0 0 -31.348618444539397 -33.185314171023492 0 -33.185314171023492 83.929594089888269 0 0 0 0 -3.986781204069255 -4.3152371211156044 0 -4.3152371211156044 59.733612777320786 0 0 0 0 -49.756874788864707 -22.951307196537527 0 -22.951307196537527 93.089028040536505 0 0 0 0 -22.457664270429632 -22.7993308727564 0 -22.7993308727564 73.375475681008538 0 0 0 0 -5.177327691003903 -25.607241787633569 0 -25.607241787633569 25.702329296399597 0 0 0 0 -2.3873805691032732 -12.050199815326209 0 -12.050199815326209 21.944462877609823 0 0 0 0 -13.220627323150893 -33.752030249510426 0 -33.752030249510426 34.619834899785928 0 0 0 0 -17.548415349604511 -37.001150645723101 0 -37.001150645723101 13.962465753371362 0 0 0 0 -6.7003316120756153 -12.072777955574566 0 -12.072777955574566 33.439233214274282 0 0 0 0 2.3187716036686283 -49.125016778821482 0 -49.125016778821482 23.122812312746248 0 0 0 0 -13.397981922171613 -4.2077646986477362 0 -4.2077646986477362 51.213845184232724 0 0 0 0 -0.31888637066064973 -24.157867160478531 0 -24.157867160478531 25.265160273849347 0 0 0 0 -7.3541095576201769 -8.7728060094887041 0 -8.7728060094887041 47.14792073784065 0 0 0 0 -59.300048440886712 -64.593766686857634 0 -64.593766686857634 143.03325276630858 0 0 0 0 -4.6628552997753516 -15.904679668782489 0 -15.904679668782489 85.719690883377837 0 0 0 0 7.166337509911159 -46.772242198898766 0 -46.772242198898766 54.452187669310661 0 0 0 0 -16.252433728629967 -37.812243131957075 0 -37.812243131957075 97.77435476701794 0 0 0 0 57.768500698427488 -15.461696926373406 0 -15.461696926373406 95.258548154793971 0 0 0 0 -16.039222103776297 -13.134030166036609 0 -13.134030166036609 107.43686103438813 0 0 0 0 -58.522855231564336 -19.711182481069045 0 -19.711182481069045 89.365426521690097 0 0 0 0 -56.816073218687279 -56.178024924915007 0 -56.178024924915007 164.3066234812286 0 0 0 0 -10.139352667995581 -28.077644853638049 0 -28.077644853638049 169.10103360526773 0 0 0 0 3.5772481314088509 -122.80414422071408 0 -122.80414422071408 174.701933363227 0 0 0 0 -3.2371505556357114 -70.170521563355777 0 -70.170521563355777 47.219674364445339 0 0 0 0 -35.306427476229373 -66.451513038600751 0 -66.451513038600751 132.14491641673521 0 0 0 0 -34.955064159030997 -67.016904874868032 0 -67.016904874868032 109.7481658649267 0 0 0 0 -14.610289214082524 -63.119043820101368 0 -63.119043820101368 48.332823314003264 0 0 0 0 34.058172166830673 -102.49411128699649 0 -102.49411128699649 43.0482785140739 0 0 0 0 -116.70594015336792 -66.764162476207275 0 -66.764162476207275 132.3668900514167 0 0 0 0 76.373064412590793 -137.49685394778862 0 -137.49685394778862 -16.406559438961267 0 0 0 0 28.665211962741523 -119.18376097800501 0 -119.18376097800501 18.595924858731451 0 0 0 0 -37.58945113073878 -158.06122259909171 0 -158.06122259909171 112.28918396982772 0 0 0 0 -0.39842978950167196 -23.336992037346668 0 -23.336992037346668 -10.65249485418741 0 0 0 0 57.052326896053273 -116.52087250578916 0 -116.52087250578916 0.62599978259822819 0 0 0 0 -16.700098620762219 -2.2859031959451386 0 -2.2859031959451386 74.075696295934904 0 0 0 0 -4.6241571728190429 -30.121330453558187 0 -30.121330453558187 27.515001888699743 0 0 0 0 -39.278708946814177 -148.77294761752864 0 -148.77294761752864 -57.458790538526955 0 0 0 0 -1.8331772646761593 -16.905789736003129 0 -16.905789736003129 29.691568629445612 0 0 0 0 3.8289861619518888 -53.717618829683488 0 -53.717618829683488 16.192783653968945 0 0 0 0 -378.73838644928037 -53.587569218907447 0 -53.587569218907447 156.2521182851051 0 0 0 0 -116.80282863769617 -48.145945090400346 0 -48.145945090400346 -66.800774237985024 0 0 0 0 83.912400276923336 -218.16714595660051 0 -218.16714595660051 17.938527054473525 0 0 0 0 75.739132555601827 -181.05230817275879 0 -181.05230817275879 96.726810991880484 0 0 0 0 439.88820221910828 -139.8776765185612 0 -139.8776765185612 69.569835473681451 0 0 0 0 251.46201966620538 -128.96405061364931 0 -128.96405061364931 86.410685403403477 0 0 0 0 345.79705274354637 -76.889589934638934 0 -76.889589934638934 -78.978843532502651 0 0 0 0 -6.7750114416090916 0.97385336093103092 0 0.97385336093103092 8.4861512817518019 0 0 0 0 378.51048380248176 -240.33834919210494 0 -240.33834919210494 87.048194631250226 0 0 0 0 238.35384542848351 -190.35251958452864 0 -190.35251958452864 169.90330123324384 0 0 0 0 -264.16922843738939 -177.13096162515285 0 -177.13096162515285 182.96396868632291 0 0 0 0 135.92040952756838 -90.162435698746776 0 -90.162435698746776 -16.996103218334611 0 0 0 0 -2.0212562057682519 -1.7817988404785794 0 -1.7817988404785794 21.337242663699044 0 0 0 0 0.4447316021099037 -0.23482785519745164 0 -0.23482785519745164 7.7961932625133841 0 0 0 0 -346.73793451247866 191.55650460535981 0 191.55650460535981 425.05312017502001 0 0 0 0 1022.9359325332948 -519.1764066794276 0 -519.1764066794276 236.78777634017752 0 0 0 0 -20.116910307457601 285.3845679366168 0 285.3845679366168 669.74972554759006 0 0 0 0 47.910630423250439 -332.82526707635589 0 -332.82526707635589 1032.4280092092376 0 0 0 0 -383.30131498676656 300.54491522891476 0 300.54491522891476 -382.2766045168828 0 0 0 0 -374.00471618323445 42.627252536702144 0 42.627252536702144 447.725196893869 0 0 0 0 -247.41571372205181 -333.61130353272893 0 -333.61130353272893 373.95856599231774 0 0 0 0 -12.834208153853751 43.275438532850785 0 43.275438532850785 161.51678731711581 0 0 0 0 5.8286337266838029 23.910803895334141 0 23.910803895334141 85.682570760333675 0 0 0 0 -756.64074847696338 -50.526637286431651 0 -50.526637286431651 271.93987456833202 0 0 0 0 -337.98331513351405 56.15333444570706 0 56.15333444570706 124.42039283389749 0 0 0 0 -139.49384500388851 -145.0316363319871 0 -145.0316363319871 111.833035565709 0 0 0 0 15.688297903484454 -269.97754071432428 0 -269.97754071432428 150.41324134336537 0 0 0 0 241.85436918554075 -227.01389614627442 0 -227.01389614627442 129.32461522925587 0 0 0 0 -119.80693667308492 -126.12497605652243 0 -126.12497605652243 126.34282521864225 0 0 0 0 -241.14507006263943 -77.892155928260763 0 -77.892155928260763 158.77949234362313 0 0 0 0 0.29988853292709505 14.320753497893094 0 14.320753497893094 96.166881951482083 0 0 0 0 13.788738778098605 -17.346400093738339 0 -17.346400093738339 78.323486239052727 0 0 0 0 -24.888368049092605 -19.962864095945406 0 -19.962864095945406 104.01990671468593 0 0 0 0 -60.218985156567669 60.431732224536972 0 60.431732224536972 68.65519249207864 0 0 0 0 41.848717346422745 -30.248783280881071 0 -30.248783280881071 66.288035010031308 0 0 0 0 6.4600587968063978 18.2252265044939 0 18.2252265044939 44.876095381375023 0 0 0 0 -50.842986583763377 106.20578745410421 0 106.20578745410421 33.401111991835933 0 0 0 0 71.42410487748748 72.910875043009582 0 72.910875043009582 9.0000394446051359 0 0 0 0 96.710960176509616 11.599219326959428 0 11.599219326959428 -20.749027664431196 0 0 0 0 -44.834268323784272 155.26932497200323 0 155.26932497200323 -30.614834539389449 0 0 0 0 10.188599741045437 34.342010303245843 0 34.342010303245843 -1.9813525015924824 0 0 0 0 44.906472001743765 33.830101038442251 0 33.830101038442251 -17.371832963617635 0 0 0 0 44.663862494620844 25.534200746842544 0 25.534200746842544 -4.3306911663748906 0 0 0 0 39.282897717668675 42.246341897549428 0 42.246341897549428 -16.737255165187435 0 0 0 0 38.068462631745206 34.867111168710835 0 34.867111168710835 -7.1680729464515025 0 0 0 0 5.3876785206026554 18.646883875595091 0 18.646883875595091 53.565863255455326 0 0 0 0 -24.196629432302871 40.296385483354243 0 40.296385483354243 16.890045925349114 0 0 0 0 -9.0137133905343134 -17.055957382511266 0 -17.055957382511266 22.550743939758497 0 0 0 0 -38.394450621318583 26.024100740662107 0 26.024100740662107 90.861775219636911 0 0 0 0 23.920695176511799 18.086970676726196 0 18.086970676726196 6.2746422082454956 0 0 0 0 5.8477578278636244 -0.54201254049431213 0 -0.54201254049431213 9.962677328898792 0 0 0 0 13.157937098261755 -34.197772332361637 0 -34.197772332361637 73.875209754070966 0 0 0 0 52.966984639371731 3.3787982786998327 0 3.3787982786998327 15.713861630691099 0 0 0 0 -0.56140905501480276 -0.56100361780177366 0 -0.56100361780177366 15.370358257697404 0 0 0 0 40.212425823448939 -137.1961569736286 0 -137.1961569736286 374.4567229491513 0 0 0 0 5.3880969021920464 -42.691109779883845 0 -42.691109779883845 141.16325970484831 0 0 0 0 16.200788671181726 -2.5310165040500578 0 -2.5310165040500578 92.257964133765199 0 0 0 0 31.709619818519059 -28.965129059961328 0 -28.965129059961328 63.964072733229841 0 0 0 0 -17.787347779754782 -25.413808431025245 0 -25.413808431025245 66.761588916000619 0 0 0 0 18.519597827836151 -33.687655875575729 0 -33.687655875575729 30.901306455314625 0 0 0 0 -6.7803078543100064 -19.82645451426788 0 -19.82645451426788 33.620514992204136 0 0 0 0 -49.666383581985428 -40.795455639661668 0 -40.795455639661668 85.205534197033558 0 0 0 0 -17.034084097243181 -30.895086238610702 0 -30.895086238610702 86.906525809507002 0 0 0 0 -6.0225806084776679 -20.06489630192257 0 -20.06489630192257 18.476566390306488 0 0 0 0 -2.2968429510619899 -89.061002803136944 0 -89.061002803136944 83.030812699340458 0 0 0 0 41.37202046524726 -75.749378744007117 0 -75.749378744007117 80.919260002821375 0 0 0 0 -4.0041523046184011 -49.027999647987599 0 -49.027999647987599 70.536275947852118 0 0 0 0 0.66155528613139492 1.1413738800565376 0 1.1413738800565376 1.3774196653438651 0 0 0 0 -1.7490053940055077 97.793928150040301 0 97.793928150040301 111.50322545408017 0 0 0 0 44.069340040745374 -94.60291112849518 0 -94.60291112849518 290.3987497242415 0 0 0 0 134.77385226115382 -210.74157136273607 0 -210.74157136273607 268.73923268558428 0 0 0 0 45.889046099060579 25.799038343269785 0 25.799038343269785 311.31263494811628 0 0 0 0 17.245072789271489 -45.178850700860494 0 -45.178850700860494 146.88009471239639 0 0 0 0 35.21326409277367 -21.125132270328322 0 -21.125132270328322 147.26294654766087 0 0 0 0 69.302231081684113 -40.805504735795694 0 -40.805504735795694 102.25949815699914 0 0 0 0 179.23869526866656 -0.16365846552798757 0 -0.16365846552798757 105.20622955213912 0 0 0 0 17.071096046713137 -10.584728752561205 0 -10.584728752561205 92.943399218138779 0 0 0 0 -11.256450071818108 -86.947255286631844 0 -86.947255286631844 93.045816882847674 0 0 0 0 12.62810703877949 -18.291500413739413 0 -18.291500413739413 6.451519818982888 0 0 0 0 87.78509227675454 137.28038231154142 0 137.28038231154142 261.88192803899437 0 0 0 0 -24.974280665833703 28.281676529698416 0 28.281676529698416 269.09902870356018 0 0 0 0 -51.445721649661209 4.7613597888084769 0 4.7613597888084769 328.69880025665771 0 0 0 0 -51.574230565136531 11.817775561699818 0 11.817775561699818 284.95632703990123 0 0 0 0 99.350987565688229 -301.15002064040345 0 -301.15002064040345 -316.64013887120973 0 0 0 0 6.4772609854398908 -4.1629585822283843 0 -4.1629585822283843 3.4872651388709102 0 0 0 0 -119.23251593563691 -124.04398454846705 0 -124.04398454846705 30.383338131256096 0 0 0 0 66.380513185152267 -30.084188045981136 0 -30.084188045981136 -269.57758750055291 0 0 0 0 -84.273696577193505 15.639653655839993 0 15.639653655839993 -49.275319049578684 0 0 0 0 78.169172825227633 -3.5027240992312727 0 -3.5027240992312727 -32.880822696562973 0 0 0 0 95.918299206085976 -96.222055101217848 0 -96.222055101217848 -40.16974696770194 0 0 0 0 74.864217759370149 -107.03132798340448 0 -107.03132798340448 -28.585406436317271 0 0 0 0 73.712569274336147 -97.682686849831953 0 -97.682686849831953 49.807561959795976 0 0 0 0 99.111797312124054 -26.424018139336113 0 -26.424018139336113 43.899256930664706 0 0 0 0 -101.01447417352449 -56.387180337176687 0 -56.387180337176687 170.92064239327738 0 0 0 0 8.1119480024851782 -96.744400857872279 0 -96.744400857872279 181.11099744150852 0 0 0 0 96.758837518823384 -339.2910307774946 0 -339.2910307774946 93.488878986330747 0 0 0 0 102.76299214815435 275.77954261945979 0 275.77954261945979 256.39936495508391 0 0 0 0 -61.926897648442264 -179.93666088493956 0 -179.93666088493956 561.33908801661892 0 0 0 0 56.59350558128034 125.70748419292886 0 125.70748419292886 -115.2814037250173 0 0 0 0 75.973185876285015 -6.8489090665570984 0 -6.8489090665570984 -229.09499852506769 0 0 0 0 302.2693224034997 -451.14114981226248 0 -451.14114981226248 -322.55414087119971 0 0 0 0 15.486426952726706 -13.131988170206185 0 -13.131988170206185 10.252921380251628 0 0 0 0 -166.743639142137 527.06640651278576 0 527.06640651278576 1097.1536460998468 0 0 0 0 16.611968656438979 -16.21483044442467 0 -16.21483044442467 13.983095684588527 0 0 0 0 99.066550781780279 -280.4447488505557 0 -280.4447488505557 9.1512539497580292 0 0 0 0 18.261300252554975 -60.572493075767852 0 -60.572493075767852 -14.549417243020798 0 0 0 0 -11.119911256786281 27.281739545273012 0 27.281739545273012 202.49870303167336 0 0 0 0 22.926055371189705 13.81005541450395 0 13.81005541450395 298.50101634537259 0 0 0 0 -24.456364706005843 21.39924769450954 0 21.39924769450954 297.56938239741066 0 0 0 0 -18.149600626872967 15.257776008435712 0 15.257776008435712 288.95262849259598 0 0 0 0 6.1954254490404992 6.9182183401198927 0 6.9182183401198927 189.3312121807503 0 0 0 0 -27.675325266641039 13.335964796911867 0 13.335964796911867 289.57687637343861 0 0 0 0 -22.674340712849926 4.1860758641441862 0 4.1860758641441862 246.65454819857041 0 0 0 0 -25.245327939372487 -1.1583210007001981 0 -1.1583210007001981 340.63132564909392 0 0 0 0 30.446757037616635 93.436930933967233 0 93.436930933967233 259.36844456350445 0 0 0 0 8.5046100170309273 45.285971954857814 0 45.285971954857814 211.86765299677791 0 0 0 0 128.92858320201526 45.135525685036555 0 45.135525685036555 -26.373701997756143 0 0 0 0 64.881114908593645 103.55350465245283 0 103.55350465245283 171.07633235626781 0 0 0 0 15.405397614069784 31.395910281043598 0 31.395910281043598 163.21696151007563 0 0 0 0 12.538306955208526 58.619136497738964 0 58.619136497738964 185.5916346417107 0 0 0 0 42.145831396732092 20.646292122843988 0 20.646292122843988 42.296293182720547 0 0 0 0 48.586025913568847 51.65222186104711 0 51.65222186104711 13.60731484453936 0 0 0 0 15.163252038896871 -3.4838229464467076 0 -3.4838229464467076 32.384688103791632 0 0 0 0 59.546624707954891 54.841404098006933 0 54.841404098006933 -29.291611207127062 0 0 0 0 -42.335840691949898 175.34719415043037 0 175.34719415043037 -58.786784607430945 0 0 0 0 -39.529697061696083 45.495876551452966 0 45.495876551452966 38.531462240254768 0 0 0 0 52.924670910188979 41.665713297988987 0 41.665713297988987 25.79492045988718 0 0 0 0 -22.791896634512227 52.041136118736176 0 52.041136118736176 126.9448390952748 0 0 0 0 17.281380594374411 -163.58082285282035 0 -163.58082285282035 552.8392346739347 0 0 0 0 77.789261781812911 -35.455119677466428 0 -35.455119677466428 125.70463175407534 0 0 0 0 -29.057065396134078 -1.8256673553523797 0 -1.8256673553523797 398.5657017832018 0 0 0 0 61.206014697590717 91.059989403624058 0 91.059989403624058 302.06749702439083 0 0 0 0 7.0621842532271701 -4.3330067351370403 0 -4.3330067351370403 3.0014999089917964 0 0 0 0 153.24188695308624 -114.66278708006757 0 -114.66278708006757 -207.68852368618127 0 0 0 0 6.2801085134781829 182.03240701945015 0 182.03240701945015 642.4929703356247 0 0 0 0 47.376659475003862 -272.55013689693988 0 -272.55013689693988 36.214407713679975 0 0 0 0 -201.86740488753799 -178.86881532719053 0 -178.86881532719053 1.2710785490926355 0 0 0 0 -5.9652059623562446 -5.5237315387813126 0 -5.5237315387813126 58.799354887177515 0 0 0 0 -86.269885062770982 11.436101016339308 0 11.436101016339308 66.549100589643785 0 0 0 0 -2.8052613399253072 7.9483180843391761 0 7.9483180843391761 50.768271444134058 0 0 0 0 -45.359932286358344 21.40595767574996 0 21.40595767574996 60.912119000066014 0 0 0 0 -1.3520611929325821 4.5816658132199866 0 4.5816658132199866 52.954643011147851 0 0 0 0 -110.57149738136627 -26.45778592680108 0 -26.45778592680108 53.67400928560528 0 0 0 0 -30.536119549706427 20.622326944545421 0 20.622326944545421 32.636232004904741 0 0 0 0 -5.3004191309380566 6.3769580008738345 0 6.3769580008738345 63.625690309628908 0 0 0 0 -686.57574956865164 322.32202971311017 0 322.32202971311017 606.54628934576613 0 0 0 0 354.89682064606518 -34.073415152053713 0 -34.073415152053713 -174.2414471929078 0 0 0 0 -25.654053297809469 27.548679305344194 0 27.548679305344194 45.259936845443008 0 0 0 0 -259.93796584866635 312.61804484971799 0 312.61804484971799 -46.689851279011236 0 0 0 0 -5.9065018552732571 19.82889325771535 0 19.82889325771535 60.248075996560004 0 0 0 0 -6.2467409534576159 13.768542762515651 0 13.768542762515651 43.584487835969469 0 0 0 0 -3.5213897928555467 -2.7073209666857849 0 -2.7073209666857849 9.7522089513773551 0 0 0 0 -0.033834620787655201 6.9440915840947746 0 6.9440915840947746 -1.840970333344103 0 0 0 0 -392.32840844573701 8.7359816789848992 0 8.7359816789848992 504.34467900815071 0 0 0 0 -1.543654463334633 36.703251338017708 0 36.703251338017708 200.1653018294237 0 0 0 0 -101.26594840899202 -169.97713770220798 0 -169.97713770220798 356.63991515174712 0 0 0 0 -72.637328026429259 -138.53577505541034 0 -138.53577505541034 165.95317483256076 0 0 0 0 -23.221071561569261 -78.422076601673325 0 -78.422076601673325 163.37317324873766 0 0 0 0 0.011205365026312641 15.403105338084011 0 15.403105338084011 -10.099646744470277 0 0 0 0 -94.573793687264242 100.9738523411288 0 100.9738523411288 370.79861223133048 0 0 0 0 -1.6508542989328041 9.3000268536131863 0 9.3000268536131863 140.08140245082726 0 0 0 0 -3.4209713707472131 12.841720405163692 0 12.841720405163692 16.604034438011325 0 0 0 0 -0.15576216646241092 -1.22089739372867 0 -1.22089739372867 3.6389115448558869 0 0 0 0 -185.21009949014046 11.63999673437138 0 11.63999673437138 450.08261260642394 0 0 0 0 -82.913640438752054 -197.36900270366823 0 -197.36900270366823 205.3561117032732 0 0 0 0 129.49575709388955 78.290220699836937 0 78.290220699836937 335.04954679747607 0 0 0 0 -76.659372827548395 324.93822297329461 0 324.93822297329461 -79.04427527666121 0 0 0 0 29.326356515722864 -138.96552183572567 0 -138.96552183572567 21.988165469301748 0 0 0 0 123.74399322149434 -95.699800931529126 0 -95.699800931529126 61.784462362891645 0 0 0 0 31.351354352002545 -63.947922356168419 0 -63.947922356168419 64.544555446449522 0 0 0 0 73.815555055882953 -27.272892489862443 0 -27.272892489862443 93.701594589860179 0 0 0 0 61.766594733392594 45.261179713594174 0 45.261179713594174 -75.235624423759873 0 0 0 0 -149.40703792285035 22.704925164349333 0 22.704925164349333 70.78448778760503 0 0 0 0 -96.258272644435237 59.734496662546007 0 59.734496662546007 125.83076191786677 0 0 0 0 27.123186824208915 40.679693377926014 0 40.679693377926014 50.567446356222717 0 0 0 0 38.385719063717261 99.697886813503828 0 99.697886813503828 122.73633154940035 0 0 0 0 -49.398237843578727 53.307389835394133 0 53.307389835394133 115.65686365043439 0 0 0 0 -8.0946520432419575 2.0550336773465716 0 2.0550336773465716 38.432343378549547 0 0 0 0 33.942406659135258 77.840609693583247 0 77.840609693583247 178.74574959307211 0 0 0 0 3.4159895139292757 4.3974535623092379 0 4.3974535623092379 46.312790766518447 0 0 0 0 -37.565627310989328 -34.921463778733596 0 -34.921463778733596 27.11944536230294 0 0 0 0 -10.045364821212388 -17.052952020414523 0 -17.052952020414523 121.66216073013493 0 0 0 0 -38.963294415398821 -36.278184529200189 0 -36.278184529200189 148.20415204182791 0 0 0 0 202.92919430335792 -32.758565395230107 0 -32.758565395230107 9.7129809295438463 0 0 0 0 205.45344031925765 -5.4994768144497357 0 -5.4994768144497357 141.28746363219398 0 0 0 0 -3.3749035718255871 -2.6613341937801387 0 -2.6613341937801387 116.71852348947897 0 0 0 0 -12.693605179200404 -125.39221880352852 0 -125.39221880352852 73.374815640949237 0 0 0 0 -22.563718797029992 27.321230358444154 0 27.321230358444154 280.65378437170875 0 0 0 0 -11.628491596724416 32.004662655730499 0 32.004662655730499 267.82001061394112 0 0 0 0 60.27108245067393 54.316977944879909 0 54.316977944879909 212.59950166073395 0 0 0 0 280.63643171578951 223.6134805950569 0 223.6134805950569 336.69964584862464 0 0 0 0 -13.496420737416791 -21.682746072111847 0 -21.682746072111847 19.306842172259167 0 0 0 0 21.926158303921966 91.99172962295961 0 91.99172962295961 214.49052212962124 0 0 0 0 8.4850074776577458 88.009507610608125 0 88.009507610608125 51.700900331081357 0 0 0 0 -19.968069243719626 -0.12029459653281549 0 -0.12029459653281549 100.66289984488712 0 0 0 0 -13.627320727029423 1.6421774233122903 0 1.6421774233122903 38.540553254820367 0 0 0 0 -330.61729144707351 -44.989081658535724 0 -44.989081658535724 103.26047357504285 0 0 0 0 -69.972011153743097 -20.233891891568419 0 -20.233891891568419 68.935000179153576 0 0 0 0 -170.52683090262644 -25.841454424004041 0 -25.841454424004041 87.385917764226178 0 0 0 0 83.959756453258024 -51.082815892179497 0 -51.082815892179497 0.90107836157767451 0 0 0 0 -171.84844259686679 -40.43035337261972 0 -40.43035337261972 32.207939553041797 0 0 0 0 -208.43323779049183 -49.879276700030459 0 -49.879276700030459 230.51889358917015 0 0 0 0 -52.872062799173818 93.434763592696982 0 93.434763592696982 139.87742588908804 0 0 0 0 -188.16041508338139 -94.849344101412498 0 -94.849344101412498 67.177079303621042 0 0 0 0 -2.0449385837565686 8.5133761726271473 0 8.5133761726271473 18.266821684951658 0 0 0 0 -96.126449262888855 124.43457441156352 0 124.43457441156352 229.40996956174058 0 0 0 0 -70.283043272258965 -25.403589324741461 0 -25.403589324741461 103.3949422352307 0 0 0 0 9.4249897486918144 -61.123000823833536 0 -61.123000823833536 114.53519034700003 0 0 0 0 -70.881380025807857 -24.460717715084684 0 -24.460717715084684 124.81028532877826 0 0 0 0 -160.42947786792138 -19.034696980301305 0 -19.034696980301305 143.80264521973004 0 0 0 0 -1.4184741487368611 -0.086423685967549346 0 -0.086423685967549346 98.085908398136837 0 0 0 0 135.2695305923329 -102.27073646045028 0 -102.27073646045028 96.104164982622024 0 0 0 0 -42.379895799680526 -122.34509281911596 0 -122.34509281911596 265.87828160601202 0 0 0 0 -34.326593794400196 -20.130666439828929 0 -20.130666439828929 133.87156847048027 0 0 0 0 -107.31399723429104 42.595167040366505 0 42.595167040366505 106.08118534318419 0 0 0 0 -21.520844855467203 -66.404263061056554 0 -66.404263061056554 160.70755902770907 0 0 0 0 -88.844004464256614 100.45952533803938 0 100.45952533803938 72.315371772303479 0 0 0 0 -42.370012844488883 38.116124528736691 0 38.116124528736691 33.877500101734768 0 0 0 0 -2.091581499538961 -74.880859919361683 0 -74.880859919361683 -10.059495365290786 0 0 0 0 -1.8021719367998035 0.53178512926861288 0 0.53178512926861288 15.152876449253966 0 0 0 0 -103.50244712090853 77.692435440556437 0 77.692435440556437 45.491714845869865 0 0 0 0 -2.6089586437403369 -1.0227357431869564 0 -1.0227357431869564 13.030761419080084 0 0 0 0 70.163718855581521 178.26970091782823 0 178.26970091782823 -161.43659884373483 0 0 0 0 -93.311626507314941 28.621238621686643 0 28.621238621686643 277.83072747694678 0 0 0 0 -0.55578658657477265 2.3292931287717522 0 2.3292931287717522 21.2954529207707 0 0 0 0 -15.987111909997218 -2.6742380140462387 0 -2.6742380140462387 23.919604587874673 0 0 0 0 -7.9570093529164296 5.2029817309812643 0 5.2029817309812643 132.91436246385911 0 0 0 0 -8.1244472979025204 2.261782154753746 0 2.261782154753746 82.813910347103956 0 0 0 0 -1.3620389600114322 1.8512811945547583 0 1.8512811945547583 72.240268959780224 0 0 0 0 -1.9375575155057732 -0.65266993908517179 0 -0.65266993908517179 71.23720667467569 0 0 0 0 -2.0844691711625498 0.23884847060180547 0 0.23884847060180547 59.600317945373206 0 0 0 0 -7.7613837183887426 -2.1607410217075085 0 -2.1607410217075085 73.669301225076197 0 0 0 0 -61.404077392671752 27.232038902533532 0 27.232038902533532 74.697425186176588 0 0 0 0 -44.375799257476501 29.456287458437146 0 29.456287458437146 67.15040183858946 0 0 0 0 -4.4828557204860999 -4.7084290418861201 0 -4.7084290418861201 60.874697289982578 0 0 0 0 -4.6931741183448423 -2.5735723648640487 0 -2.5735723648640487 70.428776457731146 0 0 0 0 -4.3014279126387009 0.25924293557181954 0 0.25924293557181954 72.177017688205979 0 0 0 0 1.7086514729435294 -0.14593415077251848 0 -0.14593415077251848 59.932487177298754 0 0 0 0 -2.5133178122223394 9.477686057705462 0 9.477686057705462 52.048523695820052 0 0 0 0 -0.41523286328492759 2.6397228697314858 0 2.6397228697314858 64.687731739788433 0 0 0 0 -1.7151906008366495 -3.8704635956019047 0 -3.8704635956019047 58.292303331953008 0 0 0 0 0.8591955000085818 -2.3810612955912802 0 -2.3810612955912802 55.7160067759105 0 0 0 0 -27.257286025513849 24.673342818277888 0 24.673342818277888 51.671976854115201 0 0 0 0 -33.571206130921688 40.176143676093488 0 40.176143676093488 43.23456033327966 0 0 0 0 -20.200502017665258 -4.7839854763515177 0 -4.7839854763515177 43.87520907894941 0 0 0 0 -7.7044475235595646 4.306382491362541 0 4.306382491362541 15.329708767208388 0 0 0 0 2.5970075459003965 17.426785148156341 0 17.426785148156341 51.460398396011442 0 0 0 0 -53.93419910063426 10.812932344895671 0 10.812932344895671 112.60602178063709 0 0 0 0 -34.275537838127207 48.351587950033718 0 48.351587950033718 183.80050298781134 0 0 0 0 -3.8007976290576266 9.9960626697466068 0 9.9960626697466068 70.979278359416639 0 0 0 0 -57.035325221229527 18.763221330335 0 18.763221330335 93.53029331266589 0 0 0 0 -6.7108616599598037 -32.279674543446163 0 -32.279674543446163 31.184839541514521 0 0 0 0 -3.8335578256659693 0.20276258339669084 0 0.20276258339669084 10.961741684255887 0 0 0 0 -4.4718566490910234 2.5454023308702745 0 2.5454023308702745 82.173253993503749 0 0 0 0 -8.2675702352232587 12.179943547259853 0 12.179943547259853 49.586714436468924 0 0 0 0 -7.3142552678091306 18.522233091454837 0 18.522233091454837 114.01859069862212 0 0 0 0 -8.0931003516841233 1.9796937543660817 0 1.9796937543660817 19.249637184497516 0 0 0 0 5.6690426716850499 19.103696370825979 0 19.103696370825979 48.172172164469657 0 0 0 0 -0.22640892352831088 25.341100916426512 0 25.341100916426512 44.033809345633927 0 0 0 0 -3.4035228372692927 10.141057840384747 0 10.141057840384747 70.201358220307156 0 0 0 0 0.5404172077926912 4.5837428489238619 0 4.5837428489238619 16.028954603945309 0 0 0 0 -0.057373939185560774 0.36707445445171061 0 0.36707445445171061 0.18522776099275973 0 0 0 0 8.9323066897034629 27.997626914312605 0 27.997626914312605 35.066406805679435 0 0 0 0 9.562608768718551 17.056888353409704 0 17.056888353409704 51.650844647956546 0 0 0 0 -6.8971033042278975 38.437632855444463 0 38.437632855444463 36.633624660491478 0 0 0 0 7.7347351341492185 12.165058187805698 0 12.165058187805698 62.983649587593391 0 0 0 0 10.025980513667491 18.574086579115828 0 18.574086579115828 15.207589727615414 0 0 0 0 -42.750440041028014 44.780384406119992 0 44.780384406119992 27.519791211067059 0 0 0 0 -35.528713750138834 -7.0463722528620565 0 -7.0463722528620565 56.088968148178537 0 0 0 0 -59.510720324873546 12.553585080948324 0 12.553585080948324 70.91432333108969 0 0 0 0 -33.519559004903385 15.279336461891944 0 15.279336461891944 70.398744041114696 0 0 0 0 -78.761114265613514 -13.822907889069029 0 -13.822907889069029 111.43162506185763 0 0 0 0 -1.719354946914734 2.7804961529613053 0 2.7804961529613053 60.075198757054409 0 0 0 0 -13.487345067771869 4.6365331075867289 0 4.6365331075867289 56.033205692627234 0 0 0 0 -80.17594923711286 37.114537128547454 0 37.114537128547454 133.23290870105848 0 0 0 0 -0.094710416988520521 2.7559598875793156 0 2.7559598875793156 77.582425235048618 0 0 0 0 -29.543327133336845 23.839325960892893 0 23.839325960892893 60.040438067051582 0 0 0 0 -92.213278866345263 66.204292999122117 0 66.204292999122117 75.284057649274473 0 0 0 0 -31.878138420249115 54.392039375277818 0 54.392039375277818 41.093240019428777 0 0 0 0 5.4392327553361444 12.414928895200227 0 12.414928895200227 28.426150419811108 0 0 0 0 63.992276018067969 1.0888091150554828 0 1.0888091150554828 -44.513510773525923 0 0 0 0 115.24789465649246 -138.41081266888796 0 -138.41081266888796 120.42169103774359 0 0 0 0 -161.96410493717485 -74.289047855636454 0 -74.289047855636454 197.97055134057155 0 0 0 0 -279.02112621021604 84.30970977126708 0 84.30970977126708 -127.80510655378748 0 0 0 0 -1.2956020332313767 14.204919821944419 0 14.204919821944419 129.45980874380561 0 0 0 0 -9.0436596489511878 12.372440540784709 0 12.372440540784709 30.505171633090356 0 0 0 0 -444.14375000965777 445.60893339822724 0 445.60893339822724 77.792331065051258 0 0 0 0 2.4210134061272703 4.4751035826857404 0 4.4751035826857404 9.1452261818732268 0 0 0 0 295.43917629855719 -14.035711329896003 0 -14.035711329896003 -302.96162193009513 0 0 0 0 418.21397378174288 305.96447903960507 0 305.96447903960507 -209.14034432424523 0 0 0 0 122.60969538854147 793.32801330917573 0 793.32801330917573 -64.75314736153814 0 0 0 0 127.17906825958778 -196.37721915162729 0 -196.37721915162729 343.32252926455112 0 0 0 0 -3.57493226169629 -90.700161908127484 0 -90.700161908127484 352.02247192204231 0 0 0 0 -36.374166900331716 -5.1395592756744009 0 -5.1395592756744009 436.30396134071634 0 0 0 0 -6.3519215943433665 -65.000298101527733 0 -65.000298101527733 332.21780231436423 0 0 0 0 -8.9233671960877032 -99.626788899266558 0 -99.626788899266558 612.84265622714884 0 0 0 0 61.825598991177685 86.311544524251076 0 86.311544524251076 238.39772773705772 0 0 0 0 23.765551604364816 117.24027326570649 0 117.24027326570649 342.35553735413123 0 0 0 0 -3.271427973834534 49.993579914109432 0 49.993579914109432 271.8227074440656 0 0 0 0 46.494758680029008 78.795590531619382 0 78.795590531619382 207.98335248685908 0 0 0 0 35.330944275950969 54.702818789955927 0 54.702818789955927 232.00265607944675 0 0 0 0 -487.09715376297152 -101.46327320875207 0 -101.46327320875207 403.80924213136313 0 0 0 0 537.34639817245989 -682.99832865246572 0 -682.99832865246572 561.01106639637146 0 0 0 0 115.16337320789467 267.54797768648132 0 267.54797768648132 580.92703892299323 0 0 0 0 -34.6737938407407 12.840085809992161 0 12.840085809992161 250.25635276100365 0 0 0 0 -32.829744621677378 14.21506811225845 0 14.21506811225845 249.36803138662071 0 0 0 0 -32.781660804639841 14.544860006382805 0 14.544860006382805 251.60387722184532 0 0 0 0 -3.9461321268163374 55.953879382053856 0 55.953879382053856 253.67507322557503 0 0 0 0 -35.147702383367232 17.322121718316339 0 17.322121718316339 305.11033582029631 0 0 0 0 -33.174399656055357 -38.275260417256504 0 -38.275260417256504 318.02991922266665 0 0 0 0 -34.751748559964341 3.2584822331882606 0 3.2584822331882606 286.95447737508221 0 0 0 0 -2.9081127173398613 -87.835633851776947 0 -87.835633851776947 220.81264549394837 0 0 0 0 -29.948491876155117 -22.353071441364591 0 -22.353071441364591 213.70970222351025 0 0 0 0 -22.661346708549402 -3.4931029554063571 0 -3.4931029554063571 200.34551939318771 0 0 0 0 -32.210780606318849 -7.3941059398493962 0 -7.3941059398493962 262.78120474219031 0 0 0 0 -11.218724027003233 -21.471591357872967 0 -21.471591357872967 196.2262274142995 0 0 0 0 -5.0162860712069346 -16.714042401363258 0 -16.714042401363258 131.4670872418792 0 0 0 0 11.439873483585075 -25.884746802374138 0 -25.884746802374138 124.78502415409821 0 0 0 0 1.5158676776489983 -41.575670804129913 0 -41.575670804129913 159.94852413416083 0 0 0 0 -2.442212353349646 -52.998816408435232 0 -52.998816408435232 215.12520695906642 0 0 0 0 42.73241620253782 -59.884279701756896 0 -59.884279701756896 128.03292406121909 0 0 0 0 17.260998996546391 3.8266728091157347 0 3.8266728091157347 34.869594273914117 0 0 0 0 -17.612313719724511 1.3450634329783497 0 1.3450634329783497 58.427657846041257 0 0 0 0 12.858116930198207 6.3125771804666329 0 6.3125771804666329 55.655755953484913 0 0 0 0 10.828720205258232 -9.667030826667542 0 -9.667030826667542 107.10107288771542 0 0 0 0 5.7064687797413569 14.334972407581517 0 14.334972407581517 112.40784544243797 0 0 0 0 5.2856635314253708 -1.3488805026790942 0 -1.3488805026790942 80.855976114107762 0 0 0 0 3.0931935215227782 22.516136119702423 0 22.516136119702423 59.721718692657305 0 0 0 0 16.41922837743067 -4.8937002892234887 0 -4.8937002892234887 95.736604962949059 0 0 0 0 6.3488118504637523 -9.0216223816532874 0 -9.0216223816532874 122.0137954774691 0 0 0 0 -0.28006471877514105 -4.0016508820008312 0 -4.0016508820008312 185.30424284901528 0 0 0 0 7.3516319588078147 19.532007511457778 0 19.532007511457778 180.46845770344953 0 0 0 0 1.2605955917464371 6.251112442012527 0 6.251112442012527 130.20569591369713 0 0 0 0 0.85934569727606913 -9.4632162663474446 0 -9.4632162663474446 139.21479640184407 0 0 0 0 -18.905350258571815 10.50857162320608 0 10.50857162320608 234.38881659999606 0 0 0 0 -9.6660258160650301 -4.6991516793132178 0 -4.6991516793132178 186.14111254475392 0 0 0 0 26.342934398067662 -5.251769160895492 0 -5.251769160895492 185.23077835765434 0 0 0 0 11.717128088159093 26.67476902198905 0 26.67476902198905 229.34425921960792 0 0 0 0 29.902765811332891 43.971520797636913 0 43.971520797636913 265.3027485912462 0 0 0 0 36.106606336415794 -18.825152190602694 0 -18.825152190602694 240.66513698409835 0 0 0 0 -14.66533657063286 14.194900637558021 0 14.194900637558021 235.52141511901573 0 0 0 0 -15.168265667190326 6.4959159341015038 0 6.4959159341015038 234.1829193685553 0 0 0 0 3.3338871740397948 -28.113875173548877 0 -28.113875173548877 269.22462884394918 0 0 0 0 -0.00098000181879081757 -7.0981581309097237 0 -7.0981581309097237 258.19490686334029 0 0 0 0 19.76530539082848 9.3248132998705842 0 9.3248132998705842 224.68267164596546 0 0 0 0 38.05511486736647 -28.619223458818851 0 -28.619223458818851 191.72922593871772 0 0 0 0 0.042510139129950969 10.98119734586362 0 10.98119734586362 132.81041365451529 0 0 0 0 18.341489652055486 10.945374010327214 0 10.945374010327214 133.80462265184906 0 0 0 0 0.79420184889041678 -15.784820638218662 0 -15.784820638218662 190.35667127662691 0 0 0 0 17.831959392401806 -1.9274712507794902 0 -1.9274712507794902 82.336540875025094 0 0 0 0 7.4272777614883694 7.0045624791018781 0 7.0045624791018781 104.3611052246124 0 0 0 0 -2.3305380610327369 -7.1892552790523041 0 -7.1892552790523041 129.18388583412343 0 0 0 0 -0.0071305678282660529 9.672925183433108 0 9.672925183433108 90.945670832210453 0 0 0 0 10.236784354295658 -3.9869699998089345 0 -3.9869699998089345 56.046831218438456 0 0 0 0 -0.0068854290967404084 16.478913176746573 0 16.478913176746573 41.495710773382598 0 0 0 0 16.442658635008414 6.0721620267941034 0 6.0721620267941034 40.808966309559764 0 0 0 0 -6.3530774080659 10.166702704089403 0 10.166702704089403 40.701471455668752 0 0 0 0 0.42924507189370686 10.366211868196842 0 10.366211868196842 76.478510449596797 0 0 0 0 3.3174859915206127 4.8808335740613984 0 4.8808335740613984 71.183185043104459 0 0 0 0 16.062822766407763 11.912105548857653 0 11.912105548857653 74.411330571791041 0 0 0 0 9.1209012560685636 5.7527761821947934 0 5.7527761821947934 33.107058135385159 0 0 0 0 -12.150204610445996 14.772652073792415 0 14.772652073792415 69.749487336935999 0 0 0 0 -9.6444348881952351 23.246099881907867 0 23.246099881907867 36.953207550128354 0 0 0 0 0.058684010977401613 36.250444426848844 0 36.250444426848844 18.076265331124887 0 0 0 0 -8.8381908731393253 1.6187109473175951 0 1.6187109473175951 59.995674834164674 0 0 0 0 -0.59445058902635595 0.48396559626019098 0 0.48396559626019098 -1.2981928289332112 0 0 0 0 -10.293322341439254 12.704097839603492 0 12.704097839603492 106.370323956231 0 0 0 0 4.8579846685971688 17.436823979856854 0 17.436823979856854 34.615239513106644 0 0 0 0 7.4449606419332621 47.540639115402882 0 47.540639115402882 62.843906106441864 0 0 0 0 -40.176511346277671 204.50212513064753 0 204.50212513064753 311.0780973971996 0 0 0 0 -11.284573641212319 -111.51111724341172 0 -111.51111724341172 137.79069410488592 0 0 0 0 -49.740246986255571 -212.9735543904419 0 -212.9735543904419 580.55413937335834 0 0 0 0 21.293324779779731 -54.777297958717099 0 -54.777297958717099 149.84806402699905 0 0 0 0 35.092623064662575 17.346793111501029 0 17.346793111501029 7.7812837054516422 0 0 0 0 86.776161002055659 59.920352406639722 0 59.920352406639722 41.617238589416957 0 0 0 0 0.064745630437802376 0.63160814563298828 0 0.63160814563298828 2.2314793621659987 0 0 0 0 44.82336431142744 98.495118780992925 0 98.495118780992925 129.85604932380375 0 0 0 0 31.519040563796977 58.195173911386519 0 58.195173911386519 91.386441266076872 0 0 0 0 3.8772771665183581 -19.708635926253919 0 -19.708635926253919 80.436870834222645 0 0 0 0 -0.20333730033709416 -0.37480729134574631 0 -0.37480729134574631 1.2337559491655981 0 0 0 0 -2.2882614156768994 -4.1071713086712407 0 -4.1071713086712407 6.4638824308967742 0 0 0 0 0.2095252616449842 7.7748041413219653 0 7.7748041413219653 9.9724866145843407 0 0 0 0 0.0015455526996371177 -0.044695361543915624 0 -0.044695361543915624 -0.018312188730035928 0 0 0 0 -0.064624423032167685 -0.23825261515258944 0 -0.23825261515258944 0.24802249220802253 0 0 0 0 0.0076907816409116873 -11.57497609926213 0 -11.57497609926213 5.4355906925120507 0 0 0 0 0.15456786876053955 2.0176629069719296 0 2.0176629069719296 176.32510943845409 0 0 0 0 14.718201370131283 3.8015067608648678 0 3.8015067608648678 1.073581554395787 0 0 0 0 -0.12466902386731758 0.28680065904069352 0 0.28680065904069352 0.33852339007608556 0 0 0 0 -8.3065008074497584 25.59530591363 0 25.59530591363 188.56155971388216 0 0 0 0 -6.3662837607087113 7.8470069873219472 0 7.8470069873219472 64.173447356304678 0 0 0 0 -3.5629314917547799 -0.30024017515255252 0 -0.30024017515255252 41.854514533958991 0 0 0 0 -0.51268140460698575 -0.2520627603026071 0 -0.2520627603026071 10.056747586591413 0 0 0 0 11.31818431433787 -20.489608698684606 0 -20.489608698684606 37.920641265052836 0 0 0 0 -0.051233318247994215 -47.297148350437055 0 -47.297148350437055 81.312905005521316 0 0 0 0 -7.8061799537163559 12.258421904472925 0 12.258421904472925 58.970919587101889 0 0 0 0 0.016830034407820316 13.187708909194043 0 13.187708909194043 54.436073694167135 0 0 0 0 -15.565300225743513 21.415377764671575 0 21.415377764671575 56.255961403847323 0 0 0 0 -9.8183340122845948 -1.3440461092723126 0 -1.3440461092723126 82.589887733492105 0 0 0 0 -3.4067619317503053 7.7270609803454704 0 7.7270609803454704 60.25860987282897 0 0 0 0 -1.4253164186685581 -11.518143031440559 0 -11.518143031440559 70.016824211452331 0 0 0 0 -15.726122504344545 -4.2589677022806427 0 -4.2589677022806427 107.79666830536735 0 0 0 0 2.0943392112695731 -8.6235427161998643 0 -8.6235427161998643 0.42034553546822906 0 0 0 0 1.171464264738006 -4.8124535359238507 0 -4.8124535359238507 83.711914136940322 0 0 0 0 -0.98353800144257608 -9.1603361859279175 0 -9.1603361859279175 15.557174045396266 0 0 0 0 -0.073621009848466201 -9.6907170860868064 0 -9.6907170860868064 66.986788634674667 0 0 0 0 8.5607411555647559 -6.3693530070158886 0 -6.3693530070158886 66.758325447532116 0 0 0 0 19.777571959214811 -44.124147870192246 0 -44.124147870192246 75.222202860873949 0 0 0 0 0.99116629647840737 -5.5024091324673634 0 -5.5024091324673634 2.4194415263880273 0 0 0 0 13.315018303289207 -28.516387307405239 0 -28.516387307405239 37.821132260243758 0 0 0 0 -51.872610301888017 6.9607026808807859 0 6.9607026808807859 56.343732344248565 0 0 0 0 6.1056231180517671 -12.252079436688291 0 -12.252079436688291 90.602091819018824 0 0 0 0 -38.774182453190406 -14.272140339380712 0 -14.272140339380712 90.610079440213667 0 0 0 0 -5.2214438806264525 -14.057899957639165 0 -14.057899957639165 51.865487752686022 0 0 0 0 -14.180410488714188 8.8449992006644607 0 8.8449992006644607 63.3253001110279 0 0 0 0 -49.758884512437817 -28.938468285719864 0 -28.938468285719864 -0.36710060902987607 0 0 0 0 -23.946078163112361 6.4390599610705976 0 6.4390599610705976 29.597707573935622 0 0 0 0 -19.194391827438267 -26.979210604549735 0 -26.979210604549735 33.8362368602684 0 0 0 0 -6.7224745992875796 -22.723038643278414 0 -22.723038643278414 23.216194847682345 0 0 0 0 0.21480305194683069 -13.539365493121295 0 -13.539365493121295 32.583147123310482 0 0 0 0 -31.142348357414846 -15.264394442245248 0 -15.264394442245248 45.90395646673278 0 0 0 0 -20.753251072929743 3.4465472242009128 0 3.4465472242009128 31.412711536853749 0 0 0 0 -3.0933989711558385 -0.92105734252652383 0 -0.92105734252652383 7.2245878651063151 0 0 0 0 15.418049919355703 -28.139568499784218 0 -28.139568499784218 27.083440730828443 0 0 0 0 1.5492668338034854 -3.038160003643398 0 -3.038160003643398 4.6812811310656457 0 0 0 0 14.794020384517545 -27.642053111485438 0 -27.642053111485438 28.881923045413714 0 0 0 0 48.181561927839027 -31.526009558321675 0 -31.526009558321675 27.405810303027465 0 0 0 0 9.0329309933088027 -17.385107554294763 0 -17.385107554294763 21.892668465807276 0 0 0 0 -6.8233145085803244 -1.7957255682085815 0 -1.7957255682085815 60.67154734293581 0 0 0 0 -0.61655585173532534 0.44383017235787747 0 0.44383017235787747 5.1588963386614353 0 0 0 0 0.016475952365065261 -8.908660177148704 0 -8.908660177148704 15.239887122006621 0 0 0 0 -1.9363486816060558 -7.6348402014555177 0 -7.6348402014555177 17.115977438545087 0 0 0 0 -12.655238678615248 4.0144210652288166 0 4.0144210652288166 104.32988653585562 0 0 0 0 -2.627293641259822 -10.805797697968956 0 -10.805797697968956 13.978808908141218 0 0 0 0 -9.8447981597050571 4.7243384795074235 0 4.7243384795074235 5.5258977311823401 0 0 0 0 -3.9282396169920926 -8.7319442444422748 0 -8.7319442444422748 16.513375475711655 0 0 0 0 91.233517783889681 -103.21350446257566 0 -103.21350446257566 97.485415883507812 0 0 0 0 -0.043319894423321355 -30.818784176779445 0 -30.818784176779445 127.49008655920625 0 0 0 0 0.27253601892283774 0.46983643460539781 0 0.46983643460539781 0.40409827653638786 0 0 0 0 -6.1432224393739574 -37.515562301283353 0 -37.515562301283353 180.365431085811 0 0 0 0 0.065435861923305083 -42.424413212171203 0 -42.424413212171203 64.090482438594336 0 0 0 0 -13.047172855395701 12.610613382938027 0 12.610613382938027 44.307812807572191 0 0 0 0 11.982128841469269 -30.827485875073762 0 -30.827485875073762 99.518377324857283 0 0 0 0 -14.631985928451641 21.433629816063331 0 21.433629816063331 42.311388181868097 0 0 0 0 -5.8325249699027069 28.259522887259664 0 28.259522887259664 -15.869187279313337 0 0 0 0 -43.083260322872434 13.301916461066867 0 13.301916461066867 54.115564535866724 0 0 0 0 0.069962481596436005 19.19965741562919 0 19.19965741562919 37.662968493321387 0 0 0 0 67.382583662067532 -38.193519134671078 0 -38.193519134671078 86.504160817814409 0 0 0 0 6.8669867138973615 23.333663258643355 0 23.333663258643355 130.8246745873621 0 0 0 0 27.286802954773755 23.052610806204029 0 23.052610806204029 40.0843501897034 0 0 0 0 -20.56353837325765 45.608790366422909 0 45.608790366422909 222.25784011103315 0 0 0 0 -0.17547635725735036 0.29045383927552848 0 0.29045383927552848 0.27815792688562624 0 0 0 0 26.25366123581902 15.095015664410312 0 15.095015664410312 -60.821698079336784 0 0 0 0 -0.43550300168106748 -1.4830328862446436 0 -1.4830328862446436 5.4031113325656008 0 0 0 0 80.06870972101872 59.583183704366093 0 59.583183704366093 69.334993863289128 0 0 0 0 131.12760121575633 12.937971451552585 0 12.937971451552585 249.39440904209187 0 0 0 0 37.049367680355978 -83.041566173767933 0 -83.041566173767933 347.38573029908002 0 0 0 0 -38.928537615629999 11.100248362097773 0 11.100248362097773 360.45405014534481 0 0 0 0 -0.077889944046011544 -9.0372595886379639 0 -9.0372595886379639 306.08250239191693 0 0 0 0 -16.766886231368431 -10.851772514404729 0 -10.851772514404729 215.09867306122032 0 0 0 0 7.3040659634054776 26.18323284786311 0 26.18323284786311 371.69388252212957 0 0 0 0 -18.014388745630754 -23.472404612162791 0 -23.472404612162791 274.55566356321469 0 0 0 0 1.5995110088081983 -2.294083222280932 0 -2.294083222280932 2.8811890711008914 0 0 0 0 40.821760220138259 -39.795966240260896 0 -39.795966240260896 70.319045109426952 0 0 0 0 69.143513800648066 -147.07343170759123 0 -147.07343170759123 264.1664568592787 0 0 0 0 -12.979592740447345 -51.421030432233238 0 -51.421030432233238 223.49353296603658 0 0 0 0 6.5950071881525547 -10.772986237245874 0 -10.772986237245874 -1.7980763596144698 0 0 0 0 -2.9333538047721959 -16.490693846346403 0 -16.490693846346403 49.139866711841023 0 0 0 0 -2.10166707114597 -3.3579674586229658 0 -3.3579674586229658 30.187132939478204 0 0 0 0 -33.633012018838258 -6.8122359827393666 0 -6.8122359827393666 40.956023323335103 0 0 0 0 -1.8605359584265806 -3.1420690311708768 0 -3.1420690311708768 34.42169819419189 0 0 0 0 5.7403152839108884 -27.599711319233393 0 -27.599711319233393 37.141551318927668 0 0 0 0 -2.5468022113077495 -9.1324119173805229 0 -9.1324119173805229 36.407075410985271 0 0 0 0 -12.450248941733548 -18.816080281605537 0 -18.816080281605537 41.40880428897799 0 0 0 0 4.3716729698628001 -26.081548967071285 0 -26.081548967071285 44.574738612604961 0 0 0 0 7.3112122483384496 -20.104791726631447 0 -20.104791726631447 44.235980395649676 0 0 0 0 14.623025069044331 -42.815504922880791 0 -42.815504922880791 95.220150392560754 0 0 0 0 7.074235754192614 -47.660219534867792 0 -47.660219534867792 102.19217823821964 0 0 0 0 -1.9074253177196656 -13.806752822356458 0 -13.806752822356458 4.7638942305324576 0 0 0 0 2.3044592358355653 -10.938620946941512 0 -10.938620946941512 -6.2958517502790841 0 0 0 0 2.9305311723600198 -27.741327868394364 0 -27.741327868394364 51.747947029711213 0 0 0 0 16.945577895086444 -30.189047319450765 0 -30.189047319450765 100.75100508748437 0 0 0 0 -3.017613252603951 -43.896431076005683 0 -43.896431076005683 119.42307750767213 0 0 0 0 -1.9928189278774937 -20.587423601191404 0 -20.587423601191404 204.01101773821574 0 0 0 0 4.646194959807417 -31.733743103482993 0 -31.733743103482993 128.59817808326625 0 0 0 0 14.394890176397212 -17.858444110846904 0 -17.858444110846904 123.70462005643276 0 0 0 0 13.27302681817207 -20.525620014399465 0 -20.525620014399465 121.61368365108501 0 0 0 0 33.409640342137891 -22.214067214590614 0 -22.214067214590614 112.52242352110625 0 0 0 0 25.267902880446172 19.50030323327519 0 19.50030323327519 174.04321993719805 0 0 0 0 24.841949827371764 39.574661735270638 0 39.574661735270638 172.56415631060372 0 0 0 0 -13.729913870786504 26.327889637279441 0 26.327889637279441 225.90112970426708 0 0 0 0 -13.822113750972907 27.202461851525641 0 27.202461851525641 233.49293311225483 0 0 0 0 -16.574465087569763 -0.098482957335363608 0 -0.098482957335363608 193.1525447734457 0 0 0 0 -21.560537230195393 -3.7831116101442603 0 -3.7831116101442603 245.09478064890573 0 0 0 0 -34.127044709848633 -134.14954227895396 0 -134.14954227895396 31.439703157171607 0 0 0 0 105.52213079190388 -62.583598528215134 0 -62.583598528215134 42.103995797020616 0 0 0 0 35.312504505847528 14.55677003164601 0 14.55677003164601 75.616108538568369 0 0 0 0 89.765378227002628 81.242252258547524 0 81.242252258547524 157.49699668842368 0 0 0 0 20.76153968991548 34.032595938930172 0 34.032595938930172 183.06138941527024 0 0 0 0 51.668378089253338 49.309282765854732 0 49.309282765854732 147.81371019841754 0 0 0 0 27.151933494711784 -2.8967094845429529 0 -2.8967094845429529 101.00115052994806 0 0 0 0 43.619616533386761 1.553553038611426 0 1.553553038611426 88.361142788766301 0 0 0 0 34.946229623045106 -35.487340626557398 0 -35.487340626557398 33.045568688190542 0 0 0 0 -9.1651786133536461 -54.767122704863141 0 -54.767122704863141 55.287153265948291 0 0 0 0 31.619738481662154 -1.8600173507747968 0 -1.8600173507747968 98.478872547391802 0 0 0 0 27.523336697562513 -41.327213999524247 0 -41.327213999524247 63.470364775865164 0 0 0 0 31.980480898282849 -38.222527032077778 0 -38.222527032077778 43.427638111374108 0 0 0 0 -197.53515812117041 -131.42905214882558 0 -131.42905214882558 81.171928526455304 0 0 0 0 -44.930544330504063 -14.848757338098949 0 -14.848757338098949 19.15297385994927 0 0 0 0 -18.179774061309217 -44.194715405385068 0 -44.194715405385068 82.461564439479844 0 0 0 0 -96.299812444068493 -96.118746213134727 0 -96.118746213134727 106.09853092402045 0 0 0 0 -7.0074591592286826 -24.002071966430876 0 -24.002071966430876 75.918519146186213 0 0 0 0 3.4481546228198567 -74.489675357355736 0 -74.489675357355736 16.064491581276798 0 0 0 0 -36.128660275280708 -28.513415194232039 0 -28.513415194232039 68.794818691909313 0 0 0 0 -32.503710103401545 -51.563395429720913 0 -51.563395429720913 175.92486067695427 0 0 0 0 4.6312190304468004 -84.197436675385688 0 -84.197436675385688 77.743617454005289 0 0 0 0 -8.0920323244563406 -51.248549514755723 0 -51.248549514755723 148.24932297528721 0 0 0 0 -17.012118618719271 -40.710243556376909 0 -40.710243556376909 30.788275075638232 0 0 0 0 37.593521963000285 -61.995970935065998 0 -61.995970935065998 -35.108563515474088 0 0 0 0 7.02488957929208 -18.993400679804388 0 -18.993400679804388 -11.168229690240992 0 0 0 0 -106.16252393292461 -16.528379459501593 0 -16.528379459501593 -23.219102065186235 0 0 0 0 4.1672725882556163 -9.9158919474247043 0 -9.9158919474247043 -1.1335114686591226 0 0 0 0 -101.49603998912562 -181.9970075463425 0 -181.9970075463425 199.03112260010676 0 0 0 0 6.5414238130122158 -23.379866400136962 0 -23.379866400136962 48.465022961012437 0 0 0 0 -3.2488837043475156 -14.700392319900921 0 -14.700392319900921 62.327330517764267 0 0 0 0 -4.2992543319674041 -27.635426335884404 0 -27.635426335884404 5.9732465324923396 0 0 0 0 -1.2346811448138197 -0.27614809298944465 0 -0.27614809298944465 14.855862258087591 0 0 0 0 1.613681251426442 -19.540037544487859 0 -19.540037544487859 11.193004632325028 0 0 0 0 -16.708830961060812 34.894850322889397 0 34.894850322889397 34.521261129586492 0 0 0 0 -17.225844558770405 -3.6026262913219398 0 -3.6026262913219398 31.720282337653771 0 0 0 0 -26.809177778002777 -22.953132368449587 0 -22.953132368449587 36.476222289194993 0 0 0 0 -12.985669385041547 12.56414078414673 0 12.56414078414673 57.377605146943097 0 0 0 0 1.2042556662518109 17.476181568032189 0 17.476181568032189 55.828430470472085 0 0 0 0 30.601279040482041 -2.6159091704539605 0 -2.6159091704539605 -18.296958188613644 0 0 0 0 -15.031235653395925 -68.292690942413174 0 -68.292690942413174 187.23150698901736 0 0 0 0 -14.143244750642225 45.867173797709256 0 45.867173797709256 169.38858192916086 0 0 0 0 -14.83294274662876 -25.824787008183193 0 -25.824787008183193 76.54660007901839 0 0 0 0 -21.08664765487174 11.083220748769236 0 11.083220748769236 77.344358490590821 0 0 0 0 -6.720019603883884 -31.046376304824662 0 -31.046376304824662 41.68936271808343 0 0 0 0 0.94312379528609469 1.1479980827515277 0 1.1479980827515277 1.1073301083607419 0 0 0 0 23.264481257581792 -31.74883370842872 0 -31.74883370842872 8.1621611940918228 0 0 0 0 1.5560305475137284 -52.674854437733302 0 -52.674854437733302 85.151924836394755 0 0 0 0 -20.310468302845038 -26.392752027379174 0 -26.392752027379174 81.750690578774083 0 0 0 0 37.772334279006827 -70.288781047122029 0 -70.288781047122029 16.125826804665849 0 0 0 0 6.9078615180987981 -33.709629600009066 0 -33.709629600009066 41.577321565913735 0 0 0 0 -57.982663035652763 -154.05717449477379 0 -154.05717449477379 -89.777298111905111 0 0 0 0 -101.08944915671827 -261.08064736233609 0 -261.08064736233609 744.11850553046679 0 0 0 0 -102.19402778501035 -363.21721167983924 0 -363.21721167983924 299.54295552836265 0 0 0 0 58.669810276616772 -102.95890127800521 0 -102.95890127800521 92.758735375216929 0 0 0 0 248.67120484049383 -122.88266411994118 0 -122.88266411994118 -120.28282588924048 0 0 0 0 32.918632763737151 -98.235773935943143 0 -98.235773935943143 83.8038123344013 0 0 0 0 35.936424908504705 -193.29825037059345 0 -193.29825037059345 474.12500015235855 0 0 0 0 -193.96595621269364 293.6769968155786 0 293.6769968155786 -697.00632082344964 0 0 0 0 28.070909110763751 58.269953675509896 0 58.269953675509896 229.10338733299432 0 0 0 0 1.2921848983412589 -1.5354870686993749 0 -1.5354870686993749 1.1833277990401143 0 0 0 0 43.365224308355209 70.331111637526192 0 70.331111637526192 38.193156123481458 0 0 0 0 3.7774324563949975 -18.688025760839082 0 -18.688025760839082 62.698263667611172 0 0 0 0 11.133414182447495 -2.2008102924737614 0 -2.2008102924737614 62.652157212317093 0 0 0 0 10.683484879009242 -16.729022115963744 0 -16.729022115963744 43.302272678042755 0 0 0 0 4.5484110554451576 -21.050689547901129 0 -21.050689547901129 45.316671022155788 0 0 0 0 4.4465316456747814 -2.5869366737388191 0 -2.5869366737388191 45.106355910919547 0 0 0 0 9.5237024819174394 4.712282158950984 0 4.712282158950984 76.114678911089868 0 0 0 0 1.4178235016902931 -12.381746120168827 0 -12.381746120168827 87.250239401015278 0 0 0 0 7.6286371739328729 -13.626412134304701 0 -13.626412134304701 67.317355020335526 0 0 0 0 0.64065166758627923 -10.419527257096533 0 -10.419527257096533 76.583524213187616 0 0 0 0 11.530386493732635 -10.880400738598837 0 -10.880400738598837 75.517155244968308 0 0 0 0 -256.38559725590449 -32.020022179363878 0 -32.020022179363878 79.696971046680119 0 0 0 0 0.7453631007833792 1.9784744042772218 0 1.9784744042772218 105.46052134336787 0 0 0 0 -641.77994738039433 334.01120800944045 0 334.01120800944045 -494.74665344809182 0 0 0 0 -0.85585398139956848 1.0110580174727488 0 1.0110580174727488 16.931214929489382 0 0 0 0 5.1092290750662412 -7.4063631851239506 0 -7.4063631851239506 17.669132160967592 0 0 0 0 -723.55873586414327 -57.683427270327229 0 -57.683427270327229 133.83089438324168 0 0 0 0 3.8850949468967428 8.155072109264438 0 8.155072109264438 55.766077274340205 0 0 0 0 -0.73168562839768825 -9.2040780785788314 0 -9.2040780785788314 60.625047960333234 0 0 0 0 8.2720727774089937 -0.91631039576896001 0 -0.91631039576896001 68.028028279299178 0 0 0 0 6.0247787885568869 -5.427188883179042 0 -5.427188883179042 66.925471564551117 0 0 0 0 5.771040116463837 -10.140503041546253 0 -10.140503041546253 110.92964692771784 0 0 0 0 6.2050034708609019 -8.3161499246125459 0 -8.3161499246125459 69.620663952431642 0 0 0 0 -41.160284877228605 -6.7387276505614864 0 -6.7387276505614864 144.93162148003466 0 0 0 0 -146.40077747374471 -10.648678315334109 0 -10.648678315334109 80.178868648654316 0 0 0 0 -1.3653807161332929 -0.22966576748933676 0 -0.22966576748933676 68.623368949208668 0 0 0 0 -144.15020499025468 -23.007264697116625 0 -23.007264697116625 53.817451815921231 0 0 0 0 16.772623459684382 -36.653120957431383 0 -36.653120957431383 42.861570471744926 0 0 0 0 -104.88349775621373 26.841483743439312 0 26.841483743439312 71.080906629831588 0 0 0 0 -166.60018042594584 27.241489665226254 0 27.241489665226254 101.65515490516555 0 0 0 0 -1.3402093681970655 -22.909539329077234 0 -22.909539329077234 74.339093137812597 0 0 0 0 -73.517338577268674 55.515084923550603 0 55.515084923550603 60.63228024248383 0 0 0 0 -107.96524280789163 13.590014577464899 0 13.590014577464899 90.066692634023639 0 0 0 0 -49.47483159759372 -26.000456027893961 0 -26.000456027893961 107.4732089471363 0 0 0 0 -77.196906997770384 -83.514303580479464 0 -83.514303580479464 76.761855919199661 0 0 0 0 63.632430765385834 -110.07803466502082 0 -110.07803466502082 135.28065668247291 0 0 0 0 96.985603997810358 -85.926419943163637 0 -85.926419943163637 74.091886203792455 0 0 0 0 -12.16406769145442 -25.820140293461009 0 -25.820140293461009 109.4543725886615 0 0 0 0 120.76873415022419 -328.77237521647476 0 -328.77237521647476 378.56410660512483 0 0 0 0 145.13326142721053 -119.47838009133557 0 -119.47838009133557 93.570225172152277 0 0 0 0 151.83946340687044 -130.95091904995206 0 -130.95091904995206 148.74519513924315 0 0 0 0 84.617773199385738 -71.858549393426074 0 -71.858549393426074 269.54897696545231 0 0 0 0 281.90953759385138 -282.78225000702514 0 -282.78225000702514 49.85982716435683 0 0 0 0 29.099203899076201 -61.15273615658225 0 -61.15273615658225 147.7061393552176 0 0 0 0 -15.443907392700567 -274.08296206295199 0 -274.08296206295199 -218.42036581682623 0 0 0 0 -68.165521874825572 157.50771193084074 0 157.50771193084074 -404.03796639965003 0 0 0 0 4.3092639221658828 -37.810541102531715 0 -37.810541102531715 40.855003505203058 0 0 0 0 -192.28990414752207 12.212651024557999 0 12.212651024557999 33.057150495966198 0 0 0 0 -213.96717056627858 46.499820810175152 0 46.499820810175152 72.692823000237695 0 0 0 0 75.554140106401064 2.6072764179989463 0 2.6072764179989463 -36.657724062912166 0 0 0 0 2.7834511808378011 -6.4308908584935125 0 -6.4308908584935125 54.35651148953275 0 0 0 0 3.1811702276288991 5.5601927695653393 0 5.5601927695653393 -1.3804382098200563 0 0 0 0 -0.097210968162471545 5.0946943562303204 0 5.0946943562303204 53.948140995476933 0 0 0 0 -0.48577696620487121 0.91861225416416481 0 0.91861225416416481 37.130217192930445 0 0 0 0 11.61931208013084 7.8636916019531782 0 7.8636916019531782 43.738589188615151 0 0 0 0 -3.4116861640089446 2.0658707340569862 0 2.0658707340569862 11.118030212497558 0 0 0 0 15.116382944353973 -3.9194216609175783 0 -3.9194216609175783 61.402410930517362 0 0 0 0 95.259363318185933 -159.05877973083989 0 -159.05877973083989 210.46196242092992 0 0 0 0 4.7191951644567816 1.6832031226340973 0 1.6832031226340973 6.5113368866647789 0 0 0 0 -10.144923802172343 -1.8318363780417712 0 -1.8318363780417712 78.853266881473246 0 0 0 0 -0.057136150153382914 -29.666068624894251 0 -29.666068624894251 50.150297475960542 0 0 0 0 83.681488909136533 -98.022369170546881 0 -98.022369170546881 142.14648066878726 0 0 0 0 112.31286667176755 -138.24275211783242 0 -138.24275211783242 149.15439361715107 0 0 0 0 84.382499354866013 -115.3213186753128 0 -115.3213186753128 204.95904051588877 0 0 0 0 152.75339357423582 -125.29747057096392 0 -125.29747057096392 186.32095589578967 0 0 0 0 88.227226348192744 -88.208287836729141 0 -88.208287836729141 183.96765952228452 0 0 0 0 112.77810665269135 -100.69788731646258 0 -100.69788731646258 87.020191829215037 0 0 0 0 95.341734203026135 -99.876825443265261 0 -99.876825443265261 141.2530746861521 0 0 0 0 92.891812117887639 -132.06812641090073 0 -132.06812641090073 74.912206631968729 0 0 0 0 121.69139135873593 -90.344897099130321 0 -90.344897099130321 34.038712177309208 0 0 0 0 88.035862730136614 -117.93437869256013 0 -117.93437869256013 18.228662965448166 0 0 0 0 138.06307694854331 -61.042961127357557 0 -61.042961127357557 21.69482010640786 0 0 0 0 127.5906608932346 -90.908586509794986 0 -90.908586509794986 42.356108362422674 0 0 0 0 115.32874524220097 -88.912018621034804 0 -88.912018621034804 85.856851926713716 0 0 0 0 127.39833874733631 -44.653481301698775 0 -44.653481301698775 16.508124115600367 0 0 0 0 2.3470114086177887 14.903945770875879 0 14.903945770875879 19.071452318215194 0 0 0 0 13.12511192303316 -3.4312000597956285 0 -3.4312000597956285 118.30237665193272 0 0 0 0 90.6258622547698 -63.29953488494175 0 -63.29953488494175 87.916199256673281 0 0 0 0 94.51140053344534 -52.509916303053615 0 -52.509916303053615 98.800308916703216 0 0 0 0 74.715566725195458 -48.026970504615747 0 -48.026970504615747 79.527147491979122 0 0 0 0 0.13398595082377085 12.087616963760851 0 12.087616963760851 28.403175088724737 0 0 0 0 29.989818947954291 -15.789716168172163 0 -15.789716168172163 65.104005251851049 0 0 0 0 9.8905282227096905 -1.7968528980782139 0 -1.7968528980782139 90.811040930071613 0 0 0 0 -1.0053523026654148 6.811669666574744 0 6.811669666574744 47.142465081979026 0 0 0 0 -0.16686779051371659 11.796127308034947 0 11.796127308034947 31.067322597586141 0 0 0 0 4.5062660982625857 10.519327721798618 0 10.519327721798618 35.785427708731731 0 0 0 0 0.99930272210667681 16.554498860334206 0 16.554498860334206 43.360046296264045 0 0 0 0 -4.5886452203237269 -3.6742916536962582 0 -3.6742916536962582 48.907090347525376 0 0 0 0 7.0163964015964666 5.1850493109086528 0 5.1850493109086528 38.928774817521116 0 0 0 0 6.5598460461087598 8.2298720336875704 0 8.2298720336875704 55.759390446561156 0 0 0 0 -6.5913816188522105 17.710623780105379 0 17.710623780105379 39.748267630857299 0 0 0 0 6.8734872377954161 9.1364870740344486 0 9.1364870740344486 31.50371359262499 0 0 0 0 12.176213962571637 -3.5795901516285085 0 -3.5795901516285085 36.202231654591742 0 0 0 0 -1.483125726454297 11.034169297357444 0 11.034169297357444 41.439871669337094 0 0 0 0 -0.23434472821872987 4.8526183961967035 0 4.8526183961967035 60.396891712112847 0 0 0 0 5.5480613080744661 10.739551069635127 0 10.739551069635127 62.618611456979124 0 0 0 0 -7.9288648070491057 -9.2629190887344208 0 -9.2629190887344208 31.471455806632989 0 0 0 0 7.6646723323992774 7.0844975448817422 0 7.0844975448817422 55.599011731865176 0 0 0 0 1.4706438425109809 7.3337258203409874 0 7.3337258203409874 63.305367561442836 0 0 0 0 3.2198628386267956 -0.54833578646321257 0 -0.54833578646321257 62.321902681258507 0 0 0 0 -3.9804189159273644 -14.31263882177192 0 -14.31263882177192 23.904071798769451 0 0 0 0 -2.4248407425446725 -2.9708312506371612 0 -2.9708312506371612 12.162008862686724 0 0 0 0 -8.952459228884436 -3.8607588961931469 0 -3.8607588961931469 67.851463503910054 0 0 0 0 -3.667469399593756 -19.19586556278955 0 -19.19586556278955 30.385928043215245 0 0 0 0 5.4116590137773528 -2.9172653867135523 0 -2.9172653867135523 35.922272970361519 0 0 0 0 -7.0312599049138953 -8.8808276155200474 0 -8.8808276155200474 51.054118597086926 0 0 0 0 -6.0144194546961876 -0.91742318369622922 0 -0.91742318369622922 29.836651035428446 0 0 0 0 -5.2341332252619104 -5.9924991545408659 0 -5.9924991545408659 11.064302030995373 0 0 0 0 -4.9450496926328924 -10.943522201418091 0 -10.943522201418091 33.642537113199069 0 0 0 0 -6.8963579032410962 0.81566817258135416 0 0.81566817258135416 61.990523796026537 0 0 0 0 -14.958801688758285 3.7521533108701988 0 3.7521533108701988 46.35164634607645 0 0 0 0 -1.7419588370035015 1.1619541029540841 0 1.1619541029540841 24.285307982743021 0 0 0 0 -4.8464363326014563 3.876084465051008 0 3.876084465051008 43.238744262751425 0 0 0 0 10.687443835614431 -18.658628980003414 0 -18.658628980003414 27.825260164587235 0 0 0 0 -20.069496604732194 -13.089146082726074 0 -13.089146082726074 44.364438623379101 0 0 0 0 -2.1140010790309485 -5.1043079328382008 0 -5.1043079328382008 32.654392301997348 0 0 0 0 -10.19685224235559 -12.181557934544799 0 -12.181557934544799 34.031481908561545 0 0 0 0 -13.045313518205148 -21.106101830533589 0 -21.106101830533589 64.759675951936515 0 0 0 0 -25.444954011738446 11.27095079839637 0 11.27095079839637 50.705236992595019 0 0 0 0 -2.9331012773084808 -1.0568306440916952 0 -1.0568306440916952 33.39779947475418 0 0 0 0 -28.176904034307427 8.8937403978015936 0 8.8937403978015936 48.887117924110498 0 0 0 0 0.031242411125230518 -2.1550327086177248 0 -2.1550327086177248 12.683206499306507 0 0 0 0 -6.5342741337080952 -0.16963575598856551 0 -0.16963575598856551 29.960894051124342 0 0 0 0 -2.6860252387526202 -8.5525611935529327 0 -8.5525611935529327 50.433284750324354 0 0 0 0 -21.957463558708696 13.513491192847141 0 13.513491192847141 32.311684197423801 0 0 0 0 -18.89247434887875 4.8141971143850242 0 4.8141971143850242 52.768851105065551 0 0 0 0 -23.044305723291473 16.509717733526486 0 16.509717733526486 60.134162247966742 0 0 0 0 -40.553794628349351 0.21065656108839903 0 0.21065656108839903 55.595572689133405 0 0 0 0 -11.767541550114402 10.397750631542294 0 10.397750631542294 52.525010608253069 0 0 0 0 -24.277585521725996 11.718989584645897 0 11.718989584645897 66.03999106871197 0 0 0 0 -4.5572465711600749 -6.987493874017269 0 -6.987493874017269 29.288426300249995 0 0 0 0 9.1723321479403239 -6.159431554202456 0 -6.159431554202456 65.529262000091649 0 0 0 0 -0.56634278989804443 -9.8401601058576489 0 -9.8401601058576489 18.871329982222051 0 0 0 0 -3.1536961916824415 -9.617374428020625 0 -9.617374428020625 37.360121167132718 0 0 0 0 0.6978243076466395 -7.8968136275222705 0 -7.8968136275222705 10.843181238673793 0 0 0 0 19.66414661836825 -39.25880863617931 0 -39.25880863617931 -9.0987812837120146 0 0 0 0 0.085437320263499372 -1.5319766968211681 0 -1.5319766968211681 2.9899027438793837 0 0 0 0 -47.908347353787519 111.20165113037319 0 111.20165113037319 105.06339865460177 0 0 0 0 496.47997081337599 -13.158940281748073 0 -13.158940281748073 173.5551581156019 0 0 0 0 85.032294777653988 -190.21144742515753 0 -190.21144742515753 116.92313319459572 0 0 0 0 -114.52225484884684 107.96426998763491 0 107.96426998763491 248.07416849070796 0 0 0 0 -442.07828415287304 -64.946310131294013 0 -64.946310131294013 252.7121894317097 0 0 0 0 -4.1569238603399832 -6.3407832503675845 0 -6.3407832503675845 56.268067503385709 0 0 0 0 77.655180294028014 -150.73225201702735 0 -150.73225201702735 11.0790375386714 0 0 0 0 -36.794543223364599 -23.149448631294945 0 -23.149448631294945 118.43156339484267 0 0 0 0 -36.980292174761416 56.561312104407989 0 56.561312104407989 138.95633090444608 0 0 0 0 19.978601951467681 -73.512470894012949 0 -73.512470894012949 73.744084482299513 0 0 0 0 -8.6410687962097654 -24.566331316009382 0 -24.566331316009382 30.525057695107535 0 0 0 0 283.48568070850922 -74.39309166503881 0 -74.39309166503881 -73.990374937595334 0 0 0 0 -4.3166217343789768 -13.652290365363147 0 -13.652290365363147 63.654833429527912 0 0 0 0 -9.1939456495801259 1.4639049543490614 0 1.4639049543490614 87.976294397638213 0 0 0 0 -65.188640474888416 3.1953968345005705 0 3.1953968345005705 58.515817212803086 0 0 0 0 -239.50836354435205 -72.131122961760411 0 -72.131122961760411 130.94807825286989 0 0 0 0 -219.14420442823965 -33.382706845641906 0 -33.382706845641906 45.354138063383289 0 0 0 0 10.215663633219265 106.48943977057206 0 106.48943977057206 81.285848332128808 0 0 0 0 -0.26093788244448607 -1.8066892101605276 0 -1.8066892101605276 6.7075428338190761 0 0 0 0 142.45597883209109 175.10595588591605 0 175.10595588591605 11.154034360755759 0 0 0 0 56.695463375404188 -164.08688457936296 0 -164.08688457936296 -2.7440996487493976 0 0 0 0 -10.582785178722702 -18.898896309381598 0 -18.898896309381598 274.83713274606998 0 0 0 0 118.56033267138491 -182.15777365136455 0 -182.15777365136455 212.45219237788115 0 0 0 0 -38.563512356045976 -189.82765962208578 0 -189.82765962208578 98.105081150519254 0 0 0 0 0.82170617228712217 -2.6130779554696346 0 -2.6130779554696346 -7.8282419607421616 0 0 0 0 -112.29701755122187 74.474296463322389 0 74.474296463322389 77.723475197413791 0 0 0 0 42.677839643268499 14.196260120590523 0 14.196260120590523 0.1851495494338451 0 0 0 0 29.386755483436673 7.8925332518065261 0 7.8925332518065261 73.040306030721695 0 0 0 0 177.40025471302761 28.776897790572548 0 28.776897790572548 72.692615291460243 0 0 0 0 -38.913242928722866 78.810088364243711 0 78.810088364243711 -18.090799608104135 0 0 0 0 -30.270013019604448 61.96658498479519 0 61.96658498479519 47.693887557921698 0 0 0 0 -38.982107985074435 58.20075923310651 0 58.20075923310651 110.36243851919426 0 0 0 0 -62.107526991464511 -5.5037936265362077 0 -5.5037936265362077 129.79541734140014 0 0 0 0 -125.2652676908499 58.016924929287597 0 58.016924929287597 110.38732242460537 0 0 0 0 20.95086812518187 23.028027642517259 0 23.028027642517259 63.999157090460358 0 0 0 0 20.720307228181866 26.434599702779224 0 26.434599702779224 72.364184693156858 0 0 0 0 -1.1443806374107037 -21.492456588639698 0 -21.492456588639698 31.989379399974268 0 0 0 0 23.959075847789336 -19.282261275141536 0 -19.282261275141536 117.61410059989794 0 0 0 0 3.7320523075759411 -10.449898404571286 0 -10.449898404571286 68.328112324728863 0 0 0 0 48.515219740029352 2.314917174699076 0 2.314917174699076 52.683271796166991 0 0 0 0 3.731849470162615 -14.294854384321297 0 -14.294854384321297 95.818043161489186 0 0 0 0 5.279402777491887 -25.556063758920175 0 -25.556063758920175 47.323010235067073 0 0 0 0 19.322596171540681 -29.226186602227244 0 -29.226186602227244 47.518207044835435 0 0 0 0 57.41356629740676 6.4061169319465989 0 6.4061169319465989 52.915239973659482 0 0 0 0 -4.3900127911188065 -34.707630003578743 0 -34.707630003578743 116.90567057844964 0 0 0 0 -13.761166428727977 38.625306770203721 0 38.625306770203721 71.348446982258992 0 0 0 0 -12.132583331234063 39.215183788963152 0 39.215183788963152 77.515205395747131 0 0 0 0 -2.5031899626901577 154.31173219270568 0 154.31173219270568 175.99814639966644 0 0 0 0 74.929427308203685 -106.53051435933594 0 -106.53051435933594 122.4097247325044 0 0 0 0 9.1112119343449649 31.695745858020018 0 31.695745858020018 3.9760066839289721 0 0 0 0 9.659989687041957 90.869504775260793 0 90.869504775260793 -32.869191263439461 0 0 0 0 -3.6622287394066322 3.3684630676515006 0 3.3684630676515006 29.533942755337463 0 0 0 0 -58.041954937919854 -13.86911391081685 0 -13.86911391081685 164.82368054060498 0 0 0 0 -4.2653412202789429 13.164272686051078 0 13.164272686051078 3.6485212239338622 0 0 0 0 -0.84360174400057986 8.2121474266823498 0 8.2121474266823498 39.073969992114144 0 0 0 0 38.018462879840627 52.705942660106302 0 52.705942660106302 0.76543805979235913 0 0 0 0 24.619510175356936 -22.113241634870064 0 -22.113241634870064 44.045919264895929 0 0 0 0 -1.4482622282154201 9.23057965893085 0 9.23057965893085 6.385177194852929 0 0 0 0 23.42724109162549 66.583556317482362 0 66.583556317482362 48.933839232791797 0 0 0 0 2.2070200719913444 19.284625812480755 0 19.284625812480755 39.941706580751507 0 0 0 0 -3.4140459487089174 0.5255823847855936 0 0.5255823847855936 63.483581274747849 0 0 0 0 0.014140758662051667 -28.602096257938683 0 -28.602096257938683 96.931880241590989 0 0 0 0 3.7847441265472277 1.302579306208365 0 1.302579306208365 20.641160227068291 0 0 0 0 10.158629372023825 17.02899203774723 0 17.02899203774723 21.847782107826788 0 0 0 0 13.741762108399143 28.865217004864462 0 28.865217004864462 118.60749711913377 0 0 0 0 31.093279637260366 39.587368261631127 0 39.587368261631127 115.27615640903241 0 0 0 0 37.638914408855271 23.386758789714804 0 23.386758789714804 95.835811994227697 0 0 0 0 -10.349124545399718 6.5843956039170735 0 6.5843956039170735 101.29919351156423 0 0 0 0 -27.113399857383286 -18.206021979589423 0 -18.206021979589423 108.93161522664013 0 0 0 0 -5.2092054313196439 -4.2047341233371078 0 -4.2047341233371078 45.094193292364238 0 0 0 0 4.7701749718476663 -35.381361462505083 0 -35.381361462505083 111.48573339425639 0 0 0 0 -4.5518721172078767 -8.0539295637855126 0 -8.0539295637855126 45.232982027918538 0 0 0 0 -5.6761922280611543 -30.234785852153436 0 -30.234785852153436 37.333299476835236 0 0 0 0 4.524085718348033 8.6264567054276995 0 8.6264567054276995 61.226423286731006 0 0 0 0 7.1886497108353069 0.62855671326542506 0 0.62855671326542506 11.447116780705983 0 0 0 0 -1.0218390058605671 -12.935260466882319 0 -12.935260466882319 37.445235752452916 0 0 0 0 -34.097528063873142 -40.597676659118406 0 -40.597676659118406 30.120662340785202 0 0 0 0 24.990768873738034 -17.434076655477838 0 -17.434076655477838 29.074130869819783 0 0 0 0 -57.061308183195706 -67.080055519950747 0 -67.080055519950747 24.104669338054009 0 0 0 0 -15.313867432430925 -63.129338785831351 0 -63.129338785831351 5.9618547022619168 0 0 0 0 15.889874799559038 -17.873208497283485 0 -17.873208497283485 58.787405268882139 0 0 0 0 -3.4700015424608175 -14.888775368426323 0 -14.888775368426323 31.633717026835853 0 0 0 0 -3.0793316066892658 -42.743912600671592 0 -42.743912600671592 36.814829934592126 0 0 0 0 24.794381814347616 -16.817899000976468 0 -16.817899000976468 13.532929564320511 0 0 0 0 10.420983234967025 3.15036612050244 0 3.15036612050244 67.086423350956466 0 0 0 0 -11.374887248708546 -24.639000297800521 0 -24.639000297800521 60.521191556927079 0 0 0 0 -10.518737689654699 -24.84345401934479 0 -24.84345401934479 59.956968518825306 0 0 0 0 63.380398310332566 -6.5489790491410531 0 -6.5489790491410531 18.522697435397276 0 0 0 0 3.889975073212554 17.7313206892577 0 17.7313206892577 54.120097214668931 0 0 0 0 -0.63510614631789508 -0.28531239615823267 0 -0.28531239615823267 9.4674211831231823 0 0 0 0 -29.691428477659883 -8.2597147926680918 0 -8.2597147926680918 89.183035136054968 0 0 0 0 11.362516795839838 15.671574306714319 0 15.671574306714319 81.310849200977827 0 0 0 0 -0.80383225796458646 16.99115937899478 0 16.99115937899478 138.46363376933732 0 0 0 0 42.823783382677902 -29.7261312867995 0 -29.7261312867995 107.78376431103243 0 0 0 0 0.72438473226570821 -1.2422977323866746 0 -1.2422977323866746 -0.12821493384319504 0 0 0 0 10.663327455637045 21.72101540483709 0 21.72101540483709 125.04573633199766 0 0 0 0 50.219593806543344 34.745182697024575 0 34.745182697024575 81.822799980465788 0 0 0 0 74.034219000525354 -23.998956900406483 0 -23.998956900406483 44.061514921922935 0 0 0 0 2.0821447641506801 -0.21077672391552937 0 -0.21077672391552937 12.601215310482321 0 0 0 0 3.4658191669841472 3.0243767466308782 0 3.0243767466308782 73.492265995351772 0 0 0 0 4.0751613462052774 2.7824934359268809 0 2.7824934359268809 73.380430624667497 0 0 0 0 10.222692857865695 13.661749350230821 0 13.661749350230821 72.485439179495643 0 0 0 0 21.416862977353048 14.266587288970186 0 14.266587288970186 48.251157959923148 0 0 0 0 20.327313083309491 9.3911325327571831 0 9.3911325327571831 66.345362953386939 0 0 0 0 20.690455399623715 18.584834793789923 0 18.584834793789923 52.369203235961322 0 0 0 0 -9.6460652320632221 -23.054301756986774 0 -23.054301756986774 51.792993662766094 0 0 0 0 20.173466046272097 3.6272918912600289 0 3.6272918912600289 35.71530493557475 0 0 0 0 -2.9213064553994812 -13.402972247239788 0 -13.402972247239788 32.778385528302493 0 0 0 0 -7.1794898950923027 10.438820923014646 0 10.438820923014646 47.298535272515437 0 0 0 0 14.826601987955655 3.7844284279053682 0 3.7844284279053682 45.313071897340706 0 0 0 0 17.494021495957895 8.5923110899148014 0 8.5923110899148014 52.176536583614507 0 0 0 0 -4.1958697011700057 -9.1259780092885734 0 -9.1259780092885734 39.468001725453348 0 0 0 0 4.333578169546854 9.9176363068072533 0 9.9176363068072533 47.128927929657038 0 0 0 0 -2.2502958823156405 5.0905501492670737 0 5.0905501492670737 79.21017434339592 0 0 0 0 4.1611796079987471 11.643144262048736 0 11.643144262048736 54.744729693825548 0 0 0 0 6.4068023999006982 -1.8394138297717291 0 -1.8394138297717291 80.587354162191332 0 0 0 0 26.741027887249857 16.604681236492979 0 16.604681236492979 71.007637676279955 0 0 0 0 -0.42069222674643392 -8.163311325493309 0 -8.163311325493309 73.490542193843567 0 0 0 0 -116.41277741589874 -30.501173060372821 0 -30.501173060372821 86.301989163526741 0 0 0 0 -137.1788295846759 15.459432613473837 0 15.459432613473837 159.32401930641299 0 0 0 0 -95.42988205189431 52.092109567274292 0 52.092109567274292 147.94924216499794 0 0 0 0 -45.211803376357238 90.286550792485514 0 90.286550792485514 246.96733308898911 0 0 0 0 -22.487699392457216 52.083421139077927 0 52.083421139077927 127.04184133352919 0 0 0 0 -71.22149017615061 -49.824558806990126 0 -49.824558806990126 59.880510441951628 0 0 0 0 -154.24897390622755 -92.14027244115664 0 -92.14027244115664 110.48827376643658 0 0 0 0 -57.009209246020873 -3.5162573611869448 0 -3.5162573611869448 205.34168609124572 0 0 0 0 10.601162928607664 -113.10285195556253 0 -113.10285195556253 96.935980696811384 0 0 0 0 -75.191508384614281 -34.716882528557562 0 -34.716882528557562 33.470854983746904 0 0 0 0 -3.5599578030550769 -4.6000284921578576 0 -4.6000284921578576 62.126217998942899 0 0 0 0 47.357719443554288 9.9688104540418863 0 9.9688104540418863 37.526196215225355 0 0 0 0 12.827409743455519 -14.21512951771183 0 -14.21512951771183 77.60263944426697 0 0 0 0 -6.3224851650951095 -8.8111716220937524 0 -8.8111716220937524 -90.571165144778206 0 0 0 0 12.445616742825088 71.239808851335667 0 71.239808851335667 83.773013440259632 0 0 0 0 73.181402930933587 97.909950713528815 0 97.909950713528815 -157.7304767164278 0 0 0 0 79.908251687809752 38.435413542296828 0 38.435413542296828 218.66274447862452 0 0 0 0 -134.12762022537208 79.4356474530843 0 79.4356474530843 158.639655463081 0 0 0 0 87.095698075492692 27.695201210464802 0 27.695201210464802 160.93238597809136 0 0 0 0 -67.192870440735078 13.579764475319962 0 13.579764475319962 136.45201269401241 0 0 0 0 80.335204574573709 68.443428044142706 0 68.443428044142706 198.54147464584275 0 0 0 0 8.3392419062085015 5.7922508102473031 0 5.7922508102473031 23.864029752434512 0 0 0 0 -27.976533837651004 72.303078038230524 0 72.303078038230524 172.37607858564297 0 0 0 0 70.613031269777366 55.176618570043047 0 55.176618570043047 229.86723991311192 0 0 0 0 -0.051855285451595456 -1.0583633487736197 0 -1.0583633487736197 71.295837503941044 0 0 0 0 -6.395332796004368 21.610591728467625 0 21.610591728467625 223.03520460492155 0 0 0 0 10.678873715053669 8.4272290182270808 0 8.4272290182270808 56.644401434445172 0 0 0 0 -19.46934767693255 47.915268564920787 0 47.915268564920787 134.0654421210071 0 0 0 0 43.168449264680021 18.947068280020176 0 18.947068280020176 107.62751874343667 0 0 0 0 -1.8240307105581781 0.72151874321136589 0 0.72151874321136589 13.860934752344221 0 0 0 0 0.48214227187998837 -3.6914964479473156 0 -3.6914964479473156 32.381475609139159 0 0 0 0 3.4975632570130983 10.16655644763523 0 10.16655644763523 69.569437634509086 0 0 0 0 2.0520345448167063 13.070838770694536 0 13.070838770694536 89.128021788978003 0 0 0 0 3.3065723435663905 21.24396130455785 0 21.24396130455785 23.581106793106706 0 0 0 0 -15.298836615680575 14.12315034196066 0 14.12315034196066 94.939358586957809 0 0 0 0 -19.460098961478252 30.162591852818878 0 30.162591852818878 65.835043522165506 0 0 0 0 -0.25236640041551084 18.764533205229093 0 18.764533205229093 28.421825152858744 0 0 0 0 -1.8068887118788552 3.6774180864777009 0 3.6774180864777009 55.355679829615838 0 0 0 0 0.25443004196449692 3.7735187539294657 0 3.7735187539294657 79.633749861313845 0 0 0 0 -1.3708968791853202 3.5536225068991172 0 3.5536225068991172 29.194849292451764 0 0 0 0 6.0834793880967482 7.7891434136690805 0 7.7891434136690805 1.3395442478795303 0 0 0 0 8.1752123816922904 24.584379917658225 0 24.584379917658225 39.357070413330803 0 0 0 0 3.8829991924305496 22.916527031702589 0 22.916527031702589 24.929237457325257 0 0 0 0 4.526512699383602 21.715502930070215 0 21.715502930070215 60.385131555522094 0 0 0 0 6.2082829312270853 4.4753869616203303 0 4.4753869616203303 -4.1025140899232042 0 0 0 0 -1.8748390488344739 13.433285423496272 0 13.433285423496272 -19.106781967086135 0 0 0 0 0.74774105726102746 1.9694915564297872 0 1.9694915564297872 5.0153920785042132 0 0 0 0 -41.085115736201715 -3.4815424659645942 0 -3.4815424659645942 -21.618608161083102 0 0 0 0 1.9499314146109707 19.227012728014088 0 19.227012728014088 16.478467186916284 0 0 0 0 1.8527851844846737 18.860478529531974 0 18.860478529531974 70.410903898209654 0 0 0 0 2.7579177068755349 9.7143949217503049 0 9.7143949217503049 25.273037603995533 0 0 0 0 -4.2481355966610863 -45.400794198809308 0 -45.400794198809308 -111.60652065899558 0 0 0 0 10.707971210191657 42.345967806869197 0 42.345967806869197 27.904010369673685 0 0 0 0 3.5193546434982181 -104.60330277417188 0 -104.60330277417188 -118.32884399211616 0 0 0 0 -342.63199936165074 118.86603486073727 0 118.86603486073727 390.52378637416405 0 0 0 0 -0.051338758939042606 -0.57894925358483817 0 -0.57894925358483817 0.82064537965708473 0 0 0 0 418.38587881885906 160.28135634888895 0 160.28135634888895 60.720647884663776 0 0 0 0 2.8637649098789968 3.5331469662954476 0 3.5331469662954476 0.93271726842289127 0 0 0 0 -303.40418063140794 867.40376000277683 0 867.40376000277683 1638.9071331247687 0 0 0 0 1095.2070742254987 489.24670534373581 0 489.24670534373581 -1182.6470344237896 0 0 0 0 174.69192395670848 -29.061857649954618 0 -29.061857649954618 -181.42252476108843 0 0 0 0 255.91257597714593 -106.82600433123298 0 -106.82600433123298 -302.29518915360677 0 0 0 0 6.6974671825741279 5.2647652279688089 0 5.2647652279688089 0.50009880410542062 0 0 0 0 105.79384617286041 -72.075808712910657 0 -72.075808712910657 236.91786443257297 0 0 0 0 -124.64020157899449 153.92894148652704 0 153.92894148652704 579.25127814349253 0 0 0 0 8.6477360702483566 -89.019926841383494 0 -89.019926841383494 353.79171636038518 0 0 0 0 262.7262626080601 357.60599363282381 0 357.60599363282381 507.1796262533062 0 0 0 0 265.16812265032058 91.24787861158984 0 91.24787861158984 269.86700680261129 0 0 0 0 292.11510706172476 -413.70156105070782 0 -413.70156105070782 422.51327043822675 0 0 0 0 203.81030287290923 -125.4667157987933 0 -125.4667157987933 8.0591114842973184 0 0 0 0 292.54164945407092 -416.07085182401715 0 -416.07085182401715 2.9278075451111363 0 0 0 0 296.57976365647505 321.46330558728005 0 321.46330558728005 652.2685683135569 0 0 0 0 0.44371075419357542 -4.7066812060742151 0 -4.7066812060742151 9.9827916300004915 0 0 0 0 200.39879064035085 248.24322734244197 0 248.24322734244197 364.78902112687501 0 0 0 0 314.66820431258782 310.23045174391882 0 310.23045174391882 37.962425009289291 0 0 0 0 360.62151568408808 214.97708456286637 0 214.97708456286637 -300.38717233325229 0 0 0 0 281.06874658914558 393.61296571740877 0 393.61296571740877 333.14616903052956 0 0 0 0 109.10541737926815 347.93600157507171 0 347.93600157507171 707.81457476191281 0 0 0 0 126.75845812077313 239.62667500848329 0 239.62667500848329 396.86929342590156 0 0 0 0 95.993046592186971 301.93732120039385 0 301.93732120039385 511.4640901741368 0 0 0 0 151.05197061706065 204.22927697244813 0 204.22927697244813 141.44870534002257 0 0 0 0 79.117331022930443 132.16076863500712 0 132.16076863500712 465.25002140415017 0 0 0 0 144.23744526704286 197.98847062923596 0 197.98847062923596 389.38818104212805 0 0 0 0 231.3256791395072 280.04924496342574 0 280.04924496342574 90.587992760643829 0 0 0 0 129.81636191606879 79.174992846950772 0 79.174992846950772 52.022468501239928 0 0 0 0 100.81787892003382 33.6752139371456 0 33.6752139371456 -77.063703965730383 0 0 0 0 212.07803312703891 71.751390503204675 0 71.751390503204675 -107.33850972060463 0 0 0 0 141.54057844086469 162.46539443224901 0 162.46539443224901 158.9407223206581 0 0 0 0 -6.4463656774635183 161.06877721047931 0 161.06877721047931 136.09618548581784 0 0 0 0 100.82779750066845 273.60231464514436 0 273.60231464514436 -169.89832533462322 0 0 0 0 31.533521347064834 87.041852807647956 0 87.041852807647956 420.52205312156002 0 0 0 0 26.726406637302716 14.38759332808695 0 14.38759332808695 763.08688720845385 0 0 0 0 158.24899401153687 158.72342813904106 0 158.72342813904106 135.79180487881604 0 0 0 0 137.16365070535107 189.6269214823642 0 189.6269214823642 403.08971168192511 0 0 0 0 210.06578697263672 53.271156115748454 0 53.271156115748454 419.55069263603809 0 0 0 0 -941.35292570934257 -93.375627715649898 0 -93.375627715649898 2268.7370276576985 0 0 0 0 -329.71766472120271 -850.70769386336906 0 -850.70769386336906 1232.9139302199692 0 0 0 0 -768.41400606636103 254.60530095633112 0 254.60530095633112 659.95705665677087 0 0 0 0 336.59246883634455 649.60014514525028 0 649.60014514525028 1559.304918849688 0 0 0 0 -21.467677390211747 268.6766450734649 0 268.6766450734649 918.50563229660474 0 0 0 0 721.08285687787838 -392.21169816034308 0 -392.21169816034308 1456.8633387680093 0 0 0 0 0.67730962827932062 -1.8293745726103765 0 -1.8293745726103765 3.0443003346033564 0 0 0 0 -0.064613252605604465 -3.2944430423740201 0 -3.2944430423740201 9.6536321412872041 0 0 0 0 -330.13752236723872 -876.26252693910283 0 -876.26252693910283 384.57851661871246 0 0 0 0 -78.204328256493454 -372.84483320891741 0 -372.84483320891741 83.781593742511177 0 0 0 0 -36.555231071504409 -223.71373086532185 0 -223.71373086532185 609.82501888662227 0 0 0 0 -424.65151258706055 -631.29703954631259 0 -631.29703954631259 801.02037103656039 0 0 0 0 -464.61550770666599 166.32168058553543 0 166.32168058553543 1421.7151955765439 0 0 0 0 -250.2932787388753 615.62090993139645 0 615.62090993139645 1177.8804780276296 0 0 0 0 -257.37809124929424 627.25128372436302 0 627.25128372436302 1505.5527052492325 0 0 0 0 -732.46439755840584 809.69613716950698 0 809.69613716950698 3500.10864182363 0 0 0 0 -685.39221148928664 14.295219127356177 0 14.295219127356177 2125.3794044109127 0 0 0 0 -334.09958296993062 -240.75542036858678 0 -240.75542036858678 3081.4514626070741 0 0 0 0 1625.4982362993501 -1130.4228346684904 0 -1130.4228346684904 2769.6439631560352 0 0 0 0 1.6265655979684168 -1.5927331322914497 0 -1.5927331322914497 12.087516491197192 0 0 0 0 796.60649934242213 -410.84608137691612 0 -410.84608137691612 3024.95741852028 0 0 0 0 513.24346113303409 1867.6435867925757 0 1867.6435867925757 3495.3422515785751 0 0 0 0 0.46949511497158447 -6.5947433761920706 0 -6.5947433761920706 19.706887168113013 0 0 0 0 131.00087597556058 371.45799264818925 0 371.45799264818925 336.37980984743626 0 0 0 0 283.86112226602654 913.14941203786657 0 913.14941203786657 -356.28013218012347 0 0 0 0 1408.1100248310081 44.605615767940769 0 44.605615767940769 -430.37857663678005 0 0 0 0 5.9518002216626273 6.0674725194044186 0 6.0674725194044186 8.4693831496959433 0 0 0 0 740.4829826876927 200.85341780023646 0 200.85341780023646 -407.19469949198538 0 0 0 0 815.84266920740811 435.96227837727929 0 435.96227837727929 70.178229729150189 0 0 0 0 1405.0376096727409 753.70668964157085 0 753.70668964157085 -822.12058014405193 0 0 0 0 608.8606797691258 501.93971042244902 0 501.93971042244902 507.65833829689655 0 0 0 0 810.95309412521328 -1.2812522017047741 0 -1.2812522017047741 474.66274589544628 0 0 0 0 488.32993045256717 94.626226400068845 0 94.626226400068845 481.95740050314998 0 0 0 0 208.59144710585451 302.86263397215589 0 302.86263397215589 679.36014092693222 0 0 0 0 416.35413161058023 424.72830979065475 0 424.72830979065475 131.30996191134182 0 0 0 0 236.05334182574364 204.32122893367023 0 204.32122893367023 1132.9494855454977 0 0 0 0 253.4179716812705 102.78847055201004 0 102.78847055201004 1437.8451087528374 0 0 0 0 248.07905956586097 -35.270156217405685 0 -35.270156217405685 1517.9620188034314 0 0 0 0 251.65883801467453 289.9611158498883 0 289.9611158498883 723.57913317843486 0 0 0 0 144.64755684838474 -458.01776993526437 0 -458.01776993526437 811.01861048171122 0 0 0 0 -104.44498173518105 -134.09050548247615 0 -134.09050548247615 1191.1515617098521 0 0 0 0 -104.3675179643526 -157.97483958479097 0 -157.97483958479097 260.57690277853544 0 0 0 0 -122.79252617439852 -26.402659628292895 0 -26.402659628292895 602.90387423683342 0 0 0 0 -217.71899094173295 5.7887064234309946 0 5.7887064234309946 382.391945144278 0 0 0 0 -68.429390574877289 63.691413982378435 0 63.691413982378435 224.76691624162777 0 0 0 0 -110.84832851085457 482.98699164525897 0 482.98699164525897 16.203462089821187 0 0 0 0 11.293002876963218 13.873582498144756 0 13.873582498144756 15.418677059616044 0 0 0 0 -235.47410683949181 673.35236927633741 0 673.35236927633741 1079.4049035484313 0 0 0 0 -272.75981241570571 -427.94387888673009 0 -427.94387888673009 1834.853181890292 0 0 0 0 -321.69030365045802 -749.90329475860926 0 -749.90329475860926 3493.2925156456463 0 0 0 0 -551.32082835034282 -633.75702246488072 0 -633.75702246488072 3435.3490145515389 0 0 0 0 -118.78832920790057 -9.2495914937735506 0 -9.2495914937735506 3501.3911579817577 0 0 0 0 24.101393292834103 446.07320058001642 0 446.07320058001642 3500.9464615482052 0 0 0 0 -62.573709543642806 221.86342685846466 0 221.86342685846466 4083.1799107648112 0 0 0 0 85.072496116077218 55.865428610304662 0 55.865428610304662 -274.89335796551313 0 0 0 0 251.42588249510737 221.48699048464732 0 221.48699048464732 -218.17614759298158 0 0 0 0 5.7816377991346624 5.3250424901359565 0 5.3250424901359565 4.3120259619737134 0 0 0 0 -68.770068741409204 86.829858075187076 0 86.829858075187076 -107.57002250834194 0 0 0 0 5.0515176263105417 37.882308174287573 0 37.882308174287573 -156.5788148863794 0 0 0 0 -101.66881562509855 270.69123494726591 0 270.69123494726591 -214.39189374556554 0 0 0 0 9.214859341058375 11.387494566434555 0 11.387494566434555 12.635341684865239 0 0 0 0 84.433741628747157 63.559751840541139 0 63.559751840541139 -178.53202278885874 0 0 0 0 4.0847839705618245 3.9896952582990508 0 3.9896952582990508 4.5529106140609201 0 0 0 0 314.66550409082129 354.21841826765376 0 354.21841826765376 -131.13723823281907 0 0 0 0 52.234965455370457 -232.29075910688334 0 -232.29075910688334 1184.4100188306547 0 0 0 0 692.52181197125856 264.31985555657229 0 264.31985555657229 892.88349711711635 0 0 0 0 829.77351317637158 43.501793487237592 0 43.501793487237592 396.9106075532909 0 0 0 0 518.30102488967168 96.607329848469817 0 96.607329848469817 526.92136944565573 0 0 0 0 528.9289891378528 76.959403680857577 0 76.959403680857577 344.23126143388799 0 0 0 0 737.91514526824062 -76.396424212352031 0 -76.396424212352031 31.042821120048757 0 0 0 0 254.95706649857675 280.82102245613351 0 280.82102245613351 343.08714958306086 0 0 0 0 2.9625353434712753 1.0730553226727153 0 1.0730553226727153 3.285355343789865 0 0 0 0 1.502084769212555 1.349950798699183 0 1.349950798699183 3.2410826278484564 0 0 0 0 402.80302161815598 56.956258636608254 0 56.956258636608254 598.40238101282739 0 0 0 0 316.73816381263987 -194.58517825130184 0 -194.58517825130184 389.20619965647347 0 0 0 0 757.36156171563334 21.969996242174602 0 21.969996242174602 403.02507116639754 0 0 0 0 7.3712163273401075 142.35066964554608 0 142.35066964554608 762.00765110562497 0 0 0 0 5.234982371708611 2.3599620452732779 0 2.3599620452732779 36.248407038016012 0 0 0 0 0.35639278130440744 -2.3652176130499072 0 -2.3652176130499072 11.629806968619434 0 0 0 0 102.27044822171138 -119.54531660419889 0 -119.54531660419889 648.75976990279014 0 0 0 0 42.768853134091273 -302.53300167949965 0 -302.53300167949965 684.76280293946911 0 0 0 0 -143.54752874632186 -201.07336493710682 0 -201.07336493710682 541.91569531515415 0 0 0 0 -30.457527150753322 -155.21138700644224 0 -155.21138700644224 416.1116970195535 0 0 0 0 -18.536812002711486 -304.99440365405462 0 -304.99440365405462 572.79079143861327 0 0 0 0 73.100178647645862 -274.55963760654413 0 -274.55963760654413 384.79945704832789 0 0 0 0 181.42410086143434 -203.17447492192332 0 -203.17447492192332 417.61741441479535 0 0 0 0 -4.3171623831208308 -55.011570946382562 0 -55.011570946382562 300.37478355813073 0 0 0 0 9.9835880764504026 6.2283696756295086 0 6.2283696756295086 1.6087932346389482 0 0 0 0 17.648541280252175 8.7829460172288236 0 8.7829460172288236 31.549717143447197 0 0 0 0 20.728340383502655 15.614745020342525 0 15.614745020342525 33.336296202338417 0 0 0 0 -38.219941040915273 -82.54697871843382 0 -82.54697871843382 576.99754363374814 0 0 0 0 -38.597587800178189 -25.158528646863488 0 -25.158528646863488 446.23403233499266 0 0 0 0 7.5094729238894757 0.38239995598554799 0 0.38239995598554799 1.8091356501414708 0 0 0 0 19.667756760769407 14.622270107211079 0 14.622270107211079 28.027198967523873 0 0 0 0 6.6494888146971789 25.500701606048096 0 25.500701606048096 39.607783367802767 0 0 0 0 1.9444125247659407 -0.20245093309003437 0 -0.20245093309003437 -1.9367931510583958 0 0 0 0 -3.9360226933982396 -5.2780230700389552 0 -5.2780230700389552 15.210082641065043 0 0 0 0 4.4169230408369913 -5.5585542323133268 0 -5.5585542323133268 45.90950291743502 0 0 0 0 3.2283099173241894 3.670594136127292 0 3.670594136127292 9.1676142689339173 0 0 0 0 14.752773397500277 9.3626523612183519 0 9.3626523612183519 0.79690007420629172 0 0 0 0 10.541501971801154 22.262525451886177 0 22.262525451886177 41.119325692357961 0 0 0 0 4.9188410437891434 6.7350856586417649 0 6.7350856586417649 33.249045777709398 0 0 0 0 5.5116602193484141 -2.4291021432509297 0 -2.4291021432509297 29.921969778530183 0 0 0 0 3.9930191217217725 5.6598489798125229 0 5.6598489798125229 38.150155553390505 0 0 0 0 1.3192571250801848 5.0836082777241245 0 5.0836082777241245 42.442997998557985 0 0 0 0 4.7959931857840274 9.4263515210914193 0 9.4263515210914193 34.147365067696228 0 0 0 0 0.86249014042015482 6.4426052213521672 0 6.4426052213521672 29.045255387575182 0 0 0 0 3.7883626477923826 2.1515400733114802 0 2.1515400733114802 76.544939944637008 0 0 0 0 4.6031730089889606 9.8436899899606942 0 9.8436899899606942 36.559962718803945 0 0 0 0 -1.3277981852401624 -4.4860626980643445 0 -4.4860626980643445 33.611781188189639 0 0 0 0 13.769135068587275 2.4195376519055571 0 2.4195376519055571 75.588981019798666 0 0 0 0 -15.241337956787902 6.5020603345037671 0 6.5020603345037671 35.992640942597063 0 0 0 0 -9.4184298415148291 16.800499257955749 0 16.800499257955749 47.347862651513594 0 0 0 0 -5.7223894258340735 22.719690685652466 0 22.719690685652466 61.749967747486892 0 0 0 0 26.344386459391899 5.0907801923931402 0 5.0907801923931402 73.219090384722222 0 0 0 0 55.7233885184678 26.85613891594403 0 26.85613891594403 40.882587703621539 0 0 0 0 -1.136505905070635 16.731149918979099 0 16.731149918979099 72.084135613258695 0 0 0 0 111.88465641860057 -4.913439503267 0 -4.913439503267 41.010032872029115 0 0 0 0 69.174173548113686 13.488178415544098 0 13.488178415544098 34.354696216327284 0 0 0 0 194.82320652968883 17.403973806314752 0 17.403973806314752 -29.364434630699179 0 0 0 0 135.37229683729674 53.971673937623564 0 53.971673937623564 20.845895324004232 0 0 0 0 125.99181178507752 -23.422349168980872 0 -23.422349168980872 6.6256322145927697 0 0 0 0 168.66221925131504 -12.491481262804882 0 -12.491481262804882 -24.384161531022983 0 0 0 0 164.21730421591565 -80.706174932987778 0 -80.706174932987778 -20.646305739734089 0 0 0 0 195.36602176981251 -43.766078314685728 0 -43.766078314685728 -52.477297265664674 0 0 0 0 218.67818984188489 -86.340681097208289 0 -86.340681097208289 -81.522171798300405 0 0 0 0 162.17482441342048 -114.98117571848275 0 -114.98117571848275 -76.251900968403788 0 0 0 0 223.50272817403857 -91.230081673318637 0 -91.230081673318637 -93.175293484964641 0 0 0 0 200.6047516032761 -207.5646538471492 0 -207.5646538471492 -220.57891524164006 0 0 0 0 253.2083884126514 -83.516743316933571 0 -83.516743316933571 -162.29467305191793 0 0 0 0 194.33430892084925 -56.87783348919038 0 -56.87783348919038 -81.722503602330107 0 0 0 0 289.72064135608161 -25.440009635378374 0 -25.440009635378374 -88.453342461814827 0 0 0 0 223.1528485807512 31.085756651460542 0 31.085756651460542 -60.90121649048524 0 0 0 0 327.24024826986897 97.228663670553942 0 97.228663670553942 -24.369247451075353 0 0 0 0 310.59389052108509 71.939190107666946 0 71.939190107666946 -61.927768157736864 0 0 0 0 301.45600033983919 -178.78696657560431 0 -178.78696657560431 -113.29788563566399 0 0 0 0 437.73712256488034 14.224404899723595 0 14.224404899723595 -149.98718019142143 0 0 0 0 506.86867525572416 0.87475828402239131 0 0.87475828402239131 -132.22419039353554 0 0 0 0 698.19554435019745 -269.74012002278323 0 -269.74012002278323 250.50002021520777 0 0 0 0 728.26704963723921 259.3692422120339 0 259.3692422120339 44.341471044928767 0 0 0 0 338.74107233184804 95.479538300394779 0 95.479538300394779 -24.541282787649834 0 0 0 0 23.476203828578946 113.12637264457589 0 113.12637264457589 223.64244902045175 0 0 0 0 332.07924403192675 207.083954478132 0 207.083954478132 73.121437334339134 0 0 0 0 42.995143239410027 69.530223960406147 0 69.530223960406147 84.857021099945996 0 0 0 0 21.320368735110605 -18.934134178998647 0 -18.934134178998647 15.407734653410444 0 0 0 0 125.44214843968075 59.681945481839648 0 59.681945481839648 21.65503740508575 0 0 0 0 169.24851937187304 132.6613729649689 0 132.6613729649689 41.372222750171204 0 0 0 0 -4.3906292000391964 1.4975514809157033 0 1.4975514809157033 -2.3646700830092158 0 0 0 0 -6.4292363461163404 171.52583858897196 0 171.52583858897196 205.04332885903568 0 0 0 0 -529.35159509864707 -652.95514168816953 0 -652.95514168816953 -217.80739124069078 0 0 0 0 -472.17583921940422 15.97545764654933 0 15.97545764654933 150.95917006478703 0 0 0 0 142.65855793557967 -221.86411530969053 0 -221.86411530969053 -424.5669581639886 0 0 0 0 168.07485788035774 -80.103748260553402 0 -80.103748260553402 -119.91672127982019 0 0 0 0 -184.34421459584155 -339.92093147242122 0 -339.92093147242122 -101.83848791759374 0 0 0 0 -322.23653251508722 -99.479361476331178 0 -99.479361476331178 87.907530666663661 0 0 0 0 82.231698529232517 -136.20942089845448 0 -136.20942089845448 -10.01153611583868 0 0 0 0 -27.900794404151384 -170.11263281668653 0 -170.11263281668653 -16.457121009254479 0 0 0 0 -95.658270219442784 27.687129389014444 0 27.687129389014444 70.167330612664955 0 0 0 0 -200.91613712581625 52.703851432543161 0 52.703851432543161 146.27873829165765 0 0 0 0 -112.93935023513814 -3.3397695479507092 0 -3.3397695479507092 106.99881696593366 0 0 0 0 -95.829529124618546 -23.649256181257627 0 -23.649256181257627 77.6623367965949 0 0 0 0 -1.8501779904325049 -3.2127801707330086 0 -3.2127801707330086 67.465358790827878 0 0 0 0 -0.020089713764484429 -11.419682115525704 0 -11.419682115525704 -1.9896829008457075 0 0 0 0 3.8772225905725008 -7.5134228638999048 0 -7.5134228638999048 71.736355835571885 0 0 0 0 28.685601433336259 -14.560002368508322 0 -14.560002368508322 44.253051151317777 0 0 0 0 16.313017712202281 41.749141203254112 0 41.749141203254112 75.615491426251538 0 0 0 0 27.939909023114978 6.2729050954221748 0 6.2729050954221748 32.400245941331377 0 0 0 0 42.366247106107039 -2.8943592387950048 0 -2.8943592387950048 37.179886069912754 0 0 0 0 45.181761152654076 -25.082622369220189 0 -25.082622369220189 50.356892595678801 0 0 0 0 1.0546715820240196 4.0563637603911502 0 4.0563637603911502 5.1077803708092233 0 0 0 0 73.507886865267665 -19.653107898870076 0 -19.653107898870076 34.34118860772287 0 0 0 0 72.83918845874166 113.77283213291048 0 113.77283213291048 -134.06411087681772 0 0 0 0 -14.019944417117131 -25.34554732376273 0 -25.34554732376273 63.079671472965856 0 0 0 0 47.821120364081025 -62.5575511595016 0 -62.5575511595016 75.877627207300975 0 0 0 0 -12.491327793519304 -19.135544882821705 0 -19.135544882821705 66.402483756406582 0 0 0 0 -11.530244041297836 13.031023972555928 0 13.031023972555928 9.8248309937594343 0 0 0 0 -57.272779810164138 64.257910702432127 0 64.257910702432127 149.56648072045209 0 0 0 0 -310.36698338888345 -138.33166465896647 0 -138.33166465896647 -19.636975096684182 0 0 0 0 -385.28492069090271 -73.681944724303321 0 -73.681944724303321 182.93690844692173 0 0 0 0 -4.4462233473597674 0.88657687945202746 0 0.88657687945202746 74.024666545795441 0 0 0 0 -6.608926585742438 94.924037647402656 0 94.924037647402656 201.91277032892685 0 0 0 0 -115.56099971565982 -128.42939292483061 0 -128.42939292483061 485.19883866746386 0 0 0 0 -10.045598002532071 11.168933209641024 0 11.168933209641024 51.354119440990758 0 0 0 0 -5.8212995784685972 19.61256871173282 0 19.61256871173282 75.029323331647902 0 0 0 0 -9.4833977084610073 9.2322643012329024 0 9.2322643012329024 37.631358796827385 0 0 0 0 -7.7944706262673762 7.588027953684275 0 7.588027953684275 51.914119653211976 0 0 0 0 1.9496522424378782 18.009393976652063 0 18.009393976652063 73.732193720628857 0 0 0 0 -88.400193455211479 5.3652295988222249 0 5.3652295988222249 68.548925439070445 0 0 0 0 -235.94748696458464 39.08779695249541 0 39.08779695249541 135.78848819814448 0 0 0 0 -278.32566710668834 82.16723883600207 0 82.16723883600207 72.100950165942777 0 0 0 0 -0.64594892729139985 3.8622527877698047 0 3.8622527877698047 15.474734844171136 0 0 0 0 -261.63627671953714 18.026241829418723 0 18.026241829418723 120.83931391093938 0 0 0 0 -266.94377097034521 79.82129947944486 0 79.82129947944486 212.05673722233041 0 0 0 0 -261.3991182304062 73.128774186166993 0 73.128774186166993 188.05890856636688 0 0 0 0 -356.71051935228252 1.1320666062219971 0 1.1320666062219971 278.2754234837339 0 0 0 0 -227.73847920321168 -58.07986896490911 0 -58.07986896490911 -3.6571040197304683 0 0 0 0 73.934203022975453 -53.231210447433114 0 -53.231210447433114 433.46214806604257 0 0 0 0 61.600734111645892 -307.61976205834821 0 -307.61976205834821 201.28579712341889 0 0 0 0 -279.1243084085163 -159.39168079849696 0 -159.39168079849696 392.02191024033527 0 0 0 0 -24.600662278256095 124.65239646729606 0 124.65239646729606 386.41421302040908 0 0 0 0 111.45112582879483 -126.87109030962529 0 -126.87109030962529 638.40773135241761 0 0 0 0 53.969516055236454 454.80880346373306 0 454.80880346373306 965.2131903665977 0 0 0 0 554.60138683464947 -239.22963123382942 0 -239.22963123382942 627.00760379484564 0 0 0 0 37.852264745310094 305.81629118116689 0 305.81629118116689 199.54044431065267 0 0 0 0 -244.06368347836155 221.91022550140997 0 221.91022550140997 617.62213760094892 0 0 0 0 -38.658282656308984 263.64019796531647 0 263.64019796531647 179.98494104720521 0 0 0 0 189.72189380534019 289.84506383302323 0 289.84506383302323 -5.2088876532943686 0 0 0 0 -90.25591772003736 185.80207455713389 0 185.80207455713389 90.354658950287558 0 0 0 0 -198.87721916133614 130.9399819463797 0 130.9399819463797 122.38148949999595 0 0 0 0 -153.37180124694896 213.41219487734634 0 213.41219487734634 221.7694097417243 0 0 0 0 -60.575216177536731 215.6602122275799 0 215.6602122275799 111.74009905596904 0 0 0 0 -84.600119941637786 170.62612615431135 0 170.62612615431135 117.62193341954844 0 0 0 0 36.009051340109181 208.5486969365229 0 208.5486969365229 51.17959790948953 0 0 0 0 -32.751696581820397 90.956915086379013 0 90.956915086379013 84.763971332984511 0 0 0 0 -9.1121682054645134 94.950232351933664 0 94.950232351933664 -35.036910059799993 0 0 0 0 17.749048683459478 136.84041892102687 0 136.84041892102687 -109.46713248659216 0 0 0 0 13.021904965734052 125.3075866297695 0 125.3075866297695 -98.724497689312557 0 0 0 0 45.020381547794386 111.6165915131387 0 111.6165915131387 -157.20262385444221 0 0 0 0 16.782490607499625 15.458954533263096 0 15.458954533263096 4.0511675785757078 0 0 0 0 -460.73560894377505 663.47979864298577 0 663.47979864298577 3492.6135805284503 0 0 0 0 -325.72977570375059 534.6869011689414 0 534.6869011689414 2471.4210671222245 0 0 0 0 470.7452180107278 -1646.371387736257 0 -1646.371387736257 3493.4948022173121 0 0 0 0 1691.7354867277318 -1954.2622401100089 0 -1954.2622401100089 2420.6370458063175 0 0 0 0 6.4169156354532424 3.8537278023232631 0 3.8537278023232631 21.032681295830116 0 0 0 0 -19.562437875863907 75.90651381763746 0 75.90651381763746 54.524649901479279 0 0 0 0 21.059257514762002 18.402154692344425 0 18.402154692344425 20.059101907603022 0 0 0 0 1014.2504987216275 708.5932705214982 0 708.5932705214982 535.11625831596029 0 0 0 0 851.98628988653581 -775.75838574962836 0 -775.75838574962836 797.80171974435507 0 0 0 0 10.362963892276689 -1.4489840856793421 0 -1.4489840856793421 22.681289611542567 0 0 0 0 3.7860067101319146 -2.1560739797641872 0 -2.1560739797641872 70.867428190496867 0 0 0 0 -80.521736890324974 -81.692053845225018 0 -81.692053845225018 165.96897620861273 0 0 0 0 -125.39637657994172 -137.06658520264318 0 -137.06658520264318 136.41797002329258 0 0 0 0 -40.803619997662281 -65.377685652289074 0 -65.377685652289074 72.64832334590028 0 0 0 0 5.9407837738992413 24.070221969481292 0 24.070221969481292 94.798316765318305 0 0 0 0 -24.742801900833001 31.03110071195988 0 31.03110071195988 191.96593337226659 0 0 0 0 -1.8787491317899545 26.266108414777587 0 26.266108414777587 5.2627435771613591 0 0 0 0 32.986134439227499 24.503273159789387 0 24.503273159789387 103.20146767947881 0 0 0 0 -73.960679837407952 58.575997249121428 0 58.575997249121428 116.48388667393738 0 0 0 0 -48.441638203903494 93.751591107800778 0 93.751591107800778 89.358557479463343 0 0 0 0 -149.75369924063853 99.567467715995008 0 99.567467715995008 123.3225886675209 0 0 0 0 -118.24061778216492 -49.996913587237941 0 -49.996913587237941 97.630868863271417 0 0 0 0 -225.3817982933424 108.09062567211004 0 108.09062567211004 141.5515849168296 0 0 0 0 -187.8031711024887 132.86062328753906 0 132.86062328753906 70.118043608068547 0 0 0 0 -24.976360904810917 41.136394028254472 0 41.136394028254472 76.175662780588027 0 0 0 0 -2.7549827508626894 10.198528920878424 0 10.198528920878424 57.692026939709251 0 0 0 0 -1.4593075972624137 13.306137969276669 0 13.306137969276669 61.545066505700788 0 0 0 0 -74.755874369117464 82.093705796432914 0 82.093705796432914 142.8154898120556 0 0 0 0 -17.718444263337915 16.201716543833754 0 16.201716543833754 50.698069818201475 0 0 0 0 17.074867472119877 15.150018042651936 0 15.150018042651936 -82.217053104715887 0 0 0 0 -2.1488692328868675 2.9575174007402438 0 2.9575174007402438 8.5421555417710238 0 0 0 0 10.18389007487167 -14.323474062271998 0 -14.323474062271998 -103.57099433327676 0 0 0 0 37.532708033153085 175.42233224939991 0 175.42233224939991 143.43530044826912 0 0 0 0 257.41863185554354 75.272538537930814 0 75.272538537930814 -67.530673606859636 0 0 0 0 -13.960172366247662 44.484671594007523 0 44.484671594007523 -58.356450391278486 0 0 0 0 186.58403977486864 -344.4684921303342 0 -344.4684921303342 290.83566033200623 0 0 0 0 346.29308419332449 -446.06093804721604 0 -446.06093804721604 779.74715445867332 0 0 0 0 -56.688199851052488 -226.33883210658678 0 -226.33883210658678 805.52208557032282 0 0 0 0 467.7208084782585 -1043.2095611374971 0 -1043.2095611374971 1738.3904429775575 0 0 0 0 -36.008318553122081 117.50488378851151 0 117.50488378851151 175.17756648908835 0 0 0 0 164.66547251344218 -182.13827394871623 0 -182.13827394871623 378.03741224085024 0 0 0 0 -73.283170030108067 34.503905545716407 0 34.503905545716407 433.20166014728602 0 0 0 0 569.56635946221922 -160.78889994122437 0 -160.78889994122437 54.329754043414141 0 0 0 0 -92.228254571155958 -60.010256304914947 0 -60.010256304914947 162.12611160567667 0 0 0 0 22.682376868410756 9.333446082790033 0 9.333446082790033 159.08270082276431 0 0 0 0 101.11888669642221 -1116.3029876806177 0 -1116.3029876806177 2752.6078658166807 0 0 0 0 446.4330488199289 -1395.581503517009 0 -1395.581503517009 2809.5530108776911 0 0 0 0 4.8497721880369467 -1.1860780303899219 0 -1.1860780303899219 2.0574858566476379 0 0 0 0 229.79862689515141 4.8435883527636179 0 4.8435883527636179 -22.564610290297423 0 0 0 0 730.65488299354979 -1140.5280711313753 0 -1140.5280711313753 2637.3251737256069 0 0 0 0 295.21240486623606 -569.07143454949255 0 -569.07143454949255 1890.7552015310866 0 0 0 0 -103.88417154930166 -873.68956793610596 0 -873.68956793610596 3493.9235391869588 0 0 0 0 -42.669586901542175 -838.47321570431086 0 -838.47321570431086 2748.2944314227934 0 0 0 0 159.44794232960101 -1264.7673459775979 0 -1264.7673459775979 3502.4109554785277 0 0 0 0 401.1676107277932 -1407.2286849862558 0 -1407.2286849862558 2733.6535725762369 0 0 0 0 0.0035948223330721273 -3.9088781058017048 0 -3.9088781058017048 3488.1829262083315 0 0 0 0 -179.47544644148289 -560.12892417189778 0 -560.12892417189778 2630.8473402707459 0 0 0 0 -0.0055782144390841516 -1.7269440870931589 0 -1.7269440870931589 3.8751049241722626 0 0 0 0 -204.83252325289459 -439.76126146002207 0 -439.76126146002207 2789.9517591820477 0 0 0 0 -4.5565574030845539 -865.84737376015619 0 -865.84737376015619 2619.7530645978986 0 0 0 0 -50.795736445842977 -431.63015354116214 0 -431.63015354116214 1835.603100070759 0 0 0 0 -175.29868155761133 -460.72398571448139 0 -460.72398571448139 2601.8608503444375 0 0 0 0 178.04404628781651 -600.55876576754235 0 -600.55876576754235 1298.5445209107274 0 0 0 0 0.97260970989277895 -186.54504769663046 0 -186.54504769663046 1729.0013338488061 0 0 0 0 132.93727105401427 -790.75292469990382 0 -790.75292469990382 1668.2225438644709 0 0 0 0 28.032050238513705 -293.33876750276249 0 -293.33876750276249 1107.9719795995043 0 0 0 0 276.64590792816199 -306.17577257428638 0 -306.17577257428638 448.62061500181153 0 0 0 0 359.82746380217452 -486.89420110003994 0 -486.89420110003994 702.64512829114392 0 0 0 0 -153.04261717146247 -112.62325050047366 0 -112.62325050047366 607.33704737028893 0 0 0 0 -0.040959458072369753 -122.65034911740804 0 -122.65034911740804 555.32506599364569 0 0 0 0 -9.531359070997901 -154.77966575838218 0 -154.77966575838218 964.62213199951657 0 0 0 0 155.63475053373784 -197.75230387102783 0 -197.75230387102783 338.2855293912362 0 0 0 0 0.23477103846253491 3.246133009535165 0 3.246133009535165 111.75927404113463 0 0 0 0 16.154915323734841 -6.2306812497299688 0 -6.2306812497299688 81.167462502970011 0 0 0 0 -1.3821726932386404 21.444689834905148 0 21.444689834905148 89.119024989091486 0 0 0 0 23.048309235654941 -6.4415704422717681 0 -6.4415704422717681 75.207617944935919 0 0 0 0 -6.5559894452063077 -9.5679027651203796 0 -9.5679027651203796 100.44492880937469 0 0 0 0 0.14546297937662017 -0.55221881749380941 0 -0.55221881749380941 -0.48355754454274513 0 0 0 0 -2.5316835678105565 0.65359138452444654 0 0.65359138452444654 7.2222624880767317 0 0 0 0 -16.820412428604584 -0.1882589972592541 0 -0.1882589972592541 88.197282528228243 0 0 0 0 -8.2131968296460229 0.37018202114268206 0 0.37018202114268206 81.946926451229956 0 0 0 0 -8.8961991169312569 4.9769761550996918 0 4.9769761550996918 33.167011414305307 0 0 0 0 -7.7005439742093369 18.687733526893446 0 18.687733526893446 43.4382191904146 0 0 0 0 -7.5868394460484696 -2.2778196431891899 0 -2.2778196431891899 46.229602967302327 0 0 0 0 -5.2671217194577657 14.192350842647386 0 14.192350842647386 33.891088401982053 0 0 0 0 2.1683665115831445 0.43700185269699432 0 0.43700185269699432 65.587266812915914 0 0 0 0 -35.176104995891023 41.480573384287709 0 41.480573384287709 39.995692381467961 0 0 0 0 18.443313305823267 44.606211478792829 0 44.606211478792829 28.052729742528754 0 0 0 0 -4.0755491511889952 9.2417173564361832 0 9.2417173564361832 63.146517223399258 0 0 0 0 -25.850985528048739 8.6871098574119969 0 8.6871098574119969 82.536768600024516 0 0 0 0 -21.119352560179919 -2.0105217665695818 0 -2.0105217665695818 83.937102647643769 0 0 0 0 -1.8112122533795016 12.902011642050638 0 12.902011642050638 58.051100921809848 0 0 0 0 -27.105717828310954 21.573799410138236 0 21.573799410138236 67.112853910555714 0 0 0 0 -2.428203404964445 9.6964823764949273 0 9.6964823764949273 61.097521023763193 0 0 0 0 -63.659247584408945 11.689585855692712 0 11.689585855692712 82.121246741102368 0 0 0 0 -15.62114241768154 -40.2341959611731 0 -40.2341959611731 119.89534527235082 0 0 0 0 3.9914263815272051 -5.4445233721820614 0 -5.4445233721820614 60.797255038909498 0 0 0 0 -0.29843195947934475 15.937779165396933 0 15.937779165396933 50.235697786560195 0 0 0 0 -2.2441082529841196 9.2245832182379672 0 9.2245832182379672 58.866468945932866 0 0 0 0 -0.0456987323015456 14.580353209421446 0 14.580353209421446 65.355282021482708 0 0 0 0 30.122044106683461 11.952001468714116 0 11.952001468714116 42.464114743685059 0 0 0 0 -444.75093820390612 -58.937889044529584 0 -58.937889044529584 132.69043114378292 0 0 0 0 21.408180207411828 4.6131575336407842 0 4.6131575336407842 6.3912860555610722 0 0 0 0 121.87412042340839 88.750668207671879 0 88.750668207671879 152.29132575511994 0 0 0 0 24.428311692645366 20.014198698232576 0 20.014198698232576 234.95918807793532 0 0 0 0 86.123873738597467 144.07706295652497 0 144.07706295652497 306.37034377256532 0 0 0 0 -41.494820914658703 17.366233682912934 0 17.366233682912934 406.36437128741454 0 0 0 0 -170.20972653320132 123.18580589565136 0 123.18580589565136 -61.147924373211936 0 0 0 0 17.450701326802065 2.2968620589017164 0 2.2968620589017164 -0.10083806616037372 0 0 0 0 -30.420751546691463 98.181999830156201 0 98.181999830156201 611.18728363604168 0 0 0 0 -32.146951241346414 56.174903691504369 0 56.174903691504369 534.44676655757212 0 0 0 0 439.67239857874665 57.414236351078216 0 57.414236351078216 -86.572227135442517 0 0 0 0 21.316746076543495 120.43632911319946 0 120.43632911319946 620.11135411861778 0 0 0 0 43.645018729515868 156.17170619504759 0 156.17170619504759 623.95343290286655 0 0 0 0 22.542507911165103 165.68903947182298 0 165.68903947182298 640.4506758374846 0 0 0 0 20.761859461672429 177.23088290866144 0 177.23088290866144 566.20737300666224 0 0 0 0 70.876541191166325 38.321125669666799 0 38.321125669666799 -31.890406966449518 0 0 0 0 124.87236956904235 20.590838137067749 0 20.590838137067749 -70.367342804427608 0 0 0 0 117.14285353905348 66.16086420726856 0 66.16086420726856 -17.207325277311611 0 0 0 0 5.1014787031199376 -26.826696579217241 0 -26.826696579217241 36.242412279185373 0 0 0 0 -123.91783752140691 70.265701288537457 0 70.265701288537457 8.8762996828463656 0 0 0 0 146.80506385149056 -49.240888648393593 0 -49.240888648393593 36.394133057365252 0 0 0 0 -104.12417883662238 -46.521429318503579 0 -46.521429318503579 183.60049050674934 0 0 0 0 122.14633443561434 -6.7705004005747469 0 -6.7705004005747469 30.026839944213862 0 0 0 0 291.92989155029136 119.89527845284283 0 119.89527845284283 -1.032709296545363 0 0 0 0 462.767872169974 -43.753262786525738 0 -43.753262786525738 29.47163618338891 0 0 0 0 -42.109769123188016 -73.669629765185164 0 -73.669629765185164 110.02492857764537 0 0 0 0 178.29222077516897 120.88744139945993 0 120.88744139945993 5.2223387120902771 0 0 0 0 419.55074650746974 208.60616425440458 0 208.60616425440458 48.736416731295321 0 0 0 0 1.7958579017083167 -0.68377926132430389 0 -0.68377926132430389 4.4600946994407025 0 0 0 0 190.82816838761937 146.56813743816747 0 146.56813743816747 32.013620426663692 0 0 0 0 167.52514531646011 116.64402979916576 0 116.64402979916576 3.5618434239004273 0 0 0 0 -377.70324932276708 -122.67649438462104 0 -122.67649438462104 63.750358841576599 0 0 0 0 -4.8306290168583566 4.2969950977385611 0 4.2969950977385611 42.267212585192972 0 0 0 0 -1.944829006292359 9.0604239976899947 0 9.0604239976899947 7.5436389997599846 0 0 0 0 46.676385883953117 11.364279001337763 0 11.364279001337763 40.143950968860736 0 0 0 0 -107.86018834099741 -20.307385398498354 0 -20.307385398498354 89.463998074063966 0 0 0 0 -65.870638142681855 67.429678964059349 0 67.429678964059349 10.063576034573998 0 0 0 0 -8.2904473294438503 137.24619517428982 0 137.24619517428982 91.712537441844901 0 0 0 0 -109.08016872975713 53.363422904817071 0 53.363422904817071 92.106065990021307 0 0 0 0 -153.14971082346892 41.935159654718063 0 41.935159654718063 168.24117951046901 0 0 0 0 -125.93858975599142 0.051204811727075139 0 0.051204811727075139 66.580777274333968 0 0 0 0 30.728676929837093 250.65146232145435 0 250.65146232145435 188.59897772070008 0 0 0 0 223.73816948364401 112.62955292301694 0 112.62955292301694 -56.512137816091126 0 0 0 0 -3.8002823502138199 159.99057078814667 0 159.99057078814667 -25.812563770961788 0 0 0 0 -100.19402257179604 138.34363213380084 0 138.34363213380084 356.58300383347387 0 0 0 0 -92.94073169267358 90.705190147838039 0 90.705190147838039 153.29110108130862 0 0 0 0 -151.71163779678136 51.808763594689935 0 51.808763594689935 222.9364536612502 0 0 0 0 -105.95415868765122 1.0243517722337856 0 1.0243517722337856 161.42393902277854 0 0 0 0 -121.334191235037 -2.775270391495269 0 -2.775270391495269 342.83214491412309 0 0 0 0 213.91983541099853 60.338876667436921 0 60.338876667436921 -9.5917420241780746 0 0 0 0 -207.10162733099878 -48.900299628370476 0 -48.900299628370476 23.65374598085722 0 0 0 0 79.308286869947551 -107.19767573038871 0 -107.19767573038871 120.94402248615552 0 0 0 0 -4.7019301733471366 26.549462509433397 0 26.549462509433397 -70.986653854529777 0 0 0 0 -234.53981915496115 38.316154897727756 0 38.316154897727756 150.87432868791802 0 0 0 0 -358.98232126303628 -68.788690718480211 0 -68.788690718480211 92.996639826758837 0 0 0 0 -205.81831725347729 -204.43113432524433 0 -204.43113432524433 -160.81045018544683 0 0 0 0 -0.32515639780528005 2.8951393745264435 0 2.8951393745264435 7.6786130067756062 0 0 0 0 -154.03825609169326 -123.17581863938403 0 -123.17581863938403 -53.356416060138145 0 0 0 0 114.28575029111016 154.95881816435394 0 154.95881816435394 210.08653726024932 0 0 0 0 115.45051762816274 165.42687261625542 0 165.42687261625542 260.31082636878637 0 0 0 0 82.72060292930837 122.00548981165048 0 122.00548981165048 281.00248034720425 0 0 0 0 102.02996740396702 160.52754397646459 0 160.52754397646459 273.4204887138585 0 0 0 0 98.050557091821247 160.72792462271127 0 160.72792462271127 280.2500487677562 0 0 0 0 -121.99336268486968 40.016504953644244 0 40.016504953644244 84.641288446061935 0 0 0 0 -176.17512904052819 -116.0500254197932 0 -116.0500254197932 46.845764180955939 0 0 0 0 2.5934202593535396 -2.6461200346010063 0 -2.6461200346010063 22.574308814483217 0 0 0 0 -0.21808939695640106 -1.3880454868231684 0 -1.3880454868231684 8.441754271160459 0 0 0 0 14.074815991055402 -264.07340396921882 0 -264.07340396921882 112.28583481766731 0 0 0 0 477.5685376608144 638.58716964968085 0 638.58716964968085 809.41616044590774 0 0 0 0 347.09668320261335 368.16340939633528 0 368.16340939633528 375.84784362935579 0 0 0 0 144.82018292848988 212.12734612904296 0 212.12734612904296 261.88151083452203 0 0 0 0 24.502932293655249 273.45920400199248 0 273.45920400199248 471.57601920644493 0 0 0 0 133.03198379919593 306.38736544274161 0 306.38736544274161 408.88017074781965 0 0 0 0 44.158790013741964 236.27867226515809 0 236.27867226515809 354.74270190217976 0 0 0 0 46.020348860542867 258.91492312985207 0 258.91492312985207 446.58144264012844 0 0 0 0 6.1762932689507579 169.67916295918621 0 169.67916295918621 470.75322679809324 0 0 0 0 24.873007046862767 167.05305431939632 0 167.05305431939632 389.53272924925295 0 0 0 0 7.732391194353113 134.63195456607127 0 134.63195456607127 334.19172959896969 0 0 0 0 77.351175211922964 203.54920071233391 0 203.54920071233391 377.62565030838778 0 0 0 0 37.043709069486795 233.57504373338998 0 233.57504373338998 498.67709801765704 0 0 0 0 35.877138919672575 225.00201674292941 0 225.00201674292941 604.29143157452563 0 0 0 0 54.734569928283236 209.43554864400539 0 209.43554864400539 583.34240316986688 0 0 0 0 13.946436748392443 172.96457228006147 0 172.96457228006147 563.56643859073483 0 0 0 0 13.900433092765525 175.76197603885885 0 175.76197603885885 475.28676953733338 0 0 0 0 36.294129796936431 249.22258478752519 0 249.22258478752519 515.9611161563007 0 0 0 0 36.432086558790616 244.16964716486018 0 244.16964716486018 429.79095735554165 0 0 0 0 65.72846802375534 290.93261997045011 0 290.93261997045011 515.63751764818153 0 0 0 0 68.252056540280137 256.16668898067473 0 256.16668898067473 454.96838060566915 0 0 0 0 33.529111644610111 266.47306968173825 0 266.47306968173825 454.04931855673749 0 0 0 0 50.981194227720152 279.31442707022052 0 279.31442707022052 417.71329086914557 0 0 0 0 -2.7072119191434467 212.54751577858997 0 212.54751577858997 379.53763169463764 0 0 0 0 24.418779802418612 175.54611862855745 0 175.54611862855745 312.35672534197641 0 0 0 0 112.18056676004562 253.87947373644965 0 253.87947373644965 309.25575284047403 0 0 0 0 72.705776298037563 242.58784489711161 0 242.58784489711161 451.32560689111051 0 0 0 0 223.88024393122259 259.67772215957302 0 259.67772215957302 213.57808987126373 0 0 0 0 48.63606561227698 61.833757114770378 0 61.833757114770378 144.63370851582908 0 0 0 0 177.29126982911654 50.284127832891897 0 50.284127832891897 5.7781561883430186 0 0 0 0 216.42697072325996 336.55962101467139 0 336.55962101467139 274.2558105302428 0 0 0 0 101.93129372438966 341.4554382188976 0 341.4554382188976 725.08096226233101 0 0 0 0 224.8494292395726 142.8418872639304 0 142.8418872639304 496.66537749630697 0 0 0 0 166.94931695396372 220.23774632305503 0 220.23774632305503 770.84566902498591 0 0 0 0 59.831619796168525 265.35540591054723 0 265.35540591054723 633.69496198207776 0 0 0 0 114.5634248915776 196.32404475635485 0 196.32404475635485 645.49889562659928 0 0 0 0 52.450804664304997 209.99950051822952 0 209.99950051822952 709.38764485563297 0 0 0 0 178.00210051716113 265.73922449384372 0 265.73922449384372 447.84964022570966 0 0 0 0 -100.87595354746099 -29.183941264905116 0 -29.183941264905116 17.840120187205684 0 0 0 0 1.5762657260455128 -9.4244010896231387 0 -9.4244010896231387 26.613609558069129 0 0 0 0 31.082334816821572 -73.73812338222524 0 -73.73812338222524 425.23765327775436 0 0 0 0 -1.0843093122845744 193.32577758852085 0 193.32577758852085 543.01737292621146 0 0 0 0 -133.08428688814388 47.698509455244675 0 47.698509455244675 1.6236666691183927 0 0 0 0 -172.30365538577007 -17.024368742624574 0 -17.024368742624574 17.893312991602215 0 0 0 0 -0.45733546234929534 -2.439181905150285 0 -2.439181905150285 11.571140876359166 0 0 0 0 194.98651683848288 387.65357163592489 0 387.65357163592489 340.23347109549968 0 0 0 0 189.51610697937406 313.86354059455152 0 313.86354059455152 806.28701150293273 0 0 0 0 479.49850228169703 203.22533303130695 0 203.22533303130695 370.09971864038016 0 0 0 0 105.5083520096818 147.39514261606155 0 147.39514261606155 -30.527563727850065 0 0 0 0 -196.2791509674546 318.46330699592181 0 318.46330699592181 421.15055436081548 0 0 0 0 215.79267813022625 616.825157501793 0 616.825157501793 349.11678605592169 0 0 0 0 433.68107655381664 781.0917634303637 0 781.0917634303637 705.39006242664072 0 0 0 0 -15.194428940437092 268.58426419350644 0 268.58426419350644 1016.0786607773043 0 0 0 0 885.77786308934265 -519.47588588379222 0 -519.47588588379222 -10.259200019489072 0 0 0 0 -360.87443488866847 -245.64137783961996 0 -245.64137783961996 202.65490664889512 0 0 0 0 -604.59122245776234 111.48255236756449 0 111.48255236756449 144.53207022649804 0 0 0 0 -372.80208109937666 13.230078571592458 0 13.230078571592458 110.29153957804192 0 0 0 0 -850.49322137454146 -228.13106483192678 0 -228.13106483192678 374.30039533378294 0 0 0 0 97.397593618494284 88.215995125261543 0 88.215995125261543 633.74905410887732 0 0 0 0 118.44584474243311 57.146051836763945 0 57.146051836763945 673.78354991571541 0 0 0 0 76.14487162739897 96.069567381939123 0 96.069567381939123 730.24367506605267 0 0 0 0 127.89665300602974 -52.087391892411461 0 -52.087391892411461 980.04220455924587 0 0 0 0 55.647847789214666 232.31350297328026 0 232.31350297328026 929.81670942268829 0 0 0 0 -68.068282056464795 236.4065705837329 0 236.4065705837329 1479.0341393425051 0 0 0 0 7.1742032702362284 -1.1545736618773716 0 -1.1545736618773716 0.98538188589614017 0 0 0 0 94.480615153971939 494.96844636192782 0 494.96844636192782 1262.7010517168092 0 0 0 0 -35.965174294542521 184.95456918505806 0 184.95456918505806 -247.0244625904752 0 0 0 0 411.66328611191193 570.06039062290711 0 570.06039062290711 806.10405052679835 0 0 0 0 462.88460483622089 -49.646195058733383 0 -49.646195058733383 -331.22123019611172 0 0 0 0 -3.6664809368401849 3.0416524482940499 0 3.0416524482940499 0.82771127051832849 0 0 0 0 263.12110134461705 290.76118254741732 0 290.76118254741732 117.74710223934017 0 0 0 0 -298.82958008490527 -223.85180712893089 0 -223.85180712893089 123.29088710951874 0 0 0 0 -258.26264926630756 -157.78266758357768 0 -157.78266758357768 147.94135565995384 0 0 0 0 251.58202223803892 245.24899763509075 0 245.24899763509075 -60.531289633138385 0 0 0 0 -1.1839160305172522 3.953004859488118 0 3.953004859488118 6.9186288837599363 0 0 0 0 -274.82361978671725 -134.91087436078851 0 -134.91087436078851 126.47244116845468 0 0 0 0 -144.73459585965406 -91.667697637507217 0 -91.667697637507217 126.62755632251356 0 0 0 0 -91.837125542528156 -118.56419849494523 0 -118.56419849494523 -23.647617806618655 0 0 0 0 -121.89890775132517 135.10576033074722 0 135.10576033074722 9.3466019662555482 0 0 0 0 249.12433850590082 -19.585004022059366 0 -19.585004022059366 49.475566244240326 0 0 0 0 161.99512507987561 135.45894862842397 0 135.45894862842397 -103.4446481941668 0 0 0 0 -198.32518298441119 139.43218990728201 0 139.43218990728201 136.20524636465416 0 0 0 0 -345.2240698823025 -5.4650603959962609 0 -5.4650603959962609 77.791106791053608 0 0 0 0 -87.446345773594658 -40.071617403511482 0 -40.071617403511482 -53.149791408824967 0 0 0 0 -1.8320478725956244 4.2276428986229426 0 4.2276428986229426 15.373529261966127 0 0 0 0 285.74822772536299 -231.89437568135872 0 -231.89437568135872 407.75046830792053 0 0 0 0 9.9376193826878989 98.410337731465006 0 98.410337731465006 48.406507047733612 0 0 0 0 -2.8874157662013937 4.6193872446120245 0 4.6193872446120245 -7.9855438372184366 0 0 0 0 387.73678558403276 366.1484930199681 0 366.1484930199681 3.0150138370154309 0 0 0 0 -277.02638832828825 -297.24160981812383 0 -297.24160981812383 131.0862960345703 0 0 0 0 131.56352547740585 196.58144036560225 0 196.58144036560225 156.69853718767445 0 0 0 0 161.13018810172343 -120.4752137199448 0 -120.4752137199448 -210.36678477395253 0 0 0 0 -2.0214634909479239 10.008919357310749 0 10.008919357310749 -16.888206028207648 0 0 0 0 452.18299541421874 30.487014761719138 0 30.487014761719138 -27.547403060510987 0 0 0 0 -81.978167817418125 -186.64714628886577 0 -186.64714628886577 -140.71784720155665 0 0 0 0 375.05096994641008 507.19249341419163 0 507.19249341419163 602.41489025303599 0 0 0 0 1.3264875404902376 -1.9925286940491702 0 -1.9925286940491702 -3.0087057723613739 0 0 0 0 116.46960348763298 -22.098278190347628 0 -22.098278190347628 338.90695367002627 0 0 0 0 442.15444101704122 285.01478531242537 0 285.01478531242537 43.653990249971685 0 0 0 0 108.76599231221394 -100.91840615370893 0 -100.91840615370893 242.64453066910846 0 0 0 0 71.56079064052966 -9.7668564370469539 0 -9.7668564370469539 344.8792052462959 0 0 0 0 658.317842588644 326.19659312949807 0 326.19659312949807 287.41992282930005 0 0 0 0 327.70726993301787 84.239831018625409 0 84.239831018625409 191.24289603806756 0 0 0 0 299.29258646091876 374.55568273780955 0 374.55568273780955 524.45360155344315 0 0 0 0 414.24693174454706 361.35170135860426 0 361.35170135860426 486.39737473515561 0 0 0 0 164.40129154799564 162.22384575290948 0 162.22384575290948 461.16301745649253 0 0 0 0 259.60583910154674 224.82506258327339 0 224.82506258327339 385.87793426480494 0 0 0 0 174.37590611344058 312.2263284170549 0 312.2263284170549 519.6226703110442 0 0 0 0 216.41492298290905 370.31781870005216 0 370.31781870005216 594.53598652481742 0 0 0 0 351.24355713183832 451.26536435106755 0 451.26536435106755 567.01790427019296 0 0 0 0 -3.3631461380646428 4.562728049597176 0 4.562728049597176 7.4519021021565806 0 0 0 0 -239.79316076688383 -54.864906469372727 0 -54.864906469372727 59.906995468481909 0 0 0 0 -7.8006726310804879 61.680924724965735 0 61.680924724965735 -33.873250420245313 0 0 0 0 -510.43005784554771 -23.985364246787867 0 -23.985364246787867 212.87185810067785 0 0 0 0 -1.9196312993945743 3.6672510975168962 0 3.6672510975168962 16.934528581292199 0 0 0 0 -22.388547169278809 -300.93047302223749 0 -300.93047302223749 -60.462265409209067 0 0 0 0 -17.581847670143588 231.7207002854957 0 231.7207002854957 10.424107984348666 0 0 0 0 75.587844785472043 35.461842417193111 0 35.461842417193111 -102.38133205781924 0 0 0 0 112.78423782318879 360.17568189432643 0 360.17568189432643 162.72914652134205 0 0 0 0 14.590785081203649 102.60810376412701 0 102.60810376412701 246.72003438386309 0 0 0 0 51.57404534568559 13.027150704037922 0 13.027150704037922 336.06549162767624 0 0 0 0 167.51521413149112 31.83924852149903 0 31.83924852149903 178.03598770106328 0 0 0 0 143.55266922120154 129.70301171193933 0 129.70301171193933 152.43938785728096 0 0 0 0 114.49330786843348 134.09232039675408 0 134.09232039675408 74.790739290478086 0 0 0 0 61.021089966528962 124.1650837301604 0 124.1650837301604 228.23507467634772 0 0 0 0 2.1886948661943251 -7.172105263662111 0 -7.172105263662111 2.7103327848039811 0 0 0 0 334.20907203992829 118.38785510062735 0 118.38785510062735 608.86545582490862 0 0 0 0 80.523290669923881 71.650244434073102 0 71.650244434073102 130.42921550170831 0 0 0 0 76.121658633812331 100.07837129788095 0 100.07837129788095 150.77520267435466 0 0 0 0 30.437654464250954 56.335214734699548 0 56.335214734699548 214.43666890349414 0 0 0 0 94.594440313216182 61.290662112263817 0 61.290662112263817 83.144148810806655 0 0 0 0 67.934866704280921 46.472351870466468 0 46.472351870466468 98.646831982383446 0 0 0 0 109.60485529074504 39.411425947564567 0 39.411425947564567 28.035377825064643 0 0 0 0 104.25425432329121 51.686510533039836 0 51.686510533039836 20.594946801153128 0 0 0 0 82.228107941446069 35.631746441227733 0 35.631746441227733 43.023818832713005 0 0 0 0 117.19657316912708 38.362110108821071 0 38.362110108821071 16.211930598439722 0 0 0 0 86.537821624930075 101.63023624578273 0 101.63023624578273 92.771122637306689 0 0 0 0 112.20188648247859 47.636493016218083 0 47.636493016218083 -29.90387666036986 0 0 0 0 -8.3945919364159636 54.462594648475715 0 54.462594648475715 33.430898980499478 0 0 0 0 -0.35337606567372859 104.09628865551349 0 104.09628865551349 7.4589489178615622 0 0 0 0 125.83091929026341 27.70994256985432 0 27.70994256985432 -37.668745334758569 0 0 0 0 108.47832628464494 24.076684968402333 0 24.076684968402333 -19.857603552518412 0 0 0 0 102.93180430551729 19.108622326910336 0 19.108622326910336 -10.300106812668673 0 0 0 0 146.08132477109757 0.69476305300850072 0 0.69476305300850072 -3.9731993705554487 0 0 0 0 91.766523544114534 25.200682388413043 0 25.200682388413043 44.990460198612709 0 0 0 0 65.966350169175712 5.1100226296548499 0 5.1100226296548499 38.182866504726917 0 0 0 0 27.681318445746001 -5.8539946241799043 0 -5.8539946241799043 35.745167911882163 0 0 0 0 26.707370187054039 -40.080722655366117 0 -40.080722655366117 14.050722190237138 0 0 0 0 106.23631505642697 -32.23652996061719 0 -32.23652996061719 13.258562407943828 0 0 0 0 -157.68986359487099 -201.86242894289171 0 -201.86242894289171 303.69190099850084 0 0 0 0 143.96001737634106 -60.737711936184496 0 -60.737711936184496 9.6602184610455879 0 0 0 0 6.1160511008020109 -1.4116450110925882 0 -1.4116450110925882 -2.137997426368262 0 0 0 0 137.05551212438877 172.45045155656408 0 172.45045155656408 227.63650193311696 0 0 0 0 119.56116535141518 -173.77569861110715 0 -173.77569861110715 217.91789590087865 0 0 0 0 100.75189107768983 160.70493489694582 0 160.70493489694582 184.25400411934606 0 0 0 0 -38.647889060246598 -5.1366856805452699 0 -5.1366856805452699 10.740094422636275 0 0 0 0 250.81183447634794 14.089929844090875 0 14.089929844090875 -37.388522911340772 0 0 0 0 -2.5680243303359021 -28.080599396053003 0 -28.080599396053003 71.635647481036358 0 0 0 0 8.9974865701802429 9.2637102688022317 0 9.2637102688022317 -3.5089035974090237 0 0 0 0 -54.656507892600075 123.97498907032315 0 123.97498907032315 -46.859758345166483 0 0 0 0 54.69640625119473 79.48025258919904 0 79.48025258919904 -50.360680283676629 0 0 0 0 18.492118523743656 26.096173259433389 0 26.096173259433389 34.262874569861374 0 0 0 0 47.708708898648183 82.845530754579158 0 82.845530754579158 100.57316033830648 0 0 0 0 14.518060048729239 68.122551588759961 0 68.122551588759961 4.2640769051922689 0 0 0 0 17.204031137860511 -71.223711784165062 0 -71.223711784165062 -61.473572986164072 0 0 0 0 -0.79107962265698006 44.096384367650899 0 44.096384367650899 30.679386054238421 0 0 0 0 11.959695694616698 3.265564589820265 0 3.265564589820265 9.3216548506307966 0 0 0 0 23.11809023386013 42.858940966567388 0 42.858940966567388 8.8994449075835291 0 0 0 0 -31.00418224731402 6.7529339714146772 0 6.7529339714146772 41.212201833150175 0 0 0 0 42.293319354088453 7.2533379046799382 0 7.2533379046799382 39.841205252709187 0 0 0 0 8.9534277919847227 24.799537123331902 0 24.799537123331902 56.31082509324915 0 0 0 0 33.673885325355513 24.139249895953981 0 24.139249895953981 55.549995705208858 0 0 0 0 25.974586959018779 26.512143975371146 0 26.512143975371146 26.513410109893812 0 0 0 0 19.607506250860752 35.593430357192119 0 35.593430357192119 69.896940151869785 0 0 0 0 18.2240764826347 17.696496291328003 0 17.696496291328003 21.903082951124816 0 0 0 0 17.153640278753301 26.491851256852897 0 26.491851256852897 62.265635777308489 0 0 0 0 -23.307487407003464 26.287077347164995 0 26.287077347164995 87.684814921705765 0 0 0 0 7.175539027435768 12.072454403540476 0 12.072454403540476 17.810688622218098 0 0 0 0 -2.3719579559933663 23.124878929821762 0 23.124878929821762 8.095771660162427 0 0 0 0 -8.6496719691310702 -2.2018265160041075 0 -2.2018265160041075 22.443678640056277 0 0 0 0 26.921236563714938 23.573987435516308 0 23.573987435516308 22.333529820783184 0 0 0 0 4.4609657582002891 20.35741123732025 0 20.35741123732025 66.09050821563784 0 0 0 0 9.1788874748017406 45.034419111145326 0 45.034419111145326 129.63666151839425 0 0 0 0 0.4516431462016044 19.942223465947791 0 19.942223465947791 83.474210487391247 0 0 0 0 -1.7843370656992192 31.982916280306199 0 31.982916280306199 121.76787786477507 0 0 0 0 6.5092983848990116 24.563685726348922 0 24.563685726348922 85.765485446943785 0 0 0 0 -42.752011759666338 -37.065643519716119 0 -37.065643519716119 102.20206016596089 0 0 0 0 42.081279297810397 27.665089602520311 0 27.665089602520311 77.506440453076834 0 0 0 0 36.059765385070932 33.040556408848715 0 33.040556408848715 77.659893472991826 0 0 0 0 36.2993317805267 43.671798586870864 0 43.671798586870864 98.646758926573966 0 0 0 0 28.092342484967958 30.759490803044173 0 30.759490803044173 78.480183064559242 0 0 0 0 16.778065403486835 30.043116363136505 0 30.043116363136505 78.444944104805472 0 0 0 0 11.324255373692722 35.494203418791585 0 35.494203418791585 109.915375730714 0 0 0 0 32.485959714154887 39.600681336552952 0 39.600681336552952 118.87894403680548 0 0 0 0 19.318701726697327 45.5905609551628 0 45.5905609551628 116.39088093066675 0 0 0 0 50.518869149622333 41.796888781014786 0 41.796888781014786 101.10399744524329 0 0 0 0 67.013044795877818 61.80097861331501 0 61.80097861331501 111.30012713799078 0 0 0 0 225.73820113035617 -274.83129430872214 0 -274.83129430872214 779.35062589299923 0 0 0 0 41.644198656438675 23.262017286750051 0 23.262017286750051 142.86164107600416 0 0 0 0 -151.57374634004373 152.88927200702892 0 152.88927200702892 -546.52185116181499 0 0 0 0 -4.1944022596602366 -3.5167401931796611 0 -3.5167401931796611 6.5278692136455874 0 0 0 0 -328.90493289495498 830.42744184798903 0 830.42744184798903 500.39965506549925 0 0 0 0 -45.5011480096558 -48.956786230676329 0 -48.956786230676329 73.867578677487657 0 0 0 0 -42.030213114499929 -429.55608151297565 0 -429.55608151297565 578.1168870709007 0 0 0 0 8.2945808384745305 0.5114600575768975 0 0.5114600575768975 21.78679274498991 0 0 0 0 2.2218146294617327 -77.625910580267373 0 -77.625910580267373 -35.298113409294274 0 0 0 0 -56.951097036173451 377.54017744924204 0 377.54017744924204 218.56474081843044 0 0 0 0 -21.06442123904344 -30.568792216312886 0 -30.568792216312886 29.470776432282037 0 0 0 0 -22.366316512387584 -19.567541762638939 0 -19.567541762638939 48.148422470332662 0 0 0 0 -6.7147092768521528 -17.468301306813267 0 -17.468301306813267 2.6349123447799485 0 0 0 0 -25.264290538372734 21.089246156075433 0 21.089246156075433 155.69510679024097 0 0 0 0 -8.2065807285625958 -18.220024036726016 0 -18.220024036726016 21.253871634579507 0 0 0 0 -1.0837881631677888 2.2009251090293951 0 2.2009251090293951 22.54946255584051 0 0 0 0 51.802606602632295 13.078633474736762 0 13.078633474736762 34.3342535575498 0 0 0 0 -0.13137249284795871 16.203481775765127 0 16.203481775765127 95.840181895217711 0 0 0 0 -15.027495482356244 -28.291398149622864 0 -28.291398149622864 25.909333039084231 0 0 0 0 -10.057396915617574 -23.777667632602061 0 -23.777667632602061 25.249525763632846 0 0 0 0 -10.061786171781137 -15.809536668184137 0 -15.809536668184137 23.170856056553021 0 0 0 0 -10.444593264161085 -19.25951474401063 0 -19.25951474401063 15.141787805210015 0 0 0 0 17.094379339209198 -30.32669059287241 0 -30.32669059287241 41.150777348351767 0 0 0 0 -11.492344245272903 -7.055390693030807 0 -7.055390693030807 8.8303413853434591 0 0 0 0 7.7635204250632341 -32.610709665282229 0 -32.610709665282229 46.735378521770599 0 0 0 0 -14.724540755537731 -17.546239434984418 0 -17.546239434984418 23.632424844425259 0 0 0 0 -10.904330248474047 -6.1438027266017059 0 -6.1438027266017059 11.254042778144004 0 0 0 0 -14.7099569078282 -19.299925050649108 0 -19.299925050649108 29.984829003751202 0 0 0 0 6.9416622683386109 6.5479022511196519 0 6.5479022511196519 11.211362620374972 0 0 0 0 -50.745062261827115 -69.650522049231768 0 -69.650522049231768 -23.529492247690541 0 0 0 0 6.3100370919491979 -12.80903699163855 0 -12.80903699163855 22.951724528274326 0 0 0 0 -12.594699800219956 -10.659987501899215 0 -10.659987501899215 9.500427538347207 0 0 0 0 -4.1839060793863609 9.188302394090897 0 9.188302394090897 34.538507796329213 0 0 0 0 -56.917382714167616 110.38174929162506 0 110.38174929162506 13.359516125564255 0 0 0 0 -0.53911182036140626 -0.55518878552649831 0 -0.55518878552649831 -0.026970401120067322 0 0 0 0 -10.062232520969701 -6.357539327998893 0 -6.357539327998893 27.352435708991834 0 0 0 0 -15.646367513083192 -20.319180509789845 0 -20.319180509789845 44.064030567955342 0 0 0 0 -0.91944258270888213 -6.7455343444262628 0 -6.7455343444262628 18.199103931814385 0 0 0 0 1.2016733602013119 -18.343006410926137 0 -18.343006410926137 39.201818287916467 0 0 0 0 -28.298954675154526 4.9371464216063377 0 4.9371464216063377 45.408062924193729 0 0 0 0 34.388801686833176 0.3148524104246917 0 0.3148524104246917 -22.362808225891285 0 0 0 0 9.5152227213810363 -11.684898421328739 0 -11.684898421328739 35.984365825384884 0 0 0 0 -14.438922188097312 -13.686712853536578 0 -13.686712853536578 20.795164115214707 0 0 0 0 -16.281765671461471 -8.2108512869708647 0 -8.2108512869708647 14.972863291590329 0 0 0 0 -12.470895029697239 -9.1227417283950274 0 -9.1227417283950274 27.741887597437056 0 0 0 0 -2.0675061565790358 1.90729127187433 0 1.90729127187433 28.621959762781316 0 0 0 0 -7.2048699312063036 -3.6462269110941179 0 -3.6462269110941179 21.851671388682007 0 0 0 0 -17.11201850307225 -22.405896064119929 0 -22.405896064119929 54.435126627179216 0 0 0 0 -1.0983890975750865 -2.6787941302348095 0 -2.6787941302348095 18.186236184034552 0 0 0 0 -8.1595404164609135 -37.200113087342856 0 -37.200113087342856 63.12073352858306 0 0 0 0 -0.33700256790319116 -0.4872992354683312 0 -0.4872992354683312 5.7933497071303126 0 0 0 0 -17.12596094924811 5.6877732393725182 0 5.6877732393725182 40.97351301198978 0 0 0 0 -22.97217967009783 -26.103134275219873 0 -26.103134275219873 83.410890274551548 0 0 0 0 7.1907267884923911 4.4531168925546893 0 4.4531168925546893 2.2861064711837535 0 0 0 0 28.331073279082375 -39.656540305744215 0 -39.656540305744215 12.274404509869555 0 0 0 0 24.088084668155716 62.315197075372907 0 62.315197075372907 -92.956086992333042 0 0 0 0 26.676855472505849 0.23487916419298926 0 0.23487916419298926 -40.691606653094595 0 0 0 0 58.949588593837689 30.526847701755287 0 30.526847701755287 -29.506409553328922 0 0 0 0 36.21699983572762 2.8263983594188176 0 2.8263983594188176 -38.560959604722029 0 0 0 0 -0.32210650555407483 14.966880630570472 0 14.966880630570472 -32.524518487098248 0 0 0 0 15.190518347684701 -43.313567845432772 0 -43.313567845432772 265.5201972536579 0 0 0 0 47.511528072755027 -23.727832287829187 0 -23.727832287829187 -19.634019991163768 0 0 0 0 46.695308126552845 -25.917688032481237 0 -25.917688032481237 18.417103857185793 0 0 0 0 3.8465006631358065 0.6991348617967752 0 0.6991348617967752 3.3115943273949133 0 0 0 0 15.201364576878404 -5.8536291440195782 0 -5.8536291440195782 13.454140588932205 0 0 0 0 16.515019269720142 3.9233938512920759 0 3.9233938512920759 -4.3054209042365983 0 0 0 0 6.4086792253401654 30.358711938967645 0 30.358711938967645 -26.64924265204013 0 0 0 0 1.3311192301185244 -1.5361139162149868 0 -1.5361139162149868 1.862932686905781 0 0 0 0 -12.212132263965032 342.17162794526121 0 342.17162794526121 380.42660748906201 0 0 0 0 146.09958629975608 9.9167403231772369 0 9.9167403231772369 -20.126742340104101 0 0 0 0 80.588109151609387 166.90506655555328 0 166.90506655555328 240.12992561197643 0 0 0 0 -135.41678433108609 -175.60683806787165 0 -175.60683806787165 355.59905736469227 0 0 0 0 -179.81558673276959 -186.50152410134342 0 -186.50152410134342 913.5804168057075 0 0 0 0 67.840147519473248 113.04106246617903 0 113.04106246617903 12.616710399421208 0 0 0 0 -76.274349380142667 84.412247313737225 0 84.412247313737225 10.436791556221579 0 0 0 0 53.49486628482191 -9.4936402752282447 0 -9.4936402752282447 -77.861181624752362 0 0 0 0 29.839621004080982 18.384566402057317 0 18.384566402057317 -20.198715574239031 0 0 0 0 25.954742659290787 -34.742298865097837 0 -34.742298865097837 -95.577579161152244 0 0 0 0 47.601839323243098 77.219479264162828 0 77.219479264162828 36.710884431027807 0 0 0 0 3.5055862337636938 1.8872317395654932 0 1.8872317395654932 -1.2364679430350023 0 0 0 0 38.908863463039779 24.092243198865617 0 24.092243198865617 -41.795716160758275 0 0 0 0 -28.628922315155705 14.205439078114978 0 14.205439078114978 62.230324424355786 0 0 0 0 -23.690500282562425 55.194221435798681 0 55.194221435798681 159.1804858840751 0 0 0 0 -26.254858988865635 -60.172479783072049 0 -60.172479783072049 133.24133796675278 0 0 0 0 -28.739676352886306 15.613911897724392 0 15.613911897724392 44.642932648985152 0 0 0 0 -19.443806785980996 -24.782036908980444 0 -24.782036908980444 44.289163177599477 0 0 0 0 -1.2426183931154391 -1.200615657239231 0 -1.200615657239231 0.77429418376867432 0 0 0 0 2.4787277173718394 1.6049906298485439 0 1.6049906298485439 -0.44683254031815522 0 0 0 0 -3.7876586910385033 0.96433201844992311 0 0.96433201844992311 7.7932912678597859 0 0 0 0 1.0892807466534578 -13.42810824433036 0 -13.42810824433036 5.0361484396844389 0 0 0 0 -24.650990918239586 10.415519694027353 0 10.415519694027353 13.457025719097146 0 0 0 0 -1.9157092180766995 -24.407675077616659 0 -24.407675077616659 6.3194807678464713 0 0 0 0 1.1249860405711942 -8.4177904472616341 0 -8.4177904472616341 17.441883499920472 0 0 0 0 -17.442175302381656 -12.323949121881014 0 -12.323949121881014 15.655248349445174 0 0 0 0 -32.586030371154266 -10.255985443021927 0 -10.255985443021927 42.817002088831941 0 0 0 0 -4.9819787938928695 -2.9300742657775878 0 -2.9300742657775878 25.58799583759334 0 0 0 0 -10.490570488192905 -3.2618004250464692 0 -3.2618004250464692 16.676004644994656 0 0 0 0 -8.0174216186860576 -2.3955032543090056 0 -2.3955032543090056 22.229839656298282 0 0 0 0 -7.5391748565290886 -11.017280747844229 0 -11.017280747844229 26.081732541012968 0 0 0 0 -19.714642582191573 -18.160581171876402 0 -18.160581171876402 20.51021402150036 0 0 0 0 -23.610657041995182 -6.3023015113903966 0 -6.3023015113903966 36.219836573140128 0 0 0 0 -12.885057139672426 -4.9020725986711113 0 -4.9020725986711113 34.431752565415081 0 0 0 0 -3.8585284863429479 5.0442606569267809 0 5.0442606569267809 31.205915785663819 0 0 0 0 -5.5069916236042857 -3.5475083083373526 0 -3.5475083083373526 16.452550144419561 0 0 0 0 -9.7573048651738645 7.24988279866011 0 7.24988279866011 43.90481515841293 0 0 0 0 -4.9849363336979877 -5.108197380221327 0 -5.108197380221327 21.212455578729987 0 0 0 0 -7.6778465210124764 -2.7060430879205706 0 -2.7060430879205706 10.847943745601574 0 0 0 0 -5.0348763539677748 -3.8868994939223285 0 -3.8868994939223285 37.93826985918713 0 0 0 0 53.355878505210057 27.121847730659056 0 27.121847730659056 -162.85807325855785 0 0 0 0 -5.6868325727135769 -6.5088530630516885 0 -6.5088530630516885 11.852375642255113 0 0 0 0 -17.965376628457307 -14.107738931271342 0 -14.107738931271342 17.861581742226008 0 0 0 0 -13.657420115444641 -6.6205425100128936 0 -6.6205425100128936 42.067380165358387 0 0 0 0 -79.144217569562898 -16.154209869806436 0 -16.154209869806436 -23.284208874937121 0 0 0 0 -57.42747964933551 -83.33033431509557 0 -83.33033431509557 -155.6657363763552 0 0 0 0 -5.718905323918996 -2.5264386881285574 0 -2.5264386881285574 20.232724631520526 0 0 0 0 -6.2822951637863298 -2.4126604178745765 0 -2.4126604178745765 10.561498112314439 0 0 0 0 -121.25970274274232 -53.895776276243851 0 -53.895776276243851 48.369525172531212 0 0 0 0 -13.845113963821548 -17.337895181867992 0 -17.337895181867992 17.349201441710221 0 0 0 0 -5.7597230833897672 -2.8322472701328003 0 -2.8322472701328003 11.41292818318297 0 0 0 0 -71.53706756144129 -41.432185188470612 0 -41.432185188470612 30.203575981065114 0 0 0 0 240.09512523078774 171.43483578585074 0 171.43483578585074 73.832209595202585 0 0 0 0 -18.964650687637459 -28.01674614899548 0 -28.01674614899548 24.121438809175743 0 0 0 0 -15.100691808331931 -20.82678700494489 0 -20.82678700494489 31.624328381538362 0 0 0 0 -2.1346871942617529 -6.7384959562443321 0 -6.7384959562443321 23.915564494811051 0 0 0 0 -30.800368151438306 -8.9248314399546871 0 -8.9248314399546871 22.611521714188711 0 0 0 0 -21.730439405101151 -34.466416538913109 0 -34.466416538913109 17.887007820190775 0 0 0 0 -1.1491337353532085 -0.45023896299936084 0 -0.45023896299936084 0.0793012788329861 0 0 0 0 -65.377080320128698 77.10508488963751 0 77.10508488963751 1.8562270225165776 0 0 0 0 18.309576110785883 -20.060959951787481 0 -20.060959951787481 -14.513102275730489 0 0 0 0 9.7188464225146163 -26.997706089394342 0 -26.997706089394342 19.33143837280204 0 0 0 0 -9.6121575717497763 -39.991286554450198 0 -39.991286554450198 -48.199643876090704 0 0 0 0 -20.269061334529397 24.725843581796653 0 24.725843581796653 100.0692808949625 0 0 0 0 -1.9341165481206772 -1.6022585140891721 0 -1.6022585140891721 -0.84019445256184611 0 0 0 0 -10.637559997737604 -8.8123322375434725 0 -8.8123322375434725 15.573042614971527 0 0 0 0 -23.132083408941668 -16.153777497594604 0 -16.153777497594604 8.7321885265397299 0 0 0 0 23.427648440691883 -2.6553860482927121 0 -2.6553860482927121 18.523078161138983 0 0 0 0 -9.050099859229217 2.6721496884073943 0 2.6721496884073943 21.10358955974872 0 0 0 0 -41.99347268954989 -69.616512212895032 0 -69.616512212895032 112.96150703059175 0 0 0 0 -8.5474072008760231 -0.33640451835526619 0 -0.33640451835526619 30.032023143702645 0 0 0 0 -0.28051668804100505 5.0630081182228821 0 5.0630081182228821 5.6799773029364502 0 0 0 0 95.17425145108632 73.954818813251222 0 73.954818813251222 -96.524110757432936 0 0 0 0 -121.40210154795659 1.1430081864527892 0 1.1430081864527892 132.65047510619115 0 0 0 0 1.1699245534691727 -112.74518004413949 0 -112.74518004413949 19.965164704313793 0 0 0 0 19.312430394400508 -56.590466570115495 0 -56.590466570115495 18.459694760751518 0 0 0 0 38.468688427023153 -19.168618937427709 0 -19.168618937427709 3.4642339393681141 0 0 0 0 -14.359511160382681 -13.080436756144991 0 -13.080436756144991 3.098469581840618 0 0 0 0 -14.443064986058744 -49.75028329370798 0 -49.75028329370798 11.430643844055339 0 0 0 0 -7.0583001113632236 -39.53428768547451 0 -39.53428768547451 15.803612907890056 0 0 0 0 -12.336628848679567 -11.147443641133997 0 -11.147443641133997 20.353825257638281 0 0 0 0 -29.649463731231663 -28.544833377958639 0 -28.544833377958639 37.97073135717983 0 0 0 0 -30.432218103764171 -18.051534851438191 0 -18.051534851438191 19.778007056680508 0 0 0 0 1.8085055973624549 -28.693305126271298 0 -28.693305126271298 17.475494173231709 0 0 0 0 -25.038758237060392 -24.034610423885169 0 -24.034610423885169 23.976716118697368 0 0 0 0 -25.691566264652806 -14.872485524455328 0 -14.872485524455328 30.746657135452551 0 0 0 0 -23.008193109199055 -10.506506650139272 0 -10.506506650139272 24.706965336428766 0 0 0 0 -20.058520242564555 -3.2341004891513876 0 -3.2341004891513876 44.850795497435684 0 0 0 0 -3.001921702872572 -3.1086169261523224 0 -3.1086169261523224 -0.082394027186886376 0 0 0 0 -10.147230663616938 -36.730000613223638 0 -36.730000613223638 -14.509208457679051 0 0 0 0 -16.416408813659473 -9.3831460230437642 0 -9.3831460230437642 22.958689592102019 0 0 0 0 -11.616668388523014 -4.9611244238322447 0 -4.9611244238322447 16.918633314740426 0 0 0 0 -19.970430406122432 -15.912027705416676 0 -15.912027705416676 24.959548801751225 0 0 0 0 -36.133817176594675 -11.693147165582104 0 -11.693147165582104 28.664814344474507 0 0 0 0 41.730876061770687 18.393996878340204 0 18.393996878340204 41.227123017752092 0 0 0 0 0.53604732907586161 -7.5968883494449706 0 -7.5968883494449706 20.833928390512479 0 0 0 0 -5.0712085280429164 23.764465202804331 0 23.764465202804331 -1.1704966670422436 0 0 0 0 10.729217246656845 265.13067418438641 0 265.13067418438641 285.87048016541394 0 0 0 0 -280.61486846215848 139.39553269558996 0 139.39553269558996 669.08113720174151 0 0 0 0 -235.56102274406521 -334.36794713861116 0 -334.36794713861116 101.01163505872236 0 0 0 0 0.15338004629098911 -2.0685109531976007 0 -2.0685109531976007 8.498927988315474 0 0 0 0 -150.11656163373482 -493.51610943777132 0 -493.51610943777132 -272.30432658824066 0 0 0 0 -895.68346068167011 -233.10752172613411 0 -233.10752172613411 73.672805412205889 0 0 0 0 -3.531428192953161 -1.0377884164222468 0 -1.0377884164222468 6.1979879738222925 0 0 0 0 -131.12086777232616 -155.1999593391256 0 -155.1999593391256 -51.491966749375933 0 0 0 0 -6.9181466217776766 -6.9961356092245914 0 -6.9961356092245914 19.99723311522996 0 0 0 0 -10.183873246498479 -7.5866734899937001 0 -7.5866734899937001 12.950795962668963 0 0 0 0 -197.4399565304484 -159.82301164931869 0 -159.82301164931869 1.7768191653999565 0 0 0 0 100.65800356083128 27.010528856212204 0 27.010528856212204 -67.044534449046296 0 0 0 0 259.72752450079497 -47.369832533467161 0 -47.369832533467161 -151.59192492089142 0 0 0 0 54.92315919658904 -397.26493078881822 0 -397.26493078881822 -227.16097733472998 0 0 0 0 568.48672618549404 344.93229671953185 0 344.93229671953185 40.287252484270539 0 0 0 0 450.31677978208972 -264.57883028462993 0 -264.57883028462993 -368.65049560190459 0 0 0 0 -80.537436972583237 -27.386934207175955 0 -27.386934207175955 61.835484450453805 0 0 0 0 -59.806443042049068 112.2965504028939 0 112.2965504028939 454.90472569822714 0 0 0 0 -43.677401461617137 168.46468947263872 0 168.46468947263872 13.469808381040366 0 0 0 0 78.291058905317186 -15.672892713632791 0 -15.672892713632791 -142.52470862694372 0 0 0 0 -4.0677178718677283 -1.6729250495631067 0 -1.6729250495631067 6.2609777017216084 0 0 0 0 -126.21945736961788 -168.22978391285494 0 -168.22978391285494 305.05132988158766 0 0 0 0 -45.644389685529859 -142.87719188737941 0 -142.87719188737941 42.091703164305841 0 0 0 0 71.064573389042835 -109.16904356330232 0 -109.16904356330232 43.140953574748892 0 0 0 0 374.65966269680939 -316.97274911352304 0 -316.97274911352304 158.6717499315464 0 0 0 0 -67.994605261013021 -17.938714629883691 0 -17.938714629883691 186.24591808803655 0 0 0 0 -13.976192772015565 139.13360141986493 0 139.13360141986493 630.37049654763359 0 0 0 0 -231.12560834065971 135.04987669816543 0 135.04987669816543 123.48948640270086 0 0 0 0 -452.91616984821758 -49.484708694198346 0 -49.484708694198346 203.03950202248208 0 0 0 0 36.245328231263784 -273.14274738238936 0 -273.14274738238936 -119.76436938439119 0 0 0 0 105.68619375044909 -64.105924549048723 0 -64.105924549048723 30.001175007935672 0 0 0 0 1.6776946063825786 -2.3681911685728281 0 -2.3681911685728281 6.4045606784169742 0 0 0 0 532.60642704686416 380.16736086367405 0 380.16736086367405 -253.30085544763051 0 0 0 0 -615.86138738605041 38.961344534018281 0 38.961344534018281 591.25125531974209 0 0 0 0 -0.73779763884522254 -340.9020740444239 0 -340.9020740444239 674.77809737643292 0 0 0 0 0.1800667774470508 -4.4446897282440663 0 -4.4446897282440663 16.936072273387396 0 0 0 0 -467.27691619428083 -146.31074324442559 0 -146.31074324442559 180.07280438098746 0 0 0 0 170.96196936448177 145.6245235343531 0 145.6245235343531 -99.944224607972956 0 0 0 0 343.61984724764579 514.68885549889796 0 514.68885549889796 225.83958774597704 0 0 0 0 -52.638372403782341 11.071701725329149 0 11.071701725329149 164.47957595559819 0 0 0 0 -50.643458700564224 48.609416167969357 0 48.609416167969357 636.65067934924491 0 0 0 0 80.097173971893426 -144.49444045613109 0 -144.49444045613109 209.49068539314794 0 0 0 0 42.318972389327428 -49.211267772889869 0 -49.211267772889869 20.598422586877859 0 0 0 0 134.10124038831691 85.76677137250573 0 85.76677137250573 54.437253087140107 0 0 0 0 107.90725001318424 123.21495458360528 0 123.21495458360528 96.980381879086735 0 0 0 0 144.84514133967787 138.41829188978136 0 138.41829188978136 130.98890604091696 0 0 0 0 177.36016317946451 -37.622043443268012 0 -37.622043443268012 -31.333224961945234 0 0 0 0 2.6022789365647085 1.4963536557953532 0 1.4963536557953532 0.92606692880968833 0 0 0 0 14.721454307716158 59.82236963002174 0 59.82236963002174 229.81377303700788 0 0 0 0 35.310012831563654 24.181360248508895 0 24.181360248508895 11.826654913875373 0 0 0 0 0.49922417524354756 0.60970345027785378 0 0.60970345027785378 0.10218569991965776 0 0 0 0 34.034146965306718 -119.80811334869884 0 -119.80811334869884 39.548364678448934 0 0 0 0 -9.4134298406588641 37.085820941107954 0 37.085820941107954 37.403961578329131 0 0 0 0 2.1019738933973713 33.4189503995226 0 33.4189503995226 -26.664855282790768 0 0 0 0 -1.2765836341282935 -1.5073547572511981 0 -1.5073547572511981 3.3648184095681781 0 0 0 0 -17.470830266896883 -16.462919302450416 0 -16.462919302450416 30.746375886757505 0 0 0 0 -22.091851915417465 -25.795156009272318 0 -25.795156009272318 -2.5234740052859479 0 0 0 0 -0.79706588797224764 -1.3377244148114187 0 -1.3377244148114187 13.744195931467736 0 0 0 0 -11.968017737528498 -90.133155435305639 0 -90.133155435305639 118.64928130745261 0 0 0 0 6.7997234399413173 96.409849247009475 0 96.409849247009475 161.85790528317943 0 0 0 0 4.2448387765624034 -63.657311246887161 0 -63.657311246887161 38.008089654365676 0 0 0 0 0.36831310245840587 -0.91200862059185539 0 -0.91200862059185539 4.9562737983947658 0 0 0 0 47.866273956840814 163.66192379373041 0 163.66192379373041 194.55330539225622 0 0 0 0 46.851315433217678 -84.575085141148861 0 -84.575085141148861 518.39322508265434 0 0 0 0 -23.505371491739425 59.29612530318559 0 59.29612530318559 445.90717914309607 0 0 0 0 43.609094002351412 -36.111581027701845 0 -36.111581027701845 434.73269694287399 0 0 0 0 -8.0695515802144655 7.8281864189999624 0 7.8281864189999624 519.18966547600371 0 0 0 0 51.005752169672633 -147.0092088209467 0 -147.0092088209467 331.52029543506376 0 0 0 0 75.186469385635064 39.898101718137809 0 39.898101718137809 214.36682016046871 0 0 0 0 70.697763968761137 54.191480110531302 0 54.191480110531302 170.15547055009165 0 0 0 0 127.50872770251772 2.5128871594977227 0 2.5128871594977227 96.192230754758498 0 0 0 0 90.304889051487407 96.043850898164919 0 96.043850898164919 -2.3429287312951601 0 0 0 0 -10.875824267391181 -144.56624071521105 0 -144.56624071521105 755.19177641297301 0 0 0 0 26.696711377864631 193.49253260175601 0 193.49253260175601 933.81540892892599 0 0 0 0 189.46723591103546 134.61591574918191 0 134.61591574918191 320.93855766353045 0 0 0 0 383.47543815939662 361.02301187828431 0 361.02301187828431 584.79957425269049 0 0 0 0 66.729360542411996 187.53687724530096 0 187.53687724530096 590.48127253064058 0 0 0 0 45.880652092715536 112.14095897793715 0 112.14095897793715 337.68453991574324 0 0 0 0 -14.572692329964411 4.7937592217644749 0 4.7937592217644749 617.74421943136167 0 0 0 0 -10.45267739839619 46.048482139037787 0 46.048482139037787 536.5910271431012 0 0 0 0 -17.279521152182269 -15.894380479231813 0 -15.894380479231813 463.23162580884923 0 0 0 0 232.9267841558551 209.20205996558246 0 209.20205996558246 221.40824705208524 0 0 0 0 281.25257151474216 -33.383089934108909 0 -33.383089934108909 362.98852816320584 0 0 0 0 100.09742749806537 143.58110069539686 0 143.58110069539686 272.43058026111828 0 0 0 0 56.35073758362887 122.40844189057111 0 122.40844189057111 276.61445830943774 0 0 0 0 24.68383767351952 71.672569203232115 0 71.672569203232115 515.02440494835218 0 0 0 0 72.614791535934273 93.079719454492988 0 93.079719454492988 321.32187230590512 0 0 0 0 -2.4718180234522151 164.4239314040201 0 164.4239314040201 332.58839993372305 0 0 0 0 45.284229337803481 176.18867183456251 0 176.18867183456251 220.59216791114989 0 0 0 0 8.3281842042679273 119.45115315807678 0 119.45115315807678 164.9905507422568 0 0 0 0 32.491248215849737 263.86057111362811 0 263.86057111362811 169.52175097072006 0 0 0 0 130.30094705212832 218.88238514721434 0 218.88238514721434 186.9394627478548 0 0 0 0 31.957153029330584 204.46562258161009 0 204.46562258161009 226.84835276107071 0 0 0 0 45.697303974669921 177.55734899967877 0 177.55734899967877 243.31195843518049 0 0 0 0 -61.015502762427786 194.9370205501956 0 194.9370205501956 240.52905891322808 0 0 0 0 7.9505206128061214 17.702108677624505 0 17.702108677624505 -14.983977329185839 0 0 0 0 -158.51290274061103 204.507037838543 0 204.507037838543 153.23084775411536 0 0 0 0 374.27570835916788 -49.140472279941392 0 -49.140472279941392 -314.69415523215184 0 0 0 0 -36.06837874879966 83.423498534756106 0 83.423498534756106 -41.852165125021202 0 0 0 0 -25.086064706216348 176.67617197071917 0 176.67617197071917 133.25323611971646 0 0 0 0 67.577892897959828 96.823367916797167 0 96.823367916797167 -20.968053660692249 0 0 0 0 48.810649705559626 126.59742235332476 0 126.59742235332476 122.21108929743571 0 0 0 0 160.35098071725042 29.208513679269231 0 29.208513679269231 -30.759128241973485 0 0 0 0 134.81462535444189 90.162773052457055 0 90.162773052457055 81.204383882630509 0 0 0 0 297.48696357903464 72.652816301607459 0 72.652816301607459 80.020815073944505 0 0 0 0 143.87974743245104 177.13827773085757 0 177.13827773085757 310.78763405361633 0 0 0 0 147.38872523381269 141.67945024108161 0 141.67945024108161 123.97847145988658 0 0 0 0 25.498991676366131 146.47539193162856 0 146.47539193162856 348.21322284210515 0 0 0 0 -96.546942337248879 -329.06654099837056 0 -329.06654099837056 -66.53167569040852 0 0 0 0 -415.5954166103038 -37.321631171003759 0 -37.321631171003759 309.3241486402344 0 0 0 0 -58.399340668513105 -51.402212899573897 0 -51.402212899573897 215.91083306704422 0 0 0 0 27.817992622909514 -10.162612272894989 0 -10.162612272894989 138.18339532446771 0 0 0 0 410.92536888076575 -195.97154805813716 0 -195.97154805813716 -425.32445097181517 0 0 0 0 -27.692121294565368 6.1661431102529605 0 6.1661431102529605 189.25468532828017 0 0 0 0 3.4799357291544801 1.5000219028959716 0 1.5000219028959716 -3.9125689002149056 0 0 0 0 261.34724317637301 369.50822515949039 0 369.50822515949039 266.7057878026726 0 0 0 0 504.86386908554596 83.329745851274311 0 83.329745851274311 -491.49171211310022 0 0 0 0 17.329503399310852 207.27098260508609 0 207.27098260508609 119.29995527820552 0 0 0 0 -166.94263194969426 -363.35895888377001 0 -363.35895888377001 139.3107388411274 0 0 0 0 -57.341143251722315 249.89565649552145 0 249.89565649552145 322.44604750796589 0 0 0 0 0.87829190600837848 -2.9430600988900508 0 -2.9430600988900508 7.9716081238306682 0 0 0 0 52.871356051132636 312.95356761510408 0 312.95356761510408 267.55462144221792 0 0 0 0 49.441231049402631 247.10390891966887 0 247.10390891966887 162.04888630325934 0 0 0 0 -62.15284108659398 302.99398310203856 0 302.99398310203856 432.15050508538502 0 0 0 0 -108.79270053761866 216.27179899265275 0 216.27179899265275 313.25750259393919 0 0 0 0 -149.47273979154852 184.16736150474344 0 184.16736150474344 303.06299860972712 0 0 0 0 -89.728839156670801 228.72869404664829 0 228.72869404664829 253.47037762556488 0 0 0 0 -103.18147208025766 170.87126137941783 0 170.87126137941783 211.47221521341476 0 0 0 0 -132.73070995938724 196.45594405440721 0 196.45594405440721 299.71723124416621 0 0 0 0 -213.50233454473346 -81.602152876738501 0 -81.602152876738501 -58.302340812298439 0 0 0 0 -122.00914735867627 116.2101306416086 0 116.2101306416086 153.95307704900284 0 0 0 0 -144.9333883781128 124.34589049211161 0 124.34589049211161 287.08595972250532 0 0 0 0 -33.594911618012702 163.59607120372675 0 163.59607120372675 214.14468261557533 0 0 0 0 25.801693879329832 235.58354980968784 0 235.58354980968784 263.44925570625503 0 0 0 0 -90.070545729156947 192.81991195888861 0 192.81991195888861 331.25756876124342 0 0 0 0 100.65832965347181 135.89070984811059 0 135.89070984811059 275.96693893238898 0 0 0 0 22.665606392829432 205.55548676601393 0 205.55548676601393 263.21392942122253 0 0 0 0 94.174380371031475 186.25788141653157 0 186.25788141653157 219.07083392439949 0 0 0 0 9.5047795015161682 177.00771979410183 0 177.00771979410183 250.35989126287586 0 0 0 0 -55.529830782274075 181.27854584264173 0 181.27854584264173 255.76489581439381 0 0 0 0 158.04642657374097 156.02631852873196 0 156.02631852873196 197.62236268015818 0 0 0 0 40.79682868648888 168.03625432016304 0 168.03625432016304 215.57313194801611 0 0 0 0 -78.033809229149483 147.33610522611968 0 147.33610522611968 257.84236869297268 0 0 0 0 35.969873127842448 133.12878403044374 0 133.12878403044374 237.43989519675461 0 0 0 0 45.947031710402371 83.960424358923149 0 83.960424358923149 253.2867280924238 0 0 0 0 415.68040802698317 371.79975675057761 0 371.79975675057761 -746.08371228638146 0 0 0 0 13.808571532211349 82.692579921397879 0 82.692579921397879 94.879651246920517 0 0 0 0 69.265790899329659 68.380794692639483 0 68.380794692639483 236.70337180885127 0 0 0 0 0.66933161074587133 10.663352608573835 0 10.663352608573835 57.909969300003553 0 0 0 0 -91.402246389749052 336.64035079655093 0 336.64035079655093 329.19858258473278 0 0 0 0 38.486148097451192 92.515110016332926 0 92.515110016332926 71.721796679015057 0 0 0 0 -86.210660897078014 130.50552823921316 0 130.50552823921316 341.38846707841003 0 0 0 0 -26.486082274128876 357.84556789058877 0 357.84556789058877 -66.021568604134586 0 0 0 0 -12.728944633188048 8.83406137945002 0 8.83406137945002 29.509751646091061 0 0 0 0 -97.523799073638656 65.419701054843983 0 65.419701054843983 44.987170713324332 0 0 0 0 -77.987229495407149 179.15881994975328 0 179.15881994975328 243.89142762337997 0 0 0 0 -88.08935786949769 138.43509621665694 0 138.43509621665694 249.20527118287691 0 0 0 0 -197.72105975507111 75.948776482590858 0 75.948776482590858 311.08553878197688 0 0 0 0 -125.2086742978463 217.7919190647622 0 217.7919190647622 344.71997035177094 0 0 0 0 815.36084431936615 148.63577688970159 0 148.63577688970159 -95.539751847102664 0 0 0 0 36.122825343468904 89.523981849297769 0 89.523981849297769 78.165075343006407 0 0 0 0 -163.95249433925528 158.21889416471507 0 158.21889416471507 458.29550562425237 0 0 0 0 -58.033156463914338 245.63092310665888 0 245.63092310665888 132.50551757408175 0 0 0 0 138.77574563068208 -46.414086414139092 0 -46.414086414139092 309.86225833233766 0 0 0 0 -128.58815755341993 191.96477080475597 0 191.96477080475597 535.96458002297732 0 0 0 0 32.909457873739257 224.1582327934872 0 224.1582327934872 400.81909521319903 0 0 0 0 25.737024934388188 85.362507321929783 0 85.362507321929783 73.963344428619635 0 0 0 0 4.0118538880251435 53.442824692669092 0 53.442824692669092 157.19917854785308 0 0 0 0 -543.78754570730052 -371.17288326519281 0 -371.17288326519281 672.61351219092103 0 0 0 0 -215.70454923850411 -191.5769379838348 0 -191.5769379838348 1265.799270568943 0 0 0 0 59.158152610817979 -397.10943405670696 0 -397.10943405670696 759.49623818726104 0 0 0 0 -2.8224387769622421 -0.6475384448848871 0 -0.6475384448848871 -3.4495273308503123 0 0 0 0 -156.14658361835382 -391.62229543042122 0 -391.62229543042122 989.87742608560075 0 0 0 0 29.487424745674161 -259.14414422331902 0 -259.14414422331902 363.47931091961073 0 0 0 0 -47.560735315893908 -39.565621717119939 0 -39.565621717119939 126.11733419069242 0 0 0 0 -296.58493686560502 -150.45325569888155 0 -150.45325569888155 625.31693599034043 0 0 0 0 -67.388799858572114 -228.40342527020584 0 -228.40342527020584 553.56711901816016 0 0 0 0 153.41750607218614 101.58245539731797 0 101.58245539731797 121.77103545703721 0 0 0 0 231.0897108886769 -523.29172657247909 0 -523.29172657247909 987.25953393471718 0 0 0 0 11.066146578694692 -124.70329975818686 0 -124.70329975818686 614.89216366144683 0 0 0 0 463.81581829608103 -206.42183725717041 0 -206.42183725717041 373.99619479537796 0 0 0 0 191.74524388043133 -227.36571616871151 0 -227.36571616871151 881.08665720334102 0 0 0 0 272.30863438783194 57.983027162505095 0 57.983027162505095 139.21694336263317 0 0 0 0 147.02291389911898 -111.39591207404737 0 -111.39591207404737 460.85944080365516 0 0 0 0 206.49485886799084 -23.622727396483242 0 -23.622727396483242 -76.326078824504293 0 0 0 0 -36.266082239404113 51.86835388914551 0 51.86835388914551 155.02360467248218 0 0 0 0 9.9751816521256842 216.27893899755918 0 216.27893899755918 -54.178697105715401 0 0 0 0 107.9858258745017 161.61542671216012 0 161.61542671216012 186.77546223974787 0 0 0 0 90.186957334542967 -0.51817498154196073 0 -0.51817498154196073 411.22044411153183 0 0 0 0 208.97673539139578 45.896353886488214 0 45.896353886488214 246.32519125983526 0 0 0 0 458.89148799345412 -65.334705142224266 0 -65.334705142224266 257.53516091522397 0 0 0 0 209.06729945083407 68.263101867385558 0 68.263101867385558 423.26532763484283 0 0 0 0 743.16385823526662 -116.17353313642525 0 -116.17353313642525 206.50301113129535 0 0 0 0 406.11776000967802 -210.32761677994858 0 -210.32761677994858 401.51075804528409 0 0 0 0 300.5769155754042 27.438220421467122 0 27.438220421467122 132.22791143547511 0 0 0 0 904.33839503897434 -354.97806612609929 0 -354.97806612609929 -667.07120516069699 0 0 0 0 11.671695090835179 -4.6631913691889224 0 -4.6631913691889224 2.0118726572599295 0 0 0 0 97.713408804496794 -8.5869676504080417 0 -8.5869676504080417 169.3158652264392 0 0 0 0 1040.5914504755851 -1510.1786256026789 0 -1510.1786256026789 4192.4426652670918 0 0 0 0 567.71662852558552 -114.67262262688018 0 -114.67262262688018 -256.35311218377319 0 0 0 0 1657.8760995995979 -1142.9071686858661 0 -1142.9071686858661 -41.005585883628555 0 0 0 0 1050.9728737004607 -468.83504000908579 0 -468.83504000908579 3.0494713078678615 0 0 0 0 622.32658804390564 -363.70206434444844 0 -363.70206434444844 313.54152828280348 0 0 0 0 1258.9679346536002 -1756.4350848798767 0 -1756.4350848798767 3498.828083989727 0 0 0 0 1034.3696556639916 -561.44292690006114 0 -561.44292690006114 626.97557780603529 0 0 0 0 1268.9622121332536 -2303.1007881177575 0 -2303.1007881177575 2138.229360930025 0 0 0 0 -38.16179295157491 -1426.213688626176 0 -1426.213688626176 3421.8812685382691 0 0 0 0 1354.9337943135017 -1197.4389905042262 0 -1197.4389905042262 972.62863591467612 0 0 0 0 2106.2992504104054 -1770.5576358041071 0 -1770.5576358041071 534.50108661724516 0 0 0 0 762.2544707160439 -1255.1314902622617 0 -1255.1314902622617 1886.8630576780561 0 0 0 0 373.2798290107832 -681.56067023862124 0 -681.56067023862124 1078.6157763333758 0 0 0 0 799.16076401581563 -618.31646596159544 0 -618.31646596159544 656.24556294544891 0 0 0 0 745.95027107674628 -321.40608891029842 0 -321.40608891029842 438.64382542190287 0 0 0 0 298.30757273663835 -223.0720636746355 0 -223.0720636746355 709.33750700690143 0 0 0 0 518.44636628917954 -707.50256404387255 0 -707.50256404387255 959.63131504695048 0 0 0 0 179.71660085892887 -903.74649125811538 0 -903.74649125811538 2057.7028983765485 0 0 0 0 -18.224968712313171 -315.66004142241945 0 -315.66004142241945 1148.2459191890594 0 0 0 0 -332.23947738428308 -724.49137186442204 0 -724.49137186442204 2227.54182885724 0 0 0 0 -635.52002627220577 -663.72955176184041 0 -663.72955176184041 3498.5675233748775 0 0 0 0 -684.16688582007123 25.814117585316126 0 25.814117585316126 2217.7146927955473 0 0 0 0 -84.993850373298756 -593.52574479163013 0 -593.52574479163013 1564.0302671436984 0 0 0 0 7.290549379087679 -11.980377020031483 0 -11.980377020031483 64.043921810960455 0 0 0 0 19.281981840960221 31.386057380256705 0 31.386057380256705 24.484776495602045 0 0 0 0 64.62158540675 -45.944389663663969 0 -45.944389663663969 83.105050450059935 0 0 0 0 40.421691226043549 58.220911215155155 0 58.220911215155155 -133.75269554353576 0 0 0 0 26.521895116784378 35.093845743677782 0 35.093845743677782 22.952190601732831 0 0 0 0 82.4338519465269 57.803817062825146 0 57.803817062825146 64.314152420825849 0 0 0 0 84.848942777152843 24.555995558642792 0 24.555995558642792 -124.91016561409492 0 0 0 0 106.48205447910186 84.516900985244845 0 84.516900985244845 -61.26843597371959 0 0 0 0 16.822372484219159 49.14545851738022 0 49.14545851738022 -73.57930167009971 0 0 0 0 -55.969644978848009 95.227177281728416 0 95.227177281728416 -18.880086322366864 0 0 0 0 63.364828433185266 127.33073454778652 0 127.33073454778652 -194.00464559139076 0 0 0 0 -11.886716387213028 194.10411352496388 0 194.10411352496388 -134.02271105723537 0 0 0 0 -14.009752146820574 33.749334552459914 0 33.749334552459914 69.154634359594638 0 0 0 0 7.872523565337282 26.670438733227023 0 26.670438733227023 41.355979764672043 0 0 0 0 -96.47173944701899 80.542811673883989 0 80.542811673883989 181.47159142701275 0 0 0 0 -46.188972357238526 131.59930760433053 0 131.59930760433053 112.75181568011612 0 0 0 0 0.52254799182610512 36.444393718242878 0 36.444393718242878 88.408003565301257 0 0 0 0 -166.32220808633701 219.76715971679459 0 219.76715971679459 200.36882237158716 0 0 0 0 -49.177398775667825 105.05834436478472 0 105.05834436478472 345.30166785977053 0 0 0 0 13.719631731259142 -5.7615341120608718 0 -5.7615341120608718 62.280543448734534 0 0 0 0 -124.92491187341028 -105.67694535107529 0 -105.67694535107529 37.837806352552434 0 0 0 0 -122.83143781382751 -35.032858080012375 0 -35.032858080012375 141.19502861976798 0 0 0 0 -3.1816635254830672 9.2103175801535375 0 9.2103175801535375 75.470667712252421 0 0 0 0 -180.51142875121877 -22.986845331877703 0 -22.986845331877703 202.06429123109046 0 0 0 0 -37.829060562969971 38.162119762251677 0 38.162119762251677 350.00993194596231 0 0 0 0 -230.59689056248317 -12.16252252717095 0 -12.16252252717095 208.53263865698318 0 0 0 0 -40.483644841626301 61.155029225017643 0 61.155029225017643 190.16489805160381 0 0 0 0 69.311899923569641 201.51603548738785 0 201.51603548738785 3503.7065160206012 0 0 0 0 166.63243909086668 141.83517622858926 0 141.83517622858926 -326.01580935444326 0 0 0 0 -267.59969171935882 199.04323199404462 0 199.04323199404462 -90.822437982078554 0 0 0 0 81.95416962312629 48.409193007079011 0 48.409193007079011 -36.63600788761687 0 0 0 0 -326.10518718951334 -145.98217222370295 0 -145.98217222370295 63.333435384338372 0 0 0 0 -437.33102860257532 -20.707160782221763 0 -20.707160782221763 89.277911560345274 0 0 0 0 -189.34013827707531 -1.5479854061486549 0 -1.5479854061486549 90.177975668571889 0 0 0 0 30.576309944621123 -16.858025175602364 0 -16.858025175602364 11.498652818586368 0 0 0 0 63.068279163242927 72.518528506886469 0 72.518528506886469 3159.4694589333994 0 0 0 0 -160.05464061088242 -147.13041890365275 0 -147.13041890365275 4.3043591256682703 0 0 0 0 10.27799803920411 -604.04744140463299 0 -604.04744140463299 3495.9761607690234 0 0 0 0 -242.00024190162185 -141.11833685539568 0 -141.11833685539568 62.443718723850907 0 0 0 0 294.76144592945332 982.21179770054096 0 982.21179770054096 3589.9795472976875 0 0 0 0 -71.65402888585993 -19.585952148471733 0 -19.585952148471733 116.74753669831989 0 0 0 0 21.989844086107862 -10.807714304385662 0 -10.807714304385662 7.3808911804681117 0 0 0 0 -18.731514143020831 27.411305483525211 0 27.411305483525211 64.039337955068504 0 0 0 0 -92.339945654133771 45.40902043038659 0 45.40902043038659 115.83476001469535 0 0 0 0 3.3520273518352042 8.7941018953169987 0 8.7941018953169987 121.41068133157205 0 0 0 0 -42.017016369707562 -20.926695244746952 0 -20.926695244746952 143.06063787238963 0 0 0 0 306.74772559358854 -130.94045114203072 0 -130.94045114203072 -4.8070111397792061 0 0 0 0 1.1118536146992248 4.1339534130596149 0 4.1339534130596149 13.916759955263217 0 0 0 0 4.9982903351456116 43.198274110076454 0 43.198274110076454 260.16062373396562 0 0 0 0 7.8823467662437707 1.2428686231791559 0 1.2428686231791559 11.046287593023084 0 0 0 0 510.03138020124368 1118.4995540291893 0 1118.4995540291893 3498.0652321043035 0 0 0 0 156.59198529460826 41.179344759439118 0 41.179344759439118 -78.72709428991584 0 0 0 0 370.90416423624322 225.44854020351522 0 225.44854020351522 68.243621953153706 0 0 0 0 -93.870002950184414 385.54855594111723 0 385.54855594111723 2609.6972311124882 0 0 0 0 16.076954764411141 1071.9803221064421 0 1071.9803221064421 2355.7915810941304 0 0 0 0 539.62659124639913 782.26179025465899 0 782.26179025465899 1008.4428540828085 0 0 0 0 -776.04907679546682 6.4862677213459392 0 6.4862677213459392 1627.5587614699252 0 0 0 0 -762.78640472128109 317.87375360517672 0 317.87375360517672 3499.2863862441427 0 0 0 0 79.51769617988262 -229.27262758715733 0 -229.27262758715733 1734.1388067195512 0 0 0 0 -237.50311514884606 -494.69978524060934 0 -494.69978524060934 2674.3108437029769 0 0 0 0 -119.73610977579096 647.42779895577041 0 647.42779895577041 1733.4658149054667 0 0 0 0 -182.23681679819174 122.72421884889263 0 122.72421884889263 2638.6965553405935 0 0 0 0 15.923268214924974 18.641372107463212 0 18.641372107463212 39.231786293399637 0 0 0 0 10.510529598408539 22.393791254152347 0 22.393791254152347 37.990501900932941 0 0 0 0 94.036080114324704 -21.345683324103447 0 -21.345683324103447 1757.5665857239255 0 0 0 0 11.672028815647085 21.618211233629367 0 21.618211233629367 20.070331438450591 0 0 0 0 -72.566251721110518 -248.6442131388485 0 -248.6442131388485 1474.1487978780133 0 0 0 0 6.2105560317003645 13.948641959012981 0 13.948641959012981 27.054410307096411 0 0 0 0 8.6204179748874594 17.22506854135554 0 17.22506854135554 27.7473026556072 0 0 0 0 -54.887896720773597 57.093363134081301 0 57.093363134081301 22.769633208239611 0 0 0 0 16.540914880385831 17.817615843951 0 17.817615843951 12.096096749831776 0 0 0 0 761.57769951217551 767.42656143418935 0 767.42656143418935 742.98485190589417 0 0 0 0 -119.12535494172334 64.532807959622914 0 64.532807959622914 488.84481328120455 0 0 0 0 1.0917098970808645 11.02930141581103 0 11.02930141581103 9.3551176734823969 0 0 0 0 0.91702375842187944 9.4671666555058245 0 9.4671666555058245 15.205041493913782 0 0 0 0 559.71356126339481 -1786.1724415182325 0 -1786.1724415182325 3497.2476331456455 0 0 0 0 -2.5860781794818877 12.847947342793304 0 12.847947342793304 24.699602813542242 0 0 0 0 159.021972686466 -1107.07979416329 0 -1107.07979416329 3399.2539135284915 0 0 0 0 -9.707259870795454 -624.43504725125058 0 -624.43504725125058 2018.7608044075823 0 0 0 0 4.9086702853689559 13.606138938509162 0 13.606138938509162 40.625936994532367 0 0 0 0 12.070187156295106 17.216893230297956 0 17.216893230297956 18.034938333832542 0 0 0 0 6.9724283183163482 3.0292590561856176 0 3.0292590561856176 5.4025532092277482 0 0 0 0 -0.66801453809443956 25.500936122578423 0 25.500936122578423 51.046631843793193 0 0 0 0 11.901882092171036 6.4844761292724229 0 6.4844761292724229 13.833985265785259 0 0 0 0 7.995544274124768 21.433542939669451 0 21.433542939669451 42.906636790326047 0 0 0 0 7.0398666845981452 2.0418429210262659 0 2.0418429210262659 -1.6904133421479792 0 0 0 0 20.63709474642701 12.802284381682057 0 12.802284381682057 39.213698943989129 0 0 0 0 7.5328180737660659 3.1511491984481665 0 3.1511491984481665 17.269486203631345 0 0 0 0 16.210017850908116 -6.9443420307757151 0 -6.9443420307757151 -4.0144104400443439 0 0 0 0 10.231145225805458 -2.3122500584151622 0 -2.3122500584151622 -0.0013396285692135468 0 0 0 0 1.35351758012321 -2.0862507138722801 0 -2.0862507138722801 -0.88098565930283912 0 0 0 0 8.8640020062398435 -1.0314985324920372 0 -1.0314985324920372 26.022413481171156 0 0 0 0 -4.2350071078208202 -27.049115388329255 0 -27.049115388329255 -7.8109288998604143 0 0 0 0 -1.4681910742665423 -4.4140989634402104 0 -4.4140989634402104 22.286356277994855 0 0 0 0 3.6539327825860148 -7.0571277337477998 0 -7.0571277337477998 17.165270989920426 0 0 0 0 5.9043525339147891 -2.6028199739121192 0 -2.6028199739121192 20.329826157395019 0 0 0 0 5.5949245364959204 2.4847025280107875 0 2.4847025280107875 7.3488883758535426 0 0 0 0 48.182636782319605 -4.9303664432096905 0 -4.9303664432096905 -75.362249057067842 0 0 0 0 16.6919958341322 16.778195742362119 0 16.778195742362119 8.296767732320955 0 0 0 0 31.056618509589498 28.869196022735743 0 28.869196022735743 -43.948865152013354 0 0 0 0 7.0172275576824177 -52.605868870831387 0 -52.605868870831387 -56.054667383229628 0 0 0 0 8.0361509463854759 -34.480285063812076 0 -34.480285063812076 -74.156627309078715 0 0 0 0 5.397705809584818 0.43980173514310827 0 0.43980173514310827 -0.082485715929495274 0 0 0 0 34.331429384496005 -34.709223656045765 0 -34.709223656045765 -113.58237286986179 0 0 0 0 -147.62450578009521 -131.36991345603172 0 -131.36991345603172 -34.063834540933613 0 0 0 0 80.388674091645953 -47.795742969092778 0 -47.795742969092778 -88.170221345985979 0 0 0 0 48.816607838990421 3.4921241140902248 0 3.4921241140902248 -99.692556865626557 0 0 0 0 142.19284875579433 -17.255692720119896 0 -17.255692720119896 -78.714759474944344 0 0 0 0 106.86787969487159 9.9615917752559753 0 9.9615917752559753 -99.349971922334134 0 0 0 0 223.46080562785937 5.2037277279972614 0 5.2037277279972614 -40.502129204066591 0 0 0 0 94.734165733669215 -12.915917753681413 0 -12.915917753681413 -36.914116422165534 0 0 0 0 129.0175389537053 -16.883155985038798 0 -16.883155985038798 -74.61191389909385 0 0 0 0 98.49673253497258 -17.903588762435788 0 -17.903588762435788 92.19140041378455 0 0 0 0 258.96835573185308 54.465401607162903 0 54.465401607162903 81.207257835487439 0 0 0 0 16.542655326760723 44.959931358119775 0 44.959931358119775 69.499866457172629 0 0 0 0 -19.329943363470193 -103.83970223442714 0 -103.83970223442714 57.274939723522039 0 0 0 0 124.19415845002186 -17.917289797978441 0 -17.917289797978441 -51.134429889488501 0 0 0 0 1.2654905631279689 -65.940676918830263 0 -65.940676918830263 -41.14853469240083 0 0 0 0 75.471462350502406 -84.441796221166953 0 -84.441796221166953 -89.150777684310469 0 0 0 0 -60.182570030408442 -20.847397852256805 0 -20.847397852256805 -60.749954480481847 0 0 0 0 37.016030050818699 0.55129762942684124 0 0.55129762942684124 -11.520601373198815 0 0 0 0 -86.846094694286876 -128.29133965045446 0 -128.29133965045446 -175.26045948144849 0 0 0 0 -142.28801761993827 -160.44563682334726 0 -160.44563682334726 -58.544565908129471 0 0 0 0 0.89788471894507005 0.49633587782409805 0 0.49633587782409805 -1.4758291950203677 0 0 0 0 -3.5809080669841933 -82.542913247724528 0 -82.542913247724528 -113.45303974387753 0 0 0 0 11.216405579745697 -2.2487027600099054 0 -2.2487027600099054 1.3403612724907816 0 0 0 0 23.86390257961466 -19.491478355903268 0 -19.491478355903268 -14.408649069718905 0 0 0 0 140.74112690985021 4.0557561871305552 0 4.0557561871305552 -23.246446182173941 0 0 0 0 -1.1642707674154558 0.67546994497382329 0 0.67546994497382329 0.81992598185904075 0 0 0 0 5.6428061932829223 -76.849779125717077 0 -76.849779125717077 67.97751676002963 0 0 0 0 -265.11698827055989 -116.55815104443798 0 -116.55815104443798 67.972608870667045 0 0 0 0 -29.303601386145601 -152.65287480875736 0 -152.65287480875736 54.645162909346482 0 0 0 0 12.268918883108199 46.0877808031928 0 46.0877808031928 158.32878867515319 0 0 0 0 -2.6562347581411814 -26.068427746165753 0 -26.068427746165753 254.8000430316838 0 0 0 0 -81.399558106744735 -71.717351011968731 0 -71.717351011968731 95.737577445807801 0 0 0 0 -8.4477815074278624 63.726775876875763 0 63.726775876875763 217.50568549782838 0 0 0 0 -37.760469775962292 -0.83049659728339975 0 -0.83049659728339975 132.38873564478217 0 0 0 0 -13.640172380425611 71.634083341794394 0 71.634083341794394 209.58321848534433 0 0 0 0 39.427763555822821 104.32675776965084 0 104.32675776965084 162.76488542387142 0 0 0 0 -13.435511769158438 114.50245879829572 0 114.50245879829572 303.90730442196218 0 0 0 0 60.886378617987248 215.68085941683466 0 215.68085941683466 313.23259642600624 0 0 0 0 -24.720180287206972 145.86204731145727 0 145.86204731145727 437.76646674203676 0 0 0 0 -1.2714006849073485 176.75557684946125 0 176.75557684946125 393.94924205960456 0 0 0 0 8.4914221234721481 251.39113740877769 0 251.39113740877769 722.90131814139659 0 0 0 0 153.87401536102698 28.063033703474275 0 28.063033703474275 454.05205067566476 0 0 0 0 139.6442159688977 61.216994912665768 0 61.216994912665768 975.18538372561932 0 0 0 0 175.04998593983601 63.409820501764557 0 63.409820501764557 340.07967308428942 0 0 0 0 560.98035161840335 -27.956613052725913 0 -27.956613052725913 361.6990725181804 0 0 0 0 114.96207849671009 -102.74528904327576 0 -102.74528904327576 266.76485462443497 0 0 0 0 31.901510067757044 108.75376871519535 0 108.75376871519535 400.83223409448146 0 0 0 0 -3.0760599044397168 -52.081736769538111 0 -52.081736769538111 42.371651478009881 0 0 0 0 2.8859100572594798 8.8073128317291776 0 8.8073128317291776 31.59385813955123 0 0 0 0 -41.918395575017712 -25.378575602358069 0 -25.378575602358069 6.9194691097764007 0 0 0 0 -34.246675463503095 -20.452368081645432 0 -20.452368081645432 -2.3820441795596707 0 0 0 0 -39.970674274280697 -52.837000235378923 0 -52.837000235378923 -4.6570191676000832 0 0 0 0 -54.286284880654421 -91.08822722300647 0 -91.08822722300647 72.563221721371519 0 0 0 0 17.357438032835717 86.06953273498857 0 86.06953273498857 126.59875096756241 0 0 0 0 5.0307317440407928 -14.923103531112005 0 -14.923103531112005 34.271631316269236 0 0 0 0 46.288159528494475 36.967252028069311 0 36.967252028069311 16.702877151700704 0 0 0 0 98.601564947911356 166.04332675689329 0 166.04332675689329 200.16783015466717 0 0 0 0 -7.4335023340490807 69.192505336874092 0 69.192505336874092 190.91018047540956 0 0 0 0 -32.508501384108968 -94.687950724804068 0 -94.687950724804068 11.5755075690995 0 0 0 0 -37.102333949093236 -83.888742801583248 0 -83.888742801583248 -0.96265915756430331 0 0 0 0 9.91049892666706 -10.223035149391535 0 -10.223035149391535 33.157966239040434 0 0 0 0 6.2298115929297833 -17.232301919626039 0 -17.232301919626039 40.266042611468194 0 0 0 0 -27.798295722976945 -21.35543968303773 0 -21.35543968303773 4.3935294654766039 0 0 0 0 -18.960133155144831 -50.549463835821371 0 -50.549463835821371 11.68338103370661 0 0 0 0 -60.003256569425162 -104.26848120194973 0 -104.26848120194973 48.939874471449002 0 0 0 0 1.8372530684130197 -104.83302339768716 0 -104.83302339768716 136.69653983568969 0 0 0 0 -8.2538619906086979 -26.823459024881288 0 -26.823459024881288 -5.4041551864297617 0 0 0 0 -128.85209925580966 -86.574089437093676 0 -86.574089437093676 53.755976407861056 0 0 0 0 4.2597086380040849 -6.1164617716530065 0 -6.1164617716530065 -1.1003947060192498 0 0 0 0 -1.6758075132036083 -15.096786526128653 0 -15.096786526128653 17.408852430018669 0 0 0 0 -151.20208206918369 -11.304875149842815 0 -11.304875149842815 93.908661314057099 0 0 0 0 3.9451118235907408 -9.1554481648380861 0 -9.1554481648380861 26.228170272977444 0 0 0 0 -38.504230967721014 -89.415733944143653 0 -89.415733944143653 9.664542096783407 0 0 0 0 1.1232782345712273 -6.5163391448365253 0 -6.5163391448365253 21.537028364153056 0 0 0 0 1.5003976996995334 3.9985397102436764 0 3.9985397102436764 27.662549638321252 0 0 0 0 -45.872885146818604 40.956539834617331 0 40.956539834617331 212.12332806700579 0 0 0 0 122.44652637752597 112.85434119673482 0 112.85434119673482 81.536012612594277 0 0 0 0 -49.670236196459427 -14.911106284202106 0 -14.911106284202106 35.471475654294409 0 0 0 0 0.053559846833027613 -0.24152233195926165 0 -0.24152233195926165 1.5011369953553668 0 0 0 0 7.2533160135149046 -98.759148836587883 0 -98.759148836587883 109.76561394728742 0 0 0 0 -70.466384321393889 -35.743972180383935 0 -35.743972180383935 196.7021894237887 0 0 0 0 108.31812302259732 -26.800775989168869 0 -26.800775989168869 45.889000167011545 0 0 0 0 17.624868284405011 48.497163735948106 0 48.497163735948106 157.23152575258609 0 0 0 0 -45.383418373835866 -16.805259080824726 0 -16.805259080824726 91.521559495300608 0 0 0 0 -46.598782474737106 -1.7320284150673615 0 -1.7320284150673615 87.807342603904544 0 0 0 0 -59.282619386670831 -24.498017827306739 0 -24.498017827306739 137.83857970905592 0 0 0 0 -59.479934084494744 -25.104048591595529 0 -25.104048591595529 136.23722213473957 0 0 0 0 -40.077141965216015 -17.788157144304023 0 -17.788157144304023 78.461172891282331 0 0 0 0 -36.616608014885969 3.3315099245564852 0 3.3315099245564852 78.604447989495384 0 0 0 0 -18.03773792548418 0.96263876685225114 0 0.96263876685225114 38.439119246371774 0 0 0 0 -30.979994203129536 -39.461981253985869 0 -39.461981253985869 124.3999044420234 0 0 0 0 -13.239133764344615 -23.017110991070012 0 -23.017110991070012 30.205741907147967 0 0 0 0 -37.686146602378813 -0.07121281042782357 0 -0.07121281042782357 29.055642288354647 0 0 0 0 -36.054388421890508 7.4863817957266292 0 7.4863817957266292 41.988637998207196 0 0 0 0 -46.664806824132938 -2.3038008703656487 0 -2.3038008703656487 22.568985055647772 0 0 0 0 -27.228244017788256 16.80749927508441 0 16.80749927508441 18.699100294432355 0 0 0 0 -24.328939211798257 6.349827970605773 0 6.349827970605773 7.4958762683207345 0 0 0 0 -28.893100255671698 0.94793643481943946 0 0.94793643481943946 38.63703421507671 0 0 0 0 -37.514138427327907 18.686606500710695 0 18.686606500710695 39.26999568876272 0 0 0 0 -77.821785241566289 34.196060413861005 0 34.196060413861005 47.763735006185016 0 0 0 0 0.47909504667628455 1.2438958518885013 0 1.2438958518885013 30.453626859634962 0 0 0 0 8.2232394942105884 1.3887558789191417 0 1.3887558789191417 19.668140184718141 0 0 0 0 9.3610246308999194 1.9107708917053969 0 1.9107708917053969 17.188551785188338 0 0 0 0 10.856672147319376 5.8566191855614917 0 5.8566191855614917 46.141033585725012 0 0 0 0 -46.860303687293936 66.619787795139018 0 66.619787795139018 59.198818330057293 0 0 0 0 -4.0737078293133999 -0.99452382959484709 0 -0.99452382959484709 18.096179843139197 0 0 0 0 -5.0094498651760517 4.5169710947846387 0 4.5169710947846387 7.0348014719820355 0 0 0 0 -9.5800474482468871 34.488658201366889 0 34.488658201366889 35.70954635504313 0 0 0 0 -29.800405578867412 26.366614338068757 0 26.366614338068757 43.568893942921022 0 0 0 0 10.893650716660431 37.104623756029468 0 37.104623756029468 32.813306959126294 0 0 0 0 -3.272039977533467 14.602620093686028 0 14.602620093686028 26.513797271935346 0 0 0 0 -10.379830267233869 14.380414020380501 0 14.380414020380501 21.5132642804247 0 0 0 0 5.6639745521129043 15.287545107737969 0 15.287545107737969 23.058923284372895 0 0 0 0 -4.1138122119467742 10.483523578356545 0 10.483523578356545 14.592764365356583 0 0 0 0 2.7110213617975205 21.523248465638062 0 21.523248465638062 47.299287647824713 0 0 0 0 -8.2477943974508889 11.020843946440351 0 11.020843946440351 27.064326039114633 0 0 0 0 -1.4852890702440209 11.493016144562873 0 11.493016144562873 26.483646129296424 0 0 0 0 20.717695269036994 15.770779287557161 0 15.770779287557161 38.475445428695821 0 0 0 0 -0.18136993832422377 10.686905495570613 0 10.686905495570613 22.643169541723978 0 0 0 0 1.2569794025071133 17.08544801041171 0 17.08544801041171 24.761339187696763 0 0 0 0 -25.681679832960526 21.314425783137608 0 21.314425783137608 38.069773501612872 0 0 0 0 4.141304240694808 35.257176582395459 0 35.257176582395459 36.873128650460785 0 0 0 0 15.022991035605578 15.835090600613068 0 15.835090600613068 -3.5224128596685649 0 0 0 0 3.6327947254276296 46.433777332615591 0 46.433777332615591 46.815983828214485 0 0 0 0 529.29798100054722 1505.5536935858422 0 1505.5536935858422 3498.7178205203672 0 0 0 0 20.276866241471907 43.469396293053023 0 43.469396293053023 37.11689701393243 0 0 0 0 -4.4004566301843742 13.203690557376904 0 13.203690557376904 30.009540514427833 0 0 0 0 1.9652949719922503 17.33669259712417 0 17.33669259712417 24.078522272614464 0 0 0 0 12.974245836507551 27.713414522762672 0 27.713414522762672 13.831208431233222 0 0 0 0 0.60787339474154578 16.487764872327261 0 16.487764872327261 25.275550381105859 0 0 0 0 -0.084529453172380586 10.275121644463354 0 10.275121644463354 18.965613022898406 0 0 0 0 1.9699153608965798 10.18636309233122 0 10.18636309233122 9.1021834280618084 0 0 0 0 11.944830309746136 25.871989582631159 0 25.871989582631159 3492.7733080601902 0 0 0 0 1.8623200428787641 16.388801057609271 0 16.388801057609271 22.121877165605838 0 0 0 0 2.7833822959473764 12.105344727538977 0 12.105344727538977 21.776576092492178 0 0 0 0 2.0467091451005217 14.757421990854994 0 14.757421990854994 27.254575375505738 0 0 0 0 -4.0438114302050039 18.117851392540615 0 18.117851392540615 3492.3549525791941 0 0 0 0 3.6481882430321093 9.4277039222743042 0 9.4277039222743042 29.564388340166261 0 0 0 0 5.4535697286928135 11.966905256576769 0 11.966905256576769 13.609626213400254 0 0 0 0 0.13882444454375503 21.050454646241779 0 21.050454646241779 3.8418637197295311 0 0 0 0 151.58332003835233 98.524937210878306 0 98.524937210878306 -42.13854281163367 0 0 0 0 72.070452315239891 162.21909152242279 0 162.21909152242279 139.26256047627794 0 0 0 0 111.86211151869088 7.5156837619329053 0 7.5156837619329053 -67.305259886829845 0 0 0 0 -2.6497665069333767 -0.99037951288579151 0 -0.99037951288579151 5.9981176324476966 0 0 0 0 -18.639536429653617 43.297529888956433 0 43.297529888956433 47.02696185793593 0 0 0 0 -36.376394757609887 35.137524372153166 0 35.137524372153166 107.76593788270691 0 0 0 0 572.46210187357633 1184.5053097472837 0 1184.5053097472837 3416.517379790982 0 0 0 0 646.65787969364737 1459.3628889352158 0 1459.3628889352158 4142.6209052191789 0 0 0 0 5.1806159805984251 5.2975912172617496 0 5.2975912172617496 0.19496901446878434 0 0 0 0 1129.9442679605618 2347.3825081140435 0 2347.3825081140435 4498.5781286985093 0 0 0 0 1385.0196165252066 1801.0046283255865 0 1801.0046283255865 3501.3404937330915 0 0 0 0 1151.8754761624391 1850.7412120490867 0 1850.7412120490867 3637.0544079069423 0 0 0 0 928.33172061318032 1521.4438681968745 0 1521.4438681968745 3330.1111168700054 0 0 0 0 1749.932619844468 2391.2963561986649 0 2391.2963561986649 3400.7180901201659 0 0 0 0 1686.6498769013733 1900.8739600495851 0 1900.8739600495851 2484.4901069379166 0 0 0 0 6.7650258453628389 5.0241845665478788 0 5.0241845665478788 -0.18426199664646425 0 0 0 0 748.84124751728928 1492.6185953313989 0 1492.6185953313989 2277.2639736921737 0 0 0 0 1230.9859652062776 1324.3220512380938 0 1324.3220512380938 2479.685237826463 0 0 0 0 1249.2175321534066 1375.5988143602808 0 1375.5988143602808 2100.4373141781116 0 0 0 0 166.25483227373547 1529.4056177639495 0 1529.4056177639495 2464.303899106354 0 0 0 0 302.81614764702198 1172.7105779473368 0 1172.7105779473368 2456.6629865857471 0 0 0 0 326.11367760183066 1474.3184343785979 0 1474.3184343785979 2923.972668288231 0 0 0 0 201.78979594762623 1264.2992535935755 0 1264.2992535935755 2619.5514264101294 0 0 0 0 920.50029544688687 1586.7528687376432 0 1586.7528687376432 2943.5786084809488 0 0 0 0 90.341941864294341 1535.7384357848546 0 1535.7384357848546 3497.0382230463665 0 0 0 0 -93.27462839452096 843.37527853930169 0 843.37527853930169 2544.9589898210179 0 0 0 0 -315.88555341141006 1086.1672297144164 0 1086.1672297144164 3027.0032851629603 0 0 0 0 625.379266049943 1823.9263642272108 0 1823.9263642272108 3499.2891733363081 0 0 0 0 -3.5523663452548986 1.3922227951510351 0 1.3922227951510351 9.0904032961087857 0 0 0 0 530.78943167957743 1415.6793241597097 0 1415.6793241597097 2577.1344071448984 0 0 0 0 413.02763854128034 1068.1852483357961 0 1068.1852483357961 2601.5746725945637 0 0 0 0 881.99478290345212 1760.7325241529627 0 1760.7325241529627 2994.1212526165109 0 0 0 0 924.45891139089076 1469.0991505710153 0 1469.0991505710153 2670.172497290012 0 0 0 0 513.14925835487566 980.51729818078275 0 980.51729818078275 2663.1187337008205 0 0 0 0 414.77336119948075 1293.292079496242 0 1293.292079496242 3194.5755244746906 0 0 0 0 -51.062114513120036 1367.0030488651091 0 1367.0030488651091 2928.9788920765609 0 0 0 0 -75.787423745740114 1274.7847696944355 0 1274.7847696944355 2672.9189272332806 0 0 0 0 124.84248996972701 991.72007583305094 0 991.72007583305094 2585.7595075364575 0 0 0 0 162.67166201099576 1195.572169992809 0 1195.572169992809 2205.1593710022571 0 0 0 0 179.10047639955084 1042.0076177038193 0 1042.0076177038193 1716.2474527038939 0 0 0 0 137.99735796060725 780.07376877092156 0 780.07376877092156 1947.4832411095631 0 0 0 0 149.29247951819798 1008.3193930608168 0 1008.3193930608168 1602.1191258336694 0 0 0 0 296.95849665456473 1191.7324188900884 0 1191.7324188900884 2456.7650544163698 0 0 0 0 238.09680608195094 852.94115185420742 0 852.94115185420742 2377.8249380771435 0 0 0 0 275.98385725091924 1004.6841142386529 0 1004.6841142386529 1978.8826315365659 0 0 0 0 485.58723743142184 892.00107588610263 0 892.00107588610263 2119.0592129892757 0 0 0 0 368.88031727478767 964.82238690274062 0 964.82238690274062 1993.3074788146841 0 0 0 0 241.91555275875265 784.93718856445594 0 784.93718856445594 2171.4650319871471 0 0 0 0 102.33548840537117 540.66141274783877 0 540.66141274783877 1875.9748803524258 0 0 0 0 234.17961737078258 808.72800976365579 0 808.72800976365579 2198.7083593913449 0 0 0 0 -0.59732276356674152 9.9561356743813896 0 9.9561356743813896 21.111372422176188 0 0 0 0 0.04834774287272503 15.368690216493896 0 15.368690216493896 8.8276483222301856 0 0 0 0 9.6380141180832766 -7.0761428600607132 0 -7.0761428600607132 173.29830164221858 0 0 0 0 22.284501399784858 53.256684017957014 0 53.256684017957014 123.51422722245843 0 0 0 0 369.1178456281848 721.01568716217389 0 721.01568716217389 1161.8636049559773 0 0 0 0 8.4483744154875922 72.062238649727078 0 72.062238649727078 1174.1816539485353 0 0 0 0 -19.892466001772011 -9.1246600784815648 0 -9.1246600784815648 16.623134425236294 0 0 0 0 -25.797133442974882 27.791601289358368 0 27.791601289358368 59.295336722825596 0 0 0 0 23.969710535698141 99.803003441511464 0 99.803003441511464 144.67367007480061 0 0 0 0 -20.839212835130116 4.1131595086495238 0 4.1131595086495238 5.9911842990425122 0 0 0 0 -17.643130311069399 29.523684935669735 0 29.523684935669735 66.094558044829682 0 0 0 0 2.8718404888686386 5.4793186972026575 0 5.4793186972026575 2.6247024383189697 0 0 0 0 -22.71288395895499 25.050320243377428 0 25.050320243377428 73.645543035660012 0 0 0 0 -2.275802847527757 62.315291795800476 0 62.315291795800476 93.632550064510724 0 0 0 0 -62.880992145376695 1.7745063437068893 0 1.7745063437068893 107.88577286930877 0 0 0 0 -26.976474474605766 13.886717600204975 0 13.886717600204975 43.425167416917247 0 0 0 0 -55.247195103519516 27.104305846245552 0 27.104305846245552 177.58662470649688 0 0 0 0 -56.58622125496413 -10.624141262392186 0 -10.624141262392186 131.27390911395196 0 0 0 0 -28.0014519117085 36.324593857803848 0 36.324593857803848 100.27187289116068 0 0 0 0 669.24840630926155 73.040779877048408 0 73.040779877048408 5.0909328542165895 0 0 0 0 -30.32228131457498 8.6658378754917109 0 8.6658378754917109 3.3923938952227353 0 0 0 0 646.31491719701899 1581.6310961924619 0 1581.6310961924619 1614.866784484806 0 0 0 0 503.1425353817308 608.51263340323021 0 608.51263340323021 554.05882571313668 0 0 0 0 58.919921702936676 914.5580718944193 0 914.5580718944193 1837.5197727885934 0 0 0 0 185.81012710142159 -516.2520335066074 0 -516.2520335066074 1378.2739852005834 0 0 0 0 200.25314844827153 198.18880377772257 0 198.18880377772257 558.00063343883812 0 0 0 0 132.77057847684409 321.10323368345053 0 321.10323368345053 1988.2152482265046 0 0 0 0 -292.22779594177291 -320.4297892923496 0 -320.4297892923496 1319.3262079435081 0 0 0 0 300.8984843754161 -1002.967551153406 0 -1002.967551153406 3500.1188634984865 0 0 0 0 1905.4622571521484 -170.63990240848216 0 -170.63990240848216 1398.7083302512815 0 0 0 0 5.51564701071774 2.0805634375596966 0 2.0805634375596966 6.3964108104900994 0 0 0 0 -1816.2429127589994 -2085.9888150290863 0 -2085.9888150290863 1318.3641545000717 0 0 0 0 -752.0078224005083 -247.39504937096717 0 -247.39504937096717 1783.3746953915979 0 0 0 0 136.57834442704643 -751.8215520155145 0 -751.8215520155145 1631.1836259369011 0 0 0 0 -472.30503202741249 -505.04168940100226 0 -505.04168940100226 3498.5355364024399 0 0 0 0 14.934852537534198 -637.99543149502642 0 -637.99543149502642 3034.3384771957972 0 0 0 0 6.367624163491989 8.1245350772353078 0 8.1245350772353078 9.4943775031397308 0 0 0 0 -115.81301699781341 59.17445616616169 0 59.17445616616169 1774.7722215009708 0 0 0 0 207.44938875387948 7.511370564583558 0 7.511370564583558 1780.9461401326589 0 0 0 0 169.94438822636334 -153.91321472954223 0 -153.91321472954223 2463.6432214541546 0 0 0 0 -62.71773218389535 118.36579196834282 0 118.36579196834282 1938.4507192284127 0 0 0 0 -77.413826991282804 100.02432492455773 0 100.02432492455773 2263.0059124047984 0 0 0 0 222.10339601819533 762.94620794162802 0 762.94620794162802 2390.9739692753901 0 0 0 0 198.11305030281662 703.82690511867668 0 703.82690511867668 2812.539543106097 0 0 0 0 150.52390800852299 435.76138141092088 0 435.76138141092088 1976.7116798656352 0 0 0 0 -224.25889602680112 -351.54483634387452 0 -351.54483634387452 4658.8353071440833 0 0 0 0 -788.05671662188593 1093.0351919957193 0 1093.0351919957193 3807.3542320800589 0 0 0 0 471.46827930959091 751.98100378362687 0 751.98100378362687 2392.9642891952353 0 0 0 0 433.11578138606569 781.25352157642556 0 781.25352157642556 3317.4298549401719 0 0 0 0 1.6626983704388816 4.2020272908970142 0 4.2020272908970142 6.2238553792070981 0 0 0 0 -65.139013143376644 1090.7240832486023 0 1090.7240832486023 1349.4286005648119 0 0 0 0 -431.74362683972043 154.46898098856036 0 154.46898098856036 1763.4239099159786 0 0 0 0 -71.275926859254014 1474.8985070995295 0 1474.8985070995295 2719.8172194679601 0 0 0 0 -244.45492550715289 1242.6176670793939 0 1242.6176670793939 3498.8652113768594 0 0 0 0 -477.90551228225672 502.22629368228445 0 502.22629368228445 2834.1842691558049 0 0 0 0 281.18819661488516 1209.4362521564053 0 1209.4362521564053 2431.481724375275 0 0 0 0 804.64135334148045 571.10615200487518 0 571.10615200487518 2737.1134947883111 0 0 0 0 446.08571656192089 1833.4672817431056 0 1833.4672817431056 3728.5220123993786 0 0 0 0 -3.0624071896288196 1.2582216194321205 0 1.2582216194321205 7.1569468645144205 0 0 0 0 344.07711352606123 1019.8461332353691 0 1019.8461332353691 3682.8866270788817 0 0 0 0 566.3731485970186 1162.5358969232275 0 1162.5358969232275 2635.1097040262866 0 0 0 0 415.20601697655047 984.03396256902124 0 984.03396256902124 2687.3492961684005 0 0 0 0 549.83412404169792 871.688177372067 0 871.688177372067 2423.6112432837217 0 0 0 0 570.9026207589028 1104.3515205026617 0 1104.3515205026617 2376.2321318728063 0 0 0 0 467.57439441447195 1060.2356047798726 0 1060.2356047798726 2465.2970850366546 0 0 0 0 594.19452515876355 951.57763930238616 0 951.57763930238616 2176.9712570084994 0 0 0 0 369.74685008208525 879.16142475798733 0 879.16142475798733 2203.1733496723828 0 0 0 0 505.25505477151262 704.07547133239495 0 704.07547133239495 1795.5115286231858 0 0 0 0 488.99194564062878 899.97139775537653 0 899.97139775537653 1855.7744821713968 0 0 0 0 455.13655602348666 981.05778507311277 0 981.05778507311277 2263.3589431011242 0 0 0 0 478.71551370008615 783.65232137985731 0 783.65232137985731 1985.3210297985715 0 0 0 0 522.04267117827294 960.73707055294653 0 960.73707055294653 2268.0831077276162 0 0 0 0 318.74255441819628 965.95469275955111 0 965.95469275955111 2476.1494645618786 0 0 0 0 201.85706617074311 725.0545120300867 0 725.0545120300867 2149.1338583116476 0 0 0 0 405.65345728743091 1111.2682084483913 0 1111.2682084483913 2355.6200853885894 0 0 0 0 412.19922792226441 1108.279659469832 0 1108.279659469832 2343.8219131892401 0 0 0 0 522.97999425612386 1017.3971156439466 0 1017.3971156439466 2352.6578093298413 0 0 0 0 590.85103935599113 856.54692497736323 0 856.54692497736323 2657.426006146663 0 0 0 0 448.32784706899577 997.17604471035884 0 997.17604471035884 2688.3914549902292 0 0 0 0 357.69508063470244 1002.5497674192193 0 1002.5497674192193 2636.2997105302529 0 0 0 0 333.67866980820986 882.45702255352262 0 882.45702255352262 2085.2284660287405 0 0 0 0 292.48457448811268 1097.6391648889767 0 1097.6391648889767 2362.5224052975173 0 0 0 0 412.67456266995805 1095.3591627753203 0 1095.3591627753203 2335.7953139288002 0 0 0 0 324.19972050003116 1133.4128880505032 0 1133.4128880505032 2496.0535623229989 0 0 0 0 200.93343462674784 1178.7778536683254 0 1178.7778536683254 2612.3480698158855 0 0 0 0 422.30434655975841 1103.9495147401358 0 1103.9495147401358 2223.9474136064455 0 0 0 0 304.71652870384713 741.31532859034087 0 741.31532859034087 1524.7443971278117 0 0 0 0 133.57572991843836 595.25698688145167 0 595.25698688145167 1703.330286057957 0 0 0 0 238.41469239394519 1003.1767386127194 0 1003.1767386127194 2110.6636628603555 0 0 0 0 274.66046129067297 924.32071696127809 0 924.32071696127809 2228.4510682289911 0 0 0 0 197.89070943726307 515.28897530044492 0 515.28897530044492 1591.2402151621936 0 0 0 0 -1.2328443483820593 66.573974790815555 0 66.573974790815555 320.86370596052802 0 0 0 0 10.364266126097391 164.75241270249626 0 164.75241270249626 358.61998046368535 0 0 0 0 -5.4973294496539893 146.76677497474884 0 146.76677497474884 239.42239127203356 0 0 0 0 142.57891382845355 1217.7225748365345 0 1217.7225748365345 3358.084574780607 0 0 0 0 13.65223515047909 33.547609133166198 0 33.547609133166198 -15.593291076181281 0 0 0 0 309.18080393786613 851.71808749224692 0 851.71808749224692 2958.5534351947954 0 0 0 0 336.090173461804 1090.906591174331 0 1090.906591174331 2601.9517019315354 0 0 0 0 39.181082566336954 99.753278256515841 0 99.753278256515841 319.54942095653678 0 0 0 0 22.168750394986755 38.473266312011972 0 38.473266312011972 -20.940757860377474 0 0 0 0 440.2135362728618 1028.1039930897623 0 1028.1039930897623 2516.5257861503201 0 0 0 0 0.020302966636798203 1.8775662453202102 0 1.8775662453202102 5.7317276086579767 0 0 0 0 55.394509200421453 64.96222400496481 0 64.96222400496481 182.5686565549986 0 0 0 0 104.47933479035419 198.20784445203753 0 198.20784445203753 226.79220957907091 0 0 0 0 -2.1301525381766555 -5.3100393246678834 0 -5.3100393246678834 1.1695477323860928 0 0 0 0 56.43521742439907 93.993980633129468 0 93.993980633129468 300.37228292315558 0 0 0 0 -17.919364863438204 0.047763246972117201 0 0.047763246972117201 52.768756174401446 0 0 0 0 -1.7668599322594218 52.806123132372932 0 52.806123132372932 300.20591438852352 0 0 0 0 2.7531466662121602 18.841696562561992 0 18.841696562561992 62.878259108741076 0 0 0 0 -19.326805709099652 -7.0877434176171192 0 -7.0877434176171192 38.717844034073181 0 0 0 0 21.262306380908967 45.879640838476689 0 45.879640838476689 137.06993635986873 0 0 0 0 -12.92696966032122 6.0216722575241874 0 6.0216722575241874 65.333413261449095 0 0 0 0 -19.914935110876936 0.74059544434395264 0 0.74059544434395264 59.140605868788775 0 0 0 0 18.643268853402333 62.560733572823665 0 62.560733572823665 138.40931711041048 0 0 0 0 71.818052776117838 119.55242697161157 0 119.55242697161157 256.49981757778733 0 0 0 0 32.558225005007991 44.273347418291891 0 44.273347418291891 -16.884683288761629 0 0 0 0 24.551469745947543 114.28347301784379 0 114.28347301784379 266.32686609814846 0 0 0 0 -33.68440066052402 -13.283662672996883 0 -13.283662672996883 61.567846249710506 0 0 0 0 27.568675024512231 41.679528495275008 0 41.679528495275008 148.74427114327773 0 0 0 0 34.808864256268294 42.976701326017633 0 42.976701326017633 119.17839402798199 0 0 0 0 33.941939433911102 37.65619628303466 0 37.65619628303466 115.56719329778934 0 0 0 0 -30.045163350486195 -15.992793847850876 0 -15.992793847850876 36.891651925794534 0 0 0 0 28.417258265748387 56.183875251990685 0 56.183875251990685 115.27248178530499 0 0 0 0 1.1887461428036978 2.1964870693104075 0 2.1964870693104075 8.1735297428480838 0 0 0 0 33.014201384051375 24.17203307816726 0 24.17203307816726 65.049145090750244 0 0 0 0 13.055468078824561 27.558763435240508 0 27.558763435240508 86.660903812659853 0 0 0 0 19.333078774190653 59.443520504899425 0 59.443520504899425 155.23055036162987 0 0 0 0 15.942435036229085 1.927848707572366 0 1.927848707572366 50.047462653361436 0 0 0 0 0.21289108076416596 -11.497121482711009 0 -11.497121482711009 70.767237739029952 0 0 0 0 14.083466825329197 11.500477506098605 0 11.500477506098605 79.10047387229497 0 0 0 0 3.7200401359204989 16.424291190049189 0 16.424291190049189 76.823726949694901 0 0 0 0 5.3305681785750494 4.4577995675826969 0 4.4577995675826969 73.706422241983091 0 0 0 0 4.2560813892014266 4.5702446047362173 0 4.5702446047362173 90.506094421513808 0 0 0 0 -5.7055656583148462 4.2875653409902199 0 4.2875653409902199 50.299643978263759 0 0 0 0 1.7746722449760455 13.763200889725795 0 13.763200889725795 87.254203831696941 0 0 0 0 24.25448004511054 55.489398040259402 0 55.489398040259402 163.59519043426917 0 0 0 0 -0.56440441663835372 14.88122774776275 0 14.88122774776275 40.746117930393666 0 0 0 0 16.947316748103113 27.708372595880356 0 27.708372595880356 31.132508018518003 0 0 0 0 21.787698210453527 66.806265980470926 0 66.806265980470926 142.1199305902328 0 0 0 0 34.737028444851603 43.886370593419997 0 43.886370593419997 142.52309932658682 0 0 0 0 30.935438989101385 60.225055633309239 0 60.225055633309239 138.71872784211882 0 0 0 0 37.128334811350214 47.983987407296809 0 47.983987407296809 134.83070703254634 0 0 0 0 34.737028444862517 43.886370593407264 0 43.886370593407264 142.52309932648495 0 0 0 0 34.737028444846146 43.886370593441825 0 43.886370593441825 142.5230993264704 0 0 0 0 -14.245216869022443 30.153919368167408 0 30.153919368167408 89.411951809262973 0 0 0 0 0.6366807941760726 21.117721895580871 0 21.117721895580871 82.116645555535797 0 0 0 0 -9.2477492718080612 28.041631625841546 0 28.041631625841546 87.671173962909961 0 0 0 0 -32.346934432127455 12.329932122498576 0 12.329932122498576 82.582779398606817 0 0 0 0 -38.005070818911463 32.227344304830694 0 32.227344304830694 93.488894882291788 0 0 0 0 -46.658418798193452 95.953635425379616 0 95.953635425379616 124.5182840558482 0 0 0 0 0.60687038971627771 24.029073391371639 0 24.029073391371639 47.573580348063842 0 0 0 0 -17.353630293555952 8.3517852682970357 0 8.3517852682970357 45.073644789671064 0 0 0 0 6.7581678323374357 29.827915831935798 0 29.827915831935798 25.344939551788137 0 0 0 0 -14.222789552883826 24.406220831497031 0 24.406220831497031 75.250937504230478 0 0 0 0 76.997801665913812 104.99066887177105 0 104.99066887177105 -146.00343610098207 0 0 0 0 -5.1175681918372291 15.220666361575589 0 15.220666361575589 71.505936555235962 0 0 0 0 3.4023191701012365 58.035726034693653 0 58.035726034693653 92.318174245563569 0 0 0 0 -119.49621486129035 88.761690530984197 0 88.761690530984197 391.65430152112094 0 0 0 0 -123.18096605844266 174.86517671519687 0 174.86517671519687 9.5614381020131987 0 0 0 0 -91.727594271089856 213.72938385866291 0 213.72938385866291 16.204591944173444 0 0 0 0 -23.314591870906497 39.932369910427951 0 39.932369910427951 86.429347337689251 0 0 0 0 55.832555133820733 50.694461698563828 0 50.694461698563828 131.58721873360264 0 0 0 0 -320.97345181489982 91.000692345929565 0 91.000692345929565 151.22620459843893 0 0 0 0 -94.818444169439317 113.43512938040658 0 113.43512938040658 371.59316819746164 0 0 0 0 -104.92234605673002 85.731307129462948 0 85.731307129462948 305.93015684586135 0 0 0 0 -104.78044591730304 81.319847470527748 0 81.319847470527748 337.89277997708996 0 0 0 0 -76.278583844090463 122.15288204935496 0 122.15288204935496 350.74820012474083 0 0 0 0 34.759016989831252 65.407329545123503 0 65.407329545123503 77.921403358748648 0 0 0 0 70.144646282796884 141.96336449803857 0 141.96336449803857 -40.447950126108481 0 0 0 0 -5.3942250538379879 2.5699414690397617 0 2.5699414690397617 10.53907090134885 0 0 0 0 -0.71213378849334941 0.82230935016754358 0 0.82230935016754358 0.22486189235837961 0 0 0 0 -110.82503582533172 10.657499950873898 0 10.657499950873898 418.54895090917125 0 0 0 0 53.340290448741143 20.189998237328837 0 20.189998237328837 -110.70376015116926 0 0 0 0 -19.119865284034162 8.6638933660011759 0 8.6638933660011759 6.157515412550417 0 0 0 0 -1.0075674408799387 12.128439167543547 0 12.128439167543547 66.687995515123475 0 0 0 0 -17.374144028260616 33.210675072863523 0 33.210675072863523 -8.341836539999349 0 0 0 0 -114.24554859338878 24.222032362042228 0 24.222032362042228 390.10197986528465 0 0 0 0 -21.376382772202305 -27.714408764164546 0 -27.714408764164546 282.23846358947048 0 0 0 0 82.653348647521398 -100.74064908792207 0 -100.74064908792207 299.94718857724365 0 0 0 0 -47.672740965752382 -90.031492418173002 0 -90.031492418173002 -0.86820390491629951 0 0 0 0 -56.789201714504088 41.523320285654336 0 41.523320285654336 116.83087539338158 0 0 0 0 -8.3643093423438586 63.141238756103121 0 63.141238756103121 148.85139922313101 0 0 0 0 -19.246545045272796 12.625479762282339 0 12.625479762282339 117.91796509151027 0 0 0 0 -44.865497945978859 8.968201291954756 0 8.968201291954756 121.56343842900242 0 0 0 0 11.024503868691681 44.209571649480495 0 44.209571649480495 79.102236315629852 0 0 0 0 -15.130119745093907 45.811554303465527 0 45.811554303465527 84.800702004489722 0 0 0 0 39.001592617132701 40.680686276478809 0 40.680686276478809 159.48802065419659 0 0 0 0 0.21491661127949158 0.97416289924781374 0 0.97416289924781374 1.2986301732458472 0 0 0 0 -34.357505424349256 -63.092018765444664 0 -63.092018765444664 53.998458724673583 0 0 0 0 -58.438688934615129 20.131350073965223 0 20.131350073965223 -3.1204502641767249 0 0 0 0 -77.271380912416134 -38.385174304754401 0 -38.385174304754401 127.22946734586367 0 0 0 0 -77.293105656657971 -23.162030247979345 0 -23.162030247979345 175.71080220116346 0 0 0 0 -79.077359005304061 -6.6863535885549936 0 -6.6863535885549936 153.55889885223223 0 0 0 0 -37.657359621820888 -81.96931838868386 0 -81.96931838868386 170.58022262080704 0 0 0 0 -72.174986286638614 26.362485038280738 0 26.362485038280738 309.92651647409002 0 0 0 0 -44.401957538335409 64.396597939641651 0 64.396597939641651 200.88420528606912 0 0 0 0 5.2206446307391161 85.169742757874701 0 85.169742757874701 163.21950181902685 0 0 0 0 -1.7759301608198257 105.15497156842548 0 105.15497156842548 107.47046880636481 0 0 0 0 5.9975754277702436 53.11181324052086 0 53.11181324052086 127.34747819563927 0 0 0 0 -13.545121311459649 -1.1761556074347297 0 -1.1761556074347297 31.623251880306473 0 0 0 0 36.109867561062856 35.36894326645961 0 35.36894326645961 127.32817090114077 0 0 0 0 34.824285893382694 44.108085826856041 0 44.108085826856041 78.586940384243007 0 0 0 0 -95.043130202145448 136.35917391529074 0 136.35917391529074 102.15018828994471 0 0 0 0 -37.086152202840822 -3.1982832740732192 0 -3.1982832740732192 -29.181386122696495 0 0 0 0 -25.603772379585848 52.427998176372512 0 52.427998176372512 111.52954374538967 0 0 0 0 30.558575457178449 -3.9211811390014191 0 -3.9211811390014191 12.870918943111974 0 0 0 0 -25.786181811974529 -37.772651873377981 0 -37.772651873377981 50.878364928956216 0 0 0 0 -47.03078168593629 -7.4414858617819846 0 -7.4414858617819846 61.196626633849519 0 0 0 0 -59.380787977526779 -35.804857232766153 0 -35.804857232766153 -3.5266568363813349 0 0 0 0 -121.36161231966639 25.076987655430003 0 25.076987655430003 25.82913567273863 0 0 0 0 0.059408282285416281 1.1749517964077798 0 1.1749517964077798 3.0907074895715851 0 0 0 0 -169.13158074188959 45.139272916674599 0 45.139272916674599 46.366441869529808 0 0 0 0 -64.958578306803474 18.100620691724998 0 18.100620691724998 23.31163185024343 0 0 0 0 -48.501152004508185 -30.680665421965386 0 -30.680665421965386 38.246961517590535 0 0 0 0 -108.89390032045821 28.980984711602105 0 28.980984711602105 3.9255082689765004 0 0 0 0 -70.823644187609716 4.1985001087341516 0 4.1985001087341516 -6.2100302686021678 0 0 0 0 -94.495289868673808 24.975479560286942 0 24.975479560286942 -5.7519163969809597 0 0 0 0 -127.81309627592941 9.2667343042280663 0 9.2667343042280663 61.055191663959704 0 0 0 0 0.043310100556131381 0.94599385292735949 0 0.94599385292735949 2.7335829248459049 0 0 0 0 35.167895537402728 -146.2861038263909 0 -146.2861038263909 169.24558447062373 0 0 0 0 -30.82270464897374 -42.323965800824226 0 -42.323965800824226 20.364794629562311 0 0 0 0 -100.6010085198368 25.0987091910456 0 25.0987091910456 -5.5806952264206302 0 0 0 0 0.17635849758881861 0.6151504240575334 0 0.6151504240575334 0.99634175208428388 0 0 0 0 -45.596466857203723 -290.93685571831065 0 -290.93685571831065 105.18362436828193 0 0 0 0 -72.384139623815827 -90.089134071300577 0 -90.089134071300577 242.04639198864243 0 0 0 0 -35.59249167117207 -239.37388681765924 0 -239.37388681765924 353.59911562513116 0 0 0 0 -166.09232891786087 -21.586601036577122 0 -21.586601036577122 638.99703303612796 0 0 0 0 -3.7553393949393481 10.512988904229744 0 10.512988904229744 28.915740276926819 0 0 0 0 -239.47189178219423 -125.19196815670057 0 -125.19196815670057 141.13990879803168 0 0 0 0 -157.36245335340391 -37.512163656319899 0 -37.512163656319899 214.18848249597431 0 0 0 0 -254.57596331022887 -70.726410605508136 0 -70.726410605508136 296.2553881105614 0 0 0 0 -69.071587200440945 -100.73272021755156 0 -100.73272021755156 233.59092508531103 0 0 0 0 -51.226837655246527 159.51550672987105 0 159.51550672987105 336.2477755964556 0 0 0 0 -78.413907379434022 11.049062540996601 0 11.049062540996601 343.11290257504015 0 0 0 0 -31.947678913901655 -33.383314652297486 0 -33.383314652297486 156.8460725960108 0 0 0 0 -87.329211969308744 -47.515551200718619 0 -47.515551200718619 162.86457497798256 0 0 0 0 -39.047356818045955 -94.194433231897392 0 -94.194433231897392 145.76736543467632 0 0 0 0 -80.589206176018706 -63.716885081386863 0 -63.716885081386863 196.22446783839041 0 0 0 0 -31.07907274426907 -52.487548478252393 0 -52.487548478252393 44.667854900706516 0 0 0 0 -15.001834801410041 -19.453091938729358 0 -19.453091938729358 117.68194413560559 0 0 0 0 -17.967928659932113 -30.139499505960885 0 -30.139499505960885 79.342428792519058 0 0 0 0 0.18826838374025101 -11.726214502341463 0 -11.726214502341463 75.254896565209492 0 0 0 0 -1.4297706037232274 -5.508923405997848 0 -5.508923405997848 78.339440644311253 0 0 0 0 1.1419464025379966 3.0676362355366109 0 3.0676362355366109 87.952477224247559 0 0 0 0 -4.2402536083896409 -1.9173067616785628 0 -1.9173067616785628 58.502999755009235 0 0 0 0 8.3762869142919953 2.0707145138749183 0 2.0707145138749183 74.253769238679524 0 0 0 0 6.5343899368526763 -2.1620354827100527 0 -2.1620354827100527 77.007858562192268 0 0 0 0 9.3612541890324792 2.5231368147269677 0 2.5231368147269677 63.727928291271382 0 0 0 0 0.18640718257513056 21.80650877317424 0 21.80650877317424 54.593232991153485 0 0 0 0 -0.44864922924898565 28.401183057912931 0 28.401183057912931 101.86733708282554 0 0 0 0 13.01698669733014 27.276167977395744 0 27.276167977395744 77.56771127945467 0 0 0 0 3.6084229173319677 33.056425752196546 0 33.056425752196546 60.486269208796628 0 0 0 0 -29.111928842543875 46.044389017711183 0 46.044389017711183 19.437320175667992 0 0 0 0 -7.2435458323284676 50.653496675363961 0 50.653496675363961 21.165217162945169 0 0 0 0 -2.2679313905700837 33.744572908908594 0 33.744572908908594 111.57986294048351 0 0 0 0 13.650176431940054 23.598991545441095 0 23.598991545441095 103.31908831637338 0 0 0 0 -59.779451383643391 32.484773619338739 0 32.484773619338739 136.9107711189863 0 0 0 0 -30.200048291966596 7.0934368629514211 0 7.0934368629514211 148.81250661934246 0 0 0 0 -2.1815763392405643 21.180835470369857 0 21.180835470369857 96.457055326666705 0 0 0 0 -32.972664668046491 26.755383630257711 0 26.755383630257711 110.14477695823371 0 0 0 0 -59.368099241286018 -57.246735314536636 0 -57.246735314536636 12.977465146084796 0 0 0 0 11.650578481043794 -26.876958451071914 0 -26.876958451071914 179.02600425113633 0 0 0 0 44.906378758348296 71.777034060678488 0 71.777034060678488 94.16128317406401 0 0 0 0 -18.341220692573188 12.277948007234954 0 12.277948007234954 192.65060742385685 0 0 0 0 -81.372597913706613 37.117483049260045 0 37.117483049260045 296.82712299629929 0 0 0 0 -42.665549272948738 49.694174309144728 0 49.694174309144728 185.26862542939489 0 0 0 0 -18.051433180819458 16.664360235838103 0 16.664360235838103 179.92648418759381 0 0 0 0 15.671271476371885 15.101807192913839 0 15.101807192913839 46.405107103317278 0 0 0 0 -36.099987076064394 19.438562799350166 0 19.438562799350166 47.095409907917201 0 0 0 0 -28.271723452313609 8.7618563485011691 0 8.7618563485011691 43.6321976544059 0 0 0 0 -53.275287011539149 136.2220016829524 0 136.2220016829524 284.20853962056572 0 0 0 0 -45.541259745561092 137.15816898334015 0 137.15816898334015 161.65256870821031 0 0 0 0 4.6665715899881661 22.734502191229694 0 22.734502191229694 -34.878912637504982 0 0 0 0 -67.388327692475286 79.025285759737017 0 79.025285759737017 181.2217374847387 0 0 0 0 -69.79790341694661 85.823813559843984 0 85.823813559843984 262.9244970214786 0 0 0 0 -77.845040276733016 112.02722390255076 0 112.02722390255076 285.54598079976859 0 0 0 0 -52.932140533218444 140.56467129931843 0 140.56467129931843 201.2006161842146 0 0 0 0 -12.377674746377698 4.0399972261352133 0 4.0399972261352133 59.171457412078865 0 0 0 0 -15.258381315687757 39.463252445962269 0 39.463252445962269 26.549084103996648 0 0 0 0 -22.093891061932482 38.341465667914235 0 38.341465667914235 64.697618714315468 0 0 0 0 -6.6693602278121915 11.923258658611879 0 11.923258658611879 47.338779269382258 0 0 0 0 -19.431841248442652 27.376735344834742 0 27.376735344834742 65.959957688190116 0 0 0 0 -22.651923737558683 25.43088018650846 0 25.43088018650846 19.091790992155978 0 0 0 0 -94.716544565775393 1.1618486233965086 0 1.1618486233965086 52.455050454797856 0 0 0 0 -45.003736586751643 90.180508372690383 0 90.180508372690383 -12.006973040624871 0 0 0 0 5.8334141544942213 121.3918174181581 0 121.3918174181581 218.28925351896032 0 0 0 0 14.348138885926346 144.78189155783002 0 144.78189155783002 226.93424417467031 0 0 0 0 -7.4602744772970695 4.0937524247897983 0 4.0937524247897983 28.316495565383775 0 0 0 0 -9.4359532623529958 84.459404205663304 0 84.459404205663304 172.65880060138443 0 0 0 0 -60.336340320320232 122.81164520304446 0 122.81164520304446 284.43484300069395 0 0 0 0 -60.617630506782007 3.4200807764282217 0 3.4200807764282217 221.12407317558973 0 0 0 0 -93.540611072428874 83.793446513620438 0 83.793446513620438 279.18527099458879 0 0 0 0 -64.465175314911903 64.084017608176509 0 64.084017608176509 257.88549808572861 0 0 0 0 -91.10827253219577 41.746482604859921 0 41.746482604859921 229.01604133112323 0 0 0 0 -85.156930239394569 48.85164472107499 0 48.85164472107499 227.95415463202517 0 0 0 0 -157.92312206322458 108.36458596927696 0 108.36458596927696 282.53866759495395 0 0 0 0 -28.073650418670695 217.46497367675329 0 217.46497367675329 333.69753503960965 0 0 0 0 67.995640868217379 148.93781714948273 0 148.93781714948273 227.25389649237331 0 0 0 0 -24.378521630585055 44.750650657733786 0 44.750650657733786 106.12986786075999 0 0 0 0 -10.015288154019785 47.89384263380564 0 47.89384263380564 152.11109998386141 0 0 0 0 25.153011457698994 72.363234619782816 0 72.363234619782816 265.88749748383543 0 0 0 0 -0.49063926673225922 -3.2155154596329254 0 -3.2155154596329254 36.096380505289389 0 0 0 0 -20.683002293267236 32.371670021037062 0 32.371670021037062 239.31229208247532 0 0 0 0 94.62255889113294 148.65820098725089 0 148.65820098725089 -89.370022561699443 0 0 0 0 -21.960283783416614 37.273238297290732 0 37.273238297290732 130.03271731062432 0 0 0 0 -71.793148664859473 -64.961314583633794 0 -64.961314583633794 399.44636538880877 0 0 0 0 -0.60028282297541669 40.283337314606328 0 40.283337314606328 -6.8248986293908729 0 0 0 0 -20.457484820446552 15.071687599542201 0 15.071687599542201 371.13539120164933 0 0 0 0 8.4005977387096209 119.46381001340342 0 119.46381001340342 299.97551077471144 0 0 0 0 -36.395197487940322 -5.3304639453722302 0 -5.3304639453722302 199.08530499523476 0 0 0 0 -112.36898753267087 -33.688421179511352 0 -33.688421179511352 197.07750502469798 0 0 0 0 -54.821448108938057 76.707973487435083 0 76.707973487435083 253.51050430622854 0 0 0 0 18.192746754765153 52.436555445477097 0 52.436555445477097 69.823355008091312 0 0 0 0 24.943310624510559 20.082028373912181 0 20.082028373912181 93.396400324905699 0 0 0 0 17.829442051006431 -25.963514033793132 0 -25.963514033793132 71.558647654542199 0 0 0 0 77.099275316132207 -16.494879590554774 0 -16.494879590554774 91.099048791704263 0 0 0 0 85.56450617145947 19.338198208515678 0 19.338198208515678 72.359110151839559 0 0 0 0 13.381304204433945 7.6344826829081285 0 7.6344826829081285 87.622667551724589 0 0 0 0 -274.09276771402801 133.30179751825199 0 133.30179751825199 366.77555581868728 0 0 0 0 17.777649791993099 270.79437656877417 0 270.79437656877417 307.26581272877957 0 0 0 0 -174.44725049566659 -58.011327609019645 0 -58.011327609019645 118.61158691271703 0 0 0 0 25.621866025421028 -38.864660148555913 0 -38.864660148555913 43.914809140719427 0 0 0 0 -384.69622662289294 -255.79786037047597 0 -255.79786037047597 123.04187106930306 0 0 0 0 -267.64927079484596 -22.972359148938267 0 -22.972359148938267 -289.95650894592109 0 0 0 0 -484.14706056801606 -150.14990969328574 0 -150.14990969328574 463.94962378285709 0 0 0 0 -1082.5212657816955 -1123.0098208344352 0 -1123.0098208344352 0.89597341376065742 0 0 0 0 64.94382509361094 -23.368420275673998 0 -23.368420275673998 152.52147517105186 0 0 0 0 26.979225239662487 -39.035999102508029 0 -39.035999102508029 45.50847652402048 0 0 0 0 77.679011288119455 14.658209427057955 0 14.658209427057955 113.53703319324268 0 0 0 0 45.481854884826475 -22.151432622034918 0 -22.151432622034918 322.02212914716074 0 0 0 0 -39.481909059570171 -26.736529691770556 0 -26.736529691770556 321.81931812804123 0 0 0 0 -37.123620918037886 2.3413983280224784 0 2.3413983280224784 585.10556035387708 0 0 0 0 72.457030145150156 109.73580736839358 0 109.73580736839358 330.93567047890247 0 0 0 0 30.995240018036384 31.607888660346362 0 31.607888660346362 114.77091328412644 0 0 0 0 121.97517833348979 2.0477403779705128 0 2.0477403779705128 91.841319209481298 0 0 0 0 75.878987924999365 -51.800426970892659 0 -51.800426970892659 265.7917863664552 0 0 0 0 67.503842388004159 -83.533455971333751 0 -83.533455971333751 247.38944354255727 0 0 0 0 -3.5507349554227403 33.611662483956025 0 33.611662483956025 149.88000279095286 0 0 0 0 -35.364242224643021 -21.971522214684228 0 -21.971522214684228 86.176130766867573 0 0 0 0 -13.204021097073564 55.215208882145816 0 55.215208882145816 100.11159874584155 0 0 0 0 -24.660139443740263 3.3111071971070487 0 3.3111071971070487 115.12874791795002 0 0 0 0 -8.0320836107505826 17.245393655219186 0 17.245393655219186 63.334532280928329 0 0 0 0 -12.358309545606517 -14.920349674746831 0 -14.920349674746831 61.974824371041905 0 0 0 0 -15.770712853127407 -35.283092223555286 0 -35.283092223555286 48.092324182827724 0 0 0 0 -7.3433874224147075 51.035694330827027 0 51.035694330827027 -62.187919178220909 0 0 0 0 -5.3305646499564538 16.176553165698884 0 16.176553165698884 3.0370591671892697 0 0 0 0 291.86006836767319 -33.926045290241746 0 -33.926045290241746 -49.633387133031647 0 0 0 0 114.82462264999504 417.21210081324534 0 417.21210081324534 356.57277747593798 0 0 0 0 -50.07922771698486 277.59073983707822 0 277.59073983707822 487.12743668736948 0 0 0 0 -5.4654279854398737 -1.3360974633560545 0 -1.3360974633560545 185.80698644151562 0 0 0 0 0.3015531833745797 14.068250576139135 0 14.068250576139135 -14.668749819846568 0 0 0 0 158.15913111933332 85.771282238043568 0 85.771282238043568 -129.85773965023418 0 0 0 0 81.347103737133693 -21.372430471481493 0 -21.372430471481493 -141.51286650471957 0 0 0 0 6.5907411986920579 16.794019394408679 0 16.794019394408679 -125.75215456222213 0 0 0 0 41.469616975957251 -1.5456211678902037 0 -1.5456211678902037 -160.33434771011889 0 0 0 0 19.673152104611745 39.481974871287548 0 39.481974871287548 -136.6765386153711 0 0 0 0 -44.916812813988599 145.44437512165132 0 145.44437512165132 -72.247373867030547 0 0 0 0 -15.769789474839854 98.394328318980115 0 98.394328318980115 -78.461589941587135 0 0 0 0 27.156284796741147 159.57451701932496 0 159.57451701932496 -0.57716592869837768 0 0 0 0 279.15093807425274 244.37078876793385 0 244.37078876793385 25.278005339126139 0 0 0 0 149.46502368928122 53.977368172523711 0 53.977368172523711 64.957949857735002 0 0 0 0 209.92808765918471 112.74712073850424 0 112.74712073850424 -50.150496614271105 0 0 0 0 605.56539416499891 172.99231441203665 0 172.99231441203665 96.013132365580532 0 0 0 0 -104.75411846875545 141.1275559354724 0 141.1275559354724 305.0416645842015 0 0 0 0 156.70989718830333 383.10772073013686 0 383.10772073013686 512.39966751065094 0 0 0 0 -224.26848673581571 41.28298947010353 0 41.28298947010353 290.10169399694041 0 0 0 0 -101.90143042761042 137.4548016283386 0 137.4548016283386 67.455788374372787 0 0 0 0 -214.79574420249264 42.247075859992037 0 42.247075859992037 116.32558429521941 0 0 0 0 1.5527929603153829 26.846127127774455 0 26.846127127774455 95.390092490130044 0 0 0 0 -4.3115941179191566 24.928971042342948 0 24.928971042342948 77.646108371488339 0 0 0 0 -210.20737537918922 245.46534021917387 0 245.46534021917387 103.92460369094988 0 0 0 0 -104.70470513192404 -78.611099691108393 0 -78.611099691108393 798.24124611243315 0 0 0 0 -69.715112886847919 -126.42466948663787 0 -126.42466948663787 756.57260227189545 0 0 0 0 -75.261483029504234 -84.110014518249955 0 -84.110014518249955 722.48853121759021 0 0 0 0 -95.864413974711169 -40.710959873409593 0 -40.710959873409593 677.53294980635837 0 0 0 0 -86.426288754911738 -69.039979925335274 0 -69.039979925335274 660.8933901458222 0 0 0 0 -69.736475502634903 30.40406817170151 0 30.40406817170151 513.54986079541413 0 0 0 0 -81.5287022936227 6.1686957536148839 0 6.1686957536148839 710.53401924064383 0 0 0 0 -73.325946253283519 -8.7699101092366618 0 -8.7699101092366618 692.55357189708593 0 0 0 0 -71.533408028848498 -126.48166841253988 0 -126.48166841253988 1188.59044512541 0 0 0 0 -104.79278291450157 -13.056641323788426 0 -13.056641323788426 908.70225688046776 0 0 0 0 -12.339583330370829 -197.84965582933364 0 -197.84965582933364 972.51857194703189 0 0 0 0 64.764694553761274 -279.01529102436325 0 -279.01529102436325 1025.9401248211943 0 0 0 0 109.39110045592406 -399.56660634225409 0 -399.56660634225409 901.49758807952458 0 0 0 0 -15.647985314113612 -212.67907727370766 0 -212.67907727370766 921.94033653482256 0 0 0 0 36.336781419548402 -200.78757441510243 0 -200.78757441510243 830.31037831757567 0 0 0 0 -80.083560649138775 -134.62964232061495 0 -134.62964232061495 827.52226381203218 0 0 0 0 -2.8153686686152639 -234.22745891316299 0 -234.22745891316299 783.60249323891185 0 0 0 0 301.26810878657636 -313.74193952529458 0 -313.74193952529458 322.58416582473728 0 0 0 0 57.735109977058983 -185.50464442231896 0 -185.50464442231896 731.41849769979308 0 0 0 0 178.50387265139216 -301.23146869013726 0 -301.23146869013726 836.47512229073891 0 0 0 0 20.287873647439255 -226.25904163105588 0 -226.25904163105588 727.97364767826275 0 0 0 0 12.303235944023761 -269.33070875374506 0 -269.33070875374506 576.25713618117152 0 0 0 0 129.32475002586261 -96.793783995482954 0 -96.793783995482954 559.72534233029 0 0 0 0 151.35689104681296 -349.93774567911169 0 -349.93774567911169 838.63707437661651 0 0 0 0 -150.96045310517547 -227.48420034284936 0 -227.48420034284936 984.41436429992609 0 0 0 0 6.0381902924600883 -0.96380737429257124 0 -0.96380737429257124 -5.2320257627848719 0 0 0 0 7.9869800955943901 -25.820884198371459 0 -25.820884198371459 28.881729319873557 0 0 0 0 4.8410012968859597 -15.19251222737995 0 -15.19251222737995 21.529297268538926 0 0 0 0 12.086801780682444 -11.669528334872808 0 -11.669528334872808 -3.484583418831221 0 0 0 0 10.414429039255538 -20.69155866890469 0 -20.69155866890469 37.326204607452382 0 0 0 0 22.09213264706068 -22.000370078232663 0 -22.000370078232663 33.383143099854351 0 0 0 0 70.105528012501225 -131.87731969956076 0 -131.87731969956076 446.6859921017749 0 0 0 0 7.9875453394161013 -28.996365728642559 0 -28.996365728642559 46.034853959747124 0 0 0 0 19.950495295524888 -31.529618668209878 0 -31.529618668209878 37.189632473455276 0 0 0 0 25.173843223580178 -15.811360008323646 0 -15.811360008323646 1.2015947110857468 0 0 0 0 -2.9102013594283136 -5.7897356604406554 0 -5.7897356604406554 5.5064148567165958 0 0 0 0 70.075237806564928 -93.051252220466267 0 -93.051252220466267 583.22290072896067 0 0 0 0 48.061765916645982 -99.508370025811018 0 -99.508370025811018 584.10025968722766 0 0 0 0 23.973556838149236 -17.897458662032804 0 -17.897458662032804 -12.545003958346712 0 0 0 0 -33.409140296503494 -175.84680114227376 0 -175.84680114227376 708.9038764929137 0 0 0 0 -6.1616320294488105 -127.01525452145142 0 -127.01525452145142 589.7722708954243 0 0 0 0 -29.503927570574831 -170.70586116641789 0 -170.70586116641789 692.58426309916831 0 0 0 0 -73.267895599812164 -113.55256018886575 0 -113.55256018886575 742.16641291569977 0 0 0 0 -46.252309455317487 -15.368146348867526 0 -15.368146348867526 718.52087534253951 0 0 0 0 -45.486904537691771 -59.530273129261332 0 -59.530273129261332 690.49298666109826 0 0 0 0 -68.301763675221537 -82.51817249355372 0 -82.51817249355372 722.21597075789759 0 0 0 0 45.200400509716928 -23.649960056704003 0 -23.649960056704003 628.88274925235601 0 0 0 0 17.856420490966229 -73.79355324604694 0 -73.79355324604694 664.25431552232476 0 0 0 0 35.933466590682883 -0.55246113461907953 0 -0.55246113461907953 574.21025514435314 0 0 0 0 -9.4668678826281152 -11.096444309002408 0 -11.096444309002408 11.425667202362952 0 0 0 0 67.136137546203358 -27.01679922099774 0 -27.01679922099774 6.4028001135744574 0 0 0 0 64.292875458245362 -20.446073958963098 0 -20.446073958963098 570.20077623915859 0 0 0 0 -267.52655861268067 -203.91659104812425 0 -203.91659104812425 53.172865226331851 0 0 0 0 114.74898489963925 -37.805480520619312 0 -37.805480520619312 559.66736219380982 0 0 0 0 45.445995926273554 -50.617817885649856 0 -50.617817885649856 578.86878523931955 0 0 0 0 -285.98161598874685 -565.64887421304229 0 -565.64887421304229 -535.65379979407589 0 0 0 0 -113.78418280442384 -485.36533881725336 0 -485.36533881725336 -711.79689204705937 0 0 0 0 219.06777623172854 -571.39871968480293 0 -571.39871968480293 -879.97182760965006 0 0 0 0 41.409407899565515 -15.468001262812223 0 -15.468001262812223 5.2805124584903638 0 0 0 0 116.62136995230139 123.56840024120174 0 123.56840024120174 821.77907089084329 0 0 0 0 8.8258171109337127 109.79677404084941 0 109.79677404084941 869.58362849227706 0 0 0 0 62.553061374198933 83.052722390246345 0 83.052722390246345 712.68176453342312 0 0 0 0 1.5603152812018379 47.881160679680761 0 47.881160679680761 783.21338644788966 0 0 0 0 57.445764928846074 63.093276954430621 0 63.093276954430621 652.41918582314975 0 0 0 0 25.647200815933839 -28.928732312581261 0 -28.928732312581261 28.354688130947892 0 0 0 0 63.801763356274058 148.8385079308141 0 148.8385079308141 605.72073187427304 0 0 0 0 -502.02467381901806 -726.6873005883208 0 -726.6873005883208 -1491.4660849979628 0 0 0 0 -252.23680467473287 -268.18249272472167 0 -268.18249272472167 -827.24531397601697 0 0 0 0 57.295763142626129 -24.651142810394958 0 -24.651142810394958 1564.986870433182 0 0 0 0 109.62666748771244 122.8836336130953 0 122.8836336130953 1015.1120749651891 0 0 0 0 15.191816759871109 -3.2019724894055628 0 -3.2019724894055628 0.36772175721660005 0 0 0 0 620.82771104451967 -1582.9345694416261 0 -1582.9345694416261 -1842.2344719523826 0 0 0 0 243.72793833954165 -422.18700292009453 0 -422.18700292009453 1102.0876908550636 0 0 0 0 359.62383156567194 -419.35536887447233 0 -419.35536887447233 250.5071201466053 0 0 0 0 -1561.4798538575856 561.51441306907873 0 561.51441306907873 645.41657976238639 0 0 0 0 199.52241072502693 -5.9890879198428593 0 -5.9890879198428593 914.28958449388301 0 0 0 0 -4.1392226358238986 311.13541815789358 0 311.13541815789358 469.84400987707704 0 0 0 0 353.3839465344945 -65.348963941913098 0 -65.348963941913098 763.04838455985009 0 0 0 0 335.73174786655727 -77.34694835877599 0 -77.34694835877599 876.86177878962189 0 0 0 0 0.83940335338476046 -1.0607670878529802 0 -1.0607670878529802 3.043880533041829 0 0 0 0 -196.59458471638482 -335.0559971254479 0 -335.0559971254479 36.297334829505417 0 0 0 0 87.604446444679525 184.90056176444341 0 184.90056176444341 375.11128573848691 0 0 0 0 548.19282395534537 663.49746062113991 0 663.49746062113991 776.13125937440236 0 0 0 0 -73.103729164962715 -87.186886508505268 0 -87.186886508505268 677.46794006849814 0 0 0 0 -93.554706187317379 -33.248742778358974 0 -33.248742778358974 780.22136094136658 0 0 0 0 128.62980164633746 92.033253662284551 0 92.033253662284551 801.15902586028824 0 0 0 0 -80.554667599773893 21.143733958218945 0 21.143733958218945 918.92852634143492 0 0 0 0 3.5601235375447686 -35.539575102964136 0 -35.539575102964136 232.81951196731825 0 0 0 0 -178.45529138216807 -200.4605139846899 0 -200.4605139846899 719.61427090648431 0 0 0 0 -9.0479736946635967 -122.28790724498685 0 -122.28790724498685 469.6057351911586 0 0 0 0 -91.252531289420375 -10.528377586343595 0 -10.528377586343595 648.2519763175369 0 0 0 0 -7.4326852353487993 17.270418027597771 0 17.270418027597771 254.10643093301042 0 0 0 0 -34.128323695390463 53.202753710524121 0 53.202753710524121 329.04321984369744 0 0 0 0 -10.962714699152457 69.95260566946672 0 69.95260566946672 124.39526820210449 0 0 0 0 -56.19934477102106 12.563831703271717 0 12.563831703271717 263.27092850996996 0 0 0 0 -51.219824910300304 86.973263635270996 0 86.973263635270996 135.13407794772502 0 0 0 0 4.2713545794970855 40.431562705862234 0 40.431562705862234 111.36459102430672 0 0 0 0 -20.883563281036004 93.363044969250041 0 93.363044969250041 151.6025735509611 0 0 0 0 2.8678572800028519 -4.1571641507130579 0 -4.1571641507130579 6.3434488470794577 0 0 0 0 264.49221312753798 376.42549074066483 0 376.42549074066483 334.48801930972513 0 0 0 0 -255.50087605547787 -85.570287637789079 0 -85.570287637789079 70.775388986177859 0 0 0 0 -56.063420807763464 5.1315777538998191 0 5.1315777538998191 60.67541510197043 0 0 0 0 -178.46032210634803 70.239827975688968 0 70.239827975688968 62.077664332263339 0 0 0 0 -85.011709241268363 99.216402838021168 0 99.216402838021168 111.56586291172971 0 0 0 0 -88.192258588464483 9.1912573543668259 0 9.1912573543668259 131.1681936332534 0 0 0 0 -67.299128249194837 -1.4444681313834735 0 -1.4444681313834735 35.34856236324049 0 0 0 0 -40.922397405157987 51.95249715417782 0 51.95249715417782 21.409344132318829 0 0 0 0 14.400136315330201 51.835014711898111 0 51.835014711898111 -144.36755853350405 0 0 0 0 -80.507653284072859 27.995397125758473 0 27.995397125758473 23.530447096534772 0 0 0 0 -50.572204432078252 82.827409613044438 0 82.827409613044438 99.907000661434722 0 0 0 0 7.7203570325368673 102.09529802601173 0 102.09529802601173 -108.13389834000554 0 0 0 0 -33.949135663292402 51.768407764857983 0 51.768407764857983 20.126683019980078 0 0 0 0 42.109433603537582 24.865887757303426 0 24.865887757303426 80.699442351873586 0 0 0 0 -40.614938779568547 86.909731132780507 0 86.909731132780507 85.329155077648466 0 0 0 0 -24.666281655713419 33.980696193933909 0 33.980696193933909 87.656785869417945 0 0 0 0 -51.761581848232026 44.3191047750297 0 44.3191047750297 125.98494438747002 0 0 0 0 3.3607850910680099 77.83487705434527 0 77.83487705434527 12.192283847864019 0 0 0 0 -73.312885352635476 117.2809337957442 0 117.2809337957442 23.834641631881823 0 0 0 0 0.065855702462158661 65.192116675745638 0 65.192116675745638 36.46202269087371 0 0 0 0 -13.250809991055576 80.415194764223997 0 80.415194764223997 141.80340668423014 0 0 0 0 18.034544965426448 24.106901300074242 0 24.106901300074242 108.59878456318984 0 0 0 0 -28.754541665680335 35.013653776724823 0 35.013653776724823 199.41258235560599 0 0 0 0 9.9644742368623156 3.6332543975295266 0 3.6332543975295266 27.121587608948175 0 0 0 0 -35.425465531347982 53.667151735404332 0 53.667151735404332 113.20939569891198 0 0 0 0 2.848932559565128 95.167596556537319 0 95.167596556537319 -15.321554816022399 0 0 0 0 -62.046451456746581 96.884015643197927 0 96.884015643197927 6.5996186848788057 0 0 0 0 -29.238256770990724 54.546172041607875 0 54.546172041607875 17.196840459972428 0 0 0 0 -23.163445631332706 58.469097791661625 0 58.469097791661625 51.362359023405588 0 0 0 0 -33.253909805650892 101.89425596974797 0 101.89425596974797 6.7357676164829172 0 0 0 0 -68.25474762061549 62.413729066029191 0 62.413729066029191 14.480862891803554 0 0 0 0 -17.508087805832474 66.684308136813343 0 66.684308136813343 14.769706491226316 0 0 0 0 -39.074567522851794 30.388201331217715 0 30.388201331217715 89.331714238840505 0 0 0 0 -8.0687730874169574 41.674274142940703 0 41.674274142940703 -22.192154630614823 0 0 0 0 -42.226406043506358 101.55273821167066 0 101.55273821167066 9.2993292619321437 0 0 0 0 -50.346178543232782 123.91864269828511 0 123.91864269828511 -52.301762548886472 0 0 0 0 -17.459298840137308 163.47910570960084 0 163.47910570960084 -12.00193824575399 0 0 0 0 -3.0167809753768537 -5.7660980726272442 0 -5.7660980726272442 27.37465829630796 0 0 0 0 -13.13941327136672 58.02775907128671 0 58.02775907128671 -73.114760334710809 0 0 0 0 -8.9727075665120992 33.606358757933947 0 33.606358757933947 3.080859373951597 0 0 0 0 -158.6510403666407 -7.3571807536609413 0 -7.3571807536609413 25.098327163446811 0 0 0 0 -202.6228325541606 170.9164243737614 0 170.9164243737614 -49.890474456924494 0 0 0 0 -13.502105465237946 39.235129110777052 0 39.235129110777052 87.586811847744684 0 0 0 0 12.978041236385252 50.022791303352278 0 50.022791303352278 -8.9224374694349535 0 0 0 0 -0.10841686757953539 22.437964655639917 0 22.437964655639917 32.168605271392153 0 0 0 0 238.35743188443894 110.4406390695076 0 110.4406390695076 -180.92942636487714 0 0 0 0 46.277537294683498 -131.08382210294076 0 -131.08382210294076 90.014353249913256 0 0 0 0 -321.43538799957787 14.662166565671214 0 14.662166565671214 220.37564387264138 0 0 0 0 -53.780410769220794 33.15906300286224 0 33.15906300286224 80.396716755669331 0 0 0 0 40.546782770467416 32.20567209021101 0 32.20567209021101 -38.657520575821763 0 0 0 0 -15.789320231739616 24.654231667795528 0 24.654231667795528 9.1216488804409011 0 0 0 0 -49.349954934100197 90.413440415119112 0 90.413440415119112 89.540308625968464 0 0 0 0 -11.638842131060528 112.03474949581141 0 112.03474949581141 258.44806683536444 0 0 0 0 -17.650700951303406 37.361874939822883 0 37.361874939822883 259.87025754072238 0 0 0 0 99.926948249330735 86.455151809226663 0 86.455151809226663 83.38678400326171 0 0 0 0 4.1131357598310387 105.50281762601298 0 105.50281762601298 277.64801275914942 0 0 0 0 -24.405876766438553 178.56993122115091 0 178.56993122115091 586.76228917905246 0 0 0 0 -43.77619991074107 37.675047205390001 0 37.675047205390001 515.44443080071505 0 0 0 0 6.6411851756928399 12.103325162039255 0 12.103325162039255 283.37661093291536 0 0 0 0 203.11619339455478 473.17337755015251 0 473.17337755015251 795.28697562767775 0 0 0 0 19.503727710072781 122.96218895666243 0 122.96218895666243 -108.45966686707834 0 0 0 0 -615.326319663292 -300.51316854117249 0 -300.51316854117249 615.83007407515834 0 0 0 0 -0.011900579565944813 -0.86891775948938133 0 -0.86891775948938133 2.7070601723463028 0 0 0 0 142.07585808954866 157.35634163758914 0 157.35634163758914 165.14574165332306 0 0 0 0 -18.600783443362161 47.16656368214899 0 47.16656368214899 75.825966722724843 0 0 0 0 -18.68336371053465 -8.8123635551746702 0 -8.8123635551746702 159.3348919718976 0 0 0 0 -250.93939693907691 166.0079229633775 0 166.0079229633775 -126.45381020456261 0 0 0 0 -206.82531722561998 239.04451047173643 0 239.04451047173643 -11.890663345722714 0 0 0 0 -1.2295103746087399 2.9345318623159322 0 2.9345318623159322 5.059845262386375 0 0 0 0 -106.54977482153845 181.17165770253632 0 181.17165770253632 -265.68237608957861 0 0 0 0 -2.6493800492893449 2.6295059729957586 0 2.6295059729957586 3.3812424122098079 0 0 0 0 -55.00553077715108 90.612843611233075 0 90.612843611233075 155.45989742074744 0 0 0 0 -8.0430422792523917 24.298866061580895 0 24.298866061580895 -2.9183886791554912 0 0 0 0 56.255567342519953 -9.302198981440597 0 -9.302198981440597 -49.922626389976358 0 0 0 0 -23.369785223489998 39.618080077241757 0 39.618080077241757 58.309903981984462 0 0 0 0 -12.234400154446236 14.466980575192029 0 14.466980575192029 47.553797321560126 0 0 0 0 -12.585478038259586 33.183845572429178 0 33.183845572429178 17.707594025800027 0 0 0 0 -68.656369956956041 143.86971611171612 0 143.86971611171612 -67.316151796851045 0 0 0 0 -4.8435763094183031 4.2718991105034547 0 4.2718991105034547 29.421477439677872 0 0 0 0 1019.5453142191359 871.53429431490804 0 871.53429431490804 351.77546148438705 0 0 0 0 28.419864597938918 15.585436164256947 0 15.585436164256947 9.5706886987148749 0 0 0 0 -234.93494875482247 68.151112826402823 0 68.151112826402823 63.639938405998691 0 0 0 0 -27.376548993228916 23.05566167031057 0 23.05566167031057 6.057115079297887 0 0 0 0 29.648318482175455 1203.4095775883507 0 1203.4095775883507 3952.5748446264624 0 0 0 0 -377.4924185146574 12.024564316532633 0 12.024564316532633 2633.9597633627855 0 0 0 0 -354.91426291221069 1339.0647696882952 0 1339.0647696882952 3991.3266467822104 0 0 0 0 21.174871289464136 1045.730319513721 0 1045.730319513721 3052.418175081184 0 0 0 0 563.04718356557987 1428.2569590845123 0 1428.2569590845123 2093.6134308043765 0 0 0 0 644.00709555481649 1807.9073551337824 0 1807.9073551337824 3845.7290861734655 0 0 0 0 524.85736794788681 552.79642727456667 0 552.79642727456667 3885.2043918614045 0 0 0 0 961.97725327834701 1555.9986002187043 0 1555.9986002187043 2528.4052083275674 0 0 0 0 1159.4791576729763 1601.8034558316522 0 1601.8034558316522 2345.7152834972658 0 0 0 0 155.6435728335282 -30.567561733081675 0 -30.567561733081675 96.355353301216383 0 0 0 0 0.091366224809892316 6.3390810838439311 0 6.3390810838439311 26.877703217313012 0 0 0 0 -35.367347388617191 -454.96790526435234 0 -454.96790526435234 1665.6230787033564 0 0 0 0 156.22790357090798 1078.3375212702413 0 1078.3375212702413 1257.4915372961277 0 0 0 0 421.46590708595068 -83.335423424658075 0 -83.335423424658075 -115.03991169819346 0 0 0 0 -569.52433475680482 942.49839028015776 0 942.49839028015776 3861.5315158512312 0 0 0 0 208.30662409136607 -501.36377672581966 0 -501.36377672581966 668.28304135840153 0 0 0 0 -4.5004048310043139 1.6110810397753426 0 1.6110810397753426 0.4394354245986325 0 0 0 0 -10.672210995208843 127.6698374857915 0 127.6698374857915 -196.66674605992011 0 0 0 0 -77.317519598343097 471.12154267401638 0 471.12154267401638 213.46292761934455 0 0 0 0 -165.91328469655673 250.37558302034449 0 250.37558302034449 821.57099126870889 0 0 0 0 133.19365494049453 121.67189498618245 0 121.67189498618245 -85.99680413970782 0 0 0 0 596.73532485385977 2321.7679647089935 0 2321.7679647089935 4459.2301744865908 0 0 0 0 8.1728584309531698 5.9453058080724333 0 5.9453058080724333 0.42506974328490799 0 0 0 0 331.98182871456902 1830.0140173029286 0 1830.0140173029286 3215.9017785018295 0 0 0 0 471.71965675143474 1795.2635874572807 0 1795.2635874572807 2994.3085733886328 0 0 0 0 -300.75054552405527 993.25976752337738 0 993.25976752337738 3944.0917860530681 0 0 0 0 114.83681928346141 736.60969825452412 0 736.60969825452412 1832.5714919377642 0 0 0 0 625.82409971203447 2605.6342832578666 0 2605.6342832578666 4767.9002165536149 0 0 0 0 51.199790702253267 2369.1049672286244 0 2369.1049672286244 4761.8516200041704 0 0 0 0 -15.865825778523003 -439.48323893856468 0 -439.48323893856468 1501.602345297506 0 0 0 0 -309.33472757382486 -13.875087963549959 0 -13.875087963549959 5116.8292817569309 0 0 0 0 7.2812416901443058 13.525913451892563 0 13.525913451892563 20.876833659448764 0 0 0 0 515.44736375904631 136.72009296483884 0 136.72009296483884 86.778224121502717 0 0 0 0 138.89868100694366 838.74007536150748 0 838.74007536150748 1691.622483359246 0 0 0 0 137.31064761129346 -129.32621092208501 0 -129.32621092208501 1339.6817836598784 0 0 0 0 506.63883065828031 242.07836780081198 0 242.07836780081198 -204.98707000503055 0 0 0 0 -32.951714723164514 713.6629291728168 0 713.6629291728168 933.08931322371791 0 0 0 0 -3.5053955179506264 -10.227054029976422 0 -10.227054029976422 29.166684827088545 0 0 0 0 5.0478437475226201 192.97528007794244 0 192.97528007794244 256.50711514941941 0 0 0 0 -48.50941397974475 -85.220434207229118 0 -85.220434207229118 37.39846905910963 0 0 0 0 -144.53448406967527 12.939246454137901 0 12.939246454137901 1302.3802354312938 0 0 0 0 368.49250757627487 -53.190622322239506 0 -53.190622322239506 -41.052995626916527 0 0 0 0 537.96128733672958 132.9497042070725 0 132.9497042070725 1142.8432149584296 0 0 0 0 45.24177797561606 978.81084722227388 0 978.81084722227388 2766.7143964186071 0 0 0 0 65.032993586112298 336.73439236358081 0 336.73439236358081 1423.5502176395821 0 0 0 0 637.72849159203543 1018.0623004440058 0 1018.0623004440058 1732.3875443687284 0 0 0 0 -3.8847837291596079 112.20190444176114 0 112.20190444176114 229.837658215587 0 0 0 0 7.1292177089453617 50.748285866044171 0 50.748285866044171 174.27030662199104 0 0 0 0 33.953394218047833 89.846125659993049 0 89.846125659993049 171.3149888994667 0 0 0 0 18.064378843109466 79.207406199555408 0 79.207406199555408 106.56154553357919 0 0 0 0 22.103671821223543 36.654997164572706 0 36.654997164572706 114.27039234247059 0 0 0 0 -15.556658361345342 66.838619284675588 0 66.838619284675588 0.77829022588412045 0 0 0 0 -12.468275295770582 75.830208331175527 0 75.830208331175527 110.26266623857373 0 0 0 0 -69.537927089711957 34.861292340792716 0 34.861292340792716 316.99669471086236 0 0 0 0 22.953396535116553 18.1570870927535 0 18.1570870927535 73.49025623525813 0 0 0 0 -17.053507329197455 2.8807752799333031 0 2.8807752799333031 -0.068405757037041326 0 0 0 0 -1.5651353365373684 4.070500015387168 0 4.070500015387168 -0.61615768745090826 0 0 0 0 103.69973314135316 73.961356458253704 0 73.961356458253704 205.27650948193332 0 0 0 0 -36.82557481675758 12.564418089947139 0 12.564418089947139 159.1286194176264 0 0 0 0 1.4943971085303929 43.506374763663189 0 43.506374763663189 78.386094528977992 0 0 0 0 39.239132332350891 26.715906084195012 0 26.715906084195012 230.23431336738577 0 0 0 0 -23.290238086181944 -16.596587302716216 0 -16.596587302716216 204.52624005794132 0 0 0 0 -15.921213051944761 5.2614221630522877 0 5.2614221630522877 0.77237869583390428 0 0 0 0 8.1339510593043087 73.024274130541016 0 73.024274130541016 81.633851281978423 0 0 0 0 -18.406386805997499 45.070690645647119 0 45.070690645647119 245.79021783932694 0 0 0 0 48.551568322405728 95.712990640840871 0 95.712990640840871 261.95225732067047 0 0 0 0 46.065739392326577 123.22878848665277 0 123.22878848665277 234.27992055863433 0 0 0 0 -11.932145468857016 104.80602374917362 0 104.80602374917362 261.76183866105566 0 0 0 0 61.708525867720709 139.44392030987729 0 139.44392030987729 233.94321049233986 0 0 0 0 61.267676457282505 133.71395061116709 0 133.71395061116709 251.5619895081436 0 0 0 0 45.990098233041863 117.32694912097213 0 117.32694912097213 256.99547608029388 0 0 0 0 -12.108014140530837 3.4978464628708537 0 3.4978464628708537 0.47066315815261017 0 0 0 0 -47.509252148641281 58.336129111055925 0 58.336129111055925 118.8828291897953 0 0 0 0 20.850733919802224 109.04484371694707 0 109.04484371694707 331.72041128340788 0 0 0 0 66.616819356246197 142.03722600149194 0 142.03722600149194 284.01794555207016 0 0 0 0 103.42240051614408 108.11424323289975 0 108.11424323289975 282.62073131346551 0 0 0 0 67.27985341251042 27.317248649538669 0 27.317248649538669 338.02414105774369 0 0 0 0 -24.584261072575828 66.10631971352268 0 66.10631971352268 331.75654911320999 0 0 0 0 19.975505038459232 151.77046097636048 0 151.77046097636048 265.23716649130074 0 0 0 0 828.22992325728273 384.42194959176618 0 384.42194959176618 4087.9093786183585 0 0 0 0 1418.3247706136938 2469.952126432825 0 2469.952126432825 4465.3770354110238 0 0 0 0 854.96161416869802 2683.3266856760683 0 2683.3266856760683 1956.1061710920621 0 0 0 0 881.80578589790616 2461.0210377517615 0 2461.0210377517615 -109.2928377801145 0 0 0 0 945.33774071022663 640.62064494339938 0 640.62064494339938 1565.6397967904168 0 0 0 0 185.73405431050014 1472.2438433613734 0 1472.2438433613734 4519.6630990169433 0 0 0 0 13.124152880492598 15.052373458509337 0 15.052373458509337 -4.6582780086169322 0 0 0 0 10.651827782486784 25.156552914022001 0 25.156552914022001 -10.557131658764604 0 0 0 0 13.749231017805869 159.51639741478357 0 159.51639741478357 345.0614846931494 0 0 0 0 403.07216949758936 1117.0108041683015 0 1117.0108041683015 2431.8409484973163 0 0 0 0 122.84061733317003 1082.9320236682179 0 1082.9320236682179 3554.4084990325618 0 0 0 0 483.79095647062468 1196.670119255622 0 1196.670119255622 2674.2193476651664 0 0 0 0 90.576290793120279 110.21321530720525 0 110.21321530720525 221.14716942005907 0 0 0 0 341.04788763496435 1118.8021231843431 0 1118.8021231843431 2437.3021628235765 0 0 0 0 37.098807901661758 1049.5240441592732 0 1049.5240441592732 2352.9559389663846 0 0 0 0 301.20576513359873 837.54457858975093 0 837.54457858975093 2491.1150673842021 0 0 0 0 -92.119881025893392 286.7070210539714 0 286.7070210539714 1206.8702984743254 0 0 0 0 522.37303218384091 792.1407138727468 0 792.1407138727468 1265.5712361360675 0 0 0 0 619.16108756511983 534.34497271864757 0 534.34497271864757 1690.9843480975687 0 0 0 0 460.81790822962574 -217.15650195962371 0 -217.15650195962371 13.992480171862553 0 0 0 0 3.6157151424490293 -5.310073399602544 0 -5.310073399602544 8.0946061429786909 0 0 0 0 967.29832760355794 422.39787462068853 0 422.39787462068853 -918.216004803131 0 0 0 0 333.9266071978688 -392.13312135193337 0 -392.13312135193337 132.57267783657153 0 0 0 0 423.83514217793152 -201.96788935768745 0 -201.96788935768745 214.88307066982088 0 0 0 0 149.51280866918023 -261.60293942467251 0 -261.60293942467251 458.38077645000158 0 0 0 0 113.23219670888267 -459.62336184417654 0 -459.62336184417654 450.91698912204447 0 0 0 0 -106.27118125788593 -67.38022376335357 0 -67.38022376335357 1473.368551216714 0 0 0 0 -297.44322686448163 -959.22836111362631 0 -959.22836111362631 2102.1493848557438 0 0 0 0 -768.40728065272333 -326.23510477531818 0 -326.23510477531818 3499.2182817711619 0 0 0 0 -654.05189453316439 284.76293828798407 0 284.76293828798407 1977.6803861047556 0 0 0 0 -115.90284156203643 -218.68855013648249 0 -218.68855013648249 1651.5236611670771 0 0 0 0 -114.16855744654913 418.42420472694539 0 418.42420472694539 598.83055382002385 0 0 0 0 5.8816719044306502 -56.338169522025964 0 -56.338169522025964 1168.0933830276081 0 0 0 0 7.8121515868660563 -11.27969027229166 0 -11.27969027229166 15.281239550239491 0 0 0 0 -623.02310049752361 538.50849564807277 0 538.50849564807277 3495.1272943336298 0 0 0 0 386.99836716548799 1365.457476114203 0 1365.457476114203 1604.5885523974976 0 0 0 0 792.36176902901366 464.58700033662535 0 464.58700033662535 1959.2432843750694 0 0 0 0 3.6392457903432707 -5.7577658401597489 0 -5.7577658401597489 8.7654013738009553 0 0 0 0 293.06933903234585 685.8383788851479 0 685.8383788851479 524.31425997319457 0 0 0 0 377.89334318270426 -477.50407039134916 0 -477.50407039134916 212.47196157404323 0 0 0 0 -223.96583202316106 -105.28554157142207 0 -105.28554157142207 16.23559103057778 0 0 0 0 6.6003497276566243 26.821724248656864 0 26.821724248656864 57.185254358107244 0 0 0 0 12.598500001893905 0.18352547227874538 0 0.18352547227874538 10.475100133676015 0 0 0 0 -273.8404883138046 -48.991277061810251 0 -48.991277061810251 61.862255322637793 0 0 0 0 -11.136564850417471 -177.9373039336424 0 -177.9373039336424 38.266274808815069 0 0 0 0 46.35098923896372 67.166401354496884 0 67.166401354496884 2.5640107399085537 0 0 0 0 95.320842600798187 167.19380358181161 0 167.19380358181161 96.688418722827919 0 0 0 0 105.06156144962461 60.352433667733749 0 60.352433667733749 -223.53569902809977 0 0 0 0 -106.53871566605085 106.16700837053941 0 106.16700837053941 200.91360130728572 0 0 0 0 -3.2834728539078348 -3.6850402759679 0 -3.6850402759679 28.642971180821064 0 0 0 0 -88.610598434096119 7.2855715243986197 0 7.2855715243986197 50.116623731461004 0 0 0 0 -125.73247703309698 71.976363030353241 0 71.976363030353241 200.03765384826693 0 0 0 0 -9.6593195318928338 55.095373871154152 0 55.095373871154152 -4.741533687338233 0 0 0 0 -117.52319936405729 -259.31208639479883 0 -259.31208639479883 -113.21638313545554 0 0 0 0 224.77213814472452 -344.10096515536134 0 -344.10096515536134 -153.13215883499106 0 0 0 0 26.625763913857554 72.30289290935616 0 72.30289290935616 2.2556069136917358 0 0 0 0 9.4699849446648425 24.46343421828773 0 24.46343421828773 50.753017708469741 0 0 0 0 -165.41245733953474 245.29453131926857 0 245.29453131926857 -23.605910758604296 0 0 0 0 -1186.5187619994374 872.15482990371675 0 872.15482990371675 -182.77801817939326 0 0 0 0 94.096800126953895 390.54941063401202 0 390.54941063401202 57.216358912332907 0 0 0 0 -69.227048863057917 91.352650971499315 0 91.352650971499315 -336.1210589762195 0 0 0 0 -1394.7550820320939 653.80315830875952 0 653.80315830875952 206.16814703249111 0 0 0 0 -1129.9583513185225 -310.16141759297716 0 -310.16141759297716 1055.3589268462601 0 0 0 0 -877.01386186209095 -56.293521620871616 0 -56.293521620871616 560.64790950508177 0 0 0 0 -337.70481207617422 -217.54343327194874 0 -217.54343327194874 178.68490269302856 0 0 0 0 -358.78619292856882 -189.45534188480997 0 -189.45534188480997 396.18827370664076 0 0 0 0 -75.663171374811213 -515.16674451296058 0 -515.16674451296058 283.21150386691806 0 0 0 0 -264.72364794180021 84.296283902356663 0 84.296283902356663 124.26952178007923 0 0 0 0 154.35972234242945 49.427596536785131 0 49.427596536785131 49.491806590580381 0 0 0 0 -1245.939720439168 -59.61120041628601 0 -59.61120041628601 -84.642231972145964 0 0 0 0 -6.0150417585877136 11.571502079260938 0 11.571502079260938 21.876458608909232 0 0 0 0 0.75913528488054283 10.522389730297519 0 10.522389730297519 49.301976258566768 0 0 0 0 -7.1095816868582915 11.454190426476998 0 11.454190426476998 23.15625372575596 0 0 0 0 10.399214485479694 21.540198540689971 0 21.540198540689971 64.152134112814849 0 0 0 0 -562.15206895224492 -392.03676123227342 0 -392.03676123227342 68.919380899722455 0 0 0 0 2.2306939662480167 26.330978960555989 0 26.330978960555989 42.687234453513014 0 0 0 0 -957.93285793544919 248.25250054015487 0 248.25250054015487 -287.02275844082033 0 0 0 0 -854.54296766929428 388.61593845474272 0 388.61593845474272 -256.77586681958928 0 0 0 0 -1026.9455546294196 273.14584389077208 0 273.14584389077208 -75.636508337323903 0 0 0 0 -1045.5987373568046 175.32143379814806 0 175.32143379814806 -207.94935539244034 0 0 0 0 -978.05736370430122 307.38795904842846 0 307.38795904842846 -232.9067747767549 0 0 0 0 -1005.9598881901004 452.9161245617579 0 452.9161245617579 -137.99977750227845 0 0 0 0 -1402.0495669953566 363.8278264424298 0 363.8278264424298 -97.542370392642624 0 0 0 0 -733.78017183751149 -82.880409234887338 0 -82.880409234887338 379.40846115664681 0 0 0 0 -546.25416478114528 -79.539489851866165 0 -79.539489851866165 157.08803783175244 0 0 0 0 -507.68571929049767 623.27925987804338 0 623.27925987804338 -91.160691173630767 0 0 0 0 -299.69284117108759 13.098955405918787 0 13.098955405918787 67.854669167580141 0 0 0 0 -419.03434607047359 -116.47642547129271 0 -116.47642547129271 427.6877924637156 0 0 0 0 -205.54421460711092 -474.67744529792981 0 -474.67744529792981 245.31809306902505 0 0 0 0 26.148442657096624 -173.27135171138207 0 -173.27135171138207 612.63442706281785 0 0 0 0 -327.55721436351519 -418.64873141230055 0 -418.64873141230055 455.57751449561783 0 0 0 0 -280.69761326617373 -136.43527635715509 0 -136.43527635715509 348.25368417143545 0 0 0 0 76.393838674333409 -1065.1995890786566 0 -1065.1995890786566 1154.0029015229193 0 0 0 0 242.46629001483549 -1534.6128978892248 0 -1534.6128978892248 3500.7021342936787 0 0 0 0 -216.46979351383663 -736.39021892708479 0 -736.39021892708479 2116.1884704931435 0 0 0 0 -119.45892059092591 -552.8863561233884 0 -552.8863561233884 -164.35127923678374 0 0 0 0 161.56054473034496 -827.96539808521629 0 -827.96539808521629 4093.0091157630886 0 0 0 0 14.136370481285212 -271.7220199538715 0 -271.7220199538715 -369.43930471766362 0 0 0 0 4.1873163354310199 -4.8359808319387412 0 -4.8359808319387412 1.5866919855523918 0 0 0 0 -230.51015387969608 -213.94238871388916 0 -213.94238871388916 -130.83606623308879 0 0 0 0 -94.919845209591585 -67.24929443817382 0 -67.24929443817382 -122.76034605838186 0 0 0 0 -150.28721902809411 -92.653721727456286 0 -92.653721727456286 4.6149192005541408 0 0 0 0 146.76652136179476 -670.74379047696948 0 -670.74379047696948 3518.0715750394156 0 0 0 0 -2.0611764737868725 22.871445401400706 0 22.871445401400706 91.033159398648422 0 0 0 0 25.003287148898835 -11.420320785819058 0 -11.420320785819058 41.113826743880054 0 0 0 0 7.4002660332125743 40.217778424739663 0 40.217778424739663 -34.753968395205447 0 0 0 0 6.9993717893576104 35.879232480852806 0 35.879232480852806 56.031176273172605 0 0 0 0 -35.848979852788034 -7.4501100910347304 0 -7.4501100910347304 65.118993904827221 0 0 0 0 28.006037723988811 -11.732762740299222 0 -11.732762740299222 -8.249036983379483 0 0 0 0 -343.37746217083463 -190.86082134307253 0 -190.86082134307253 98.60338479289203 0 0 0 0 465.22544100261717 352.55322628485737 0 352.55322628485737 466.47013612728915 0 0 0 0 312.4434479266572 -195.85707459506375 0 -195.85707459506375 -163.00529499307595 0 0 0 0 692.42499056255269 533.19305087800967 0 533.19305087800967 217.75337985630904 0 0 0 0 12.963617999819128 -13.061225732237915 0 -13.061225732237915 -2.4827503599339096 0 0 0 0 -4.9682100600792785 13.879834419855641 0 13.879834419855641 39.86861810910824 0 0 0 0 22.521200470550866 -11.459350147611076 0 -11.459350147611076 76.240583025712112 0 0 0 0 808.5782907852489 612.37638745463846 0 612.37638745463846 316.33297984890669 0 0 0 0 6.4834299562862725 4.9035486221982865 0 4.9035486221982865 96.088500260579167 0 0 0 0 1024.7981304437303 1240.7131793052868 0 1240.7131793052868 1305.4550783497107 0 0 0 0 489.02302149215683 1802.3764034883498 0 1802.3764034883498 4074.3447939051312 0 0 0 0 -379.81674742230126 1021.5090435237107 0 1021.5090435237107 3502.8372427386421 0 0 0 0 576.59136017309879 1336.5453302113237 0 1336.5453302113237 1556.4464149077248 0 0 0 0 -391.44991700381712 297.05190071247125 0 297.05190071247125 1935.3174743289419 0 0 0 0 -351.81749298634907 162.4090983082915 0 162.4090983082915 2167.1047339330835 0 0 0 0 32.990240997455828 728.94472442958795 0 728.94472442958795 1412.0208582129053 0 0 0 0 136.81947289936238 149.70134139876609 0 149.70134139876609 869.98351806878782 0 0 0 0 408.69429802487929 917.40951009717537 0 917.40951009717537 1771.1087795216336 0 0 0 0 274.57102936834667 335.16365341007804 0 335.16365341007804 720.06560944778903 0 0 0 0 393.39298629514496 417.56145677120367 0 417.56145677120367 626.88967288187268 0 0 0 0 417.48506126523216 -11.820851458091056 0 -11.820851458091056 18.336006746620114 0 0 0 0 419.81131949606925 13.008191671480745 0 13.008191671480745 -318.52084903747891 0 0 0 0 -4.0674993806942439 -21.454143789327645 0 -21.454143789327645 -8.7029708946756728 0 0 0 0 10.508110397867341 -1.1231607714553178 0 -1.1231607714553178 -1.7636188973513036 0 0 0 0 -50.352120489877393 -226.62375661439 0 -226.62375661439 150.52042469436856 0 0 0 0 -196.76147146582696 406.81727477133245 0 406.81727477133245 763.90219524398344 0 0 0 0 4.0974463373796599 0.3367273191593938 0 0.3367273191593938 0.38668821907013751 0 0 0 0 223.84669607435245 354.13342602774719 0 354.13342602774719 394.05027086597693 0 0 0 0 153.58125469032393 301.27110159995482 0 301.27110159995482 -372.16212142916629 0 0 0 0 -19.335437649061532 73.733648322639056 0 73.733648322639056 104.30407199408 0 0 0 0 -38.970060983699568 -8.4768357521606958 0 -8.4768357521606958 143.50046346002273 0 0 0 0 7.5895160506550852 3.6835875983274917 0 3.6835875983274917 1.2780482897474741 0 0 0 0 70.231442540551143 3.1760404330052552 0 3.1760404330052552 90.318198782901163 0 0 0 0 -55.506177809869769 -37.87082309777179 0 -37.87082309777179 432.06118486309788 0 0 0 0 138.445722143701 41.35877383906336 0 41.35877383906336 -294.81270736323495 0 0 0 0 3.8137102417717834 0.29296523299110788 0 0.29296523299110788 -0.18823133564551142 0 0 0 0 -50.025994306203756 -193.49276387655118 0 -193.49276387655118 -224.56063005562464 0 0 0 0 -88.4966826322011 88.48096115388762 0 88.48096115388762 -22.8016572730794 0 0 0 0 -89.982512436303296 83.839863446941308 0 83.839863446941308 -32.548548934690189 0 0 0 0 -80.584593049803061 75.609168260576553 0 75.609168260576553 -6.9286375292576849 0 0 0 0 -69.655189022641935 86.449035692850885 0 86.449035692850885 28.261114878904664 0 0 0 0 28.888112022662881 3.2441415312714525 0 3.2441415312714525 19.909773496137859 0 0 0 0 -33.843455240191361 77.537450152383826 0 77.537450152383826 -31.27302873354347 0 0 0 0 -566.11249291263277 -253.07527264844248 0 -253.07527264844248 -36.974996703062061 0 0 0 0 180.40263420331144 154.67526780847402 0 154.67526780847402 616.79197678319906 0 0 0 0 148.57689352666833 233.08133332504076 0 233.08133332504076 600.2128719137836 0 0 0 0 -69.583536410005763 85.948581542121246 0 85.948581542121246 -33.173126418183529 0 0 0 0 682.33534268966514 648.25639691931428 0 648.25639691931428 227.1405133471344 0 0 0 0 -34.794676481044277 -49.472710483219998 0 -49.472710483219998 222.70918206927962 0 0 0 0 6.7519741192798355 5.0590798306256772 0 5.0590798306256772 2.4899627196823531 0 0 0 0 -89.559443861123782 77.255219728132943 0 77.255219728132943 -21.039567804747094 0 0 0 0 -227.17809789191548 -58.312035133170639 0 -58.312035133170639 661.46547198768531 0 0 0 0 -209.98758059681452 -92.633987406021333 0 -92.633987406021333 636.14234780800325 0 0 0 0 -224.93621897922304 -33.617778972497945 0 -33.617778972497945 748.66681764238456 0 0 0 0 115.55723124852749 362.63140677145066 0 362.63140677145066 804.4619310447888 0 0 0 0 118.59304645302211 115.92779193008028 0 115.92779193008028 798.95184782768047 0 0 0 0 168.16192925238846 -156.05927902161056 0 -156.05927902161056 1157.8407667970605 0 0 0 0 -644.6890410734535 -510.60223262055297 0 -510.60223262055297 3491.2519774161919 0 0 0 0 47.028370290509798 -732.36784812406859 0 -732.36784812406859 -588.90668014327821 0 0 0 0 2.8199643282349083 -1.0683962298768677 0 -1.0683962298768677 14.816340762144989 0 0 0 0 19.680303611733247 -912.3290099546939 0 -912.3290099546939 1640.4149627311999 0 0 0 0 -434.77276603658675 -381.88155853898206 0 -381.88155853898206 59.769198132125894 0 0 0 0 49.176652904125966 415.50173656633706 0 415.50173656633706 3498.3313942255136 0 0 0 0 -26.320322199891574 -23.767484373609889 0 -23.767484373609889 21.595956083850098 0 0 0 0 25.651616204239687 212.81243313409141 0 212.81243313409141 3075.0272220702027 0 0 0 0 74.630972532730084 13.068287718080683 0 13.068287718080683 153.14855100158456 0 0 0 0 -58.335620268218037 -434.43336649134289 0 -434.43336649134289 3499.6126464983754 0 0 0 0 -58.636705113272001 96.882355055073276 0 96.882355055073276 225.99539509319584 0 0 0 0 -24.031324902915287 -30.275576453342381 0 -30.275576453342381 30.662059728208149 0 0 0 0 30.045203570461609 22.485645641141247 0 22.485645641141247 14.753288312816125 0 0 0 0 -1.7348034264893357 -203.95970542793748 0 -203.95970542793748 1.9578649904506165 0 0 0 0 -300.26345124367128 179.5238229944589 0 179.5238229944589 803.58285199546663 0 0 0 0 -165.46438974506668 170.79597142476996 0 170.79597142476996 435.0212395356466 0 0 0 0 7.9945122690018797 3.3685555657193902 0 3.3685555657193902 3.7454561604156567 0 0 0 0 497.82511952330441 107.81225016700773 0 107.81225016700773 -540.76427062462608 0 0 0 0 81.304020146824442 -376.93977707652084 0 -376.93977707652084 3500.1551229008983 0 0 0 0 43.67498306639888 232.268727900876 0 232.268727900876 592.26026157765591 0 0 0 0 -283.35783340356375 -58.64202888271393 0 -58.64202888271393 119.20699158526259 0 0 0 0 25.313478592308229 105.80713181823103 0 105.80713181823103 165.53578818569076 0 0 0 0 -150.43506360786887 -41.400778007315239 0 -41.400778007315239 303.80040071321127 0 0 0 0 9.1270803865054226 -394.55211442706059 0 -394.55211442706059 3518.9235977752542 0 0 0 0 89.799772391388615 129.57618769763212 0 129.57618769763212 -9.3741578692061012 0 0 0 0 -34.902889450217117 235.7445307191374 0 235.7445307191374 -72.544350339783705 0 0 0 0 20.829595615697215 12.372191725740805 0 12.372191725740805 5.5534571054987367 0 0 0 0 -105.89318441737453 68.779895382165705 0 68.779895382165705 371.39601800677337 0 0 0 0 -5.8991302036654361 -70.090105364091869 0 -70.090105364091869 287.34924011914336 0 0 0 0 -166.36669120037413 18.752642231360369 0 18.752642231360369 141.79033448988775 0 0 0 0 -10.768953245960944 -27.170770441347429 0 -27.170770441347429 54.767514637677152 0 0 0 0 -112.73267735838544 -73.892403912920713 0 -73.892403912920713 71.26058548749279 0 0 0 0 -5.2784013765521811 2.3614801762763591 0 2.3614801762763591 11.872322613344153 0 0 0 0 236.560048846477 202.51153825138317 0 202.51153825138317 -54.177190867674653 0 0 0 0 795.76363425392628 1347.632927556202 0 1347.632927556202 974.22093992221198 0 0 0 0 -135.34762885946873 208.09529572147585 0 208.09529572147585 315.47557659283848 0 0 0 0 -93.137807439341827 170.73304725487833 0 170.73304725487833 402.81039498751488 0 0 0 0 -83.53596383464739 102.09708101513388 0 102.09708101513388 305.05598666776496 0 0 0 0 -93.985015601698422 184.4665307738419 0 184.4665307738419 269.87312865849526 0 0 0 0 -58.611737829573357 132.85627662819024 0 132.85627662819024 187.49674387856794 0 0 0 0 -18.125995726892242 24.962953396749072 0 24.962953396749072 81.408291939005721 0 0 0 0 -30.465549857783259 28.149857106196578 0 28.149857106196578 80.986457807972329 0 0 0 0 -17.485356162598009 28.030094783229288 0 28.030094783229288 40.659333638537646 0 0 0 0 39.622028074218065 -6.6079680911170726 0 -6.6079680911170726 50.527659441984724 0 0 0 0 -20.247810397742796 0.18066974219982512 0 0.18066974219982512 234.70024057829869 0 0 0 0 -65.958064218990557 6.9777636407816317 0 6.9777636407816317 454.87739922839319 0 0 0 0 -77.528825840398895 68.033787950880651 0 68.033787950880651 202.39458434467087 0 0 0 0 266.91082938210843 62.661529498836899 0 62.661529498836899 -2.3576107404660434 0 0 0 0 21.701038815200491 -202.0035902413656 0 -202.0035902413656 496.98634803900131 0 0 0 0 3.8309538290147396 4.8067933961838278 0 4.8067933961838278 3.391969003616623 0 0 0 0 45.128329447694341 -64.304296507114486 0 -64.304296507114486 213.41657619334001 0 0 0 0 136.70215961341987 130.45812612515897 0 130.45812612515897 26.962321496073855 0 0 0 0 140.19521299409234 -5.9626868107297923 0 -5.9626868107297923 -38.134415883556358 0 0 0 0 297.23785601140264 170.31475072636385 0 170.31475072636385 23.363404710311443 0 0 0 0 -90.666377980214065 81.798570978240605 0 81.798570978240605 -28.829565789390472 0 0 0 0 2.5511535517646178 2.2074501264848294 0 2.2074501264848294 1.6086190132722322 0 0 0 0 -69.362340130768871 226.45245930789315 0 226.45245930789315 -243.31108542723814 0 0 0 0 -326.59305411979415 -109.74794194441347 0 -109.74794194441347 1051.361584871207 0 0 0 0 -100.21791475234886 256.13697314959427 0 256.13697314959427 172.66053060190461 0 0 0 0 -59.773563087593864 117.51043622360248 0 117.51043622360248 20.349164511397248 0 0 0 0 -115.48493797923425 73.218872603716591 0 73.218872603716591 31.922593547045835 0 0 0 0 -38.306760529115962 51.566522790417366 0 51.566522790417366 11.138374089176068 0 0 0 0 -77.919958364391505 41.667336687340139 0 41.667336687340139 52.441042134771124 0 0 0 0 -115.63720563496793 79.244013431401982 0 79.244013431401982 -24.339769501864794 0 0 0 0 -95.816856837624073 87.322029890812701 0 87.322029890812701 -27.996093428104359 0 0 0 0 -92.249105528024415 75.491650550433405 0 75.491650550433405 -32.593842139118351 0 0 0 0 -22.009477738993262 -3.0581134396976069 0 -3.0581134396976069 3.3489292823794443 0 0 0 0 -87.286198285046567 41.647464342317107 0 41.647464342317107 -15.861774707474979 0 0 0 0 -56.462126321152027 49.121531968376075 0 49.121531968376075 -38.419032482956027 0 0 0 0 -5.453044424567647 -2.8042511259837966 0 -2.8042511259837966 7.3325551263744586 0 0 0 0 -31.539854522922894 42.582192939640663 0 42.582192939640663 -46.145453278848436 0 0 0 0 -21.864217283007797 9.4211411066171422 0 9.4211411066171422 24.381700533966068 0 0 0 0 11.452666283074258 32.188502193017271 0 32.188502193017271 53.782124222308795 0 0 0 0 -107.03092883074498 -114.22019500829992 0 -114.22019500829992 101.73597747046733 0 0 0 0 -294.61157459255446 87.600083061792247 0 87.600083061792247 107.85305220714508 0 0 0 0 -68.124124902936728 81.847538028264353 0 81.847538028264353 33.280910870598746 0 0 0 0 -331.57484497866426 -93.117558748694137 0 -93.117558748694137 156.59605873435066 0 0 0 0 241.36834862839714 -191.12590064802498 0 -191.12590064802498 8.5850113452761434 0 0 0 0 -5.6582172080343298 -78.241273519295646 0 -78.241273519295646 5.4113126146403374 0 0 0 0 53.921680349588797 71.218115455658108 0 71.218115455658108 50.951833003433421 0 0 0 0 50.23214019410706 13.257594061973123 0 13.257594061973123 -23.783479461271781 0 0 0 0 -48.599111868763885 -0.49251642543822527 0 -0.49251642543822527 0.21081043908634456 0 0 0 0 -60.523659595890649 65.520694256307252 0 65.520694256307252 -31.469906432786956 0 0 0 0 5.9294790602736054 12.943036666974507 0 12.943036666974507 7.4713107326146826 0 0 0 0 -23.469731008602594 29.380370706214308 0 29.380370706214308 -19.481465148972347 0 0 0 0 -5.2631544589580699 2.6060073498665588 0 2.6060073498665588 6.4481693506822921 0 0 0 0 -20.375954009370616 35.803146115445998 0 35.803146115445998 13.448144979542121 0 0 0 0 -2.9313957308457028 13.102602957917327 0 13.102602957917327 10.50531378711996 0 0 0 0 -5.0762176458493116 16.671875379921403 0 16.671875379921403 11.940801930461021 0 0 0 0 11.454186235492916 12.741922042229859 0 12.741922042229859 -13.931923500940485 0 0 0 0 -49.08297094140471 34.72894476246438 0 34.72894476246438 -4.7804911343555432 0 0 0 0 25.294526561798378 -2.8659508518649091 0 -2.8659508518649091 20.540793330335873 0 0 0 0 12.089276946995938 17.018866445047024 0 17.018866445047024 -8.9318031982547836 0 0 0 0 -28.863960514197871 7.3652606840244772 0 7.3652606840244772 35.6784687615704 0 0 0 0 -23.787572459072408 43.98653631201887 0 43.98653631201887 15.780816974187474 0 0 0 0 1.9805330623318507 3.9462356800917888 0 3.9462356800917888 6.8241436626525882 0 0 0 0 -0.26823541776730053 17.358676351010217 0 17.358676351010217 44.557490759485518 0 0 0 0 -12.698027328883324 37.673659636873339 0 37.673659636873339 37.10773887373756 0 0 0 0 178.31639511505927 -183.73483129317538 0 -183.73483129317538 -170.07814285221684 0 0 0 0 32.043223653205359 75.601883683859342 0 75.601883683859342 150.55463149888237 0 0 0 0 -193.2273070786033 69.149805225684759 0 69.149805225684759 333.6466858794447 0 0 0 0 -9.777236021425324 70.465573843357561 0 70.465573843357561 187.49030606976885 0 0 0 0 323.9441462492947 68.391153278702404 0 68.391153278702404 -221.8253470758209 0 0 0 0 4.2235694100390502 24.355553719978218 0 24.355553719978218 -11.447297964716043 0 0 0 0 -7.0235269017595332 7.3772553194457089 0 7.3772553194457089 15.427022333585654 0 0 0 0 10.262730594558889 5.9444398416380864 0 5.9444398416380864 -17.9539318701909 0 0 0 0 33.88326428397886 -5.1385993587318808 0 -5.1385993587318808 -15.305077735669329 0 0 0 0 204.92838686167298 128.85587072233466 0 128.85587072233466 858.62072991576861 0 0 0 0 -330.96562900874011 115.87668972846222 0 115.87668972846222 891.93288535425381 0 0 0 0 78.465089480980964 273.45862165407743 0 273.45862165407743 546.69462003192166 0 0 0 0 222.18695983275273 312.37709519323835 0 312.37709519323835 -34.629598303130479 0 0 0 0 -224.94323739853979 55.314685234581702 0 55.314685234581702 1867.411622133528 0 0 0 0 44.102348263132498 271.5132462914338 0 271.5132462914338 488.58201826867298 0 0 0 0 218.44270630603933 -678.69167980772181 0 -678.69167980772181 1262.5286690922876 0 0 0 0 174.03308249358452 275.09798830309046 0 275.09798830309046 488.00793488575437 0 0 0 0 383.83451077223481 -151.97518330987077 0 -151.97518330987077 750.93192260154319 0 0 0 0 54.266879471091102 -77.91975135076791 0 -77.91975135076791 149.87454373475339 0 0 0 0 -3.1023927675321517 -1.8861439310769583 0 -1.8861439310769583 6.0835523013684849 0 0 0 0 -417.14884770187399 852.76481105745188 0 852.76481105745188 3203.3082402110376 0 0 0 0 382.99466007277817 839.05031952429272 0 839.05031952429272 1716.6052070642063 0 0 0 0 558.30005239196089 799.53345632861965 0 799.53345632861965 347.20821158721537 0 0 0 0 -40.64265517455533 -252.44720083657739 0 -252.44720083657739 189.77319866117614 0 0 0 0 87.437881622941177 -1023.8393994117923 0 -1023.8393994117923 2639.9430915013363 0 0 0 0 -445.24109253835013 787.02282533657126 0 787.02282533657126 3494.2297083522499 0 0 0 0 8.2679980940582496 11.356361010736173 0 11.356361010736173 20.913020720006358 0 0 0 0 -103.94518970032703 1228.8946490102062 0 1228.8946490102062 3375.8754841601258 0 0 0 0 -160.56664161711637 894.04257172987491 0 894.04257172987491 2109.1531945881688 0 0 0 0 -198.58735056776072 -92.320180720242206 0 -92.320180720242206 1307.2295206287235 0 0 0 0 -189.3703903512295 352.53441928187385 0 352.53441928187385 2528.3530339392855 0 0 0 0 -252.2577848890017 771.23440551513886 0 771.23440551513886 2590.6576395578522 0 0 0 0 6.1092821845204526 1157.3018979854387 0 1157.3018979854387 2989.3063199069911 0 0 0 0 1652.5183055324997 1841.6761250103227 0 1841.6761250103227 3492.5418448189703 0 0 0 0 48.021343733907088 209.76805810390215 0 209.76805810390215 2613.7051459083923 0 0 0 0 640.83187902237455 698.90043421168593 0 698.90043421168593 3174.0847832740837 0 0 0 0 1001.0681319022642 1183.8961804332212 0 1183.8961804332212 3372.9309783238423 0 0 0 0 118.77505781744367 1366.9222371723081 0 1366.9222371723081 4912.8906145952933 0 0 0 0 -632.02070277980147 374.57355540169374 0 374.57355540169374 3702.8375358359735 0 0 0 0 537.6023643846961 1335.570390954761 0 1335.570390954761 4298.5467877480987 0 0 0 0 593.19728339565609 1342.9177907424237 0 1342.9177907424237 3572.9116997734527 0 0 0 0 -2.2589626139662276 -3.1233481297345662 0 -3.1233481297345662 16.681168092887617 0 0 0 0 -606.42746142231135 -493.07272176015977 0 -493.07272176015977 799.27120599430054 0 0 0 0 596.04079229390936 1858.9853393976355 0 1858.9853393976355 4064.7317503217782 0 0 0 0 -0.71733227935365385 0.7066719720824608 0 0.7066719720824608 1.3392907371138563 0 0 0 0 302.68227995696225 309.87807925581365 0 309.87807925581365 1753.4105995146892 0 0 0 0 685.6449918470762 1212.4531993738383 0 1212.4531993738383 3615.9231515304127 0 0 0 0 -629.0077359537745 -325.60203340133012 0 -325.60203340133012 3042.6864091840143 0 0 0 0 29.274596768454103 219.19232932535488 0 219.19232932535488 -333.48419477897551 0 0 0 0 -14.818614057976902 206.33448639944254 0 206.33448639944254 -169.92758836573921 0 0 0 0 23.25065221661589 134.66120726428926 0 134.66120726428926 -161.71498769450136 0 0 0 0 -29.898570005648253 149.42629486936494 0 149.42629486936494 -68.241273350999109 0 0 0 0 14.596648543352785 164.56272862773767 0 164.56272862773767 -162.68380727609474 0 0 0 0 -4.966328823396907 146.3244178766472 0 146.3244178766472 -25.647917544192751 0 0 0 0 -102.23605732617716 191.44208592817631 0 191.44208592817631 13.142741500967531 0 0 0 0 19.106827749474178 191.23985847349104 0 191.23985847349104 -154.1588354084306 0 0 0 0 -12.560173547764862 53.582615339517361 0 53.582615339517361 144.62188129934657 0 0 0 0 15.16299021643772 155.68657656744017 0 155.68657656744017 -23.227144250355195 0 0 0 0 1.1196479310924587 102.13612698368161 0 102.13612698368161 -68.054653216575389 0 0 0 0 -32.148630550934286 87.202988272802031 0 87.202988272802031 122.24713677464752 0 0 0 0 -10.013089537515043 36.758836089902616 0 36.758836089902616 34.014794014103245 0 0 0 0 -78.901246990175423 101.92314656820963 0 101.92314656820963 23.160849143043379 0 0 0 0 -34.598706430227821 120.37753147274634 0 120.37753147274634 -84.161767943092855 0 0 0 0 -59.891014469496213 70.977998043148546 0 70.977998043148546 -28.462687391700456 0 0 0 0 -84.28812837184978 109.88076516695583 0 109.88076516695583 -22.613432679012476 0 0 0 0 -61.03173487341428 66.845708182760063 0 66.845708182760063 -89.022144586982904 0 0 0 0 -76.464321241715425 89.956389053557359 0 89.956389053557359 -32.166135627525364 0 0 0 0 -74.966141985823015 102.9253160829503 0 102.9253160829503 -68.433981460846553 0 0 0 0 -59.885996193711662 136.47905994522444 0 136.47905994522444 -161.72380920843352 0 0 0 0 257.05677685406692 441.76230449454721 0 441.76230449454721 579.04664661002607 0 0 0 0 -7.1888369404663406 0.083956995724136618 0 0.083956995724136618 0.82681753828924798 0 0 0 0 -109.1206354807241 87.533658869033388 0 87.533658869033388 -94.049052690488679 0 0 0 0 -9.7687687782979538 80.056852647023334 0 80.056852647023334 -261.60111184898415 0 0 0 0 1.1256676135939809 9.6656378708994453 0 9.6656378708994453 443.6954411760089 0 0 0 0 -6.3677299490561454 28.140801855115569 0 28.140801855115569 831.58814431506471 0 0 0 0 1.4066908190525154 -15.787369658417617 0 -15.787369658417617 48.715814086210173 0 0 0 0 -213.06478083153058 18.735011096621747 0 18.735011096621747 85.911970920467866 0 0 0 0 197.83806643009686 1740.3900553748099 0 1740.3900553748099 3490.6830280691211 0 0 0 0 -91.981654120791532 275.01979719687006 0 275.01979719687006 1921.8085723679978 0 0 0 0 4.002466484089334 -14.299656085274933 0 -14.299656085274933 38.614553719338801 0 0 0 0 2.5285618845033349 -5.2062870011326936 0 -5.2062870011326936 17.655542484088699 0 0 0 0 668.8214415206935 -1258.5638285983259 0 -1258.5638285983259 407.07632623441168 0 0 0 0 -258.48912396448992 -1242.3444329388112 0 -1242.3444329388112 3490.4988208330906 0 0 0 0 -84.370095813181251 228.02605838072486 0 228.02605838072486 272.28759581304394 0 0 0 0 411.93663929368029 -191.71013388901702 0 -191.71013388901702 290.63806818001467 0 0 0 0 -112.06445231922407 116.83645674502623 0 116.83645674502623 144.38147793456346 0 0 0 0 -492.61806229589888 -186.69991307839518 0 -186.69991307839518 165.70168190122058 0 0 0 0 -21.629554589888869 91.14245530037806 0 91.14245530037806 59.848642376586213 0 0 0 0 4.6255539127723182 165.86855741417457 0 165.86855741417457 245.02553835091476 0 0 0 0 238.96312304361498 98.068722851759048 0 98.068722851759048 15.152717972232495 0 0 0 0 151.17732302764435 36.398937984438817 0 36.398937984438817 -97.880237326135102 0 0 0 0 120.71159239352545 -139.11435422753493 0 -139.11435422753493 328.76370437347214 0 0 0 0 72.112079446419045 211.02268074373569 0 211.02268074373569 571.93874199226775 0 0 0 0 16.987783321258519 -151.53301920205558 0 -151.53301920205558 1441.6736983429291 0 0 0 0 -461.97412221070158 -443.60636435031483 0 -443.60636435031483 1528.9140089853354 0 0 0 0 -346.61682092761555 453.54772701785623 0 453.54772701785623 1934.6047190047648 0 0 0 0 -580.59551896137089 -229.30603847154998 0 -229.30603847154998 3502.4565968176466 0 0 0 0 88.463038547974492 -185.1224095593243 0 -185.1224095593243 995.19379048197879 0 0 0 0 18.013658433212228 168.28072570289078 0 168.28072570289078 869.00718296601281 0 0 0 0 247.16821451828039 709.02644102701015 0 709.02644102701015 894.16621300836778 0 0 0 0 -301.29860679251368 1277.4204973609048 0 1277.4204973609048 3492.5457188555083 0 0 0 0 -356.5291363435058 537.5250121878571 0 537.5250121878571 1766.1050919529371 0 0 0 0 899.9723108196572 1577.2209817378098 0 1577.2209817378098 1226.6438531597669 0 0 0 0 905.363427086397 551.99306760666514 0 551.99306760666514 -89.714940277364803 0 0 0 0 -113.32477437543002 -143.68935693152889 0 -143.68935693152889 590.99890788363189 0 0 0 0 201.1522859851809 294.3254011809795 0 294.3254011809795 894.49364329727541 0 0 0 0 48.650442067976428 643.51991988260124 0 643.51991988260124 358.96128572832095 0 0 0 0 75.06382000482769 -142.89125434503512 0 -142.89125434503512 260.26831486173069 0 0 0 0 -133.81546426376025 45.344468005630915 0 45.344468005630915 91.177418620791286 0 0 0 0 -134.77953419082394 -354.19884515312879 0 -354.19884515312879 66.529873287674491 0 0 0 0 -300.77963318526872 552.44610584044131 0 552.44610584044131 1677.7408252826717 0 0 0 0 170.11950735720217 -36.775024721797308 0 -36.775024721797308 305.87216832357808 0 0 0 0 -202.12433134384855 30.518527140920924 0 30.518527140920924 308.47965584936537 0 0 0 0 -104.02424703874158 14.333783494890667 0 14.333783494890667 244.83022195212834 0 0 0 0 -14.137871712534707 -19.237050298074152 0 -19.237050298074152 55.036607219645276 0 0 0 0 65.459724982241823 146.82941546773509 0 146.82941546773509 173.84889394540005 0 0 0 0 4.3987342100340356 6.6938655618505436 0 6.6938655618505436 21.092322236218024 0 0 0 0 104.52795582321005 98.716888540478976 0 98.716888540478976 -3.5325513661082368 0 0 0 0 -24.041038588928593 -8.8921433297091426 0 -8.8921433297091426 39.040476614994589 0 0 0 0 92.246561517193157 152.10383329243729 0 152.10383329243729 116.17276748310542 0 0 0 0 90.134770701909474 77.385494205351279 0 77.385494205351279 64.576934542565141 0 0 0 0 16.0158011825818 16.676902270376104 0 16.676902270376104 -17.144984153045471 0 0 0 0 70.219588995864797 37.126716268172459 0 37.126716268172459 4.4264330497062474 0 0 0 0 6.8864147192298333 55.745357372299623 0 55.745357372299623 140.78559105190652 0 0 0 0 100.17950089843242 67.430937977718713 0 67.430937977718713 116.36703939275321 0 0 0 0 36.905218896397855 97.504223507072311 0 97.504223507072311 59.614932559721638 0 0 0 0 162.55554687865191 303.38909013276134 0 303.38909013276134 588.16439178548171 0 0 0 0 -3.1907175408049389 -3.6755823030873387 0 -3.6755823030873387 3.3323764063743795 0 0 0 0 64.237351228080627 -216.20740711261169 0 -216.20740711261169 516.79624588013394 0 0 0 0 -92.148465346614714 152.72581480532972 0 152.72581480532972 1409.8523502829048 0 0 0 0 4.9713364001966056 212.84545278200312 0 212.84545278200312 1547.558893597612 0 0 0 0 377.50460575103557 319.79220559884561 0 319.79220559884561 1291.1910575024413 0 0 0 0 -36.561812687740826 367.7831268741902 0 367.7831268741902 1615.8088415970269 0 0 0 0 -1.3664061814050683 -1.996069764893349 0 -1.996069764893349 4.2893376261215224 0 0 0 0 31.091204185883953 209.80692353796621 0 209.80692353796621 1349.7499959285778 0 0 0 0 55.97159771130714 242.6296698776423 0 242.6296698776423 1388.4919274855383 0 0 0 0 -31.943699182647038 427.3133923465648 0 427.3133923465648 1324.6096119586764 0 0 0 0 87.486987637117181 -27.092161436201422 0 -27.092161436201422 52.389557109701855 0 0 0 0 -55.35770051323243 99.078362511492742 0 99.078362511492742 259.5031519652257 0 0 0 0 -149.43054647165764 -32.537063841016789 0 -32.537063841016789 892.90882296982454 0 0 0 0 213.63533554027345 220.85565034912725 0 220.85565034912725 242.52414187329123 0 0 0 0 31.01799084539752 15.33068133565007 0 15.33068133565007 -9.7796533100996186 0 0 0 0 93.166869112334098 65.243908200151054 0 65.243908200151054 53.719806358728363 0 0 0 0 -40.523879527677309 134.836364694449 0 134.836364694449 1561.864909329659 0 0 0 0 98.765616628914358 266.68455579590955 0 266.68455579590955 1066.24390660481 0 0 0 0 108.26859366750682 178.82160173883312 0 178.82160173883312 1249.0580176457879 0 0 0 0 -22.211401832664251 397.67857315576111 0 397.67857315576111 1283.5452314956201 0 0 0 0 131.69142091325148 447.22105439040752 0 447.22105439040752 1282.2271893956204 0 0 0 0 86.919403070236513 -143.05567436976708 0 -143.05567436976708 1374.1461038116613 0 0 0 0 11.450905318142086 -1.6917767203807443 0 -1.6917767203807443 -9.2346572432371659 0 0 0 0 -59.074901534012497 378.32194546965184 0 378.32194546965184 1022.2170082076336 0 0 0 0 -84.180952116042135 373.81287966444506 0 373.81287966444506 1502.1834496466035 0 0 0 0 4.2686285011314116 6.9474780548718513 0 6.9474780548718513 2.6499370779620932 0 0 0 0 15.967150058615516 59.806077137967804 0 59.806077137967804 131.15991070203017 0 0 0 0 148.78285046548262 23.130515930592082 0 23.130515930592082 30.524205704874475 0 0 0 0 85.435112335962913 -182.92442045174539 0 -182.92442045174539 303.3111709888035 0 0 0 0 25.545934060029861 36.520275264733201 0 36.520275264733201 34.157467957056042 0 0 0 0 -10.432484078946915 -14.884069757592442 0 -14.884069757592442 -87.880135761079146 0 0 0 0 -31.579478390068108 11.155401210351172 0 11.155401210351172 33.929852928067305 0 0 0 0 90.605355511710513 103.55625790361955 0 103.55625790361955 88.263037640106631 0 0 0 0 102.9402767231586 86.216774146807438 0 86.216774146807438 53.827129085991999 0 0 0 0 -70.22465653644457 -187.77230731197051 0 -187.77230731197051 -90.628316530431221 0 0 0 0 15.933428291140046 78.546257929028798 0 78.546257929028798 19.642393115267623 0 0 0 0 104.56537178116841 43.036580601772584 0 43.036580601772584 -76.458147718964028 0 0 0 0 7.756680656285539 51.945764028347185 0 51.945764028347185 -40.857291973625252 0 0 0 0 -89.296850621321937 78.086783010003273 0 78.086783010003273 58.976657355597126 0 0 0 0 -29.003931616993498 120.7214089692261 0 120.7214089692261 -1.9641305602563079 0 0 0 0 -9.2046393824830073 20.903089354155327 0 20.903089354155327 38.574999684720751 0 0 0 0 -72.827913051896303 233.11177507835237 0 233.11177507835237 -91.709505756218277 0 0 0 0 -15.276076024717959 58.070710599736231 0 58.070710599736231 -40.814881633574259 0 0 0 0 -13.839681554384867 19.31982930022231 0 19.31982930022231 44.361656850404557 0 0 0 0 -337.0565535210867 -46.785175853699911 0 -46.785175853699911 88.010408342684968 0 0 0 0 -185.46544239014929 45.772457519429736 0 45.772457519429736 67.267348008434055 0 0 0 0 124.24566138742966 220.81977395996364 0 220.81977395996364 914.61333713549539 0 0 0 0 219.32515273453532 403.27151939085797 0 403.27151939085797 651.02773764434096 0 0 0 0 -95.224873515301624 361.02857263185433 0 361.02857263185433 1243.6106918348523 0 0 0 0 1.3318124074974591 -6.0061936189931657 0 -6.0061936189931657 30.256365081390527 0 0 0 0 -27.80297293806052 420.07580064065405 0 420.07580064065405 1194.5068125577673 0 0 0 0 -339.29216786009238 102.09287652377395 0 102.09287652377395 372.81572264859278 0 0 0 0 -440.62681625383766 -530.28792454182985 0 -530.28792454182985 49.385376754667959 0 0 0 0 -123.23635550808831 263.43619497327018 0 263.43619497327018 184.50838615958492 0 0 0 0 -182.04265687263117 137.77592249413078 0 137.77592249413078 57.609108538512373 0 0 0 0 -55.423243649495475 230.7292509928011 0 230.7292509928011 16.872937327512773 0 0 0 0 70.776038118486554 -62.876860843483882 0 -62.876860843483882 470.75078638440755 0 0 0 0 -121.52238679824154 214.23497723215405 0 214.23497723215405 535.71024652615051 0 0 0 0 0.22840726576349341 415.1738077584468 0 415.1738077584468 8.995328543940559 0 0 0 0 79.901440729276828 186.51039809572831 0 186.51039809572831 -326.64387481893209 0 0 0 0 -82.192507802163391 216.81684577889973 0 216.81684577889973 12.171895688432414 0 0 0 0 -76.158552610871766 52.715114156009804 0 52.715114156009804 63.632236309709697 0 0 0 0 -7.5089397079041804 19.217350210190503 0 19.217350210190503 42.128076880962453 0 0 0 0 -1.8038239951306423 -2.8863362911797594 0 -2.8863362911797594 -237.35719693715509 0 0 0 0 0.1727664843058947 5.1146218667509942 0 5.1146218667509942 2.1719470838472148 0 0 0 0 -0.2600157539335004 246.10500849441451 0 246.10500849441451 1364.41129336835 0 0 0 0 -22.136366349998525 160.94862297598593 0 160.94862297598593 1173.3054323145952 0 0 0 0 -169.21171359859693 249.50659171794541 0 249.50659171794541 1586.4913402861202 0 0 0 0 -46.694776804751768 -3.8630399886496889 0 -3.8630399886496889 944.15876697737258 0 0 0 0 -180.12679979701042 -128.14440563547396 0 -128.14440563547396 1007.223089950945 0 0 0 0 -0.061637448324942744 182.49507473188714 0 182.49507473188714 833.34069619906222 0 0 0 0 1.9624885615784913 4.1739010275013015 0 4.1739010275013015 4.9062590107623549 0 0 0 0 7.9470972254866865 -77.3492085120306 0 -77.3492085120306 313.98362546585849 0 0 0 0 -573.8813537580711 -122.67498639402038 0 -122.67498639402038 2828.364863997791 0 0 0 0 0.18470660616222823 438.97882593997247 0 438.97882593997247 1925.195106243933 0 0 0 0 -355.93662119117721 -107.54854400868135 0 -107.54854400868135 2157.4393723041139 0 0 0 0 -180.55239025596302 -19.811405508240568 0 -19.811405508240568 2198.2084016087392 0 0 0 0 -101.45336383758314 -26.476596937947761 0 -26.476596937947761 944.76100406741898 0 0 0 0 182.48853737063109 320.33457779249147 0 320.33457779249147 1786.892227784112 0 0 0 0 200.86423415734407 -31.888042245569522 0 -31.888042245569522 375.48193594583063 0 0 0 0 4.018781752973422 9.0512022331314768 0 9.0512022331314768 5.4157031456258409 0 0 0 0 258.47500973242904 -622.99319807281063 0 -622.99319807281063 2710.0163594884943 0 0 0 0 496.12454014655032 1457.6987382549851 0 1457.6987382549851 2552.2895236639597 0 0 0 0 0.93660011060795156 -3.5927811473494558 0 -3.5927811473494558 7.5772937921160519 0 0 0 0 132.84927784423326 661.42727132375876 0 661.42727132375876 1529.4865726089629 0 0 0 0 -158.32565869292921 367.87633611964702 0 367.87633611964702 1782.9146263120929 0 0 0 0 539.03033455957257 598.30567405764305 0 598.30567405764305 1058.132213541634 0 0 0 0 -121.78677963712153 -317.55262150975796 0 -317.55262150975796 1419.0271584088332 0 0 0 0 -4.1318996796308216 9.7523013535495124 0 9.7523013535495124 9.1348538431713422 0 0 0 0 209.87631000036242 -64.107030214196129 0 -64.107030214196129 64.397449096650234 0 0 0 0 -100.51892267843459 155.65707261575153 0 155.65707261575153 1776.2335204557457 0 0 0 0 -104.43795759562039 -602.17563138582045 0 -602.17563138582045 1143.124120926208 0 0 0 0 -231.68383449744238 -46.352998600697902 0 -46.352998600697902 1536.0600635575538 0 0 0 0 158.27566494979783 369.6428629692964 0 369.6428629692964 1623.0170817000107 0 0 0 0 48.004578058854804 203.80246079519566 0 203.80246079519566 1456.3196115644168 0 0 0 0 326.34607061495353 460.09131525157864 0 460.09131525157864 1719.7778809619922 0 0 0 0 378.86348656483574 2.908125977479358 0 2.908125977479358 2124.7481157670118 0 0 0 0 323.62930874477024 345.95755020559591 0 345.95755020559591 2152.9888367069398 0 0 0 0 191.25426534194048 693.14187804601534 0 693.14187804601534 3019.2260192945687 0 0 0 0 10.485406137702778 4.7883345741750247 0 4.7883345741750247 7.0572033890037886 0 0 0 0 116.95523058414574 485.02294341509696 0 485.02294341509696 2556.5226291577419 0 0 0 0 5.2428692024134627 -2.1951763674951508 0 -2.1951763674951508 8.9531260594775688 0 0 0 0 157.49096783678579 447.15491768778156 0 447.15491768778156 2236.5953708828529 0 0 0 0 -64.35389297908705 151.67442298422975 0 151.67442298422975 1083.7166602164798 0 0 0 0 112.4714875916884 145.12637806667772 0 145.12637806667772 600.99707642093563 0 0 0 0 -41.346225325127307 198.74850546023663 0 198.74850546023663 1066.1526860746235 0 0 0 0 -175.67191788527816 201.24063088640105 0 201.24063088640105 1234.1070823073387 0 0 0 0 -11.099406061912987 296.18320740605122 0 296.18320740605122 1162.3708147805883 0 0 0 0 -113.39414029357067 324.92508117467514 0 324.92508117467514 1348.707868658239 0 0 0 0 120.96299286585349 322.68226010830404 0 322.68226010830404 914.61551758637506 0 0 0 0 -49.955550156821573 244.1331798208048 0 244.1331798208048 1270.3706994237837 0 0 0 0 -16.070364126764332 -4.128743791853708 0 -4.128743791853708 14.094972630649551 0 0 0 0 499.16691299874356 127.62483160440752 0 127.62483160440752 59.065442581755633 0 0 0 0 29.262819432868639 33.211287932721461 0 33.211287932721461 763.96397417088156 0 0 0 0 188.74104253741007 1104.3638179404807 0 1104.3638179404807 1606.9220952756805 0 0 0 0 40.384545298009016 388.16202095095286 0 388.16202095095286 1342.0735242117371 0 0 0 0 -8.9136143019553522 -6.656475918780103 0 -6.656475918780103 11.464700508099469 0 0 0 0 13.003004158726384 409.21745586044653 0 409.21745586044653 1615.8126998141379 0 0 0 0 96.063583448818235 389.3745774251729 0 389.3745774251729 1371.196564558195 0 0 0 0 360.13289241018231 467.05086068244782 0 467.05086068244782 513.76315076958781 0 0 0 0 -38.03335649022091 762.04693355968993 0 762.04693355968993 1601.9283891734813 0 0 0 0 -85.15205924409122 656.25644278591699 0 656.25644278591699 2316.5944062113122 0 0 0 0 475.58577272545926 167.35951504788682 0 167.35951504788682 1959.0927117805913 0 0 0 0 252.477518495612 413.49261785148701 0 413.49261785148701 1895.1724453880997 0 0 0 0 358.05986395647187 174.52957583656826 0 174.52957583656826 1569.9315942427347 0 0 0 0 780.89955404060083 625.373847281895 0 625.373847281895 1822.7768885636469 0 0 0 0 27.376333638208095 281.14095521035961 0 281.14095521035961 1498.2507659528201 0 0 0 0 55.265795792279278 409.3155321893355 0 409.3155321893355 1850.2828228067665 0 0 0 0 39.130198175485475 253.50725837150094 0 253.50725837150094 1586.3706865910499 0 0 0 0 96.456123057555828 193.73100713538952 0 193.73100713538952 1374.7561099738814 0 0 0 0 175.81227724793735 79.015614728836226 0 79.015614728836226 1424.9817010856787 0 0 0 0 241.77462587593254 212.83638087620056 0 212.83638087620056 1092.3064155519605 0 0 0 0 -397.09616289923031 269.47716367462635 0 269.47716367462635 1376.6878218454804 0 0 0 0 264.34068460328376 156.67348402394782 0 156.67348402394782 1158.2848201662709 0 0 0 0 9.30638227604293 -0.58221227609624293 0 -0.58221227609624293 2.6697162634306153 0 0 0 0 -37.150284560440014 -254.55641734377423 0 -254.55641734377423 2928.1757742331829 0 0 0 0 12.297168637715913 262.79018197584082 0 262.79018197584082 1240.0271253038372 0 0 0 0 -65.693490256232508 106.86586439729581 0 106.86586439729581 1395.2038777646376 0 0 0 0 310.82101162785887 772.34422445393284 0 772.34422445393284 1920.3632995216758 0 0 0 0 -44.449219944783295 536.32306432324458 0 536.32306432324458 564.30395820009289 0 0 0 0 -40.386005654696419 433.48972219780262 0 433.48972219780262 205.56236850036657 0 0 0 0 7.4467348048650877 467.48726162060484 0 467.48726162060484 886.69941742668743 0 0 0 0 -41.539833789342993 352.68965814326657 0 352.68965814326657 620.04196021766984 0 0 0 0 -100.29005628016893 199.19859039544826 0 199.19859039544826 1179.3385891350918 0 0 0 0 -30.511454379896804 678.83334897793247 0 678.83334897793247 954.771926733898 0 0 0 0 -23.979091412591515 132.85037749372714 0 132.85037749372714 329.89402355116908 0 0 0 0 -13.859716661304901 254.88275055461781 0 254.88275055461781 225.87631542765303 0 0 0 0 -2.8585774739947936 -1.362748497679263 0 -1.362748497679263 -0.78737608809137782 0 0 0 0 -7.1242681601906952 -0.36798773516784422 0 -0.36798773516784422 162.35169276001398 0 0 0 0 23.657965753810718 77.692837403668818 0 77.692837403668818 354.83725971750391 0 0 0 0 -235.76874440658779 251.79926468804479 0 251.79926468804479 -140.34920134620916 0 0 0 0 -296.33551585851887 48.758688737689226 0 48.758688737689226 284.58767782515497 0 0 0 0 -48.982716357104437 -109.69087225175463 0 -109.69087225175463 318.949662149098 0 0 0 0 -243.93696810313227 490.47530033019166 0 490.47530033019166 405.08712044834101 0 0 0 0 89.662846059220328 15.820809454307891 0 15.820809454307891 922.12116078702093 0 0 0 0 -262.60760934544084 -14.108986236897181 0 -14.108986236897181 538.37578349749674 0 0 0 0 144.18227851370159 348.81120056317013 0 348.81120056317013 638.68003142867838 0 0 0 0 68.759374603816696 -15.472971251743729 0 -15.472971251743729 696.03566521306675 0 0 0 0 104.24435035354361 48.460980833700887 0 48.460980833700887 227.57830159865262 0 0 0 0 237.7936159951991 1.6146293113160937 0 1.6146293113160937 370.66137889621314 0 0 0 0 209.02203147884211 178.05719272369606 0 178.05719272369606 957.27236390048347 0 0 0 0 356.29253594420607 522.20435293217815 0 522.20435293217815 1498.7516538360069 0 0 0 0 447.43642196678002 545.16719054538407 0 545.16719054538407 1501.8242660733376 0 0 0 0 3.2929729371984751 0.60648123832319811 0 0.60648123832319811 1.9252648340225491 0 0 0 0 414.79521051140551 615.26201537577845 0 615.26201537577845 1709.2160017509741 0 0 0 0 146.40022753796188 432.22369825006808 0 432.22369825006808 1642.8216348178394 0 0 0 0 108.02503621664869 198.80201169499924 0 198.80201169499924 1551.6146363341395 0 0 0 0 439.31960553602721 341.95805015470978 0 341.95805015470978 1514.2032072313159 0 0 0 0 287.6123576458499 434.81569768355985 0 434.81569768355985 1708.4774555474651 0 0 0 0 59.855825298828506 384.47005005059691 0 384.47005005059691 1515.0224647856085 0 0 0 0 200.20421465840968 293.3845763087229 0 293.3845763087229 1479.7114640737564 0 0 0 0 185.32986695329305 416.19374855326168 0 416.19374855326168 1445.327174707214 0 0 0 0 374.80913593039497 322.60366316154614 0 322.60366316154614 1284.1020408825862 0 0 0 0 488.56800044551352 392.5388623155759 0 392.5388623155759 1203.2070717065362 0 0 0 0 538.53588366261818 383.19638357208169 0 383.19638357208169 723.5624540054414 0 0 0 0 53.570826714380701 65.377171033353079 0 65.377171033353079 1137.1541420369758 0 0 0 0 182.46565538204993 151.3172756566637 0 151.3172756566637 1186.5497546055121 0 0 0 0 164.66052760705239 366.31325176793734 0 366.31325176793734 1080.0630704748619 0 0 0 0 -23.81225140809579 284.48835382827383 0 284.48835382827383 1045.0070922222803 0 0 0 0 -32.656613864958103 339.433351321386 0 339.433351321386 1323.1580281057086 0 0 0 0 100.82056972080966 295.68012764012383 0 295.68012764012383 1309.8705637330968 0 0 0 0 37.994035799717885 392.16681554691786 0 392.16681554691786 1117.0584783017694 0 0 0 0 -81.233556140790029 344.03916703475261 0 344.03916703475261 1106.7849358158001 0 0 0 0 -0.19714112276238238 288.85933293108974 0 288.85933293108974 1285.2263943606886 0 0 0 0 -73.341230108523519 264.73767082706036 0 264.73767082706036 1432.8904297918125 0 0 0 0 -14.217382304210332 368.69568802852154 0 368.69568802852154 1376.88145398302 0 0 0 0 0.039882551299202762 246.26394798381807 0 246.26394798381807 1364.4278069796419 0 0 0 0 121.41259212616205 -321.81984975597152 0 -321.81984975597152 -49.535571832782807 0 0 0 0 6.1197784505126833 0.032984376744096267 0 0.032984376744096267 -0.29833226793827805 0 0 0 0 -184.2579075057206 21.58973169435194 0 21.58973169435194 972.79799239127169 0 0 0 0 -90.518962122636367 -176.16802014031782 0 -176.16802014031782 792.83851279534792 0 0 0 0 306.53554659520933 -94.095623649398476 0 -94.095623649398476 23.283157800309709 0 0 0 0 93.530537788757101 -5.6066170215053717 0 -5.6066170215053717 468.87605672552309 0 0 0 0 745.63290105106353 -492.70518859738513 0 -492.70518859738513 764.26693894993514 0 0 0 0 -43.824709523643833 31.469607442260894 0 31.469607442260894 444.83897766361042 0 0 0 0 616.18190042360584 319.6814473031809 0 319.6814473031809 543.24920737457251 0 0 0 0 291.79749970030025 200.24912559310906 0 200.24912559310906 25.706737418280682 0 0 0 0 -121.60203627714327 117.32801968147396 0 117.32801968147396 9.1198722864428419 0 0 0 0 -2.4321635699034232 267.52603339262714 0 267.52603339262714 -214.51479214851861 0 0 0 0 195.33934364027573 -13.66057321709377 0 -13.66057321709377 -234.54105594562134 0 0 0 0 323.5088943241899 -204.53367630633875 0 -204.53367630633875 167.48582299175177 0 0 0 0 46.881012220759658 36.59652468621789 0 36.59652468621789 -11.902602060654317 0 0 0 0 -7.4353604212211497 6.1866501082021585 0 6.1866501082021585 -6.5710090657809985 0 0 0 0 527.76608902121279 -91.236403235910984 0 -91.236403235910984 192.83175738642603 0 0 0 0 163.20560892972026 -110.03658096778963 0 -110.03658096778963 69.422389802501129 0 0 0 0 -193.38058641371936 294.1815242984303 0 294.1815242984303 -316.07693605516397 0 0 0 0 327.98275810868381 526.50653094581867 0 526.50653094581867 511.34550198592478 0 0 0 0 -203.06814700923678 8.0154657534585567 0 8.0154657534585567 123.93800195353106 0 0 0 0 728.1483494056265 362.77467558542412 0 362.77467558542412 -464.81772055994952 0 0 0 0 13.973941306697926 2.5789179953326311 0 2.5789179953326311 2.3811165014927624 0 0 0 0 1321.7435245595834 897.32758749809727 0 897.32758749809727 -69.919718365570589 0 0 0 0 626.54705925574217 1798.0958735188415 0 1798.0958735188415 2830.4131995181815 0 0 0 0 515.26389861089228 1049.5664394948035 0 1049.5664394948035 1296.4684627315946 0 0 0 0 358.55771586960986 793.81018290213615 0 793.81018290213615 2588.1192999223713 0 0 0 0 -240.0919954000444 730.33391524947001 0 730.33391524947001 1493.8501121056179 0 0 0 0 910.38552324497812 336.79380718043103 0 336.79380718043103 438.41452816284436 0 0 0 0 155.23205400328794 1068.3577496365542 0 1068.3577496365542 2164.1886055421928 0 0 0 0 544.36112221927908 360.0608152938039 0 360.0608152938039 234.67318408284336 0 0 0 0 5.7990179064746945 0.82285112231889457 0 0.82285112231889457 1.842879044901963 0 0 0 0 653.12509244424973 1378.8225672994377 0 1378.8225672994377 1785.1513212698483 0 0 0 0 610.33225820546704 -483.42901836293458 0 -483.42901836293458 2125.4591181144497 0 0 0 0 9.4280382632126845 4.4496932865386896 0 4.4496932865386896 1.3093046127143921 0 0 0 0 383.99184665214989 827.18980308885875 0 827.18980308885875 1037.1360518985093 0 0 0 0 -25.659573045656543 -335.72770512672287 0 -335.72770512672287 420.09716300539731 0 0 0 0 -729.02358856195963 88.16575453403857 0 88.16575453403857 1800.807007611802 0 0 0 0 120.40154202975941 870.86966896996455 0 870.86966896996455 1677.8298688590821 0 0 0 0 -345.02201540245795 588.66830348672192 0 588.66830348672192 2557.7323413690829 0 0 0 0 44.810735412054783 930.68209125744761 0 930.68209125744761 1349.3414282959784 0 0 0 0 3.1247287883962258 2.0984655594432411 0 2.0984655594432411 1.8632795923587224 0 0 0 0 -30.42486572287612 735.21825065231678 0 735.21825065231678 1646.0550459708065 0 0 0 0 117.79385280374743 484.30478494644558 0 484.30478494644558 449.72549698913645 0 0 0 0 -14.987597741245224 183.54850586552493 0 183.54850586552493 1197.080813466484 0 0 0 0 65.629467837799893 307.35375548122101 0 307.35375548122101 1229.0787594761423 0 0 0 0 -45.449852487286535 291.51287205947301 0 291.51287205947301 1351.1810237631289 0 0 0 0 3.5085470353634776 358.93717693404324 0 358.93717693404324 1186.2572019554573 0 0 0 0 -113.27238127030284 358.47399299848621 0 358.47399299848621 1286.1746171825071 0 0 0 0 -124.9375242434345 298.49878962116782 0 298.49878962116782 1556.9680507544181 0 0 0 0 412.46616591142981 671.0207278147318 0 671.0207278147318 1131.1816705308956 0 0 0 0 546.14515846773702 304.41931620094329 0 304.41931620094329 1114.6272253912102 0 0 0 0 146.72460064985228 483.69517812207778 0 483.69517812207778 1142.1970170801324 0 0 0 0 62.323991858193835 322.74301377319352 0 322.74301377319352 1257.7128576675968 0 0 0 0 4.001553257733609 -1.0700200184617756 0 -1.0700200184617756 1.8289920125008194 0 0 0 0 327.48333078352459 75.851318933300718 0 75.851318933300718 925.07678780303104 0 0 0 0 279.42710191905587 289.65423701837153 0 289.65423701837153 1189.3869808095187 0 0 0 0 78.615180790006036 186.63236265730302 0 186.63236265730302 1156.9871229924247 0 0 0 0 236.42965018360513 84.446984780368439 0 84.446984780368439 684.86539861920755 0 0 0 0 -54.482794618909793 116.79461587437982 0 116.79461587437982 1169.5523989228113 0 0 0 0 2.4676212926586683 -0.88642854122673498 0 -0.88642854122673498 2.1936054079886702 0 0 0 0 153.40520519621975 -129.71897358506794 0 -129.71897358506794 748.95889172155876 0 0 0 0 -110.02823076166555 47.257721910831606 0 47.257721910831606 1101.4400653585471 0 0 0 0 -6.3222422299795653 109.09046250816391 0 109.09046250816391 1442.1030396202259 0 0 0 0 -38.464750424555405 201.62402410232608 0 201.62402410232608 1329.9624394792263 0 0 0 0 -34.067359281917618 207.63181126050767 0 207.63181126050767 1327.1458920492096 0 0 0 0 13.786415912757565 -34.310298895166284 0 -34.310298895166284 827.75062227841408 0 0 0 0 8.7923904170708731 -0.94728506121288092 0 -0.94728506121288092 2.8692889318170529 0 0 0 0 65.424536254986378 141.62058717331092 0 141.62058717331092 1534.0521890729833 0 0 0 0 27.572245750143111 90.215912041196134 0 90.215912041196134 1177.6507869012785 0 0 0 0 11.766266968117179 209.10096008443361 0 209.10096008443361 1463.6187300952733 0 0 0 0 37.583209446591127 -274.26016470913601 0 -274.26016470913601 1787.6672790697903 0 0 0 0 4.2295031750204766 4.4735915037795451 0 4.4735915037795451 5.5220238648355746 0 0 0 0 401.43421493710775 691.23728561631287 0 691.23728561631287 297.98340879549505 0 0 0 0 -25.464562896464486 101.36794953775643 0 101.36794953775643 -27.210837631602772 0 0 0 0 32.919866568080351 -410.65665711905967 0 -410.65665711905967 970.29535413830308 0 0 0 0 176.98180749468702 -169.68715157889528 0 -169.68715157889528 120.95567285412835 0 0 0 0 15.836312546836325 -146.66482871637345 0 -146.66482871637345 822.38227595758508 0 0 0 0 82.778810996438096 50.817723264095548 0 50.817723264095548 377.8027554894943 0 0 0 0 77.474367429611448 142.67624552358029 0 142.67624552358029 15.408425345798605 0 0 0 0 91.574282518713289 128.29133517682931 0 128.29133517682931 141.00588233494454 0 0 0 0 8.4368645873559593 10.5434483835013 0 10.5434483835013 11.287434296483269 0 0 0 0 -106.71133887917438 -39.153016086005664 0 -39.153016086005664 342.54703776186216 0 0 0 0 -286.23161095530395 -649.31622793029237 0 -649.31622793029237 -477.57109819930702 0 0 0 0 -74.223018965286059 47.590791789290961 0 47.590791789290961 -14.69024571099726 0 0 0 0 -0.82071757090306008 0.7759749208044866 0 0.7759749208044866 2.6381557526473216 0 0 0 0 -9.2333077357132964 -4.5563375152572121 0 -4.5563375152572121 1.9568694234574195 0 0 0 0 -15.349563012480303 27.226990522358392 0 27.226990522358392 72.595607013383415 0 0 0 0 -3.5440784316746203 6.0020104053328396 0 6.0020104053328396 24.676870725190383 0 0 0 0 109.78134331583033 31.667893817306322 0 31.667893817306322 356.49224212539866 0 0 0 0 156.27999544236468 -32.462909318368474 0 -32.462909318368474 344.34903176623629 0 0 0 0 55.047907249439959 -15.359875019305036 0 -15.359875019305036 685.51678166925558 0 0 0 0 14.450217474139663 -8.0155502393026836 0 -8.0155502393026836 692.53357575703831 0 0 0 0 66.621603110357 -121.75037544700899 0 -121.75037544700899 407.64005339628784 0 0 0 0 134.23263626542121 -106.93246136388188 0 -106.93246136388188 172.92001692563645 0 0 0 0 22.798766956648251 -18.235381405989756 0 -18.235381405989756 354.19846805909765 0 0 0 0 -9.3306780617344884 -158.41111522143183 0 -158.41111522143183 85.64289833024668 0 0 0 0 122.57696239282132 -37.956078626710223 0 -37.956078626710223 -122.73754262729199 0 0 0 0 111.6482857974961 39.564262773346854 0 39.564262773346854 -122.95130207842072 0 0 0 0 75.701920478240936 -15.435757696483051 0 -15.435757696483051 154.49727890540089 0 0 0 0 114.87782519854517 -81.244616085205053 0 -81.244616085205053 16.246170085330959 0 0 0 0 57.360386426887089 30.552129360585241 0 30.552129360585241 40.377677207237866 0 0 0 0 140.90101612529725 -69.957055997670977 0 -69.957055997670977 84.332120616287284 0 0 0 0 82.7188395834537 -14.928192260063952 0 -14.928192260063952 67.720453776906652 0 0 0 0 74.53103659541739 -44.579608876345446 0 -44.579608876345446 344.43219959429211 0 0 0 0 167.61232678047281 -70.919510810737847 0 -70.919510810737847 186.42308257429977 0 0 0 0 91.448651387021073 -76.737176001632179 0 -76.737176001632179 344.15353993410827 0 0 0 0 140.19853313675139 -49.38352151811705 0 -49.38352151811705 99.258469626511214 0 0 0 0 95.15440450489541 -81.028725242482324 0 -81.028725242482324 185.06277419638354 0 0 0 0 146.20936381868887 -95.557002938454389 0 -95.557002938454389 93.623981470736908 0 0 0 0 65.789350177462438 -24.907262075750623 0 -24.907262075750623 109.31513820374676 0 0 0 0 113.55088895987137 -64.167598664193065 0 -64.167598664193065 141.16078242482035 0 0 0 0 122.8223913848451 -20.662987789983163 0 -20.662987789983163 177.04303393677401 0 0 0 0 66.777179509323105 -53.955711537171737 0 -53.955711537171737 14.007105665063136 0 0 0 0 -38.594332829079576 1.8740654727371293 0 1.8740654727371293 152.97902042223723 0 0 0 0 -59.800968066747146 -89.139104421239608 0 -89.139104421239608 79.473077506467234 0 0 0 0 111.57184331487224 -20.484443800989538 0 -20.484443800989538 67.006800716393627 0 0 0 0 -243.90202176835737 11.956161409878405 0 11.956161409878405 195.02996172384883 0 0 0 0 76.313015710421496 -19.760699462894991 0 -19.760699462894991 125.49192931379366 0 0 0 0 56.309570829015684 154.1644248403536 0 154.1644248403536 427.35800365956675 0 0 0 0 77.39063020946287 -30.148093172501831 0 -30.148093172501831 435.8260660499509 0 0 0 0 74.979414328726051 61.621277466604965 0 61.621277466604965 283.31125482817879 0 0 0 0 -30.054151693506356 272.26013707707898 0 272.26013707707898 771.1339343708969 0 0 0 0 -106.21514082914837 28.541832956139842 0 28.541832956139842 1101.0281258263058 0 0 0 0 -12.758131793347275 264.40220647869864 0 264.40220647869864 344.90110752666806 0 0 0 0 -93.916138268474242 507.93245903823299 0 507.93245903823299 1442.0983860894194 0 0 0 0 -188.73783681611212 -243.28650035304963 0 -243.28650035304963 1964.9134297042619 0 0 0 0 -224.99159322276455 -55.930762193807823 0 -55.930762193807823 1044.3813832013548 0 0 0 0 -25.003017686276507 -562.29207514481823 0 -562.29207514481823 1834.4179382953662 0 0 0 0 -354.08870472499575 237.32572737576811 0 237.32572737576811 1698.2902322558366 0 0 0 0 298.66620219670767 591.89371959727578 0 591.89371959727578 329.44570151130029 0 0 0 0 0.3931939202287944 -1.139037118618166 0 -1.139037118618166 16.597032351441158 0 0 0 0 448.1570683215823 -789.53175131022363 0 -789.53175131022363 905.44417351032462 0 0 0 0 215.93636852743839 -201.24112098368641 0 -201.24112098368641 -13.878806650434854 0 0 0 0 497.06857427527575 -716.34709691234457 0 -716.34709691234457 911.08239937743565 0 0 0 0 -34.367549507242074 -158.18340124770293 0 -158.18340124770293 1144.3998205629177 0 0 0 0 0.94384139670013667 0.72456136686305683 0 0.72456136686305683 5.8871722482436013 0 0 0 0 214.47687580947104 -271.1364654081699 0 -271.1364654081699 552.10949401825201 0 0 0 0 37.184510862793104 -43.442795479830238 0 -43.442795479830238 60.600391056397712 0 0 0 0 108.86429006225808 -85.872225394792622 0 -85.872225394792622 55.769959169949288 0 0 0 0 329.38849696563375 26.912327277706936 0 26.912327277706936 -101.13362195546506 0 0 0 0 19.812125828815624 37.667834228428546 0 37.667834228428546 -15.166911399530363 0 0 0 0 88.325525979777012 19.587395457929233 0 19.587395457929233 -12.67954580586229 0 0 0 0 -0.43314512516542236 -0.40813999680484869 0 -0.40813999680484869 40.700327253328965 0 0 0 0 -284.57975252329106 124.68308714763407 0 124.68308714763407 108.55649380531395 0 0 0 0 -99.646799863603519 -201.58341929520248 0 -201.58341929520248 68.754336023492215 0 0 0 0 220.7794009322497 378.04946318821749 0 378.04946318821749 -124.50087153810819 0 0 0 0 -105.39628313852518 332.47711884540331 0 332.47711884540331 6.4436546812066808 0 0 0 0 -332.17672292621137 -217.13138864477514 0 -217.13138864477514 191.30835550535994 0 0 0 0 -519.33286635551212 -57.567599590242025 0 -57.567599590242025 252.64083708426915 0 0 0 0 -126.15684614602924 -30.175493569971877 0 -30.175493569971877 28.889769201050512 0 0 0 0 -206.93400024849507 81.611292239860632 0 81.611292239860632 -29.770598196919309 0 0 0 0 -31.18226430505274 -25.41000688130589 0 -25.41000688130589 9.0150908827999956 0 0 0 0 47.605366001561379 -4.3681196679317509 0 -4.3681196679317509 34.611908806036809 0 0 0 0 -56.531534026440568 30.462407563085435 0 30.462407563085435 7.939568868772767 0 0 0 0 49.614533373998711 10.935144512041006 0 10.935144512041006 -18.116481655335519 0 0 0 0 -1.5340170715127144 -6.2767532677521842 0 -6.2767532677521842 26.674713118414957 0 0 0 0 0.46945242953734123 -15.750520812642208 0 -15.750520812642208 42.349579300309415 0 0 0 0 -25.255502564552444 19.918452991343656 0 19.918452991343656 33.688721207776325 0 0 0 0 -212.86366970287372 -135.70121579119586 0 -135.70121579119586 42.620402026675947 0 0 0 0 -1.1111991749257233 -8.9889684497438598 0 -8.9889684497438598 53.092461592644781 0 0 0 0 12.239474453099319 20.506209110833879 0 20.506209110833879 84.506941462401301 0 0 0 0 4.7482233737983393 -121.2018744033644 0 -121.2018744033644 82.313146155560389 0 0 0 0 -0.48790085189907906 -26.604697065048612 0 -26.604697065048612 67.070799818606986 0 0 0 0 0.066094914681580241 -13.908726153620536 0 -13.908726153620536 -0.20660056205682054 0 0 0 0 -6.7609340733004046 -3.9966054072701809 0 -3.9966054072701809 70.850530936208088 0 0 0 0 -7.6350274877861466 -20.748961527021493 0 -20.748961527021493 71.567035794767435 0 0 0 0 -11.112750867863724 -20.575266073494276 0 -20.575266073494276 74.692712357682467 0 0 0 0 3.2027091438858406 -25.112105567728577 0 -25.112105567728577 65.190997330437312 0 0 0 0 82.03223521273776 -36.273416379197442 0 -36.273416379197442 65.914208800240885 0 0 0 0 -6.5866721372334496 -30.082516300526549 0 -30.082516300526549 147.67316357152595 0 0 0 0 9.4936921388480187 17.745168369525345 0 17.745168369525345 72.788226978766033 0 0 0 0 8.6160483719795593 -17.389837284470559 0 -17.389837284470559 85.277897482941626 0 0 0 0 7.1440601483500359 -17.241271327340655 0 -17.241271327340655 51.826472011438455 0 0 0 0 -2.3262814064845578 -6.6217399464746194 0 -6.6217399464746194 14.99695590116265 0 0 0 0 2.4240529042301091 -46.697728754197669 0 -46.697728754197669 55.744537473176024 0 0 0 0 -57.040059243855922 -71.242522938755428 0 -71.242522938755428 42.468653093721514 0 0 0 0 -4.4429964080282538 -32.639253756845989 0 -32.639253756845989 31.774514807327364 0 0 0 0 -3.500124634169925 -0.12025679687411639 0 -0.12025679687411639 24.926611362040447 0 0 0 0 -7.429101179080817 -32.280729279023944 0 -32.280729279023944 61.993651915559894 0 0 0 0 1.2397774306309657 -36.267866399619379 0 -36.267866399619379 51.261364036556188 0 0 0 0 6.308324028985564 -25.9109240770441 0 -25.9109240770441 41.380975973147656 0 0 0 0 4.4571046950541131 -28.533075177158025 0 -28.533075177158025 68.378056682951865 0 0 0 0 -1.2473109690986242 -7.5361669477822062 0 -7.5361669477822062 14.69855196193673 0 0 0 0 8.7456756982528532 -23.92543479851156 0 -23.92543479851156 61.519538917134923 0 0 0 0 0.52466585987998293 -32.496786916792914 0 -32.496786916792914 58.101044288826245 0 0 0 0 -38.275085541226417 -14.195405255097285 0 -14.195405255097285 80.850678803115443 0 0 0 0 1.3086249485923531 -10.402831865557346 0 -10.402831865557346 76.42499258054886 0 0 0 0 133.60894916910365 -218.1608083237661 0 -218.1608083237661 -96.027628195966827 0 0 0 0 -14.884868997585727 -43.303528017917415 0 -43.303528017917415 -85.1517138278723 0 0 0 0 1.4424435953812598 -0.70414224114165336 0 -0.70414224114165336 0.12172375615107001 0 0 0 0 -35.48740723761216 -53.104068006165107 0 -53.104068006165107 -67.344526634697104 0 0 0 0 -7.3319004953149332 -17.252380526610409 0 -17.252380526610409 14.512872885872838 0 0 0 0 -35.118024760976368 -48.114428928217421 0 -48.114428928217421 -15.250105743209133 0 0 0 0 -3.4472785241832753 6.2945695674134186 0 6.2945695674134186 -56.449102072117967 0 0 0 0 -46.964315803396403 -99.431135341656045 0 -99.431135341656045 76.217455286736367 0 0 0 0 74.069761123107583 -151.08087265492941 0 -151.08087265492941 37.648402789112879 0 0 0 0 63.242039723720609 -112.343499411636 0 -112.343499411636 56.991951228526887 0 0 0 0 228.14682364002419 -122.98054701264482 0 -122.98054701264482 77.470019817755201 0 0 0 0 66.667587375333596 -138.88244975214911 0 -138.88244975214911 201.23184549080906 0 0 0 0 -77.664721310976347 -100.94595748497522 0 -100.94595748497522 23.052152721997118 0 0 0 0 -154.89091831342466 92.16938366771501 0 92.16938366771501 57.692126843430742 0 0 0 0 -188.43203880540659 -157.22789066354744 0 -157.22789066354744 63.782097376359161 0 0 0 0 49.795450274201357 -129.01724821966491 0 -129.01724821966491 69.497650318895467 0 0 0 0 64.288576934432967 -110.37480813504226 0 -110.37480813504226 43.726810284570092 0 0 0 0 -27.106939053985116 -37.669686330860713 0 -37.669686330860713 46.188224834732409 0 0 0 0 2.1058634262199121 -98.133614852558821 0 -98.133614852558821 121.53404336812673 0 0 0 0 -115.7967479083386 -40.670563086623588 0 -40.670563086623588 72.451710457491572 0 0 0 0 -32.694661342307882 -129.72174098400865 0 -129.72174098400865 52.360336897891102 0 0 0 0 115.55101372156332 1.3070691627362976 0 1.3070691627362976 162.69686714568888 0 0 0 0 187.89164729017693 -37.21005794192024 0 -37.21005794192024 10.621911730937427 0 0 0 0 79.877017848201831 -61.962827512063086 0 -61.962827512063086 54.984494104020996 0 0 0 0 36.973580609531382 -45.023334680790867 0 -45.023334680790867 67.163954630959779 0 0 0 0 133.26929435682996 -80.155042137877899 0 -80.155042137877899 43.778350705477351 0 0 0 0 143.40796184000737 -73.840137914274237 0 -73.840137914274237 31.54649421920476 0 0 0 0 134.96178368229951 -61.369928482984506 0 -61.369928482984506 49.762506270868471 0 0 0 0 143.8022309306948 -74.238942469801259 0 -74.238942469801259 3.119842677609995 0 0 0 0 119.46084493270064 -86.058689589524874 0 -86.058689589524874 48.776675624249037 0 0 0 0 64.182732411495635 -68.571310270839604 0 -68.571310270839604 47.715978540596552 0 0 0 0 132.98957437114586 -78.433936797940987 0 -78.433936797940987 -0.66507057455601171 0 0 0 0 9.2901933859793644 -56.723487373150419 0 -56.723487373150419 248.77862523606746 0 0 0 0 1.1440690354752281 0.44674892302140279 0 0.44674892302140279 3.1282071095463664 0 0 0 0 37.279349866754274 -98.833852408570237 0 -98.833852408570237 11.002352312847506 0 0 0 0 -68.852914774942633 -56.049189643030331 0 -56.049189643030331 53.028485468006693 0 0 0 0 36.180608086238863 -83.651225837558741 0 -83.651225837558741 196.86722311613266 0 0 0 0 26.134490499955064 -31.721300388424424 0 -31.721300388424424 99.678669566463213 0 0 0 0 -1.2299455008401807 -0.21175483942978701 0 -0.21175483942978701 2.6658907304034472 0 0 0 0 -60.023324435026353 62.37275760378634 0 62.37275760378634 37.485729963053018 0 0 0 0 78.055736918418916 -28.847479530115379 0 -28.847479530115379 32.920564245345304 0 0 0 0 30.90229747806552 -39.995985036206548 0 -39.995985036206548 58.724821504438296 0 0 0 0 -2.5225035856583418 59.692718034100835 0 59.692718034100835 56.612898671475705 0 0 0 0 -15.727199124019535 -42.773355801997241 0 -42.773355801997241 102.77965409561875 0 0 0 0 44.506279891834311 102.29238437398453 0 102.29238437398453 -60.029071988421492 0 0 0 0 -5.7440472019631237 -8.0117515204488541 0 -8.0117515204488541 -3.2425146224566532 0 0 0 0 7.9071354363696145 10.177671630645264 0 10.177671630645264 12.108474033694648 0 0 0 0 85.886972708455914 36.999410486656416 0 36.999410486656416 6.0294056798156817 0 0 0 0 7.4901505054676818 -44.388177639906644 0 -44.388177639906644 66.02787561135483 0 0 0 0 -9.7370787817853852 -16.55525839573238 0 -16.55525839573238 95.515604513362632 0 0 0 0 -20.752130410699465 -0.19624104459217051 0 -0.19624104459217051 116.80125615815632 0 0 0 0 -10.612870845218822 46.783295269662631 0 46.783295269662631 -37.109530710535182 0 0 0 0 -10.505826795440043 5.4456598726828815 0 5.4456598726828815 59.462548653769772 0 0 0 0 -15.015532347899352 -25.457371019612765 0 -25.457371019612765 88.423728103836766 0 0 0 0 -27.54117925394803 7.1693561431602575 0 7.1693561431602575 62.154901457528467 0 0 0 0 -19.076143321221934 -7.8975907342828577 0 -7.8975907342828577 44.312024682934862 0 0 0 0 -20.442260371779412 -4.1678185196069535 0 -4.1678185196069535 49.958018689896562 0 0 0 0 -16.321578846651391 23.623259745087125 0 23.623259745087125 18.431602272801683 0 0 0 0 -23.964547782791669 0.49914867564802989 0 0.49914867564802989 -6.4254698988515884 0 0 0 0 2.083250245963427 24.927473814008408 0 24.927473814008408 14.759265347849578 0 0 0 0 -49.326547416916583 32.553270082178642 0 32.553270082178642 15.687105251674438 0 0 0 0 -21.124636859411112 -24.766297604714055 0 -24.766297604714055 -17.784598052367073 0 0 0 0 35.887804569918444 24.718590779026272 0 24.718590779026272 -5.0283517586358357 0 0 0 0 19.912376181097784 109.87530555824742 0 109.87530555824742 -12.593415300565539 0 0 0 0 63.447061322234731 1.7394412651192397 0 1.7394412651192397 49.367341569130076 0 0 0 0 15.538175173367563 42.807009915632079 0 42.807009915632079 124.00939448591089 0 0 0 0 5.5354847614798928 1.3659694057423621 0 1.3659694057423621 272.33376721493551 0 0 0 0 106.91985443121757 95.287952733240672 0 95.287952733240672 154.05063173445524 0 0 0 0 10.40363735151368 2.7921792412234936 0 2.7921792412234936 138.90295065674582 0 0 0 0 27.336968109460031 -9.7784616509015905 0 -9.7784616509015905 80.898033394158119 0 0 0 0 -23.122763747022418 12.044730453570082 0 12.044730453570082 83.297199972003 0 0 0 0 30.439907227095318 -34.666381247399841 0 -34.666381247399841 125.21380971599137 0 0 0 0 -55.641639971451895 -10.29627293041267 0 -10.29627293041267 29.192974293357111 0 0 0 0 -87.157761127449604 1.6704751438128369 0 1.6704751438128369 53.758125123596983 0 0 0 0 -85.424939370538269 11.618489078085986 0 11.618489078085986 31.552760286416742 0 0 0 0 -32.742632975859863 12.188229272971512 0 12.188229272971512 9.3019899905484635 0 0 0 0 -24.927365652000844 -13.250922426435864 0 -13.250922426435864 53.002977483221912 0 0 0 0 -4.3572789404979826 -9.22879892200271 0 -9.22879892200271 -2.5583323527064152 0 0 0 0 -102.79292106040384 -133.12967010085413 0 -133.12967010085413 125.79138988214254 0 0 0 0 -13.133746463586974 -19.864877618216269 0 -19.864877618216269 14.028114983520936 0 0 0 0 -6.8317784305835652 -0.50165391567679762 0 -0.50165391567679762 17.485187295253638 0 0 0 0 9.9692809498023678 -5.8242900883633411 0 -5.8242900883633411 17.185697995242663 0 0 0 0 -3.0325876121294413 -13.220937764508562 0 -13.220937764508562 24.969708678414463 0 0 0 0 -37.757870935214441 7.9592339814844308 0 7.9592339814844308 24.332255325050937 0 0 0 0 0.34707369749888201 -1.4563847606065394 0 -1.4563847606065394 3.6637789870210327 0 0 0 0 -4.2358152152530328 1.0289927281565951 0 1.0289927281565951 16.054450531299153 0 0 0 0 -46.641188317978049 24.281356746650999 0 24.281356746650999 27.002610782146803 0 0 0 0 -23.958188344810253 27.700785430522046 0 27.700785430522046 21.502296054532053 0 0 0 0 -47.024107391049661 -28.288251025820955 0 -28.288251025820955 0.0091601815074682236 0 0 0 0 -49.785253515068945 7.8423306385811884 0 7.8423306385811884 36.711080605120515 0 0 0 0 -13.249521875818521 -0.34333211478414682 0 -0.34333211478414682 6.7258189785996692 0 0 0 0 14.567779145435452 -28.762442878178263 0 -28.762442878178263 73.46493521508819 0 0 0 0 16.496844666722552 -10.464252708043205 0 -10.464252708043205 27.377768252354144 0 0 0 0 -36.844203926675959 -0.23212735242850613 0 -0.23212735242850613 40.891434837772977 0 0 0 0 -5.8835848216936313 -1.3423714101562183 0 -1.3423714101562183 19.059231678503352 0 0 0 0 16.873392699844629 -97.652599248131082 0 -97.652599248131082 184.02174413982721 0 0 0 0 -18.421489332145256 0.50157871794363018 0 0.50157871794363018 141.51038142045581 0 0 0 0 85.747880892231478 19.262217478833918 0 19.262217478833918 -157.66085243172711 0 0 0 0 12.065620922052403 -16.309616586568154 0 -16.309616586568154 -28.702385490745655 0 0 0 0 3.3407806978208594 -1.0392214814772558 0 -1.0392214814772558 -2.1350920703956007 0 0 0 0 2.5707360177802911 -31.574114810333413 0 -31.574114810333413 63.963634233725315 0 0 0 0 -2.5127403845960643 -13.185093750698115 0 -13.185093750698115 -3.0050663357290688 0 0 0 0 -2.4430923223889645 -3.081616534392424 0 -3.081616534392424 8.2004631647369024 0 0 0 0 -15.261921550476881 -7.1947192953724937 0 -7.1947192953724937 38.247492667508709 0 0 0 0 7.5369159487042339 -17.472511554166402 0 -17.472511554166402 7.1775696329104193 0 0 0 0 8.2655191364042366 -26.444779138062586 0 -26.444779138062586 53.211411736556329 0 0 0 0 -2.9820435556707707 -11.755663074625772 0 -11.755663074625772 22.746685387624893 0 0 0 0 7.338362888973279 -27.376352543935354 0 -27.376352543935354 52.455778123839991 0 0 0 0 -41.353896054635698 5.3650028190095327 0 5.3650028190095327 80.996446864577592 0 0 0 0 3.8246625606179805 -54.436113263807783 0 -54.436113263807783 67.78922827002134 0 0 0 0 6.4018017953576418 -21.786641483828134 0 -21.786641483828134 41.95770286739571 0 0 0 0 -4.450872141785112 -21.128810162248556 0 -21.128810162248556 54.735032408905681 0 0 0 0 -4.4514680314649695 -24.962469560839963 0 -24.962469560839963 69.646372677088948 0 0 0 0 -1.107052150792736 -18.808566818762785 0 -18.808566818762785 50.257789336141116 0 0 0 0 -12.216999210317226 -29.00124039738148 0 -29.00124039738148 39.67291494046367 0 0 0 0 -2.3342481558829604 -33.760646748974978 0 -33.760646748974978 67.962474323794595 0 0 0 0 -12.095826766004306 -15.113238992430738 0 -15.113238992430738 44.123923393692621 0 0 0 0 -2.9712094165840881 -76.814250989446009 0 -76.814250989446009 121.74089519711561 0 0 0 0 -20.89497385801269 -39.190541841922823 0 -39.190541841922823 97.323951649857918 0 0 0 0 22.702591752969056 -54.209827918937663 0 -54.209827918937663 80.537528758191911 0 0 0 0 0.11544647892884696 -16.622990393642397 0 -16.622990393642397 26.181529846297906 0 0 0 0 6.8229236400117479 -35.803653599900528 0 -35.803653599900528 50.091949588002365 0 0 0 0 -89.42324700099158 -4.0762722080216918 0 -4.0762722080216918 -41.150982058927184 0 0 0 0 -67.953331018126846 24.488392426868813 0 24.488392426868813 -29.615491005126387 0 0 0 0 5.6264694723529374 23.629464158824703 0 23.629464158824703 -21.025548282690579 0 0 0 0 -0.8128181973061146 39.329974827269325 0 39.329974827269325 -59.215419053725782 0 0 0 0 -35.805755777595095 -0.51897501121857204 0 -0.51897501121857204 2.7690626577968942 0 0 0 0 -10.004732161223769 -5.3851058476626577 0 -5.3851058476626577 46.296686712663671 0 0 0 0 1.1177406594293933 -0.69211161099639185 0 -0.69211161099639185 -1.4180465315328519 0 0 0 0 -2.6242568677510985 -25.179053775252697 0 -25.179053775252697 42.61472093810508 0 0 0 0 -7.4522541652269467 -30.308075229125279 0 -30.308075229125279 62.504829400189919 0 0 0 0 -7.8980578856048282 -35.398766054189764 0 -35.398766054189764 51.779051695688395 0 0 0 0 101.58745672247051 4.1953560021684098 0 4.1953560021684098 1.0160149443181581 0 0 0 0 -20.172371430318435 -71.26994415842637 0 -71.26994415842637 119.02887764666229 0 0 0 0 -8.9718214467498107 -13.199966100529991 0 -13.199966100529991 -13.338608784457904 0 0 0 0 2.7315547153161788 -36.714814236991515 0 -36.714814236991515 105.81634293135721 0 0 0 0 -8.2912176488274696 -19.613210840255462 0 -19.613210840255462 -0.53310831012765902 0 0 0 0 -46.813305247910648 -35.678520197034231 0 -35.678520197034231 94.100308993394719 0 0 0 0 -36.801712404887439 -23.455891481848084 0 -23.455891481848084 23.638507185605704 0 0 0 0 -26.016338918741894 -60.817105975816958 0 -60.817105975816958 39.937068170329439 0 0 0 0 166.56297716370818 -28.227323609713494 0 -28.227323609713494 -2.1588240635610418 0 0 0 0 53.501974206370505 -114.45721525388217 0 -114.45721525388217 87.623666813437012 0 0 0 0 21.85808924209141 -68.175017446723359 0 -68.175017446723359 43.41388102498604 0 0 0 0 54.542268643682291 -36.4862939028244 0 -36.4862939028244 -13.098850411595777 0 0 0 0 24.291471643919067 -12.135303604718501 0 -12.135303604718501 -3.8506247704353882 0 0 0 0 428.22423588529796 -65.298883805473452 0 -65.298883805473452 -524.61735253922234 0 0 0 0 -27.04448372682964 -53.807608020659245 0 -53.807608020659245 39.486219163147325 0 0 0 0 779.37497027668712 459.81496090498695 0 459.81496090498695 -353.81689089389693 0 0 0 0 -237.54914791144347 116.70073678026529 0 116.70073678026529 1214.3948049839382 0 0 0 0 6.9784217797649664 -13.947092206440942 0 -13.947092206440942 25.223871129303319 0 0 0 0 9.5176946244237115 -41.908362770704116 0 -41.908362770704116 -12.80544893354454 0 0 0 0 -177.46567420980637 -114.08371523254027 0 -114.08371523254027 46.828728804481216 0 0 0 0 -73.362740076341495 98.118609279548991 0 98.118609279548991 71.682582316163462 0 0 0 0 -57.380590357345881 59.003739111327377 0 59.003739111327377 -13.705085793422768 0 0 0 0 -68.745473725037982 20.259592613812856 0 20.259592613812856 4.7169045616174117 0 0 0 0 -31.901261479046298 65.869730417951359 0 65.869730417951359 70.88983255790663 0 0 0 0 -29.000846163662231 113.03725270787254 0 113.03725270787254 75.204449725308223 0 0 0 0 16.108716478386629 -27.621456254751763 0 -27.621456254751763 31.54860998405627 0 0 0 0 52.952765274855665 69.426892748873797 0 69.426892748873797 -109.06631137468139 0 0 0 0 11.066217341246102 -253.10781154812139 0 -253.10781154812139 -296.47160738539242 0 0 0 0 -42.741714276102471 -4.1534743948868709 0 -4.1534743948868709 -89.917909720534226 0 0 0 0 96.295896460342647 186.99194172702846 0 186.99194172702846 16.364869277625985 0 0 0 0 65.606236836329344 124.90803445416532 0 124.90803445416532 35.08561992032628 0 0 0 0 28.502214958583977 -269.86227639912977 0 -269.86227639912977 392.76305127481464 0 0 0 0 -60.774422801127116 -27.855467980349204 0 -27.855467980349204 261.01301707798848 0 0 0 0 -37.503931552939662 129.24954002224695 0 129.24954002224695 309.32389790919842 0 0 0 0 -57.350063496297025 81.180082713130105 0 81.180082713130105 718.47914471547119 0 0 0 0 170.0010051875413 431.39892402359692 0 431.39892402359692 559.79074811883038 0 0 0 0 -30.36823699675233 14.569715321587864 0 14.569715321587864 181.40180871183838 0 0 0 0 -49.234802987169815 6.3168456248859002 0 6.3168456248859002 188.32070378161734 0 0 0 0 -23.308513143124856 39.87521814982756 0 39.87521814982756 6.4593833377111878 0 0 0 0 -5.6564417051954479 -3.7668107396002597 0 -3.7668107396002597 97.556227523092275 0 0 0 0 0.57717370817567826 -7.9025553908240909 0 -7.9025553908240909 95.902634143134492 0 0 0 0 -11.584662600044023 5.5661408243372819 0 5.5661408243372819 82.181216050850054 0 0 0 0 15.476199967602724 -19.240858992978247 0 -19.240858992978247 101.51183018383745 0 0 0 0 -15.983539782158005 4.8399401121278061 0 4.8399401121278061 111.20431944235315 0 0 0 0 -22.564395863788832 -3.9030466094554868 0 -3.9030466094554868 112.46070466207675 0 0 0 0 -31.723229284885747 -16.886792384088039 0 -16.886792384088039 115.8877462960445 0 0 0 0 -17.125923416751448 -14.666285733255791 0 -14.666285733255791 107.80573912750697 0 0 0 0 -18.08831002177385 -9.194926200703776 0 -9.194926200703776 118.55069814699527 0 0 0 0 -21.769600987473495 -29.878026697524547 0 -29.878026697524547 97.54420315198513 0 0 0 0 -29.376765254258544 -20.606857252976624 0 -20.606857252976624 119.39859248761059 0 0 0 0 -30.437407658267659 -4.0431120675289094 0 -4.0431120675289094 132.9938649399046 0 0 0 0 -39.274381456756601 -32.916444625163422 0 -32.916444625163422 107.82873495972308 0 0 0 0 -37.207413781243304 -37.518098624044796 0 -37.518098624044796 110.74899143788571 0 0 0 0 -12.05690764313772 -59.704116851366962 0 -59.704116851366962 7.0183792129246285 0 0 0 0 -72.921782693611931 -76.974827898477088 0 -76.974827898477088 76.222876238738536 0 0 0 0 -17.004678458199578 -42.757166966661316 0 -42.757166966661316 64.586178044693952 0 0 0 0 0.23627504672484001 -33.685806001782623 0 -33.685806001782623 29.407231253333578 0 0 0 0 -5.4606711450570629 -36.489683306850566 0 -36.489683306850566 65.159152542240918 0 0 0 0 -0.52892795786374336 -19.279815484253049 0 -19.279815484253049 91.457521208692924 0 0 0 0 5.7998384963075296 -19.136122219544632 0 -19.136122219544632 67.789620200375794 0 0 0 0 4.3273559898883072 -33.639590895788288 0 -33.639590895788288 30.686177095716133 0 0 0 0 -0.901833505686227 -16.393932262191811 0 -16.393932262191811 99.160608288682852 0 0 0 0 7.4635638553081662 -19.579597927127907 0 -19.579597927127907 53.462287724333692 0 0 0 0 -4.4256237314713758 -24.82879887871286 0 -24.82879887871286 62.801902363964473 0 0 0 0 -2.3075903222384113 -31.962185141695954 0 -31.962185141695954 59.69172775761399 0 0 0 0 4.6519268433277414 -35.631830576801626 0 -35.631830576801626 40.679651917827073 0 0 0 0 12.478945139467214 -7.4844114127517969 0 -7.4844114127517969 110.25834174473857 0 0 0 0 3.9890549910546724 -19.914697498239548 0 -19.914697498239548 96.024270466150483 0 0 0 0 -7.1729647879537879 -16.796441227143077 0 -16.796441227143077 107.6397010188748 0 0 0 0 -7.8878239663528076 -9.7719062580270517 0 -9.7719062580270517 31.547792482815055 0 0 0 0 -4.6615200979854325 -10.284466080804123 0 -10.284466080804123 28.931844978804293 0 0 0 0 423.3879560294663 -87.665258227512822 0 -87.665258227512822 -61.119665141188307 0 0 0 0 -162.51813779319582 114.7839651561444 0 114.7839651561444 189.1251504408865 0 0 0 0 0.40847427138269976 -2.0129106902765503 0 -2.0129106902765503 3.7715188055107092 0 0 0 0 79.509841469453022 -197.52277226467413 0 -197.52277226467413 91.733339661172067 0 0 0 0 310.3515178476714 -8.36283705176902 0 -8.36283705176902 -60.700780278712045 0 0 0 0 -108.42629152679365 -75.051191519592976 0 -75.051191519592976 36.856566674578062 0 0 0 0 -0.84107611035839724 -13.029104118642863 0 -13.029104118642863 22.366521412448492 0 0 0 0 -0.0092093932933345474 -11.066481187455793 0 -11.066481187455793 26.996935646435304 0 0 0 0 -5.1181136247474086 -13.163005186045353 0 -13.163005186045353 24.893286650972698 0 0 0 0 27.970290797999823 -11.458563561983851 0 -11.458563561983851 5.3994942541023079 0 0 0 0 136.51383179346635 -110.9777466202504 0 -110.9777466202504 340.60534559635562 0 0 0 0 -6.1512383788448055 -10.719861761245681 0 -10.719861761245681 23.367473597235531 0 0 0 0 0.013184227387418637 -9.2122515238006599 0 -9.2122515238006599 14.568373406549654 0 0 0 0 7.0724941968133166 -3.6736619168580944 0 -3.6736619168580944 3.2439723476867925 0 0 0 0 -0.98378684597658528 -249.26987337021274 0 -249.26987337021274 836.27735020354157 0 0 0 0 0.3366770299430778 309.44656186243992 0 309.44656186243992 944.32320537997293 0 0 0 0 -103.28226646219719 177.52342196871177 0 177.52342196871177 1074.4740929638938 0 0 0 0 63.892378428009977 338.51386473265302 0 338.51386473265302 785.92633099058003 0 0 0 0 -94.373624749289547 140.9503440195258 0 140.9503440195258 615.92593848970137 0 0 0 0 10.540639703744318 368.24662506887398 0 368.24662506887398 775.10888187861565 0 0 0 0 78.580621675736438 -90.118054516904522 0 -90.118054516904522 -49.076833929197164 0 0 0 0 35.08622009707301 12.54694400529479 0 12.54694400529479 -58.96213095317944 0 0 0 0 0.5669608773642949 236.00474403711269 0 236.00474403711269 584.97215566517843 0 0 0 0 33.968305790347586 2.9777450086476165 0 2.9777450086476165 -71.412183113741776 0 0 0 0 119.78265370219106 122.96219944397308 0 122.96219944397308 280.37987513604457 0 0 0 0 22.058601054931387 24.367097713919065 0 24.367097713919065 -32.322837599895138 0 0 0 0 66.07501411958583 101.69326792506035 0 101.69326792506035 303.47663574258331 0 0 0 0 22.104092577393534 -7.0867785959971172 0 -7.0867785959971172 3.0700610810483369 0 0 0 0 2.2323689541668981 -2.6028415756690322 0 -2.6028415756690322 0.75903234395642016 0 0 0 0 33.115822072258339 217.29743648434669 0 217.29743648434669 537.60182630794588 0 0 0 0 72.998444762839654 342.22237179301737 0 342.22237179301737 398.55083504233335 0 0 0 0 113.90555126355866 289.92833740092465 0 289.92833740092465 15.653603299651877 0 0 0 0 -21.083319873698883 190.87754623138608 0 190.87754623138608 485.80653797058039 0 0 0 0 187.57681840772125 490.8984465667163 0 490.8984465667163 1046.177780285263 0 0 0 0 148.89031217177069 311.63431011127614 0 311.63431011127614 502.77446545971907 0 0 0 0 84.765770814981124 467.99546763594844 0 467.99546763594844 783.84161163204408 0 0 0 0 545.97357467735753 346.94107866066042 0 346.94107866066042 320.06651869113557 0 0 0 0 1.8641823309944285 -0.070602060969868319 0 -0.070602060969868319 4.9081061467179552 0 0 0 0 181.72133111146144 -271.54832051977928 0 -271.54832051977928 390.47537727036979 0 0 0 0 282.2395646412217 -34.669301117333816 0 -34.669301117333816 -196.11853162542684 0 0 0 0 259.03660899419424 -60.576639834631351 0 -60.576639834631351 -10.859889328137797 0 0 0 0 165.76296268212013 -105.84142075153068 0 -105.84142075153068 10.007681180111831 0 0 0 0 4.8234043502161512 -5.4418155196763109 0 -5.4418155196763109 4.3823191699484596 0 0 0 0 -165.63482509859773 72.931368006829871 0 72.931368006829871 -47.999920479713182 0 0 0 0 7.8455855557071486 -3.51462465736941 0 -3.51462465736941 1.6050771661891616 0 0 0 0 7.828632741403986 -2.3747165714823382 0 -2.3747165714823382 9.1533072126922264 0 0 0 0 9.1616903068230329 -4.9093094429290041 0 -4.9093094429290041 -1.1385067745636661 0 0 0 0 0.17638323397883937 -16.296105395843597 0 -16.296105395843597 41.217027058184613 0 0 0 0 -90.16083471951049 53.023983902297005 0 53.023983902297005 31.218096379889175 0 0 0 0 2.255132394861362 -3.8238725937189382 0 -3.8238725937189382 16.930977547312466 0 0 0 0 39.187587957638243 143.65688954279904 0 143.65688954279904 52.889842999975372 0 0 0 0 -206.65452012443666 -13.605285432866367 0 -13.605285432866367 189.45402428216767 0 0 0 0 42.95042692788229 -168.73499653580075 0 -168.73499653580075 191.74312816351085 0 0 0 0 10.813367962157827 11.012570539445733 0 11.012570539445733 26.912665379673854 0 0 0 0 -0.13013281013093381 -2.9337012624316343 0 -2.9337012624316343 14.538834969574339 0 0 0 0 -33.530590087653081 -6.4691096620153985 0 -6.4691096620153985 52.331660842690326 0 0 0 0 133.22784779868405 -233.75682022858382 0 -233.75682022858382 147.36919333734113 0 0 0 0 0.36028868718462093 -49.452848381939475 0 -49.452848381939475 80.74527779409982 0 0 0 0 -0.60314769735931606 -11.73589466567816 0 -11.73589466567816 -12.075871944262985 0 0 0 0 -9.7461015493378227 3.1049243829838815 0 3.1049243829838815 23.962642932514427 0 0 0 0 6.9462402654346729 -7.2610418250768873 0 -7.2610418250768873 -8.5162754086699124 0 0 0 0 160.33235070912269 -4.5702233086922206 0 -4.5702233086922206 -26.335316743090516 0 0 0 0 64.283146906073569 -40.260767664189189 0 -40.260767664189189 106.75410451038624 0 0 0 0 242.51297285900341 -211.2304630792496 0 -211.2304630792496 110.36564923369951 0 0 0 0 105.7201028588471 -119.45847658590355 0 -119.45847658590355 400.54991582153889 0 0 0 0 288.56221710013779 -85.854232124562259 0 -85.854232124562259 -79.263739062211243 0 0 0 0 -37.027679178563176 -52.12878914103203 0 -52.12878914103203 349.89919837415073 0 0 0 0 136.19812676891473 -121.020881108092 0 -121.020881108092 137.41246098227566 0 0 0 0 87.076478107861931 -174.80780017622237 0 -174.80780017622237 210.88234952994389 0 0 0 0 4.9161297083650197 -95.148392669070745 0 -95.148392669070745 139.27233557279396 0 0 0 0 92.865995901599945 -141.4400673416385 0 -141.4400673416385 135.86332758086064 0 0 0 0 97.481517470944823 -149.67051899107901 0 -149.67051899107901 114.44506228352839 0 0 0 0 91.286892729857954 -149.58181282872101 0 -149.58181282872101 112.96978693411802 0 0 0 0 27.926033820032444 -91.312539236474549 0 -91.312539236474549 74.770139513093454 0 0 0 0 -81.652549511386951 -114.99207113904413 0 -114.99207113904413 60.623239872311387 0 0 0 0 -70.609034864350747 -77.734634940117758 0 -77.734634940117758 93.603544248559047 0 0 0 0 -61.987716051123925 -111.46821188458853 0 -111.46821188458853 148.03598159499234 0 0 0 0 1.6290073916385239 -117.16956282058436 0 -117.16956282058436 122.53297403806937 0 0 0 0 -133.11111003851209 -82.953811812614731 0 -82.953811812614731 213.38118667663366 0 0 0 0 -171.0360911781934 25.868703799182185 0 25.868703799182185 92.826184455159819 0 0 0 0 -37.315591752536207 -68.239357021507658 0 -68.239357021507658 150.65226584594348 0 0 0 0 -113.87922806012182 30.123064732120838 0 30.123064732120838 35.733739791190601 0 0 0 0 -113.14792948037311 24.293357671558624 0 24.293357671558624 71.403238504455658 0 0 0 0 -111.42865628554262 -37.32196635872242 0 -37.32196635872242 132.55850538607046 0 0 0 0 -121.54801640762615 -8.8227291316579795 0 -8.8227291316579795 62.888656806622748 0 0 0 0 -92.441880360058974 -61.768069288169499 0 -61.768069288169499 53.426345606141695 0 0 0 0 -89.269437142821033 -54.312117848123307 0 -54.312117848123307 68.300109483097913 0 0 0 0 -32.538120392327755 -145.57148865272757 0 -145.57148865272757 -104.8997022354306 0 0 0 0 -4.0001989976559438 0.84165117114250165 0 0.84165117114250165 -1.0019624016010198 0 0 0 0 -46.079558450532772 -69.720798787340755 0 -69.720798787340755 -68.09083582207677 0 0 0 0 -158.96378491067549 -166.34640259128355 0 -166.34640259128355 52.248836083934293 0 0 0 0 -11.116064529842333 -101.50547096045921 0 -101.50547096045921 26.668758662301116 0 0 0 0 -4.5794500343595246 -122.95525137207005 0 -122.95525137207005 90.821176970122906 0 0 0 0 269.46562486441138 -170.80820277942985 0 -170.80820277942985 -44.460617240722058 0 0 0 0 95.116249775850918 225.30323252171365 0 225.30323252171365 -193.31559334968915 0 0 0 0 21.699426635079021 -99.288729948551918 0 -99.288729948551918 45.371846495669161 0 0 0 0 -6.7161897724392947 -13.666784292598436 0 -13.666784292598436 -11.831193538227524 0 0 0 0 -255.87602211490866 -113.4690594544154 0 -113.4690594544154 515.09468411559646 0 0 0 0 59.77546453290779 -117.94614934499987 0 -117.94614934499987 301.26541330090004 0 0 0 0 30.824116731143363 -94.718672864852124 0 -94.718672864852124 62.729707247257465 0 0 0 0 0.27749967047623159 -60.650485499339993 0 -60.650485499339993 27.874787919936352 0 0 0 0 -34.163799076732403 -96.965650691716291 0 -96.965650691716291 -9.7243142120314587 0 0 0 0 3.0405359938565653 -14.061505259251135 0 -14.061505259251135 4.0098806051246356 0 0 0 0 8.3495663097121167 -6.6927726580652234 0 -6.6927726580652234 -33.905030428693863 0 0 0 0 -10.144023745258892 2.9301600572507596 0 2.9301600572507596 70.942612561067108 0 0 0 0 1.7872044718084048 -1.1075166682494029 0 -1.1075166682494029 -0.57087957950628265 0 0 0 0 27.100463504594472 -10.231709466868779 0 -10.231709466868779 -3.8910090405115625 0 0 0 0 3.3063938855580952 -3.2113796290142318 0 -3.2113796290142318 -1.0096426003659928 0 0 0 0 2.0105122988940334 -4.506890111532897 0 -4.506890111532897 -4.1313572805516969 0 0 0 0 7.6320625142275276 -12.477276389538019 0 -12.477276389538019 -2.9681255082214193 0 0 0 0 5.2819721671792195 5.8842717691877624 0 5.8842717691877624 7.8542448777880054 0 0 0 0 -76.69407597348868 -20.998870115945465 0 -20.998870115945465 11.849757626063365 0 0 0 0 -4.9907690314902737 -37.627150869074285 0 -37.627150869074285 32.502304538618773 0 0 0 0 4.4878708367232374 -7.6853661849546171 0 -7.6853661849546171 7.0150510787560734 0 0 0 0 2.412253949810065 -7.1301409550069366 0 -7.1301409550069366 3.3723314295057207 0 0 0 0 -64.160425622724688 1.722369093389716 0 1.722369093389716 7.2336744028289104 0 0 0 0 -2.545436720013063 -3.4576835127593313 0 -3.4576835127593313 1.8182705064697302 0 0 0 0 -80.498350375820792 17.464625797671033 0 17.464625797671033 7.390227909792884 0 0 0 0 -118.09023238916996 -4.0277412753894168 0 -4.0277412753894168 53.705965931410901 0 0 0 0 -59.766814581864651 -41.18305274706654 0 -41.18305274706654 46.099396752615576 0 0 0 0 -79.244686720343452 -21.747010834962566 0 -21.747010834962566 28.441320219310001 0 0 0 0 -66.664165981815358 -39.868082712542673 0 -39.868082712542673 103.86409493273823 0 0 0 0 -31.124383034140919 -41.695454710374179 0 -41.695454710374179 53.969869825781643 0 0 0 0 -24.289826448103668 2.2826097122670035 0 2.2826097122670035 61.595130264642648 0 0 0 0 -39.894856158759694 -30.916058286995394 0 -30.916058286995394 -3.5228658404375892 0 0 0 0 -4.2665716845660882 -3.7748310097013018 0 -3.7748310097013018 -86.251736297861498 0 0 0 0 -143.5067716390991 -50.951789906102931 0 -50.951789906102931 -3.2441065611419617 0 0 0 0 -2.4622599257972331 -0.73046045082675448 0 -0.73046045082675448 1.0987928964062803 0 0 0 0 -186.62941823265203 60.882949287231895 0 60.882949287231895 -3.0363753567944514 0 0 0 0 -157.75685756552548 35.123365114661283 0 35.123365114661283 4.0211332849430619 0 0 0 0 -29.736057385800677 -25.816017084485793 0 -25.816017084485793 32.725200258377299 0 0 0 0 -36.92111905078886 36.88621309465816 0 36.88621309465816 13.385536008659983 0 0 0 0 137.03880062477219 -77.075388712852146 0 -77.075388712852146 -118.52616165438667 0 0 0 0 141.43524494030561 -21.630941974330653 0 -21.630941974330653 81.365509349299828 0 0 0 0 -7.768720532878433 -79.533090191049268 0 -79.533090191049268 54.505255306779873 0 0 0 0 95.651015030007784 -36.590730463030013 0 -36.590730463030013 14.023729015083518 0 0 0 0 93.685542533398461 -26.637681670779784 0 -26.637681670779784 5.388024275744101 0 0 0 0 49.016758670548825 1.7372711314710614 0 1.7372711314710614 -22.33071543033293 0 0 0 0 0.40105778991048369 -3.7186776867654014 0 -3.7186776867654014 9.296273655126754 0 0 0 0 -1.1464584210743851 -21.414432116933312 0 -21.414432116933312 -5.6717196832469199 0 0 0 0 55.681783031488521 21.373551479304297 0 21.373551479304297 63.944053954750416 0 0 0 0 15.447006040966698 -31.411301657848526 0 -31.411301657848526 -2.9382845592626836 0 0 0 0 0.5015985477492837 -2.9204008453064754 0 -2.9204008453064754 2.9756117007369767 0 0 0 0 -24.049059694894027 -7.8017956434396183 0 -7.8017956434396183 216.33372249446984 0 0 0 0 23.685868703933011 -170.70390520386718 0 -170.70390520386718 140.48504961463914 0 0 0 0 114.81557986150256 -213.96356977882533 0 -213.96356977882533 70.596442447174923 0 0 0 0 111.59761456484748 -115.8157479666429 0 -115.8157479666429 57.00161980377743 0 0 0 0 300.91560606427566 -96.204899469299562 0 -96.204899469299562 -18.383651437849039 0 0 0 0 106.04536383565755 -37.422909974149661 0 -37.422909974149661 0.4460884802210785 0 0 0 0 107.75073017693353 -48.499917733319307 0 -48.499917733319307 13.179709305521101 0 0 0 0 -4.8386276118152738 -11.181885524918613 0 -11.181885524918613 41.388726569561868 0 0 0 0 -4.5883797597522671 1.7960266328177035 0 1.7960266328177035 23.575820790265141 0 0 0 0 6.4408183095138156 -76.256482883625722 0 -76.256482883625722 80.650548663528753 0 0 0 0 -77.294415233245672 57.115589346009074 0 57.115589346009074 17.04963669765857 0 0 0 0 -19.384913636153524 -17.008319283122546 0 -17.008319283122546 109.73770231024173 0 0 0 0 2.804478005834631 -6.1405321496711167 0 -6.1405321496711167 13.049096273880537 0 0 0 0 -247.724692386073 -23.499294746550731 0 -23.499294746550731 76.072119196345739 0 0 0 0 26.207700641692448 -64.694392605168673 0 -64.694392605168673 74.793536853205296 0 0 0 0 -7.8169733811037139 -0.360280786438544 0 -0.360280786438544 36.791657528082794 0 0 0 0 -10.891152652673675 -4.9732811676643891 0 -4.9732811676643891 37.837089732024424 0 0 0 0 -40.154552711119322 7.5891460585116874 0 7.5891460585116874 13.517599877319299 0 0 0 0 -6.4239593256953853 -28.111584528784078 0 -28.111584528784078 52.464616298425597 0 0 0 0 -9.3235994257315173 -5.7542270680569345 0 -5.7542270680569345 77.918521289597265 0 0 0 0 -6.4406503520749698 -2.0593941400293261 0 -2.0593941400293261 54.143654175306438 0 0 0 0 0.0027353852620328294 -18.578503191965865 0 -18.578503191965865 90.002725972619373 0 0 0 0 13.817683925284271 -8.4501395095721819 0 -8.4501395095721819 32.257317683892325 0 0 0 0 -8.7049376217727463 -5.8258743080950808 0 -5.8258743080950808 37.300497519194323 0 0 0 0 -6.7631333750550562 -7.0846488451864857 0 -7.0846488451864857 35.7141171165012 0 0 0 0 11.60429152982033 -36.056136991253879 0 -36.056136991253879 -12.368812416651053 0 0 0 0 215.20434803169155 -58.557058516860707 0 -58.557058516860707 -45.392129326835857 0 0 0 0 0.64821798260013519 -4.2562477956022278 0 -4.2562477956022278 12.65166921468159 0 0 0 0 -89.717572057147663 114.59139161310668 0 114.59139161310668 11.374746832996607 0 0 0 0 127.54200036887201 -27.664949635606717 0 -27.664949635606717 -35.315474724848173 0 0 0 0 0.0040288730600211466 -6.850234272480785 0 -6.850234272480785 31.1956794498401 0 0 0 0 -0.0057940286461709775 -6.6654619478140376 0 -6.6654619478140376 68.860871478747868 0 0 0 0 -128.99422868911824 -89.373915873697115 0 -89.373915873697115 7.2786720737494761 0 0 0 0 0.03002622618284434 -7.9449529315097607 0 -7.9449529315097607 66.498173724027765 0 0 0 0 0.082478986347958971 -6.9860850560237999 0 -6.9860850560237999 68.355850756358961 0 0 0 0 0.36729327811331886 -6.9442550214520766 0 -6.9442550214520766 64.540618946551547 0 0 0 0 -3.0451153955675334 -9.4947520967325545 0 -9.4947520967325545 64.391028201061999 0 0 0 0 -2.2447085533130569 -8.023454135938664 0 -8.023454135938664 66.51691850523639 0 0 0 0 0.00021449967195215185 -7.8176002293657803 0 -7.8176002293657803 63.373057421966223 0 0 0 0 -0.54396160025219586 -8.9980637575754372 0 -8.9980637575754372 61.39263180483249 0 0 0 0 -4.0922946769452153 -9.0475392545922659 0 -9.0475392545922659 61.419797604023188 0 0 0 0 -0.0056757336734695775 -11.313380518968188 0 -11.313380518968188 59.130938203139522 0 0 0 0 -18.20658498148714 -4.3826251045938989 0 -4.3826251045938989 64.562874129245756 0 0 0 0 -1.8429219811437798 -7.2596095529893985 0 -7.2596095529893985 60.524589208351131 0 0 0 0 -5.7104785668748335 -10.9617554869983 0 -10.9617554869983 59.255007165622374 0 0 0 0 -57.822684326696432 -15.720384230443187 0 -15.720384230443187 74.084398349266849 0 0 0 0 2.7019757560608468 -9.6365231351519469 0 -9.6365231351519469 64.734416080813389 0 0 0 0 -6.6470774071590135 2.5788627018720831 0 2.5788627018720831 19.634985940716206 0 0 0 0 175.57385460133401 126.76540307478717 0 126.76540307478717 112.75704066582011 0 0 0 0 -11.631543811169308 -38.212319063780342 0 -38.212319063780342 84.272816182325187 0 0 0 0 0.73953594480553875 -175.60328389539791 0 -175.60328389539791 191.51174078011172 0 0 0 0 -14.266948416279547 -123.89740090611303 0 -123.89740090611303 76.848843235537061 0 0 0 0 -1.1692541081238232 -20.901203573434032 0 -20.901203573434032 61.62746765031352 0 0 0 0 20.697738461708127 -54.858009788546042 0 -54.858009788546042 90.283919426889042 0 0 0 0 37.651707631225463 -42.563372461318068 0 -42.563372461318068 63.717795363059849 0 0 0 0 -1.0223223822563341 -39.580364241586722 0 -39.580364241586722 50.420247915186337 0 0 0 0 22.802089638267489 -40.766133307181008 0 -40.766133307181008 63.474331020202953 0 0 0 0 29.073966865669263 -23.713807880842069 0 -23.713807880842069 58.014918383691111 0 0 0 0 -10.470653339767978 -28.190092620177893 0 -28.190092620177893 56.689896941898041 0 0 0 0 -10.325943372991333 -14.472909019270446 0 -14.472909019270446 50.524567512231442 0 0 0 0 -79.697551024568611 -41.418330411073839 0 -41.418330411073839 40.081479798696819 0 0 0 0 11.300316395747814 3.0696794215618866 0 3.0696794215618866 -3.2623577574631781 0 0 0 0 23.579118870605726 -16.87972790504864 0 -16.87972790504864 34.21856260471759 0 0 0 0 12.77647771944703 -7.239448875625385 0 -7.239448875625385 60.109422876528697 0 0 0 0 28.558894750556192 -29.072566866863781 0 -29.072566866863781 61.328455310693244 0 0 0 0 38.076113676132309 -27.57499396543426 0 -27.57499396543426 49.573152349737938 0 0 0 0 40.535612558374851 -29.978014446838642 0 -29.978014446838642 48.572990563654457 0 0 0 0 40.123092936825401 -28.221242804967915 0 -28.221242804967915 52.757818406273145 0 0 0 0 397.95223274895716 63.84476354695289 0 63.84476354695289 -194.15256881339155 0 0 0 0 41.563501708207767 -31.782026267320816 0 -31.782026267320816 56.283340607049468 0 0 0 0 38.690243830439243 -32.113630189141986 0 -32.113630189141986 56.262634256949241 0 0 0 0 3.6092770033974233 13.122524896176586 0 13.122524896176586 15.128477365784192 0 0 0 0 41.793815588527195 -31.403780956883566 0 -31.403780956883566 47.877708540872845 0 0 0 0 43.071833973272533 -20.561218101101986 0 -20.561218101101986 67.561576564330608 0 0 0 0 27.930543181130361 -33.475004226078454 0 -33.475004226078454 60.823676270389115 0 0 0 0 -1.3714886502996695 11.273762013832538 0 11.273762013832538 13.996897345789336 0 0 0 0 -181.99940751351141 -23.834523350407835 0 -23.834523350407835 102.19595261162613 0 0 0 0 22.683715990921201 -28.610456027599867 0 -28.610456027599867 91.94672841236752 0 0 0 0 -248.38992815283302 -261.87507124970216 0 -261.87507124970216 585.00777801431832 0 0 0 0 -16.757820917559911 -126.4282394421607 0 -126.4282394421607 77.38612183055011 0 0 0 0 -16.536267333011892 -124.47250983199046 0 -124.47250983199046 77.433071244333405 0 0 0 0 -20.378734522776995 -125.84224357483254 0 -125.84224357483254 78.232111462391913 0 0 0 0 -31.128876469052727 -91.710694382742076 0 -91.710694382742076 -13.699908881724696 0 0 0 0 2.4510900748889135 -2.4767219102072175 0 -2.4767219102072175 2.6338380286199481 0 0 0 0 116.05334571856656 -187.80369410190906 0 -187.80369410190906 45.99272580241086 0 0 0 0 -14.173719223176818 95.192164406726079 0 95.192164406726079 235.5560840978851 0 0 0 0 -60.120944072018233 51.565513591955096 0 51.565513591955096 249.65464030406838 0 0 0 0 -12.627654549626868 72.386769734555855 0 72.386769734555855 234.51161422811856 0 0 0 0 -26.207617259584026 67.460266713344026 0 67.460266713344026 240.6127072298259 0 0 0 0 37.899450866806546 -69.545578567318444 0 -69.545578567318444 47.603488095173816 0 0 0 0 64.13479187396922 -18.072378150827717 0 -18.072378150827717 -4.8964650068082847 0 0 0 0 2.7219435187624104 0.44037891363602455 0 0.44037891363602455 0.49098698256858597 0 0 0 0 2.8245835376465038 -10.209774372415268 0 -10.209774372415268 328.19762785181229 0 0 0 0 -16.447367090316675 6.4745448592948378 0 6.4745448592948378 333.4882609313936 0 0 0 0 24.263109893097408 -15.020354622864033 0 -15.020354622864033 168.26983319413557 0 0 0 0 12.038785648133398 57.286754462773388 0 57.286754462773388 148.21896252920669 0 0 0 0 21.269804346985211 -8.5757577003751067 0 -8.5757577003751067 -39.078458258634782 0 0 0 0 28.26974538001582 47.862254678331738 0 47.862254678331738 -28.83180366976012 0 0 0 0 -72.190462644796526 -8.7761771257064538 0 -8.7761771257064538 150.99956651451794 0 0 0 0 27.233369452841259 -7.417189068004518 0 -7.417189068004518 35.928347903347458 0 0 0 0 4.7100777546533044 11.502457686609532 0 11.502457686609532 17.53370581064479 0 0 0 0 31.483516938448133 -0.99300980472071387 0 -0.99300980472071387 41.76219451308134 0 0 0 0 29.410575239268155 32.035027733851166 0 32.035027733851166 -54.992034815291845 0 0 0 0 7.9834262346861351 2.2433668401863542 0 2.2433668401863542 41.609065832177293 0 0 0 0 64.358905218306688 8.0886358188872691 0 8.0886358188872691 5.7924660905118799 0 0 0 0 42.213767856384266 18.914711795863695 0 18.914711795863695 6.7524533005707781 0 0 0 0 -0.89475526653435689 -6.5621848524111002 0 -6.5621848524111002 41.538108403604383 0 0 0 0 -11.36878950143614 8.9983191311039263 0 8.9983191311039263 41.162165106870816 0 0 0 0 -43.134391434346 7.2804205155553063 0 7.2804205155553063 43.240472248842707 0 0 0 0 2.512829531544952 25.94940038700588 0 25.94940038700588 14.254264090908691 0 0 0 0 -0.98878890318899049 13.448309037856802 0 13.448309037856802 13.21226616905335 0 0 0 0 46.632210724541238 -0.33431384898722172 0 -0.33431384898722172 25.658356299536536 0 0 0 0 52.988493948744235 -34.434360662133258 0 -34.434360662133258 49.115467937503126 0 0 0 0 70.402780299357687 -28.034142160751799 0 -28.034142160751799 41.26879210928746 0 0 0 0 93.906099563925494 -80.799288840178633 0 -80.799288840178633 98.34029878515139 0 0 0 0 78.823136116211799 -53.251721853892377 0 -53.251721853892377 51.761836286837934 0 0 0 0 1.4538362574339949 0.069571269122292279 0 0.069571269122292279 1.7639999905455852 0 0 0 0 120.2770857502273 -33.626362282935588 0 -33.626362282935588 30.919186710845679 0 0 0 0 42.934102737130978 56.024003537813769 0 56.024003537813769 28.593399934034096 0 0 0 0 160.97044432943824 -41.504859250268055 0 -41.504859250268055 113.76979266494163 0 0 0 0 102.46337631754318 -99.952963731981072 0 -99.952963731981072 124.86030724906595 0 0 0 0 94.1602121929227 -78.884295203875809 0 -78.884295203875809 162.78320698652715 0 0 0 0 72.173799302460338 -44.351642811343481 0 -44.351642811343481 113.69542132125935 0 0 0 0 79.715834325358855 -28.20236552139977 0 -28.20236552139977 116.7856305486057 0 0 0 0 70.329169316079856 -11.774161297504179 0 -11.774161297504179 147.89978542840981 0 0 0 0 51.962819466944893 -70.046973395699752 0 -70.046973395699752 144.88356607336755 0 0 0 0 31.78668270871151 -26.884620233327951 0 -26.884620233327951 100.60629630138283 0 0 0 0 34.546284131571156 -37.558756887639902 0 -37.558756887639902 137.37770565535175 0 0 0 0 0.02643075812807183 -37.621620453850483 0 -37.621620453850483 110.82663678081917 0 0 0 0 7.785488146327225 -53.034809540433343 0 -53.034809540433343 110.86402356213512 0 0 0 0 4.885598528198102 -42.523192389902761 0 -42.523192389902761 96.050114531914005 0 0 0 0 42.922184835949679 -50.757740585511783 0 -50.757740585511783 82.693249137781095 0 0 0 0 42.889634453149142 -50.67307903085748 0 -50.67307903085748 111.00131650215189 0 0 0 0 28.800333885867758 -43.762080061642337 0 -43.762080061642337 80.174876615794346 0 0 0 0 55.493712394721285 -38.617420832399148 0 -38.617420832399148 48.453462269812007 0 0 0 0 5.1008209283618271 -26.508916557409975 0 -26.508916557409975 102.61164907948114 0 0 0 0 19.666958108637232 -26.391181490411327 0 -26.391181490411327 60.880618433671771 0 0 0 0 -28.893559955895398 24.350223037556134 0 24.350223037556134 147.19906521761732 0 0 0 0 -10.093023873255333 0.5522928008067538 0 0.5522928008067538 57.982850456555752 0 0 0 0 3.5003979043803639 -52.882636697499834 0 -52.882636697499834 -187.96113854364376 0 0 0 0 5.5395864376687314 31.171697843317816 0 31.171697843317816 48.089899195721955 0 0 0 0 -69.397186059600244 151.42142274814978 0 151.42142274814978 361.42241960305546 0 0 0 0 -42.117419510908803 63.3929198620026 0 63.3929198620026 32.614750355496653 0 0 0 0 -83.94428223677096 -106.70877446001396 0 -106.70877446001396 361.91957088571507 0 0 0 0 -70.029955180255001 -61.547787712468562 0 -61.547787712468562 135.79947493031796 0 0 0 0 -28.245975947159423 -45.746134144821553 0 -45.746134144821553 110.07885408894799 0 0 0 0 -18.516266354503387 -36.236857353549567 0 -36.236857353549567 99.60464651991424 0 0 0 0 -52.404686148595601 -39.140905318654404 0 -39.140905318654404 156.86065964914451 0 0 0 0 -15.687733436202734 -57.587992855915218 0 -57.587992855915218 93.044955154138734 0 0 0 0 -25.70572059032429 -50.72974781774974 0 -50.72974781774974 110.56237279534798 0 0 0 0 -53.544939078366042 -11.479794736129406 0 -11.479794736129406 90.601200686804077 0 0 0 0 -14.522986245417769 -34.418258530575258 0 -34.418258530575258 64.261708857637132 0 0 0 0 -6.5472466624775052 -21.387249872132088 0 -21.387249872132088 84.776685022559832 0 0 0 0 -55.333923895637355 2.6754676321529587 0 2.6754676321529587 41.544719451434503 0 0 0 0 -64.470039000128509 -34.603533762849111 0 -34.603533762849111 46.607676627907495 0 0 0 0 -47.992288203461158 -13.740183736059407 0 -13.740183736059407 64.544561107584741 0 0 0 0 -28.085378440405748 -88.394181107665645 0 -88.394181107665645 126.86123366022002 0 0 0 0 -22.466458029947717 -62.460445576922211 0 -62.460445576922211 52.526367702623247 0 0 0 0 -7.5785767136690083 -57.402664346132951 0 -57.402664346132951 -23.960840556072071 0 0 0 0 -2.424859235455223 6.8969106343871331 0 6.8969106343871331 10.561149129271371 0 0 0 0 -154.14901998419782 11.096493567740254 0 11.096493567740254 41.716306919126509 0 0 0 0 0.87797333183710558 -8.3144509208060828 0 -8.3144509208060828 66.9580404945483 0 0 0 0 -157.38414928986958 -11.204797520214925 0 -11.204797520214925 278.72002146713203 0 0 0 0 4.4353568151911755 -9.8098650540123344 0 -9.8098650540123344 71.272000956792908 0 0 0 0 -0.05899666511400127 -7.8775217753754987 0 -7.8775217753754987 59.281232155990438 0 0 0 0 -3.320829130839519 -4.9781943818088621 0 -4.9781943818088621 79.72470018297463 0 0 0 0 0.016614393630681783 -7.5861183923225326 0 -7.5861183923225326 70.190872686609509 0 0 0 0 -0.095838839304978454 -5.2876012937488142 0 -5.2876012937488142 69.797891712268779 0 0 0 0 -55.578250675544496 5.3715305860278022 0 5.3715305860278022 -530.14018107420998 0 0 0 0 -22.468852067944681 -142.8150706445449 0 -142.8150706445449 136.40081684774486 0 0 0 0 -203.97013305351402 6.6207199262426002 0 6.6207199262426002 669.72137342582573 0 0 0 0 0.43569872405504739 -2.23010303047867 0 -2.23010303047867 2.3018292714337463 0 0 0 0 1.8571230778587799 -7.5620251441147275 0 -7.5620251441147275 69.178025637607789 0 0 0 0 22.528425683253317 224.73807936107914 0 224.73807936107914 -47.398838035223889 0 0 0 0 -83.611489804078815 62.820369234821555 0 62.820369234821555 102.49610941649917 0 0 0 0 25.194690383007242 -61.169255134300329 0 -61.169255134300329 83.601330410740047 0 0 0 0 19.915436750021399 -77.704850816215185 0 -77.704850816215185 146.35910417992272 0 0 0 0 1.9438715849576056 -92.155919870296202 0 -92.155919870296202 134.79725796145794 0 0 0 0 -11.741070811625182 8.1866474861950707 0 8.1866474861950707 84.270937637546197 0 0 0 0 -76.454026532458556 25.628352409576109 0 25.628352409576109 148.61640362145408 0 0 0 0 -30.843593241198505 6.766854410243468 0 6.766854410243468 85.6838475564291 0 0 0 0 -11.062678345037966 7.0860177077920525 0 7.0860177077920525 84.382028659245407 0 0 0 0 -18.058343392413008 8.1768710194182859 0 8.1768710194182859 91.291535643569659 0 0 0 0 -14.42481063601258 3.0271878175399252 0 3.0271878175399252 89.531982370699552 0 0 0 0 -11.022819064999112 5.5246656702474866 0 5.5246656702474866 91.02038797617206 0 0 0 0 -12.267096401704748 -1.2852543272986168 0 -1.2852543272986168 100.44146957759222 0 0 0 0 -11.569305993015291 3.2411091228580062 0 3.2411091228580062 89.274477567487338 0 0 0 0 -11.428943743643249 8.7223940692643964 0 8.7223940692643964 84.456277192825667 0 0 0 0 -12.313901131666313 -50.732357479269922 0 -50.732357479269922 117.65949061900028 0 0 0 0 -140.23985543603158 56.244773284755865 0 56.244773284755865 113.6262475088588 0 0 0 0 49.928314712215069 47.920032270751108 0 47.920032270751108 42.737362616513565 0 0 0 0 -11.02945059554564 9.0459660629623428 0 9.0459660629623428 82.453022358777645 0 0 0 0 66.329080668521101 -116.65475225101545 0 -116.65475225101545 115.77855146920047 0 0 0 0 37.108753587565275 -86.599201416964206 0 -86.599201416964206 85.151953833024891 0 0 0 0 63.466360300991937 -123.92458923764934 0 -123.92458923764934 97.339460394898197 0 0 0 0 62.365830867339923 -124.93043537027188 0 -124.93043537027188 118.21354637827608 0 0 0 0 83.167253764062991 -174.30904568554615 0 -174.30904568554615 130.39710474896128 0 0 0 0 78.883473561105006 -151.6949383945248 0 -151.6949383945248 50.767395868082531 0 0 0 0 143.48977115673995 -124.34740437004075 0 -124.34740437004075 33.702355919285765 0 0 0 0 102.93497350155792 -155.17797939752927 0 -155.17797939752927 33.736218475009082 0 0 0 0 -7.4105091067923468 -46.048158133264224 0 -46.048158133264224 59.269805784329947 0 0 0 0 270.26916570895764 -54.770137027284363 0 -54.770137027284363 40.0641623750289 0 0 0 0 104.83883207600076 -74.033359465856847 0 -74.033359465856847 45.950375186293968 0 0 0 0 308.80718860875504 248.91250842442241 0 248.91250842442241 57.674123027852147 0 0 0 0 12.983525022746107 -21.485868041894719 0 -21.485868041894719 402.96813859429676 0 0 0 0 3.9161481048979709 2.6421632893404592 0 2.6421632893404592 5.6576925381674528 0 0 0 0 4.2729121290594776 -36.309991654095938 0 -36.309991654095938 384.97769562262692 0 0 0 0 0.34866765278481865 -2.4531507420408758 0 -2.4531507420408758 11.167278264200661 0 0 0 0 -5.5235614399102815 335.96943446862861 0 335.96943446862861 39.19451522489544 0 0 0 0 51.970644792837398 -214.41215646767796 0 -214.41215646767796 80.50694378168555 0 0 0 0 -124.58360515667596 846.62577148158016 0 846.62577148158016 304.31175935233478 0 0 0 0 102.16866575279732 -201.52641166081594 0 -201.52641166081594 19.488375533881481 0 0 0 0 59.035258490883152 -104.08158033678774 0 -104.08158033678774 -118.7886082118639 0 0 0 0 -237.18386502588658 26.481936352938646 0 26.481936352938646 72.015074094117153 0 0 0 0 48.786898968020182 -80.308774394114153 0 -80.308774394114153 -47.393597842477902 0 0 0 0 49.53894792789913 -81.44110943654232 0 -81.44110943654232 -54.929272256529657 0 0 0 0 -6.5777197560521472 -35.795620055010659 0 -35.795620055010659 18.821290962958301 0 0 0 0 -98.504287412197414 -9.7745148436515592 0 -9.7745148436515592 16.555844279537268 0 0 0 0 -136.33923886013773 75.829463793634204 0 75.829463793634204 -61.763376748654991 0 0 0 0 -32.901482970091735 18.68318590142735 0 18.68318590142735 -146.02276956020796 0 0 0 0 -15.416604836749912 -191.85461259189833 0 -191.85461259189833 138.50703763248748 0 0 0 0 1.931902813785527 -6.7477123588921017 0 -6.7477123588921017 20.243505522900449 0 0 0 0 51.121706936516603 77.676804550239467 0 77.676804550239467 446.69077726105752 0 0 0 0 1627.9203709668009 -319.7733922402258 0 -319.7733922402258 -304.12258854223182 0 0 0 0 42.178877378737752 42.019091994348855 0 42.019091994348855 317.55905341389007 0 0 0 0 9.4014365123939569 -24.79184356071346 0 -24.79184356071346 220.3100807620649 0 0 0 0 -19.524214580496619 59.059813891224621 0 59.059813891224621 146.22212400878198 0 0 0 0 -258.41772448716029 -84.61129674491167 0 -84.61129674491167 96.627572770259576 0 0 0 0 -32.601845444883963 13.418021655168559 0 13.418021655168559 62.848662579061056 0 0 0 0 -122.97961208952984 -57.970764565703575 0 -57.970764565703575 -26.971708257246064 0 0 0 0 -150.86379184175456 -76.110019345280307 0 -76.110019345280307 111.8409350822767 0 0 0 0 -92.596284040703495 31.134304868122854 0 31.134304868122854 124.84412404871182 0 0 0 0 -50.068407674627906 75.556956982160045 0 75.556956982160045 102.78124041502087 0 0 0 0 -70.838984399019125 27.247511068941094 0 27.247511068941094 46.135319360924768 0 0 0 0 -1.2995473599689831 -12.368765240789799 0 -12.368765240789799 -66.830726043448522 0 0 0 0 -95.378099317214151 48.225998354435433 0 48.225998354435433 31.550312578227022 0 0 0 0 -134.00892200835614 -0.29034335542019107 0 -0.29034335542019107 47.650916121274349 0 0 0 0 2.9918498846613062 -1.1210726428127344 0 -1.1210726428127344 22.203648575980708 0 0 0 0 76.642217082122755 71.233569024501776 0 71.233569024501776 283.54864080392144 0 0 0 0 118.39003608898742 -167.76068625403059 0 -167.76068625403059 175.81250786348392 0 0 0 0 -6.6600963064058192 92.089745853118075 0 92.089745853118075 286.63564265698369 0 0 0 0 117.76525752883776 -170.2873279529922 0 -170.2873279529922 207.33918697427362 0 0 0 0 177.68847127484833 83.050976052934857 0 83.050976052934857 33.309819172936841 0 0 0 0 0.3376228124698456 0.76703694256116961 0 0.76703694256116961 3.4019591313000035 0 0 0 0 12.216218967077396 18.528481217523222 0 18.528481217523222 10.656948900617863 0 0 0 0 34.928727693954158 15.109894697576237 0 15.109894697576237 3.6235147677616624 0 0 0 0 -6.7626124557012872 44.2723135109336 0 44.2723135109336 15.189182708407316 0 0 0 0 71.668758238253417 77.006489484565463 0 77.006489484565463 28.697345410240814 0 0 0 0 12.151561151496225 40.112922778490429 0 40.112922778490429 14.608688652071578 0 0 0 0 -7.0607078676153536 15.01579266307904 0 15.01579266307904 -5.446529479096057 0 0 0 0 -9.7007268292918525 35.407017116514908 0 35.407017116514908 2.709332636291947 0 0 0 0 8.5102488307391955 12.339708996273203 0 12.339708996273203 6.585067893640371 0 0 0 0 1.347846395053949 10.442929029983276 0 10.442929029983276 34.115490565602641 0 0 0 0 -16.493256287318509 24.40364482064615 0 24.40364482064615 30.593517678949866 0 0 0 0 -33.965271789795679 27.940995321165246 0 27.940995321165246 46.797425756845769 0 0 0 0 -65.179453498677503 18.377918909543951 0 18.377918909543951 43.936861813861469 0 0 0 0 -42.228448100491278 9.1518425335088978 0 9.1518425335088978 46.943696237984113 0 0 0 0 -6.0032399607972593 53.781958953066351 0 53.781958953066351 38.291645837765827 0 0 0 0 -54.486747418757759 54.177033028095138 0 54.177033028095138 63.264163710380672 0 0 0 0 -8.5219073056515526 34.513412151743978 0 34.513412151743978 14.857845338279731 0 0 0 0 -34.090372202465915 32.271390985744802 0 32.271390985744802 22.233679042525182 0 0 0 0 -10.683386699424773 38.555271680328588 0 38.555271680328588 18.13135831375439 0 0 0 0 22.099174748314397 -52.026478146217414 0 -52.026478146217414 107.89116221455333 0 0 0 0 -24.176486280905664 -2.3510775526228826 0 -2.3510775526228826 119.1584897848079 0 0 0 0 -46.500309416145839 60.343840281711891 0 60.343840281711891 66.771880983855226 0 0 0 0 0.064774594752363246 11.56809705512692 0 11.56809705512692 29.460086964420015 0 0 0 0 38.425330116585343 -19.98749775604665 0 -19.98749775604665 -25.90172861154133 0 0 0 0 -51.785536443108867 -15.351661156339105 0 -15.351661156339105 7.2789390790858306 0 0 0 0 -9.5344580142676705 15.475029302731855 0 15.475029302731855 -63.67162044923316 0 0 0 0 -0.57793544532181951 0.079528930322396718 0 0.079528930322396718 3.1484854209432882 0 0 0 0 -9.6251804615902188 14.617120524057555 0 14.617120524057555 85.718779721588362 0 0 0 0 9.6444323844316386 23.875875048877788 0 23.875875048877788 2.9789810384318116 0 0 0 0 1.3437961315049201 4.9497032700557071 0 4.9497032700557071 4.2282349657059228 0 0 0 0 18.214574040030584 22.902004554987798 0 22.902004554987798 82.956023499820731 0 0 0 0 -37.584545471223869 -39.821728671066012 0 -39.821728671066012 83.306446370494086 0 0 0 0 87.203466868681261 -101.7490667884922 0 -101.7490667884922 102.85624160982843 0 0 0 0 37.702030812805077 -82.537112214660738 0 -82.537112214660738 154.4593905421134 0 0 0 0 85.55858177135292 -52.175887985558802 0 -52.175887985558802 79.824300975014921 0 0 0 0 34.050130808738913 42.005559870111028 0 42.005559870111028 2.3590735495381523 0 0 0 0 -4.5339543039304226 14.441807538754546 0 14.441807538754546 -7.498905065680745 0 0 0 0 6.4721210808294245 8.2111052933396422 0 8.2111052933396422 15.090424046706175 0 0 0 0 12.49425136216405 7.3856583558081184 0 7.3856583558081184 -6.3429757921912824 0 0 0 0 4.4352380292906446 24.576024685809898 0 24.576024685809898 28.280746856631595 0 0 0 0 -39.802936784893063 42.893819996616003 0 42.893819996616003 47.578936710822745 0 0 0 0 -82.896406377587482 76.278628770884097 0 76.278628770884097 93.668559965308305 0 0 0 0 -4.1102524543762611 9.8556180219907858 0 9.8556180219907858 54.113378188924941 0 0 0 0 -4.5296390217945373 70.026047949628264 0 70.026047949628264 23.219324158038944 0 0 0 0 -6.0374880397871875 6.3863840045229807 0 6.3863840045229807 45.134679551046759 0 0 0 0 -43.006301667664502 65.323084656913124 0 65.323084656913124 24.090090514066105 0 0 0 0 2.218257622275928 -4.0789735183734592 0 -4.0789735183734592 52.714957397503895 0 0 0 0 4.2860046252112056 -7.9513398420785961 0 -7.9513398420785961 36.510166416490392 0 0 0 0 7.4591048796432737 -1.7526169458991347 0 -1.7526169458991347 7.8321091543390224 0 0 0 0 -17.257073389862711 -33.791006061896951 0 -33.791006061896951 111.17209368282056 0 0 0 0 21.231640948410131 -28.232996023201849 0 -28.232996023201849 90.625046290297178 0 0 0 0 1.5325017652420934 4.3988453361755617 0 4.3988453361755617 7.3444767381914176 0 0 0 0 24.618256434289151 -35.220439608565357 0 -35.220439608565357 96.867853112256853 0 0 0 0 -42.168977823169939 17.468403463271898 0 17.468403463271898 96.029337468058657 0 0 0 0 627.61387281609132 20.051924797298852 0 20.051924797298852 -60.102750100748381 0 0 0 0 155.35644414311173 8.3527944937086431 0 8.3527944937086431 -1.3206992128834827 0 0 0 0 -29.542191792971494 2.1135973924874634 0 2.1135973924874634 278.09595743383397 0 0 0 0 45.339173735237637 -196.74802602666023 0 -196.74802602666023 55.306715110578807 0 0 0 0 3.8353201077302392 0.144867351076158 0 0.144867351076158 -0.72738370802021279 0 0 0 0 716.05605221742098 -550.3065966451104 0 -550.3065966451104 124.7867056778523 0 0 0 0 94.556169543548549 8.8778054091380909 0 8.8778054091380909 -1.3094100468304077 0 0 0 0 -13.496544008250098 6.3438472040916807 0 6.3438472040916807 79.341668352783913 0 0 0 0 -38.590852145914369 -57.076090276545074 0 -57.076090276545074 78.596508980503131 0 0 0 0 23.817668474834136 -12.323198453788791 0 -12.323198453788791 99.711934722781734 0 0 0 0 27.467161520416539 -16.948627507699712 0 -16.948627507699712 57.391506529937033 0 0 0 0 -10.855640569943716 5.1855029132002528 0 5.1855029132002528 74.10996328919282 0 0 0 0 46.951166548733227 -34.183827987191762 0 -34.183827987191762 81.03972203246667 0 0 0 0 11.045912331264617 -6.0347040344158813 0 -6.0347040344158813 104.95458640832658 0 0 0 0 5.9058211971932009 -10.688901712955413 0 -10.688901712955413 24.253554924571816 0 0 0 0 -36.859652083442597 -46.77659982912337 0 -46.77659982912337 64.169097815884925 0 0 0 0 -12.101041123493971 -2.0267042828456994 0 -2.0267042828456994 74.90073747856016 0 0 0 0 -23.325169198725121 24.011380135139007 0 24.011380135139007 77.142710232052195 0 0 0 0 -101.71194268054478 -47.192243497904201 0 -47.192243497904201 52.882738871285255 0 0 0 0 -28.188043408016483 -18.234608374396885 0 -18.234608374396885 29.595478025159537 0 0 0 0 10.291440594741058 -9.2681955708474533 0 -9.2681955708474533 7.4814808782685986 0 0 0 0 -62.780191008107522 -72.559956009148664 0 -72.559956009148664 -9.3928548678959487 0 0 0 0 -57.387401826056646 -35.678881134038647 0 -35.678881134038647 -10.006950647282792 0 0 0 0 5.4221155974480499 -5.6526594762620093 0 -5.6526594762620093 5.9745718580494298 0 0 0 0 -95.003371469958438 -110.78769143403406 0 -110.78769143403406 -53.745546315949468 0 0 0 0 23.469632351597909 27.769838398309275 0 27.769838398309275 95.370176079941302 0 0 0 0 40.852010502778938 90.05529032221375 0 90.05529032221375 203.99835973116569 0 0 0 0 -17.040398015702976 0.76562470908902469 0 0.76562470908902469 147.99418181048895 0 0 0 0 5.611898323759533 11.579751335131732 0 11.579751335131732 64.377457567552483 0 0 0 0 -15.83312501836167 -3.2701919468472624 0 -3.2701919468472624 88.106821063323878 0 0 0 0 16.177257596521713 37.702179126470583 0 37.702179126470583 110.44299595513621 0 0 0 0 -12.566367927728379 -3.4968417138752557 0 -3.4968417138752557 81.978264564095298 0 0 0 0 -11.701749497951418 -2.6437225204211359 0 -2.6437225204211359 81.636706290053553 0 0 0 0 -13.197269934029919 -6.1957532958058437 0 -6.1957532958058437 122.60418980625218 0 0 0 0 11.374587975174222 0.70387082580964488 0 0.70387082580964488 93.449106518059125 0 0 0 0 8.8056145789659865 -16.617012648032869 0 -16.617012648032869 -50.5115097960188 0 0 0 0 -21.486374280320888 -15.509729428988067 0 -15.509729428988067 90.105044465483843 0 0 0 0 -77.668635490374641 139.43249766663575 0 139.43249766663575 -74.31926798274435 0 0 0 0 -1.0350085026323876 0.1455735194181571 0 0.1455735194181571 1.6552320561630154 0 0 0 0 -12.651714898217961 5.7673377574828919 0 5.7673377574828919 133.74856887700207 0 0 0 0 -38.441427704997295 46.193991381865089 0 46.193991381865089 121.55860768281127 0 0 0 0 1.094669615360317 5.5522295622195088 0 5.5522295622195088 86.8629124932595 0 0 0 0 1.2799124014197787 5.7612599612166377 0 5.7612599612166377 29.014844633718894 0 0 0 0 -14.225729388421769 7.784202710568934 0 7.784202710568934 96.964219392495579 0 0 0 0 -11.726456236199454 3.6705796543476481 0 3.6705796543476481 96.285428538234555 0 0 0 0 28.724539512600984 -23.600248063699837 0 -23.600248063699837 -1.13888407480772 0 0 0 0 -62.6632835500547 1.9855968297724758 0 1.9855968297724758 43.615541101797135 0 0 0 0 2.210885633428874 -3.6738136695449377 0 -3.6738136695449377 0.89293958981181731 0 0 0 0 -39.452367132286554 32.35257089593506 0 32.35257089593506 108.99422181202681 0 0 0 0 -45.361286865770694 -19.94946887887636 0 -19.94946887887636 81.711293307118467 0 0 0 0 -60.260777534619535 -5.9556537317948823 0 -5.9556537317948823 69.795909977088741 0 0 0 0 -39.475213233092319 -31.355207410859293 0 -31.355207410859293 75.298843786455109 0 0 0 0 -15.194522869194941 2.0230701069704082 0 2.0230701069704082 8.5978306017641444 0 0 0 0 9.7702567916250906 -11.863476523332714 0 -11.863476523332714 11.855273162773656 0 0 0 0 1.5847201660385195 -1.293884356838106 0 -1.293884356838106 6.3024405102280525 0 0 0 0 32.194866022988208 4.7715883094570017 0 4.7715883094570017 24.882037795650831 0 0 0 0 10.21053431783983 -8.6642462531162892 0 -8.6642462531162892 97.089406684652204 0 0 0 0 -11.984233301101767 1.2824570716365997 0 1.2824570716365997 190.16048512288398 0 0 0 0 -4.5482183703597912 -26.918101451894472 0 -26.918101451894472 234.97106454276218 0 0 0 0 1.7370922936474926 -20.512154069518147 0 -20.512154069518147 91.924845347035443 0 0 0 0 36.973142595153149 -119.91719615452894 0 -119.91719615452894 305.40402291521605 0 0 0 0 -0.63808030364999013 0.8776228954113563 0 0.8776228954113563 1.5845036582274616 0 0 0 0 37.895514953195061 -94.709390406005696 0 -94.709390406005696 115.02710179104906 0 0 0 0 -40.511002713216222 -62.816271384574065 0 -62.816271384574065 40.441127080659498 0 0 0 0 -66.884467170464404 -84.375803452079708 0 -84.375803452079708 140.01665348000824 0 0 0 0 -7.6576480281270847 70.249048359895824 0 70.249048359895824 145.2572522067203 0 0 0 0 13.133149825682892 -42.058677575201727 0 -42.058677575201727 58.261400951250835 0 0 0 0 -7.494797397317484 49.289467860227887 0 49.289467860227887 -33.100075155931336 0 0 0 0 49.17085631039015 -71.419396413060895 0 -71.419396413060895 216.59494773023061 0 0 0 0 37.56397949682173 -25.879667743145546 0 -25.879667743145546 45.972372824769991 0 0 0 0 38.505685156319544 -56.29316226395531 0 -56.29316226395531 46.116201446845395 0 0 0 0 -16.897315664975253 -11.401624142126821 0 -11.401624142126821 47.83578331785975 0 0 0 0 -4.6368461471434443 -28.265093710535439 0 -28.265093710535439 49.240492790792814 0 0 0 0 45.671958543839061 -23.997012491289752 0 -23.997012491289752 0.38244413016946055 0 0 0 0 7.0227637934946472 -7.1835412558284588 0 -7.1835412558284588 41.880462403256388 0 0 0 0 -2.7633480723936037 0.52081397409638441 0 0.52081397409638441 2.1770501264562085 0 0 0 0 -79.750791138081695 206.39211285123019 0 206.39211285123019 -169.59971022821992 0 0 0 0 -110.33969759185351 45.219359598619121 0 45.219359598619121 54.397195236866537 0 0 0 0 -34.410795385112891 -149.11408323659998 0 -149.11408323659998 146.94964364965927 0 0 0 0 48.770898685007246 147.49973520568437 0 147.49973520568437 379.44262173047537 0 0 0 0 -225.56248575648749 142.81277122742904 0 142.81277122742904 385.64842069454608 0 0 0 0 177.5990955401931 -60.884479285592533 0 -60.884479285592533 -175.3013793718967 0 0 0 0 -5.5818664757911733 -26.510942708175207 0 -26.510942708175207 37.363555383759376 0 0 0 0 -0.80398244819111531 -7.4269702193932208 0 -7.4269702193932208 25.291586161175005 0 0 0 0 -3.4468999038416905 -5.1756650976403336 0 -5.1756650976403336 6.1509404871272579 0 0 0 0 -15.112255406178519 -38.749171170375121 0 -38.749171170375121 51.098445449973042 0 0 0 0 -195.56869910770411 187.56925613012208 0 187.56925613012208 50.073810774818412 0 0 0 0 -3.2737594979109255 -1.2456952609458725 0 -1.2456952609458725 4.8431784241634546 0 0 0 0 -72.795867915855297 -40.503838234188152 0 -40.503838234188152 -40.23067369722412 0 0 0 0 -3.5301528096966877 -34.621398886640236 0 -34.621398886640236 -23.988862327227253 0 0 0 0 -47.436946313703402 12.628330048617499 0 12.628330048617499 13.47800611583807 0 0 0 0 -74.62547435182114 26.611804911517538 0 26.611804911517538 17.413443405937869 0 0 0 0 9.074166156841784 -16.801127681461367 0 -16.801127681461367 21.830291564539948 0 0 0 0 8.5371474002390642 -13.701556534826523 0 -13.701556534826523 23.091054951177284 0 0 0 0 -0.6745920658020168 -14.912174422983298 0 -14.912174422983298 28.602025571119157 0 0 0 0 1.3698210475872656 -17.014188333574566 0 -17.014188333574566 30.762003337746137 0 0 0 0 -5.5606589561973578 -23.125822874602818 0 -23.125822874602818 39.089166660003684 0 0 0 0 -7.8441413936079414 -22.12713919718135 0 -22.12713919718135 24.568856491972838 0 0 0 0 -23.834234662600466 -5.4736723217829422 0 -5.4736723217829422 29.984995300106675 0 0 0 0 0.97621519549066971 -4.7787347190558762 0 -4.7787347190558762 6.531103256711404 0 0 0 0 -87.237677053048401 -78.595520554583345 0 -78.595520554583345 22.299889578154989 0 0 0 0 -81.423458583025067 -73.182560326062571 0 -73.182560326062571 8.0899757086735917 0 0 0 0 -2.3337779460554868 -11.443524580159318 0 -11.443524580159318 23.594486401991688 0 0 0 0 -32.468675462785654 -53.537310323776182 0 -53.537310323776182 9.281437407273188 0 0 0 0 22.851960267619006 -32.081912954405198 0 -32.081912954405198 9.6601864010954159 0 0 0 0 21.106297571597736 -44.412715128161153 0 -44.412715128161153 58.979003715219733 0 0 0 0 -1.1201067960668125 -0.17757616102542784 0 -0.17757616102542784 0.82275399718903941 0 0 0 0 -37.843814141512894 -120.87178443632365 0 -120.87178443632365 -131.01276346154555 0 0 0 0 2.9731552431809174 -1.8007449408285012 0 -1.8007449408285012 1.0064071121353777 0 0 0 0 -36.714167691422745 -135.86305022190209 0 -135.86305022190209 -0.24636183513939613 0 0 0 0 -74.062952367788512 -137.94958965208934 0 -137.94958965208934 149.22331219051011 0 0 0 0 -23.011253927869575 -81.190366016915505 0 -81.190366016915505 -48.700486411731617 0 0 0 0 -71.985791193185719 -72.918089316815895 0 -72.918089316815895 -1.3010067829345644 0 0 0 0 -84.58714860011105 -62.894644575448183 0 -62.894644575448183 -7.3409409228988807 0 0 0 0 -18.396781996264849 -71.741668473927348 0 -71.741668473927348 -1.9400519388136672 0 0 0 0 -26.989143009702843 -49.273500493881784 0 -49.273500493881784 11.176164281459933 0 0 0 0 129.0052571654237 -35.658208823635505 0 -35.658208823635505 13.213235468887433 0 0 0 0 28.847706823350563 -57.519355793581781 0 -57.519355793581781 8.5198907916892495 0 0 0 0 -32.260490844322931 -133.80649593551425 0 -133.80649593551425 -4.5298081057408126 0 0 0 0 -41.168319512390099 -132.09278494820683 0 -132.09278494820683 94.211231333360047 0 0 0 0 -102.56062207409241 -74.272607125320064 0 -74.272607125320064 52.761124752989417 0 0 0 0 11.133661152851118 -14.941307109248555 0 -14.941307109248555 33.523839882043831 0 0 0 0 26.013101335812166 -7.2155487316395011 0 -7.2155487316395011 28.270856032620941 0 0 0 0 -7.3669256563011913 8.9866411627426714 0 8.9866411627426714 24.495794519745687 0 0 0 0 -19.983342741591287 0.12195400556265668 0 0.12195400556265668 36.768746877722151 0 0 0 0 1.8044120350584758 -12.259357830597395 0 -12.259357830597395 17.506625680158876 0 0 0 0 23.558396106328019 -26.281914352271997 0 -26.281914352271997 1.4968948833738978 0 0 0 0 23.490120371413013 -27.613940665567497 0 -27.613940665567497 5.9848043383353797 0 0 0 0 138.92263549941021 39.40448561214356 0 39.40448561214356 25.105574835779407 0 0 0 0 23.466788734136571 -14.177414913661778 0 -14.177414913661778 30.680881122520077 0 0 0 0 41.190283312129736 -4.5893511513868361 0 -4.5893511513868361 35.791859119526634 0 0 0 0 16.355235817281027 5.5519376660868147 0 5.5519376660868147 6.433929848285743 0 0 0 0 -12.562213437592845 -7.4235966584801645 0 -7.4235966584801645 32.078497894253815 0 0 0 0 3.3806640705920064 -4.9504202850543706 0 -4.9504202850543706 7.3173098343088583 0 0 0 0 13.742835089901916 -10.960618536046411 0 -10.960618536046411 7.9594181754073361 0 0 0 0 78.036200373682732 -26.235302371549551 0 -26.235302371549551 -31.044743913360435 0 0 0 0 8.9080789918915251 -6.0701414397223026 0 -6.0701414397223026 4.1138771371313965 0 0 0 0 145.61235428176406 88.016455718632642 0 88.016455718632642 -3.0324401517718798 0 0 0 0 12.274158487320051 -15.774014586849376 0 -15.774014586849376 9.5571385313050996 0 0 0 0 3.4625759023614791 42.470728348020657 0 42.470728348020657 57.765866003679548 0 0 0 0 13.734447344800008 -11.898164170009821 0 -11.898164170009821 10.295966194983464 0 0 0 0 14.196798710706389 7.1519164675464708 0 7.1519164675464708 14.968786102517697 0 0 0 0 8.0614994725056022 -15.599432505402547 0 -15.599432505402547 21.080549853002594 0 0 0 0 40.909643141053721 80.602193581215033 0 80.602193581215033 91.099277017205168 0 0 0 0 124.8118883636198 112.39771324362118 0 112.39771324362118 72.925936569758051 0 0 0 0 86.3301150316546 61.386311472346279 0 61.386311472346279 78.626061937324266 0 0 0 0 89.214869444282158 80.688034981585588 0 80.688034981585588 101.08996130452579 0 0 0 0 120.09239257685203 76.968531270109452 0 76.968531270109452 85.763989811301144 0 0 0 0 91.25989225047033 86.913245983890192 0 86.913245983890192 95.150695968886794 0 0 0 0 94.166523195764967 80.838465244908548 0 80.838465244908548 52.550285527158849 0 0 0 0 88.155895546517058 84.580317146315792 0 84.580317146315792 98.002668032420843 0 0 0 0 5.3430789310190434 -3.8474099989720756 0 -3.8474099989720756 2.951029662910635 0 0 0 0 -4.7973142824139359 -6.6040542652408476 0 -6.6040542652408476 31.039839105116698 0 0 0 0 -24.565308892802932 -40.785264971727884 0 -40.785264971727884 27.201327747494361 0 0 0 0 17.151265487111232 8.0826195932804694 0 8.0826195932804694 40.293309459575539 0 0 0 0 -51.10677071007558 -16.048527170562011 0 -16.048527170562011 74.731370149193026 0 0 0 0 179.55984734086451 156.44171771655056 0 156.44171771655056 133.90880914737136 0 0 0 0 1.2910554621926309 -1.4494450607050133 0 -1.4494450607050133 1.6966955625757834 0 0 0 0 -4.8027551703180507 33.523979645889995 0 33.523979645889995 137.27345610787233 0 0 0 0 47.436032330659145 -87.51378732437388 0 -87.51378732437388 126.10093839805268 0 0 0 0 33.81056719280005 -27.148459715913063 0 -27.148459715913063 20.353697862988739 0 0 0 0 134.02507177253574 -123.58990397997331 0 -123.58990397997331 -3.2917061573134561 0 0 0 0 -62.062906340758957 -62.976641291659689 0 -62.976641291659689 141.84438037213113 0 0 0 0 149.63667480784807 106.19263353468432 0 106.19263353468432 -11.741239582494018 0 0 0 0 21.436897836661956 -14.949285785076427 0 -14.949285785076427 -31.162237691121845 0 0 0 0 38.778683674174545 -29.19783226474101 0 -29.19783226474101 30.84279711257841 0 0 0 0 33.408651284125824 56.920762176268909 0 56.920762176268909 143.29693201486933 0 0 0 0 32.178776375770667 -43.595881986217137 0 -43.595881986217137 43.677914304495062 0 0 0 0 -5.5828779833890394 -13.751924990374391 0 -13.751924990374391 42.355237053801829 0 0 0 0 4.9193800194243522 -29.889818359519268 0 -29.889818359519268 62.397700480934873 0 0 0 0 -45.968671105832982 36.706246328609268 0 36.706246328609268 21.353690057724407 0 0 0 0 -10.415977138195132 -26.92373609846436 0 -26.92373609846436 68.797397480364452 0 0 0 0 62.541744489992197 -0.91306145200542232 0 -0.91306145200542232 43.710441378454561 0 0 0 0 22.166704166230904 -19.241930907331557 0 -19.241930907331557 17.055665045278118 0 0 0 0 35.263110216383211 -16.051835890372331 0 -16.051835890372331 45.518942567032127 0 0 0 0 -97.356733502363568 -17.560562966725229 0 -17.560562966725229 70.577040948119247 0 0 0 0 -8.3558419022628598 -2.7258931378039257 0 -2.7258931378039257 38.371053090816289 0 0 0 0 -17.889231100698908 -42.455790409674819 0 -42.455790409674819 60.653910673209793 0 0 0 0 104.78632739177556 -47.315590511479968 0 -47.315590511479968 53.943893015950721 0 0 0 0 29.12310315684806 -58.383812123902743 0 -58.383812123902743 53.078439147521749 0 0 0 0 114.79120546304785 -25.921521439537173 0 -25.921521439537173 46.115350172332001 0 0 0 0 -82.570814401840835 22.145929684897055 0 22.145929684897055 119.16907390432971 0 0 0 0 1.5565008574273609 11.021950195116675 0 11.021950195116675 104.06235230229242 0 0 0 0 44.27166655822657 -30.813700080536364 0 -30.813700080536364 57.728291593873564 0 0 0 0 196.57416715862382 18.22412765603076 0 18.22412765603076 46.252954614342116 0 0 0 0 -111.7445580349513 14.058628709240111 0 14.058628709240111 239.48408338384615 0 0 0 0 36.213152312249804 21.990052293453118 0 21.990052293453118 26.069484797572841 0 0 0 0 295.61794345161434 31.668050091999248 0 31.668050091999248 25.448702698187844 0 0 0 0 267.89356333388423 -80.023686218653438 0 -80.023686218653438 -427.51998964112499 0 0 0 0 555.59252891181586 213.58058120583246 0 213.58058120583246 -289.18453154318922 0 0 0 0 0.6638068135437587 -0.68862980353931391 0 -0.68862980353931391 11.915159441530179 0 0 0 0 -271.80155362260439 -640.73031529930199 0 -640.73031529930199 1579.7068373275597 0 0 0 0 129.17065166179236 68.60791699617721 0 68.60791699617721 -576.73518601695832 0 0 0 0 37.648834904377054 230.9055393211147 0 230.9055393211147 801.40179720816741 0 0 0 0 -0.22831385472373888 0.69365692172574356 0 0.69365692172574356 -2.2501619311215286 0 0 0 0 0.12641193905567416 11.969058661567054 0 11.969058661567054 94.717879240143006 0 0 0 0 141.71486409842964 -84.510087623402342 0 -84.510087623402342 84.319643036811613 0 0 0 0 74.833142159712224 101.43208305260941 0 101.43208305260941 184.44694787669158 0 0 0 0 8.0232009836621501 -23.173770473108959 0 -23.173770473108959 36.144006038193766 0 0 0 0 52.324254777242459 -88.742826947892354 0 -88.742826947892354 194.89792638822109 0 0 0 0 3.3174533038491063 -34.183671334712926 0 -34.183671334712926 135.69695765352753 0 0 0 0 92.618237892520028 -37.871572289145547 0 -37.871572289145547 48.137728449662973 0 0 0 0 -8.0976471764992617 9.9509189427523914 0 9.9509189427523914 0.3500393744864887 0 0 0 0 205.05091606446513 557.41779293742729 0 557.41779293742729 -445.80990538649894 0 0 0 0 -14.489092375017208 95.297782289463612 0 95.297782289463612 7.7255366590579797 0 0 0 0 -13.228953623294728 88.42173395152895 0 88.42173395152895 -14.18048037688186 0 0 0 0 -24.308820952865062 80.370536218259076 0 80.370536218259076 38.249020869257947 0 0 0 0 -25.327304620699351 63.861588267497837 0 63.861588267497837 -38.517237122028746 0 0 0 0 -52.967141034270753 24.637671547932769 0 24.637671547932769 67.842459834336296 0 0 0 0 35.607143295500009 5.5700308367017897 0 5.5700308367017897 34.993296087817725 0 0 0 0 -62.872630814171316 -4.3266792962062937 0 -4.3266792962062937 -16.103506933512108 0 0 0 0 -8.5101402982022591 0.12989235695863499 0 0.12989235695863499 52.985664344108955 0 0 0 0 -19.41602546800641 5.4871561272193503 0 5.4871561272193503 51.641133685138811 0 0 0 0 -2.2440566844852157 2.7195464800084785 0 2.7195464800084785 17.864644485854605 0 0 0 0 -165.06232839806853 60.891459717637645 0 60.891459717637645 99.20860870692286 0 0 0 0 8.0635193784419243 -11.548091058311911 0 -11.548091058311911 39.180326416157186 0 0 0 0 -81.071670367635761 102.73735901336977 0 102.73735901336977 82.873328776747258 0 0 0 0 -10.033018970503113 -0.014561411930879231 0 -0.014561411930879231 34.520380763540359 0 0 0 0 2.0946682031862096 -10.920059371023733 0 -10.920059371023733 31.01291400675246 0 0 0 0 56.624052882145406 158.92804913988311 0 158.92804913988311 247.23307861966168 0 0 0 0 121.36449334843758 151.25593270146749 0 151.25593270146749 177.66380883569582 0 0 0 0 -71.858244775088679 -23.732273319152227 0 -23.732273319152227 51.287608460654155 0 0 0 0 -83.401385969926196 4.5428386551029689 0 4.5428386551029689 54.327587226514879 0 0 0 0 -31.428088211829163 3.6800946939383721 0 3.6800946939383721 49.961854547691473 0 0 0 0 7.4613695790458223 -23.768585130613246 0 -23.768585130613246 42.482768184097949 0 0 0 0 3.7557998656047857 -8.1920883613965998 0 -8.1920883613965998 47.917190244683297 0 0 0 0 -17.549739855210646 -6.6907087681174744 0 -6.6907087681174744 50.090400896981009 0 0 0 0 -3.7307920979874325 -30.077337322947642 0 -30.077337322947642 39.774261014943477 0 0 0 0 -24.82137628608325 -30.394155629568559 0 -30.394155629568559 39.769543324953702 0 0 0 0 -42.078681940962269 -11.623442812488065 0 -11.623442812488065 49.582891697795276 0 0 0 0 149.28248785513642 -81.33402098951774 0 -81.33402098951774 -5.076028581133869 0 0 0 0 72.520861369535851 134.0830040718356 0 134.0830040718356 179.04672497690626 0 0 0 0 105.60126903177661 52.169755578199329 0 52.169755578199329 -44.432086599234026 0 0 0 0 -1.7000912352975934 -3.5044624824568231 0 -3.5044624824568231 2.9301401447787399 0 0 0 0 -6.9106810712192122 -3.550715212332463 0 -3.550715212332463 53.130243584677849 0 0 0 0 -227.25246891324605 88.346118812709392 0 88.346118812709392 5.0971922443422955 0 0 0 0 236.35840023439232 -124.99128612310233 0 -124.99128612310233 70.514991510932305 0 0 0 0 172.6765934007708 -55.189948839073622 0 -55.189948839073622 27.270896315341815 0 0 0 0 111.22677577423474 9.0088469584627546 0 9.0088469584627546 266.94836755974029 0 0 0 0 0.11320246861864014 -6.8243597987630427 0 -6.8243597987630427 37.429875723688674 0 0 0 0 72.556518668236919 122.69935293983251 0 122.69935293983251 208.77874243216866 0 0 0 0 92.869240335719041 118.23463073242419 0 118.23463073242419 180.1043991633851 0 0 0 0 77.480507959998249 125.05689145692031 0 125.05689145692031 181.72101818080409 0 0 0 0 72.577248469440747 125.89998418528376 0 125.89998418528376 190.28253147476971 0 0 0 0 9.1474684523891483 92.241026207591858 0 92.241026207591858 239.0517970925539 0 0 0 0 8.2709823217114717 -32.998865812316353 0 -32.998865812316353 81.423271147328194 0 0 0 0 3.9096601295047275 -12.868638202840467 0 -12.868638202840467 51.431873507013677 0 0 0 0 8.2925027302055554 2.3683158422017421 0 2.3683158422017421 81.698435510036148 0 0 0 0 -33.102339688080974 -16.02734210442884 0 -16.02734210442884 126.19722463384778 0 0 0 0 40.066495174583544 -31.762865018214029 0 -31.762865018214029 40.295963843408714 0 0 0 0 45.242223600331954 22.247660946438714 0 22.247660946438714 23.185880519986313 0 0 0 0 105.94814867773857 -38.465366716733115 0 -38.465366716733115 87.873849023733783 0 0 0 0 230.53194178630292 -204.99373882965847 0 -204.99373882965847 83.424777089247073 0 0 0 0 3.4504443516126186 -19.712933181819402 0 -19.712933181819402 80.621292203843893 0 0 0 0 11.485091327596706 -82.383971740338438 0 -82.383971740338438 67.947584469820868 0 0 0 0 -43.014999300677118 117.32366206573897 0 117.32366206573897 230.63764561331118 0 0 0 0 15.457953389707654 -20.079025430975889 0 -20.079025430975889 82.22701742326808 0 0 0 0 -1.9772913761117934 -12.851064546379575 0 -12.851064546379575 93.297021555832544 0 0 0 0 80.976052771779905 79.68970718833225 0 79.68970718833225 61.449558720156347 0 0 0 0 -11.085704954006886 7.2923107832881584 0 7.2923107832881584 17.281268568849342 0 0 0 0 10.770917531986925 -99.651133208353713 0 -99.651133208353713 32.041268887965998 0 0 0 0 2.1246980316756066 -19.984428143660161 0 -19.984428143660161 95.292148318418299 0 0 0 0 11.32299194902771 -20.123232530151199 0 -20.123232530151199 96.64051965093131 0 0 0 0 -118.77232623977989 64.544266916405832 0 64.544266916405832 226.08502406153275 0 0 0 0 47.009989276786655 -53.014317235778435 0 -53.014317235778435 48.733930987407803 0 0 0 0 347.83682315433907 407.94174423692766 0 407.94174423692766 144.30031799376775 0 0 0 0 -663.83341127764106 -266.1807469346104 0 -266.1807469346104 762.0118179621295 0 0 0 0 0.59768909057675046 319.1611571287649 0 319.1611571287649 560.23738553033036 0 0 0 0 -1.5877919893367576 0.83089121899965335 0 0.83089121899965335 -0.57197831893506645 0 0 0 0 -32.755196731271099 -26.154745371992703 0 -26.154745371992703 165.50265727049555 0 0 0 0 11.573347637078541 125.97681124078906 0 125.97681124078906 284.53331562514359 0 0 0 0 -45.618858529472618 -6.1589478541391145 0 -6.1589478541391145 41.594712052821706 0 0 0 0 13.825279321251429 -25.216019741552827 0 -25.216019741552827 26.84682675363365 0 0 0 0 -2.8207285321047815 -4.6270196647676727 0 -4.6270196647676727 2.4656078772624852 0 0 0 0 3.0931361386232368 -21.981452012713362 0 -21.981452012713362 30.001496444881923 0 0 0 0 -0.5977798806061152 -20.790297065166669 0 -20.790297065166669 29.673044960723928 0 0 0 0 15.848444703174806 -30.540445971046211 0 -30.540445971046211 30.824148297761894 0 0 0 0 -2.8400384142963633 -0.38808339097052169 0 -0.38808339097052169 0.59257449332825729 0 0 0 0 -23.531680155345839 46.566434200161893 0 46.566434200161893 26.821828355401522 0 0 0 0 24.423219338105923 -25.714896680623497 0 -25.714896680623497 32.011153226318129 0 0 0 0 16.539379952961227 -34.616497182189505 0 -34.616497182189505 38.527531585968973 0 0 0 0 19.236042503022418 -7.8184844963061551 0 -7.8184844963061551 71.144066667049628 0 0 0 0 106.88273887961714 -21.197385471672533 0 -21.197385471672533 28.002794731324684 0 0 0 0 27.968996773309755 -3.4142457418747654 0 -3.4142457418747654 15.250518775176261 0 0 0 0 38.035894406005355 18.212851966818107 0 18.212851966818107 31.836011678984505 0 0 0 0 80.262759382862896 -14.240173308841804 0 -14.240173308841804 36.068528046154825 0 0 0 0 46.887112492958124 40.152355802870261 0 40.152355802870261 31.250227787844779 0 0 0 0 266.89985342110231 81.423207859614195 0 81.423207859614195 48.282194008574152 0 0 0 0 158.49485860429922 -308.6536063780004 0 -308.6536063780004 72.200096279215359 0 0 0 0 39.497781804208898 -43.929021358351747 0 -43.929021358351747 262.16998642336694 0 0 0 0 153.35225744840773 -257.14780054616131 0 -257.14780054616131 -171.17162394297611 0 0 0 0 -128.0976418448206 -8.8001288598570682 0 -8.8001288598570682 71.041428332115174 0 0 0 0 30.218994645333453 19.526264797036674 0 19.526264797036674 -81.590241436293582 0 0 0 0 -82.014767999600849 -101.08284674238257 0 -101.08284674238257 -42.897065105680667 0 0 0 0 9.6443094566422225 -6.0957457032847202 0 -6.0957457032847202 3.8401630610757422 0 0 0 0 22.884375690789057 -13.686268731398741 0 -13.686268731398741 111.10532838250583 0 0 0 0 -24.551097296386899 -17.075611327521983 0 -17.075611327521983 13.608202860945312 0 0 0 0 13.113586640723456 -8.9679748222331739 0 -8.9679748222331739 5.342132167181795 0 0 0 0 17.646298291227652 -33.601204408797912 0 -33.601204408797912 25.193538975123374 0 0 0 0 -24.829661210341044 -20.267821431707489 0 -20.267821431707489 12.36418380770192 0 0 0 0 16.170967381448463 28.106975669812527 0 28.106975669812527 72.882362959357124 0 0 0 0 6.2632792891201916 48.149763141575022 0 48.149763141575022 170.49999121094152 0 0 0 0 -24.978143164054927 -0.031955294605722884 0 -0.031955294605722884 210.24331336310934 0 0 0 0 -0.79272734403616596 26.345235538236238 0 26.345235538236238 225.21334590854531 0 0 0 0 -13.9184435123816 -2.7235323491040617 0 -2.7235323491040617 269.83884427264456 0 0 0 0 23.626527917193471 -19.50509854819029 0 -19.50509854819029 260.14536754368783 0 0 0 0 11.614269125129226 2.7745907217013155 0 2.7745907217013155 248.64756851436687 0 0 0 0 186.9748923958835 16.046423971872628 0 16.046423971872628 260.63354765628901 0 0 0 0 48.970582019647736 -66.195472248968144 0 -66.195472248968144 306.17884464000417 0 0 0 0 -5.4627909934794729 6.2601106283766512 0 6.2601106283766512 345.47967901560332 0 0 0 0 86.693088535746483 81.083719508929789 0 81.083719508929789 197.12366684780864 0 0 0 0 4.397455480105056 -2.0064563531433848 0 -2.0064563531433848 0.91774027648597212 0 0 0 0 97.470673833052388 -109.62200805757675 0 -109.62200805757675 412.1147529931186 0 0 0 0 189.57635685291643 -289.62875346398505 0 -289.62875346398505 81.726456304437306 0 0 0 0 -25.40694181246181 -107.12753462399996 0 -107.12753462399996 727.72807161381934 0 0 0 0 138.37382907224935 -174.57271628287526 0 -174.57271628287526 78.831185481714783 0 0 0 0 0.25855578821757597 1.26098428112725 0 1.26098428112725 5.9827021793022652 0 0 0 0 146.1120252885612 -264.08871068745975 0 -264.08871068745975 475.37129180446209 0 0 0 0 294.2600987342139 187.98645448976822 0 187.98645448976822 -345.44683329550026 0 0 0 0 183.98851550093877 335.36764192385453 0 335.36764192385453 -17.318295887056593 0 0 0 0 -22.979177935041662 -528.38111863257654 0 -528.38111863257654 451.81272669931423 0 0 0 0 -0.7227458880284523 0.34543608436374029 0 0.34543608436374029 12.618978570295573 0 0 0 0 22.124389693566627 -38.388472674101649 0 -38.388472674101649 -49.649548132991185 0 0 0 0 60.522314333829854 -70.622651334648253 0 -70.622651334648253 -28.6887390467964 0 0 0 0 -6.5049399019981138 -70.211060871595691 0 -70.211060871595691 81.674924156628549 0 0 0 0 69.860209337508422 45.006541496724822 0 45.006541496724822 121.81507286065244 0 0 0 0 106.59404891867462 -59.188593597935323 0 -59.188593597935323 33.494759677894763 0 0 0 0 -28.978807979778139 -58.822738929091429 0 -58.822738929091429 50.891523002312169 0 0 0 0 123.90350883590236 134.88742431862556 0 134.88742431862556 41.450410895158257 0 0 0 0 1.1056177856371665 0.89397359506098439 0 0.89397359506098439 0.11986497595340584 0 0 0 0 178.69679586108759 62.75518215018019 0 62.75518215018019 117.78751855898736 0 0 0 0 43.749743813472833 89.350845406177541 0 89.350845406177541 402.98458929379922 0 0 0 0 0.41774080060880081 1.6188703304147936 0 1.6188703304147936 1.2873181381525711 0 0 0 0 175.2486190976233 217.0072216940207 0 217.0072216940207 235.8133258572052 0 0 0 0 213.93583967028371 -8.1543325739912689 0 -8.1543325739912689 130.83227599231759 0 0 0 0 191.7221178115351 106.62736859488723 0 106.62736859488723 211.45409997288152 0 0 0 0 159.54949426743826 -109.19045194794262 0 -109.19045194794262 200.05667866305157 0 0 0 0 244.40846143287035 -31.787798665780429 0 -31.787798665780429 -64.768443735156325 0 0 0 0 243.32070983018275 -42.070820083008584 0 -42.070820083008584 -157.70400880913076 0 0 0 0 179.45865632070308 161.22297129537037 0 161.22297129537037 130.74167367101109 0 0 0 0 193.80300836707897 116.131093331589 0 116.131093331589 -248.77926151193969 0 0 0 0 186.55505021281715 58.804055608714407 0 58.804055608714407 -66.383559582132875 0 0 0 0 -119.29855713895358 -2.3725086017257127 0 -2.3725086017257127 -72.334723880547244 0 0 0 0 35.699771355652274 191.47984325195557 0 191.47984325195557 -197.58666539772821 0 0 0 0 0.54787993016124759 2.9577496210315815 0 2.9577496210315815 2.1638296238308712 0 0 0 0 8.1569495800568745 -1.5729435352404835 0 -1.5729435352404835 -0.7394599760445999 0 0 0 0 15.158505489489926 47.449376286960614 0 47.449376286960614 90.301305620487256 0 0 0 0 20.751554256222107 -25.562066129768937 0 -25.562066129768937 249.01906282991695 0 0 0 0 -0.76771052008690521 0.088971971923577087 0 0.088971971923577087 1.5063684944036879 0 0 0 0 23.190764521411438 -94.991634656056704 0 -94.991634656056704 261.76986312215195 0 0 0 0 19.039085101942874 -80.940258218364761 0 -80.940258218364761 197.19714327829934 0 0 0 0 -32.978368824395147 -28.791631950649389 0 -28.791631950649389 253.63616051644203 0 0 0 0 -198.21555460674767 20.158547423312143 0 20.158547423312143 141.56799035422227 0 0 0 0 -70.544239208140425 -33.498009154834108 0 -33.498009154834108 145.58412663880335 0 0 0 0 -2.5294014754927971 -7.6750576884146327 0 -7.6750576884146327 32.144463878080352 0 0 0 0 -45.273705140731181 -182.28821809844976 0 -182.28821809844976 -141.17791200337888 0 0 0 0 -418.3374943857998 -165.23192052281229 0 -165.23192052281229 488.59489053780271 0 0 0 0 11.855940881330515 -16.256074462094844 0 -16.256074462094844 30.556679959882899 0 0 0 0 4.6819195388108721 -19.224349175017455 0 -19.224349175017455 96.674396933782248 0 0 0 0 -143.75357770817027 -116.92026114234432 0 -116.92026114234432 192.42480659387184 0 0 0 0 2.7717618962143433 -21.50992396850495 0 -21.50992396850495 117.98764643090999 0 0 0 0 6.2051188991030939 -29.09963455678529 0 -29.09963455678529 111.90516888556367 0 0 0 0 14.484309356151016 -32.576631185345832 0 -32.576631185345832 142.01807828330129 0 0 0 0 17.675767749182342 -40.898887957006536 0 -40.898887957006536 108.25015806024567 0 0 0 0 10.565320367484276 -28.904288960475242 0 -28.904288960475242 133.20888430255764 0 0 0 0 17.977295036184842 -30.701608922690866 0 -30.701608922690866 109.62232333161137 0 0 0 0 11.145372896045046 -22.922543851447699 0 -22.922543851447699 95.259987041671593 0 0 0 0 11.895317829709803 -14.433093092555813 0 -14.433093092555813 24.369976630722096 0 0 0 0 8.5639519727430979 -16.229190159901236 0 -16.229190159901236 126.38328141668171 0 0 0 0 -90.101697285443151 5.787610462435623 0 5.787610462435623 92.709285448101582 0 0 0 0 7.1446575588392989 -26.65573728045274 0 -26.65573728045274 104.09297691476786 0 0 0 0 -6.0732501924304438 -11.722687578815689 0 -11.722687578815689 95.52958327089523 0 0 0 0 -14.875742638873625 -8.1204969891980525 0 -8.1204969891980525 94.524141694896585 0 0 0 0 -51.910633790575957 -50.342205215420108 0 -50.342205215420108 18.480370080898865 0 0 0 0 13.773220902466846 -32.214544745526837 0 -32.214544745526837 110.36244825754193 0 0 0 0 -3.6588884802545203 -10.374726540494276 0 -10.374726540494276 41.249786030056981 0 0 0 0 -14.39932698847997 -19.74835972670553 0 -19.74835972670553 29.479799758195441 0 0 0 0 11.109070121206379 -17.5014515776707 0 -17.5014515776707 56.052960382364759 0 0 0 0 9.2764142406681458 -11.85561508988576 0 -11.85561508988576 100.73835094254537 0 0 0 0 -30.251750361638187 -51.876062052935595 0 -51.876062052935595 18.574482650617938 0 0 0 0 4.2592073739124992 -17.783595835632603 0 -17.783595835632603 3.6991033822303336 0 0 0 0 -159.38560302152109 -54.19994785925519 0 -54.19994785925519 102.86843479757226 0 0 0 0 -82.942942829761932 -152.39477543735393 0 -152.39477543735393 90.779573520005215 0 0 0 0 7.1210956321988244 -25.484158321659901 0 -25.484158321659901 91.275556414491348 0 0 0 0 -32.688921538810064 -132.55573704761628 0 -132.55573704761628 112.90511052015063 0 0 0 0 26.875900060349522 -15.652449409739347 0 -15.652449409739347 136.75666974151682 0 0 0 0 17.243123979030315 72.81150206613529 0 72.81150206613529 114.8078649047311 0 0 0 0 -29.646486802486834 -173.39479836783721 0 -173.39479836783721 90.594560207478935 0 0 0 0 2.4421976474357443 0.45410201099173264 0 0.45410201099173264 -0.62969367912153729 0 0 0 0 -28.369368169651352 58.802816591465671 0 58.802816591465671 405.29472327503754 0 0 0 0 43.760403399421421 -37.72349323924891 0 -37.72349323924891 92.930750264502421 0 0 0 0 -98.608997290516527 -30.942860703809856 0 -30.942860703809856 157.52493853232954 0 0 0 0 10.594643218640634 -36.472074948603421 0 -36.472074948603421 87.160854908846517 0 0 0 0 29.130094733043734 -126.2419148721674 0 -126.2419148721674 -130.09762557343493 0 0 0 0 -1.391744079535453 -2.1043548418416691 0 -2.1043548418416691 18.699524698583552 0 0 0 0 23.967484584390604 -51.751306428172938 0 -51.751306428172938 121.17469497852653 0 0 0 0 15.218729766379965 -26.22226854380915 0 -26.22226854380915 106.58584960767439 0 0 0 0 26.777674595527515 -31.432301294681565 0 -31.432301294681565 90.685073545368141 0 0 0 0 26.830972565894172 -32.12191717186397 0 -32.12191717186397 97.159796733451913 0 0 0 0 -7.2953026458512795 -35.44680911539308 0 -35.44680911539308 107.37265375220522 0 0 0 0 25.069288842298192 -53.782236372798934 0 -53.782236372798934 114.44053834575243 0 0 0 0 22.237257278531615 -47.22437299912599 0 -47.22437299912599 126.36918740689907 0 0 0 0 -6.4415094384949043 -101.23235781406765 0 -101.23235781406765 41.356669362223329 0 0 0 0 28.963092098289053 -39.768868430910516 0 -39.768868430910516 112.15745060717336 0 0 0 0 -26.86186792339322 -71.370319963006295 0 -71.370319963006295 93.606617049275883 0 0 0 0 7.3667073704733435 -29.973505620625069 0 -29.973505620625069 102.20285710395568 0 0 0 0 15.048024209826451 -63.837633006021832 0 -63.837633006021832 90.404954872494272 0 0 0 0 -9.6020303287726847 -47.582005602735308 0 -47.582005602735308 120.32177339968621 0 0 0 0 -14.996286339651324 -3.5703263466932516 0 -3.5703263466932516 27.62910257716635 0 0 0 0 3.024635633150865 -93.049700711116202 0 -93.049700711116202 108.51880895128488 0 0 0 0 -93.40006566077318 -65.282427147413728 0 -65.282427147413728 105.04280165272212 0 0 0 0 -3.3589860447527791 -8.9283362335466023 0 -8.9283362335466023 26.05185420803128 0 0 0 0 10.012388848654155 -130.38717826288485 0 -130.38717826288485 177.26160379674911 0 0 0 0 287.36058914239766 -19.886423577245296 0 -19.886423577245296 -359.91873198012763 0 0 0 0 246.12226010837094 -206.79713739887666 0 -206.79713739887666 -128.34719719263012 0 0 0 0 -78.399265327860235 71.27120953693111 0 71.27120953693111 50.405985146193416 0 0 0 0 27.90713774891455 -58.507059166613985 0 -58.507059166613985 44.932026434978951 0 0 0 0 2.1630823212481118 -87.494504183639947 0 -87.494504183639947 74.987646885502727 0 0 0 0 21.478847303053897 -19.767086347478653 0 -19.767086347478653 79.57893957979104 0 0 0 0 25.849599036220262 -49.469955465220231 0 -49.469955465220231 59.20611625277585 0 0 0 0 25.112063880456844 -69.946252197572903 0 -69.946252197572903 56.32272206980997 0 0 0 0 -43.81065511382667 -59.395319535952467 0 -59.395319535952467 56.106450387960649 0 0 0 0 9.4407047335467702 -17.817823274768802 0 -17.817823274768802 -6.9010276170727991 0 0 0 0 84.166503454292979 -126.78675612336519 0 -126.78675612336519 -65.756057654107281 0 0 0 0 35.212896631251169 -6.4198465624813252 0 -6.4198465624813252 120.42775533756867 0 0 0 0 37.523778025006322 -112.0534488980993 0 -112.0534488980993 -68.970314356920426 0 0 0 0 24.892074980113094 -54.221103831045681 0 -54.221103831045681 57.652145886235004 0 0 0 0 6.972049955964394 75.920833654407033 0 75.920833654407033 207.78872353672341 0 0 0 0 72.999088394671162 -62.254286656245313 0 -62.254286656245313 52.307410830369918 0 0 0 0 -127.10937482653208 -98.853710538744053 0 -98.853710538744053 482.38795137716443 0 0 0 0 259.0673495517658 65.583484540435165 0 65.583484540435165 -344.263192180857 0 0 0 0 -0.97253218624878457 -0.84152012876580784 0 -0.84152012876580784 -1.3361364826094277 0 0 0 0 -108.54762553004593 169.60677976091574 0 169.60677976091574 118.10416745996554 0 0 0 0 -32.412476166132365 179.2568181171664 0 179.2568181171664 596.01305253246755 0 0 0 0 -140.66404816293289 -146.77499155173064 0 -146.77499155173064 83.632086810757755 0 0 0 0 -26.383233368877882 -39.85071146332848 0 -39.85071146332848 156.46000427914987 0 0 0 0 -23.833427083060087 -225.2480682245623 0 -225.2480682245623 251.5464294485646 0 0 0 0 37.208420674881836 -93.629710634353614 0 -93.629710634353614 16.476018765592016 0 0 0 0 -161.3908969404838 -172.79167293447972 0 -172.79167293447972 21.065917056301259 0 0 0 0 14.748879998598859 -14.331719853134551 0 -14.331719853134551 -16.000016962057032 0 0 0 0 46.40842717378473 -177.9413840116631 0 -177.9413840116631 -10.334551675339753 0 0 0 0 90.742013468126288 31.45014615543414 0 31.45014615543414 -23.800860613562691 0 0 0 0 225.21077836889651 64.819803917061563 0 64.819803917061563 228.31914600612072 0 0 0 0 160.07455480674253 -156.46840314313886 0 -156.46840314313886 228.71704639250675 0 0 0 0 10.681174340836833 205.70181053690476 0 205.70181053690476 1433.6325319950993 0 0 0 0 80.569644252369926 155.91288153884034 0 155.91288153884034 599.10196335709043 0 0 0 0 -73.329302988595373 119.46822919300757 0 119.46822919300757 917.86770444466129 0 0 0 0 -38.00875818829627 42.768247441199492 0 42.768247441199492 863.58788907400594 0 0 0 0 15.576043716364886 -9.6859663111543171 0 -9.6859663111543171 12.971410205434651 0 0 0 0 -8.5920363121158516 151.37584481912563 0 151.37584481912563 592.83640177168127 0 0 0 0 48.447129073949327 263.81410046229576 0 263.81410046229576 541.81203821720555 0 0 0 0 -41.439039201381092 -111.8587402093608 0 -111.8587402093608 401.41109628835693 0 0 0 0 533.30923036341983 193.82758678161554 0 193.82758678161554 473.15793580430181 0 0 0 0 -20.455530306759101 250.68061715846125 0 250.68061715846125 1087.9486041878554 0 0 0 0 38.405824748502255 -125.03858343696265 0 -125.03858343696265 1232.0415857728367 0 0 0 0 516.39046974460871 278.49684171605622 0 278.49684171605622 119.09698550482426 0 0 0 0 6.8506518775202796 2.4061510995961228 0 2.4061510995961228 3.244073838266047 0 0 0 0 303.21627289842263 653.3952018953305 0 653.3952018953305 693.77133518219489 0 0 0 0 -32.480867008047426 261.73124469060713 0 261.73124469060713 1199.465886058988 0 0 0 0 64.150132579581623 -345.05644162037061 0 -345.05644162037061 802.95240131331229 0 0 0 0 121.79942219488385 -340.78726780418219 0 -340.78726780418219 359.08717380080634 0 0 0 0 10.269086097807303 64.838988426057767 0 64.838988426057767 314.06067277672264 0 0 0 0 23.081483884929185 -1.1563658730465249 0 -1.1563658730465249 88.624726945185103 0 0 0 0 48.004714056351986 -38.440252715619863 0 -38.440252715619863 301.62997961202746 0 0 0 0 -91.925034509617376 55.308986022886529 0 55.308986022886529 204.87150481573917 0 0 0 0 -70.753812902421913 116.87168518264389 0 116.87168518264389 6.5326514287589816 0 0 0 0 -58.196629279579611 23.196601480500249 0 23.196601480500249 -79.661057761719348 0 0 0 0 41.803026843075941 -21.147262769351983 0 -21.147262769351983 59.817702715467021 0 0 0 0 -41.888678602112122 122.99013196091255 0 122.99013196091255 83.725156196742319 0 0 0 0 201.31395440739652 44.864873470844032 0 44.864873470844032 84.13836211490343 0 0 0 0 154.29729756385802 -38.27459251680466 0 -38.27459251680466 -18.007653883993044 0 0 0 0 242.46574177349521 -89.892549898715515 0 -89.892549898715515 72.7918100749921 0 0 0 0 276.62403534191617 69.283441280949773 0 69.283441280949773 48.942772967922792 0 0 0 0 165.46186282740655 -28.371075076909619 0 -28.371075076909619 278.12340541696176 0 0 0 0 443.6081502402044 6.1441440657508792 0 6.1441440657508792 278.08780038263103 0 0 0 0 -76.090917637515304 -130.06621632990209 0 -130.06621632990209 867.31965737535575 0 0 0 0 181.01742515814476 171.7620619924146 0 171.7620619924146 612.88429495378659 0 0 0 0 301.49302951082063 -221.2124183813703 0 -221.2124183813703 660.44743008655132 0 0 0 0 215.7712789053885 -137.04656536268521 0 -137.04656536268521 -40.222479908346941 0 0 0 0 5.9095414502426067 -2.9087821178670623 0 -2.9087821178670623 1.5124049597098832 0 0 0 0 188.54349291917822 -351.3937598226214 0 -351.3937598226214 564.7831633401147 0 0 0 0 -76.456582891283233 -98.160925461849729 0 -98.160925461849729 577.09937648551568 0 0 0 0 20.611493762762279 -157.71343820121183 0 -157.71343820121183 573.11351919913432 0 0 0 0 -71.505473424819229 -30.078404890740785 0 -30.078404890740785 535.04695091325266 0 0 0 0 -135.01894194118222 -164.00086025442943 0 -164.00086025442943 508.57396714352763 0 0 0 0 -50.705319450710476 -136.87209901171082 0 -136.87209901171082 138.95247211544483 0 0 0 0 -23.363052345555843 67.574376614240464 0 67.574376614240464 671.45055285169656 0 0 0 0 -204.80417722735194 -52.021636420664436 0 -52.021636420664436 773.63514456921257 0 0 0 0 -20.417907862901018 84.73237552019782 0 84.73237552019782 596.7081812155734 0 0 0 0 247.44855670100071 527.05212013404525 0 527.05212013404525 1209.5538375312317 0 0 0 0 308.69706808729552 -668.55558129167184 0 -668.55558129167184 -822.25501146760894 0 0 0 0 92.578127004660246 695.79037815245647 0 695.79037815245647 1951.0583424909491 0 0 0 0 12.354422234969427 -9.0891471330478453 0 -9.0891471330478453 6.9960520611904826 0 0 0 0 -37.225651451537601 -228.52374877703824 0 -228.52374877703824 2017.5839325849374 0 0 0 0 90.312319684257091 -391.34144301644119 0 -391.34144301644119 824.50943203373572 0 0 0 0 -82.435757562718209 30.010049249391159 0 30.010049249391159 345.8926373741233 0 0 0 0 -285.2263945484392 -274.62888919832403 0 -274.62888919832403 562.75966481033538 0 0 0 0 -88.167741973138163 7.8060110633414297 0 7.8060110633414297 55.674646662650048 0 0 0 0 -73.20999538472779 -7.7276320323107939 0 -7.7276320323107939 7.9196407608542359 0 0 0 0 -1.4078203446089037 4.4389394150675372 0 4.4389394150675372 1.3190876266710418 0 0 0 0 314.37009219409765 -309.87424079194898 0 -309.87424079194898 -78.14983400886922 0 0 0 0 -8.2099493018129834 0.84599836378873761 0 0.84599836378873761 4.1540986102627357 0 0 0 0 -3.3628241167280799 2.8989535886679292 0 2.8989535886679292 5.7976726841952058 0 0 0 0 -38.936785904213366 -0.83585052688795258 0 -0.83585052688795258 8.9055918988597114 0 0 0 0 -5.2383746955567352 1.072309073917026 0 1.072309073917026 2.7033882854380096 0 0 0 0 4.9045365438432782 9.5307113214512356 0 9.5307113214512356 5.2571831191453384 0 0 0 0 -20.027763819269445 -5.0504354682016128 0 -5.0504354682016128 48.658734092721716 0 0 0 0 -44.643491821137104 110.52437347356317 0 110.52437347356317 -62.509807877540879 0 0 0 0 -89.330337859123802 58.076675429289025 0 58.076675429289025 79.520227876990248 0 0 0 0 -66.905791333630305 39.222626758390106 0 39.222626758390106 -20.955819298462302 0 0 0 0 -39.44822871443921 6.4451041635620641 0 6.4451041635620641 12.640060511301272 0 0 0 0 -34.128005377588579 -11.619190676967264 0 -11.619190676967264 32.210085993952816 0 0 0 0 -26.638646625888782 -6.837635144151136 0 -6.837635144151136 -38.613219594873954 0 0 0 0 -38.584992538899996 -10.619642429279338 0 -10.619642429279338 32.86747380750603 0 0 0 0 -21.450373717883849 -20.555347911664285 0 -20.555347911664285 37.439918559441139 0 0 0 0 -33.317311787256017 -13.795089963328792 0 -13.795089963328792 64.969449140349752 0 0 0 0 -29.283130208739408 -1.7456408423277026 0 -1.7456408423277026 41.064494627149543 0 0 0 0 -23.958687305850162 -2.9550184631734737 0 -2.9550184631734737 58.354739994334523 0 0 0 0 -15.192162583328923 11.733407186977274 0 11.733407186977274 -0.90412154283512791 0 0 0 0 -12.944244936921535 0.55536485476451958 0 0.55536485476451958 3.1599853842707333 0 0 0 0 -18.174789976044849 -7.9679833785121446 0 -7.9679833785121446 30.846091059713217 0 0 0 0 -6.4497368410586944 -15.483567228264292 0 -15.483567228264292 11.037724699879618 0 0 0 0 -31.621478205501717 -3.6392818945387262 0 -3.6392818945387262 12.061132060334785 0 0 0 0 -31.302850404855221 7.2589568289322415 0 7.2589568289322415 24.473691554114339 0 0 0 0 -20.231407285949725 -1.6465151188300382 0 -1.6465151188300382 4.5561320623221917 0 0 0 0 -8.2179788298443839 1.0544435661553848 0 1.0544435661553848 7.5772326775186229 0 0 0 0 -15.295585344934807 73.730980706583068 0 73.730980706583068 57.870125162087788 0 0 0 0 69.17900029636985 55.594086460543622 0 55.594086460543622 45.870429194674216 0 0 0 0 4.9175356566212667 13.740641578001473 0 13.740641578001473 17.957508275711973 0 0 0 0 26.940745310539569 137.11492311811162 0 137.11492311811162 49.214452654035995 0 0 0 0 -53.329164256116201 43.951802205639979 0 43.951802205639979 37.410165382156265 0 0 0 0 -113.02560915046706 76.229739234477165 0 76.229739234477165 94.74385291870567 0 0 0 0 -6.1953350981093536 110.18615333599882 0 110.18615333599882 78.600182464226236 0 0 0 0 -19.172485898061495 65.801389378695603 0 65.801389378695603 208.09548574319342 0 0 0 0 -30.598474726747057 -1.3619841424158494 0 -1.3619841424158494 7.0931607297622676 0 0 0 0 -8.7056159105977855 -51.46994964304713 0 -51.46994964304713 76.229353891641949 0 0 0 0 -160.98252393835719 -49.438982208215748 0 -49.438982208215748 82.83982390093297 0 0 0 0 55.356594304732425 129.67907203078721 0 129.67907203078721 133.45292336324746 0 0 0 0 -189.25233050003408 -254.43538803816955 0 -254.43538803816955 -184.73384650326625 0 0 0 0 -1.873103990556821 3.188285078311722 0 3.188285078311722 -2.9100367192982617 0 0 0 0 -180.75205247310805 -49.759301192170824 0 -49.759301192170824 10.251670669233135 0 0 0 0 -344.16883766313322 93.832158549401356 0 93.832158549401356 161.21215659269365 0 0 0 0 -397.9679088167577 -84.184569385251962 0 -84.184569385251962 119.36438392315904 0 0 0 0 1.3165980769273986 4.8405938412894045 0 4.8405938412894045 9.0657644555989805 0 0 0 0 -339.63423290517676 -220.58655214063765 0 -220.58655214063765 -369.68330615508603 0 0 0 0 887.5126379265439 -643.91344551733346 0 -643.91344551733346 92.130584604243268 0 0 0 0 -123.35837873873993 412.64426362650374 0 412.64426362650374 -194.53058364920435 0 0 0 0 -137.6922415092813 173.55688302190993 0 173.55688302190993 125.25349466095213 0 0 0 0 -565.29088553138263 332.50489154769639 0 332.50489154769639 966.58578097338614 0 0 0 0 -537.36368215213861 499.86210209567798 0 499.86210209567798 1962.172947375002 0 0 0 0 45.619553904361965 -880.8764428021932 0 -880.8764428021932 583.64971475847415 0 0 0 0 42.09265906062501 -631.22468508984457 0 -631.22468508984457 -646.57309319463457 0 0 0 0 344.8545763937509 651.94953857675137 0 651.94953857675137 359.56650924505448 0 0 0 0 -274.645078460082 80.299579956372327 0 80.299579956372327 1202.8101273757929 0 0 0 0 -458.18879331634525 636.79117043698352 0 636.79117043698352 680.36692417776067 0 0 0 0 -131.90799109123145 -752.44247447900489 0 -752.44247447900489 -314.23302862577839 0 0 0 0 -610.18086963692247 -1260.2191396355674 0 -1260.2191396355674 307.34878726769239 0 0 0 0 -77.161980726072215 -100.7657612027615 0 -100.7657612027615 -135.41202512171003 0 0 0 0 103.14966108394947 -263.87893993970647 0 -263.87893993970647 -568.9355990273616 0 0 0 0 -378.38311240445637 -243.63890584014553 0 -243.63890584014553 197.27116405325069 0 0 0 0 4.7731298182464741 -31.44311421644079 0 -31.44311421644079 39.529158226636355 0 0 0 0 -96.264471490916549 -92.307755882782658 0 -92.307755882782658 49.269254076796642 0 0 0 0 12.008679280437608 -24.422627173851453 0 -24.422627173851453 41.406254110680749 0 0 0 0 4.6269744503633774 -28.193481185335258 0 -28.193481185335258 31.403937589000634 0 0 0 0 -107.90648859781686 -17.416424899103731 0 -17.416424899103731 130.64965478923114 0 0 0 0 4.7899650277978196 -29.782777533452915 0 -29.782777533452915 52.808499322007293 0 0 0 0 -57.534168476662671 119.35096683391021 0 119.35096683391021 364.863486802029 0 0 0 0 -81.963048969282681 -63.953293549595401 0 -63.953293549595401 34.895104692348468 0 0 0 0 -4.7712323091027429 -5.494755555431766 0 -5.494755555431766 42.904813190012646 0 0 0 0 9.3960475029352892 -14.11068835954211 0 -14.11068835954211 25.661161867430565 0 0 0 0 10.879405124291225 -25.167323789843067 0 -25.167323789843067 43.890565117857477 0 0 0 0 5.2709364812235435 -18.819718924089102 0 -18.819718924089102 42.699694993350931 0 0 0 0 10.262649672701627 -21.025492431555904 0 -21.025492431555904 34.516783772400231 0 0 0 0 10.440681711234902 -18.52402498842639 0 -18.52402498842639 42.404015028660069 0 0 0 0 6.0694673760644946 -21.453699911515287 0 -21.453699911515287 48.237038225674041 0 0 0 0 8.5157686602706235 -31.018154137622332 0 -31.018154137622332 55.556894716959505 0 0 0 0 -2.2697627889760952 -15.615756922390574 0 -15.615756922390574 68.824913526048476 0 0 0 0 -11.477320186284487 -22.045454823412001 0 -22.045454823412001 69.35774453104932 0 0 0 0 2.4932503279733282 -66.594014035941655 0 -66.594014035941655 -61.72151495381695 0 0 0 0 -12.948623144968339 -32.382689354961471 0 -32.382689354961471 36.089083380874754 0 0 0 0 -7.4637166467387033 -28.727665725151383 0 -28.727665725151383 76.658733534117346 0 0 0 0 -46.178431879169011 -50.140726327050288 0 -50.140726327050288 -33.176977079099743 0 0 0 0 6.4407030733336441 -19.29879937173903 0 -19.29879937173903 -16.213467727744359 0 0 0 0 45.781322229986472 -7.7490416864893632 0 -7.7490416864893632 -28.267640800426307 0 0 0 0 69.207392046286259 -38.456219371175393 0 -38.456219371175393 -42.333327517808357 0 0 0 0 95.323296981572639 -125.27200572342554 0 -125.27200572342554 45.174898891666089 0 0 0 0 9.6865890077051517 -64.665485842619091 0 -64.665485842619091 14.516687949129846 0 0 0 0 -26.478271806754492 -95.078564636369265 0 -95.078564636369265 58.512869270642113 0 0 0 0 -33.952701913808141 -72.386966056041274 0 -72.386966056041274 66.948740894877119 0 0 0 0 13.810604954916926 -44.690757949741965 0 -44.690757949741965 -45.322507262040745 0 0 0 0 1.5825853945698327 -16.557587066177803 0 -16.557587066177803 4.3198992318139062 0 0 0 0 -84.995540529705522 -63.351824240236965 0 -63.351824240236965 -6.1684823713221704 0 0 0 0 -37.59175689332551 -28.888181123606046 0 -28.888181123606046 -104.61141833228248 0 0 0 0 -15.766485473472201 1.7172214093624376 0 1.7172214093624376 3.9739276052664252 0 0 0 0 -45.249612884725593 -28.830562844799715 0 -28.830562844799715 18.400853726263449 0 0 0 0 2.6337705121550243 2.8491701043094508 0 2.8491701043094508 41.444974398989871 0 0 0 0 -30.680713600309378 -4.1479383188307253 0 -4.1479383188307253 3.0787092454490335 0 0 0 0 -20.241561049591382 -17.5482302537348 0 -17.5482302537348 23.880651400191709 0 0 0 0 -128.1668702627012 4.2199067743677006 0 4.2199067743677006 136.40285665330521 0 0 0 0 -30.872436632060634 -2.7777209811014529 0 -2.7777209811014529 4.6210891429031022 0 0 0 0 -24.661328955010049 0.68640193564715446 0 0.68640193564715446 35.665173743449486 0 0 0 0 -30.231618134173004 -22.306433131863741 0 -22.306433131863741 118.23574836871649 0 0 0 0 -53.723295255411813 -2.4012274340402655 0 -2.4012274340402655 121.44607501504652 0 0 0 0 -38.802546830085703 -23.491660367408258 0 -23.491660367408258 117.95530276742647 0 0 0 0 -35.126301239381064 -4.9893861736745748 0 -4.9893861736745748 135.55100785573813 0 0 0 0 -33.431520910034124 -42.424091773224063 0 -42.424091773224063 173.26386858944898 0 0 0 0 -17.864823428187719 -38.397022362580174 0 -38.397022362580174 149.96739143535888 0 0 0 0 12.79479334941152 -48.879296881164919 0 -48.879296881164919 153.33730017120615 0 0 0 0 -32.898822955127571 -44.226116574256594 0 -44.226116574256594 153.2313787275416 0 0 0 0 -19.565234198571034 -31.610069997834216 0 -31.610069997834216 162.20410060910217 0 0 0 0 -41.984720146035215 -55.410880187831935 0 -55.410880187831935 126.05385407117137 0 0 0 0 -61.091473325678294 -24.639585432269087 0 -24.639585432269087 82.452562593593029 0 0 0 0 -6.3677100366949162 -106.89593751928624 0 -106.89593751928624 100.96252801790979 0 0 0 0 -33.955900035319246 -30.222048509089291 0 -30.222048509089291 165.25005742140638 0 0 0 0 -0.35822239793378685 -37.123719575822179 0 -37.123719575822179 147.3608746646205 0 0 0 0 25.131738239407696 14.266307856822095 0 14.266307856822095 246.1030850498646 0 0 0 0 27.188639100062574 -155.45685615766706 0 -155.45685615766706 253.82332639701781 0 0 0 0 -0.96816164776339519 -80.213319857638453 0 -80.213319857638453 118.46692663201247 0 0 0 0 -11.984176665947189 -62.009048705118403 0 -62.009048705118403 247.02335580032377 0 0 0 0 154.09790909965977 -132.54125754949928 0 -132.54125754949928 42.570654449191352 0 0 0 0 -45.614088656733657 75.447644930471142 0 75.447644930471142 180.78415152516391 0 0 0 0 -7.21302437723506 -3.6251411904230508 0 -3.6251411904230508 -0.52317031237313927 0 0 0 0 115.95038745632519 -52.246718649264949 0 -52.246718649264949 157.05860619047417 0 0 0 0 33.580952671858086 -16.179362778508221 0 -16.179362778508221 135.06096891172638 0 0 0 0 -15.682448576310435 -10.320425324578537 0 -10.320425324578537 140.39065264838246 0 0 0 0 3.253332890355523 -36.809151305202249 0 -36.809151305202249 154.96429085962882 0 0 0 0 -24.840562797458006 -12.426110068699927 0 -12.426110068699927 161.27906169139533 0 0 0 0 -24.303078084704794 -12.964954285322165 0 -12.964954285322165 123.608360812917 0 0 0 0 -49.56205728219993 -19.952974343908863 0 -19.952974343908863 136.90238077691902 0 0 0 0 -14.877062040606688 -10.305834452574345 0 -10.305834452574345 127.61346412855346 0 0 0 0 -22.580462048072604 0.80052986102600698 0 0.80052986102600698 128.00867376176211 0 0 0 0 -16.756949633719614 -7.5755326636790414 0 -7.5755326636790414 134.65445900182021 0 0 0 0 -8.9696921971258234 -6.422236024394806 0 -6.422236024394806 131.58503275807379 0 0 0 0 -20.862641205625607 1.691097688151558 0 1.691097688151558 151.08250401497935 0 0 0 0 -22.8898610176592 15.301054276147397 0 15.301054276147397 121.21030331088696 0 0 0 0 -22.252880598723692 -17.304487971465392 0 -17.304487971465392 198.37428979231845 0 0 0 0 -22.731024447218488 -41.496109282545149 0 -41.496109282545149 174.91845296684187 0 0 0 0 -22.364014046428565 -14.755825550233567 0 -14.755825550233567 143.93304691458252 0 0 0 0 -4.5906091046226152 -29.066400601372152 0 -29.066400601372152 155.41387208430388 0 0 0 0 -11.164281615440871 18.101822197781075 0 18.101822197781075 174.60917598807646 0 0 0 0 -19.130543107373427 20.573857778887032 0 20.573857778887032 272.35599842698866 0 0 0 0 -22.144015041024886 8.9903806765669287 0 8.9903806765669287 232.35186777227545 0 0 0 0 -25.448795443851168 -17.889233508642064 0 -17.889233508642064 208.35687316644544 0 0 0 0 36.192797448993296 44.641612788636849 0 44.641612788636849 240.24264986554772 0 0 0 0 33.161979225353633 -25.929150595642568 0 -25.929150595642568 206.16354099285309 0 0 0 0 -17.185917201329175 -23.691712690640998 0 -23.691712690640998 373.3017550542354 0 0 0 0 0.77248691194699859 -34.879070758326634 0 -34.879070758326634 238.58301401719655 0 0 0 0 -26.042789701809852 17.932506204011588 0 17.932506204011588 283.94458205446426 0 0 0 0 -5.5022132945896374 27.908905776261236 0 27.908905776261236 343.27893990741359 0 0 0 0 -2.0377970027930132 17.662923128802504 0 17.662923128802504 194.82196080108952 0 0 0 0 -29.294114594072539 4.7075413645179651 0 4.7075413645179651 234.04139643958842 0 0 0 0 -20.981486184658024 21.499962592311931 0 21.499962592311931 247.47699256370834 0 0 0 0 -14.540899661289927 25.498565967543982 0 25.498565967543982 231.33190865042707 0 0 0 0 -26.29234046559634 13.775356715445014 0 13.775356715445014 267.33985027584276 0 0 0 0 9.8682266098747959 -4.7519214175299567 0 -4.7519214175299567 205.54673541564262 0 0 0 0 -4.9028711493077708 33.723472924812086 0 33.723472924812086 245.93154936017527 0 0 0 0 -18.359922227257925 24.783951429893932 0 24.783951429893932 242.24647605780046 0 0 0 0 -4.8628229781575856 -18.262110512468098 0 -18.262110512468098 162.44185253079922 0 0 0 0 1.6125724310866758 -4.3316382397624693 0 -4.3316382397624693 156.60820160793082 0 0 0 0 -12.227260829695524 -2.1190470426226966 0 -2.1190470426226966 156.33628614073314 0 0 0 0 -20.022550950894274 -15.933768639557456 0 -15.933768639557456 162.14066922542406 0 0 0 0 -23.786349804894826 -6.7185328329142067 0 -6.7185328329142067 222.31658259512369 0 0 0 0 -6.0641556379734993 2.6336345291019825 0 2.6336345291019825 204.80938136072655 0 0 0 0 -3.9385402420475657 -9.856101287092315 0 -9.856101287092315 277.8632770034601 0 0 0 0 21.830089794753803 -82.658500285469927 0 -82.658500285469927 160.39858310358795 0 0 0 0 -0.87503622416625149 4.6977728816927993 0 4.6977728816927993 -4.4083930707201944 0 0 0 0 -1.5885821013049606 2.5051338094119586 0 2.5051338094119586 2.7000151195835471 0 0 0 0 15.907142149841093 -13.19420190967503 0 -13.19420190967503 62.331858670222573 0 0 0 0 -3.7078070817656226 -7.6998439683520701 0 -7.6998439683520701 64.493540481424134 0 0 0 0 -0.79149743771419434 1.2059385176679456 0 1.2059385176679456 1.3549333069389178 0 0 0 0 6.1413878381831637 -42.810912588633073 0 -42.810912588633073 105.61956150875631 0 0 0 0 -6.5198188162746646 -2.6021429645770695 0 -2.6021429645770695 79.93016819551849 0 0 0 0 9.1671078106255095 -26.428034461236166 0 -26.428034461236166 33.303816282263142 0 0 0 0 5.1943353760039042 -15.217698604768884 0 -15.217698604768884 47.892408422616427 0 0 0 0 0.20682618756941662 -13.664202538497193 0 -13.664202538497193 104.24070112623565 0 0 0 0 -20.662398045306901 -17.221242098392395 0 -17.221242098392395 104.1509513834535 0 0 0 0 -10.767629131343824 -8.8251577649534738 0 -8.8251577649534738 58.036491610720987 0 0 0 0 -26.068043967932226 -25.001986965939068 0 -25.001986965939068 104.03054676101601 0 0 0 0 -25.95976162590091 -5.413129034343001 0 -5.413129034343001 66.862386007685927 0 0 0 0 -28.286798063921424 1.4009519464379991 0 1.4009519464379991 73.455719317062176 0 0 0 0 -34.06937189433711 -22.675723513682897 0 -22.675723513682897 113.84765431267442 0 0 0 0 -19.847218822823834 -33.40831759860157 0 -33.40831759860157 113.15763549801045 0 0 0 0 -15.867219815207932 -10.86920684733559 0 -10.86920684733559 110.05811558094319 0 0 0 0 -9.6920093647778458 -27.627010967473325 0 -27.627010967473325 159.78469585106359 0 0 0 0 -38.842349079064462 -20.9183764941954 0 -20.9183764941954 158.29484405080439 0 0 0 0 12.082448766165898 -20.268970686913235 0 -20.268970686913235 153.38980341413844 0 0 0 0 -11.486165736754575 8.388756370950432 0 8.388756370950432 199.11557041648484 0 0 0 0 -25.493699850636627 -25.643608584603498 0 -25.643608584603498 152.98713372217026 0 0 0 0 
</DataArray>
<DataArray type="Float64" Name="cross_section_updated" format="ascii">
1 1 1 1 1 0.010112318982605282 1 1 1 1 1 1 1 1 1 1 0.009636461916206646 1 1 1 1 0.010002743663886864 1 0.010001101165754469 1 1 0.0099688499881993922 1 1 1 1 0.0096965605801127529 1 1 0.0100137234898682 0.016382230662114923 1 1 1 1 1 1 0.0090978948924911561 1 1 1 0.010005047292848235 1 0.016567010680348944 1 0.011416810688301138 1 1 1 1 1 0.0097649611091702483 1 1 1 1 1 1 1 1 1 1 1 1 0.0098271737889603673 1 1 1 1 1 1 1 1 0.0099732932607043932 1 1 1 1 1 1 1 1 1 1 1 1 1 1 1 1 1 1 1 1 0.0092505128992425786 1 1 1 1 1 1 1 1 1 0.0090040457304350827 0.0099812728465475068 1 1 1 1 1 1 1 1 1 0.010412929551062584 1 1 1 1 0.013367158131546361 1 0.011303045785244666 1 1 1 0.010438085202343926 1 1 0.010857856869205266 0.013913016814958122 1 1 1 1 0.00990867003147472 0.016048321335999767 0.0098866842917627734 1 1 1 1 1 0.0099511006422001863 1 1 1 1 1 0.016103666327812946 1 1 1 0.0099702289318866141 1 1 1 1 1 1 1 1 1 1 1 1 1 1 1 1 1 1 1 1 1 0.011044536364198332 1 1 1 1 1 1 1 1 0.0095737459647634738 1 1 0.010569078955382651 1 0.010361841936933269 0.010168288313463499 1 1 1 1 1 0.010185612008185478 0.010291116030629148 1 0.010929556312050753 1 1 1 0.01265978989804825 1 1 0.01124780227236751 1 1 1 1 0.011554219176747274 1 0.0099599959751888595 1 1 0.010482244357865291 0.012014379471912204 1 1 1 1 1 1 1 1 0.018840898840200397 1 1 0.011863105605448752 1 1 1 1 1 1 1 0.012074332002263858 1 1 1 1 1 0.014871155814221227 1 1 0.0094258357901815006 1 0.010006853187748327 1 1 1 1 0.0099817900072955365 1 1 1 1 1 0.0097234450473265201 1 1 1 1 1 1 1 1 0.012603046225857142 1 1 0.010028472155391217 1 1 0.019135569341737754 1 1 0.019005446789385122 1 1 0.0098561111007388624 1 1 1 1 1 1 0.010346451606662057 1 0.010685859586704075 1 1 1 0.014921796030524809 1 1 1 1 1 1 1 1 1 1 1 0.013129364385747428 1 1 1 1 1 1 1 1 1 1 0.010676147119424656 1 0.011191925772702607 1 1 1 0.011314357741120917 1 1 1 0.010015039533935909 1 1 1 1 1 1 0.012809532528742354 0.0096364584241607175 1 1 1 0.010192556250196006 1 1 0.008123911423059715 0.016027548127257322 1 1 0.0081781785043209699 1 1 1 1 1 0.014064322778754537 1 1 1 1 0.016621638991132712 1 1 0.014302027929756989 1 1 1 0.008697694421747261 0.0084021419826511862 1 1 1 0.01000763022305564 1 1 1 1 1 0.0070746654528550182 1 0.0084149026040884617 1 1 1 1 1 1 1 1 1 1 1 0.011647808350781948 0.010007970333904062 1 1 1 1 1 1 1 1 1 1 1 1 1 0.01192966452435169 1 1 1 1 1 1 1 1 0.011365462917827703 1 1 0.0069544345802399488 1 1 1 1 1 0.0084983802753449585 1 1 0.020165596356662284 1 1 1 1 1 0.015723083637253721 1 0.011814480397401924 1 1 1 1 1 1 1 1 1 1 1 1 1 1 1 0.0098954943003593462 1 1 1 1 0.0096740345426652857 1 1 1 1 0.009993932244955003 1 1 0.010786427417352369 0.010370986412090367 1 1 1 1 1 0.01068182956814694 1 0.010329864563077214 1 1 1 0.010005457522976822 0.010024598977944573 1 1 1 1 0.0095546859793739919 1 1 1 1 1 1 1 1 1 1 0.010650291217906798 1 1 1 1 1 1 1 0.010018852409747002 0.011058237349192618 1 1 1 1 1 1 1 1 1 1 1 0.0099868745294139187 1 1 1 1 1 1 1 1 1 1 1 1 1 1 1 1 1 1 1 1 1 1 1 0.010139710791208541 1 1 1 0.0098539036031961395 1 1 0.010341583599804921 1 1 1 1 1 1 1 1 1 0.010087419885430099 1 1 1 1 1 0.01001789658001237 1 1 0.010003707761851435 1 1 0.010071221719920557 1 1 0.010006237929939425 1 1 1 1 1 1 1 1 1 1 1 1 1 1 1 1 1 1 1 1 1 1 1 1 1 0.01030395264609169 1 1 1 1 1 0.010799452355998293 1 1 1 1 1 0.011037784215884161 1 0.010084479041585014 1 1 1 1 1 1 1 1 1 1 1 1 1 1 1 1 1 1 1 1 1 1 1 1 1 1 1 1 1 1 1 1 1 1 1 1 1 1 1 1 1 1 1 1 1 1 1 1 1 1 1 1 1 1 1 1 1 1 1 1 1 1 1 1 1 1 1 1 1 1 1 1 1 1 1 1 1 1 1 1 1 1 0.010999202549722583 1 1 1 1 1 1 1 1 1 1 1 1 1 1 1 0.013404894933638082 1 1 0.010002397325048866 1 1 1 1 1 1 0.013516177822795954 1 1 0.012658499119075062 1 1 1 1 1 1 1 1 1 1 0.010127056898762869 1 1 0.021396848891653081 1 1 0.010014123523038432 1 0.02085362600676386 1 1 1 1 1 1 1 1 1 1 1 0.018234832308178829 1 1 1 1 1 1 1 1 0.011009308872667805 1 0.018621458182863582 1 1 1 1 1 1 1 1 1 1 1 1 1 1 1 1 1 1 1 1 1 1 1 1 1 0.018082796484817674 1 1 1 1 0.017058495760477934 1 1 1 1 0.023851536540175196 0.0097336028903255156 1 1 1 1 0.010490023067394001 1 1 0.011578095955743647 1 0.014320320547923523 1 1 1 1 0.013506212075593512 0.010170584943490227 1 0.012243846666946763 0.011595743175111695 1 1 0.011539127125723293 1 1 0.017841190930681681 1 1 1 1 1 1 1 1 1 0.016581968770767889 1 0.016171727697283943 1 1 1 1 0.0099983998722318161 0.014613959739223678 1 1 1 1 0.015593314551807892 1 1 0.0038474733230202743 0.010003900787881414 1 1 0.010144517389762102 1 1 1 1 1 1 1 1 1 1 1 1 1 1 1 1 1 1 1 1 0.012892592456808568 1 1 1 1 1 1 1 1 1 1 1 1 1 1 0.010041480117712684 1 1 1 1 1 1 1 0.017838945400093904 1 1 1 0.016798636343795359 1 1 1 1 0.0099392224848121654 1 1 1 1 1 1 0.0098593933829333232 1 1 0.00976655424273477 0.015064942192185383 1 0.013154171862802608 1 1 1 0.015993902030065468 1 1 1 0.010437872929849049 0.012022113096490143 1 1 1 1 1 1 1 1 0.010063967209667558 1 1 1 1 1 1 1 1 1 1 1 1 1 1 1 1 1 0.010310935544540181 1 1 1 0.010229570808967517 1 1 1 1 1 1 1 1 0.01057251203434758 1 1 1 1 1 1 1 1 1 1 1 1 1 1 1 1 1 1 0.01063301495513351 1 1 1 1 1 1 1 1 1 1 1 1 1 1 1 1 1 1 1 1 1 1 1 0.013651976320099117 1 0.014199616837454805 1 1 1 1 0.01198673080203342 0.016159139054021242 1 1 1 1 1 1 1 1 1 1 1 1 1 1 1 1 1 0.017708896649994733 1 1 0.010587514959591322 1 1 1 1 1 1 1 1 1 1 1 1 1 0.0099769681040617481 0.009977323837437874 1 0.0095972918912095705 1 1 1 1 1 1 1 1 0.0098214030058814197 1 1 1 0.01025667796597643 1 1 1 0.010170788688054717 1 1 1 1 1 1 1 1 1 0.010255267729639729 1 1 1 1 1 1 1 1 1 1 0.011054160400806902 1 1 1 1 1 1 1 1 1 1 1 0.012203759162717071 1 0.010963014840529041 1 0.014405564364615592 1 1 1 0.013298546350719647 1 0.0075171665526065426 1 1 1 0.0099777722997127644 1 1 1 1 1 1 1 1 1 1 1 1 1 1 1 0.010455430130968274 1 1 1 1 1 1 1 1 0.014547352549432152 1 0.0098742766259683513 1 0.0099633874587021741 1 0.0085606476513802668 0.010007158109441102 0.011924206153435087 1 1 1 1 1 1 1 1 1 1 1 0.0098577307123252911 1 1 1 1 1 1 1 1 1 1 1 1 1 1 1 1 1 1 1 1 1 1 1 1 1 0.029310837536936245 1 1 1 1 1 0.027441857798573221 1 1 1 1 1 1 1 1 1 1 1 1 1 1 0.01243200054610551 1 1 1 1 0.017078525401328717 1 1 1 1 1 1 1 1 1 1 1 1 0.0075260102473776545 1 1 1 1 1 1 0.010529867407754641 1 1 1 1 1 1 1 1 1 1 1 0.0092549652479798229 0.010230533798397973 1 1 1 0.011421785040482278 0.010509252505368194 1 1 1 1 1 1 1 1 1 1 1 1 1 1 1 1 1 1 1 1 1 1 1 1 1 1 1 1 1 1 1 1 1 1 1 1 1 1 1 1 1 1 1 1 1 1 1 1 1 1 0.010448809495321353 1 1 0.014410565676939248 1 1 0.0099780546180318532 0.02148219805033838 1 0.0091574589349244229 1 1 1 1 1 1 0.012641225720144573 1 1 1 1 1 1 1 1 1 1 0.010292857196099129 1 1 1 1 1 1 1 1 1 1 1 1 0.021259291873576114 1 1 1 1 1 1 1 1 1 0.0097010524353886539 1 1 1 1 1 1 1 1 1 1 1 1 0.013243338070680784 1 1 0.010792524189951021 1 0.012024376158354052 1 1 1 1 1 0.010800001205688104 0.0095413285466807579 1 0 1 1 1 1 1 1 1 1 1 1 1 1 0.010011271569763374 1 1 1 1 1 1 0.011605797590766173 1 1 1 1 1 1 1 1 1 1 1 1 0.01145104539376581 1 1 0.011773022760122043 1 0.009926463090933358 0.010167587777692449 1 1 1 1 1 1 1 0.010473496829025611 1 0.010550339033434244 1 1 1 1 1 1 1 1 1 1 1 1 1 1 1 1 1 1 1 1 1 1 1 1 1 1 1 1 1 1 1 1 1 1 1 1 1 1 1 1 1 1 1 1 1 1 1 0.010294224614516852 1 1 1 1 1 1 1 1 1 0.0098951420730938461 1 1 0.012996090641824885 1 0.01410403158572727 1 0.0075812280940264071 1 1 1 1 1 1 0.0092541074309438025 1 1 1 1 1 1 1 1 1 1 1 1 1 1 1 1 1 0.011954416054494746 1 1 1 1 1 1 0.012198179418396118 1 1 1 1 1 1 1 1 1 1 1 1 0.010867432686816513 1 1 1 1 1 1 1 1 1 1 1 1 1 1 1 1 1 1 1 1 1 1 1 1 1 1 1 1 1 1 1 1 1 1 1 0.010552505908519 1 1 1 1 0.011402751722532668 1 1 1 1 1 0.022992148381880167 1 1 1 0.022132355118574296 1 1 1 1 0.013598006949722279 1 1 1 1 1 1 1 1 1 1 1 0.0099825560239581671 1 1 0.0092133587383316246 1 1 0.012972955033811715 0.010455785354917878 1 1 0.010813393005195364 1 1 1 1 1 1 1 1 0.012623598081967502 1 0.010181306527943407 1 1 1 1 1 1 0.010542480181517065 1 1 1 1 0.010175087014007165 1 1 1 1 1 1 1 1 1 1 1 1 1 1 1 1 0.010043463199695688 1 1 1 0.0097919114175953163 1 1 1 1 1 1 1 1 1 1 0.0094885317526965315 1 1 1 0.010275015576985114 1 1 1 0.021684553123517296 1 0.017141961730251079 1 1 1 1 1 1 1 1 1 1 1 1 1 1 1 1 1 1 1 1 1 1 1 1 1 1 1 1 0.010237040599005874 1 1 1 1 1 1 1 1 1 1 1 0.019043673871394304 1 1 1 0.020930371500124213 1 1 1 1 1 1 1 1 1 0.011904959410736785 0.010599526387273038 1 0.013560518245982475 1 0.01020669740775672 1 0.0095557856310971735 1 1 1 1 0.0098520504937563615 1 1 0.010068029001653628 1 1 1 1 1 1 0.01066850974805772 1 1 1 1 0.011822792713532728 1 1 1 1 1 1 1 1 1 1 1 1 1 1 1 0.023123496558279489 1 1 1 1 1 1 1 1 1 1 1 1 0.022486277474082085 1 1 1 1 1 1 0.010025284921260341 1 1 1 1 1 0.010375262795412201 1 0.010896872230431115 1 1 1 1 1 1 1 1 0.010156794497175377 1 0.016274246043993947 0.019957770851768541 1 1 1 0.023527117577824518 1 1 0.012671935464790722 1 1 0.0086587599820576316 1 1 0.012026847228592069 1 0.0099937382812978481 0.010052486416742484 1 1 1 1 1 1 1 1 1 1 1 1 1 1 1 1 1 1 1 1 1 1 1 1 1 1 1 1 0.0055127346625712687 1 1 1 1 1 1 1 1 0.0099855364516987337 1 1 1 1 1 1 1 0.019645629036564312 1 1 1 0.010005155124402997 1 1 0.018329133888750945 1 1 1 1 1 1 1 1 1 1 1 1 0.010074957243552406 1 1 1 1 0.011352719398222178 1 1 1 1 1 1 1 1 0.011896116255900722 1 1 1 0.012363303347851877 1 1 1 1 1 1 1 1 1 1 1 0.0090054537472801111 1 1 1 1 0.010051887212500204 1 1 1 0.0084108849775878132 0.010387614415339041 1 1 1 1 1 0.010803264725557319 1 0.010000538845691621 1 1 0.0109820703568355 1 0.010571951515655001 1 1 1 1 1 1 1 1 1 1 1 1 1 1 1 1 0.0098607777989827231 1 1 0.01223639655687068 1 1 1 0.010725058337939301 1 0.016511852746290672 0.010171051763245349 1 1 1 0.011928789217080227 1 1 0.015855965544519315 1 0.012700722284308269 1 1 1 1 1 1 1 1 1 1 1 0.010005908897767302 1 0.014947814512380522 1 1 1 1 1 1 1 1 1 0.010124483410780035 1 1 1 1 1 1 1 1 1 0.021637748180422297 1 1 1 1 1 1 1 1 0.01063290032345097 1 1 0.011633988828749942 1 1 1 1 0.01004714547890013 1 1 1 1 0.019423266316917112 1 1 1 1 1 1 1 1 1 1 1 1 1 1 1 0.017375452997861328 1 1 1 1 0.0094865644830471937 1 1 0.0098843957893402744 1 1 1 1 1 1 1 1 1 1 1 1 1 1 1 1 1 0.016812371494746667 1 1 1 1 1 1 1 0.013042751807691145 1 1 1 0.011000650118434388 1 1 0.0093673803763014082 1 1 1 1 1 1 1 1 1 0.0099342950940923911 1 1 0.0098445444696209743 1 1 1 1 1 1 1 0.013312911294654325 1 1 1 0.015715457874107608 1 0.010040567068369295 1 1 1 1 1 1 1 1 1 1 0.0085663352602535926 1 1 1 1 0.0099950823410945959 0.010816357716893855 1 1 1 1 1 1 1 1 1 1 1 1 0.02005403286024773 1 1 0.009736188685356667 1 1 1 0.0099055758646967671 1 1 0.016593456660132504 1 1 1 0.012329276635717978 1 1 1 1 0.010904626036313061 1 1 1 1 1 1 1 1 1 1 1 1 1 1 1 0.011798245874846605 1 1 1 1 0.010797157369547641 1 1 1 1 1 1 1 1 1 1 1 1 0.011170673227164014 1 1 1 1 1 1 0.010275521511560604 1 1 1 1 1 1 0.012075299263477075 1 1 1 1 1 1 1 1 1 1 1 1 1 0.010197135364635861 1 0.0093853470787912674 1 1 1 1 0.021224916101493588 1 1 1 0.011601359074480252 0.0098325177063956978 1 1 0.0097919030757371277 1 1 1 1 1 1 1 1 1 1 1 1 1 1 1 1 0.010806995109312337 0.010093714237025262 1 1 0.0091714321015249206 1 1 1 1 1 1 1 1 1 1 1 1 1 1 1 0.0095022311612915702 1 1 1 1 1 1 1 0.010398028229639613 1 1 1 1 1 1 1 1 1 0.010541463747443757 1 1 0.011310960694837096 1 1 1 1 1 1 1 0.010871318752795947 1 1 1 1 1 1 0.010327649384311952 1 0.009242412748674475 1 1 1 1 1 0.009634038792519858 1 1 0.010923083510816375 1 0.0097124789443241103 1 0.010201323273091376 0.012946858712980139 1 1 1 1 1 1 1 1 1 1 1 1 0.011610503054040688 1 1 1 1 1 1 0.010046883444862979 1 1 1 1 1 1 1 0.010748894725533375 1 1 1 1 1 0.010300383863268515 0.010445698814038959 1 1 0.012983503284522968 1 1 1 1 0.012482442601236782 0.010376558789444032 1 1 1 1 0.012756270312358629 0.010188524373089456 1 1 1 0.014847407110438483 1 1 1 1 1 1 1 1 0.010430719433822891 0.010017975681707097 1 1 0.0091351513595165947 1 1 0.0087530385320890129 0.0086998285005333957 1 0.012608693325083712 0.011744623887022496 1 1 1 1 1 1 1 1 1 1 1 1 1 1 1 1 1 1 0.010962909241788586 1 1 1 0.0096997864434132507 1 0.0097903151649401908 1 1 1 0.0098532701624109639 0.010767992655894631 1 1 1 0.0095190032626632608 1 1 0.0098566069729467444 0.011607371507567779 1 0.0091273204445091322 1 1 0.010890541465927528 1 0.0086980919533287092 1 1 1 1 1 1 1 1 1 0.010791581156451706 1 0.010712447643466502 1 1 1 1 1 1 1 1 1 0.010274514713016826 1 1 1 1 1 0.0097435534351734861 1 1 1 0.011169182755359714 1 1 1 1 0.010309370033474603 1 0.0099576647225530189 0.011317297916922001 1 0.0099331885437328044 1 1 0.011471849754176972 0.010340705508915705 0.0091151767651921171 1 1 1 0.010406463961436373 1 0.012342687233444356 0.009976779087273133 1 1 1 1 0.0091206924970167538 1 1 1 0.0099516472590575472 0.010112742235957938 1 1 1 1 1 1 1 0.010367425469707071 1 1 1 1 1 1 1 1 1 1 1 0.010623689080268511 1 1 1 1 1 1 1 1 1 1 1 1 1 1 1 1 0.015068004857695447 0.01070345924092117 1 1 0.011954815714670738 1 1 1 1 1 1 1 1 1 0.011381463610170357 1 1 1 0.012709008055308061 1 1 1 1 1 1 1 1 0.010027737370202993 0.011035662426369067 1 1 1 1 1 1 1 0.011120713470962971 1 1 1 1 1 1 1 1 0.0099022919711906059 1 1 1 1 1 1 1 1 1 1 1 1 1 1 1 1 1 1 1 1 1 1 1 1 1 1 1 1 1 1 0.0083166906354389964 0.0083778955038513094 1 1 1 1 1 1 0.011809507627110982 0.0066629977046526786 1 1 1 1 1 1 1 1 0.0090934594859050574 1 1 1 1 1 0.010799775940004924 1 1 1 1 1 1 0.010704607991484984 1 1 1 0.010526675311628129 1 1 0.01157480816807086 1 1 1 1 1 1 1 1 1 1 0.0072376597230471747 0.0098230525335481125 1 1 1 1 1 1 0.0094989267665681661 1 1 1 1 0.0098007048572612675 1 1 1 1 1 1 1 1 1 1 1 0.010687366702837738 1 1 0.0096226877225444648 0.0091480765696519209 1 1 0.0073151679151141754 1 0.0077848076706929442 0.01163788061099629 1 1 1 1 1 1 1 1 0.011016367120482037 1 1 1 0.0098864066490733874 1 1 1 1 1 0.011422681709113676 1 1 1 1 0.0099508861551971355 1 0.011027128187755742 0.012216264105112926 1 0.0097753867334458063 1 0.010704036544987817 0.011923319423020124 1 0.014917402506185087 1 0.013401466813952269 1 1 1 1 1 0.010910945164791755 1 1 1 1 0.010329303888334527 1 1 1 1 1 1 1 0.010958664758456497 1 1 1 1 1 0.014661449899652193 1 1 1 1 1 0.012483066131153932 1 0.014724498062733292 1 0.010566658883991305 1 1 0.012825828183900295 1 0.014424589958172229 0.010034582175208393 1 1 1 1 1 1 1 1 1 1 1 1 1 1 1 1 1 1 1 1 1 1 1 1 1 0.019283248447637437 1 1 1 1 1 1 0.010222735864450777 1 1 1 1 1 0.015034214401095721 1 0.015021032978056438 1 1 0.015192545693544324 1 1 1 0.015108566054831775 1 0.016441672926497074 1 1 1 1 0.01025626361056144 1 1 1 1 1 1 1 1 1 1 1 1 0.010880084717035179 1 1 1 0.012691065105505108 1 1 1 1 1 1 1 1 1 1 0.014507772265543029 1 1 0.0097511171154382389 1 1 1 1 1 1 1 1 1 1 1 1 0.011093762409119686 1 1 1 1 0.010365579705397528 1 1 0.0097140219252900527 1 1 1 1 1 1 1 0.010533397454693819 1 1 0.012003456906617778 1 1 1 1 1 1 1 1 1 1 1 1 1 1 1 1 1 1 1 1 1 0.011833956771898475 0.013616008572810685 1 1 1 1 1 1 0.011123531123992742 1 1 1 1 1 1 1 1 1 1 1 1 1 0.010679399219353633 0.0093579157535401674 1 1 1 1 1 1 1 1 0.0099047006422087851 1 1 1 1 0.0097070893686908716 1 1 1 1 1 1 1 1 1 1 1 1 1 1 1 1 1 1 1 1 1 1 1 1 1 1 1 1 1 0.013955618227624934 1 1 1 1 1 1 1 0.014283603445369601 1 1 0.014472160763453755 1 1 1 1 1 1 1 1 1 1 1 1 1 1 1 1 1 1 1 1 1 1 0.0092549735531145504 1 1 1 1 1 0.0097236167924054321 1 1 1 1 1 1 1 1 0.010510809645596527 1 1 1 1 1 1 1 1 1 1 1 1 1 1 1 1 1 1 0.010483454878914609 1 1 1 1 1 1 1 1 1 1 1 1 0.0080102738766339686 1 0.00739600113011331 1 0.011785099786901065 1 0.0099815817846719227 1 1 1 1 0.01146000878919597 1 0.0095606101823186643 1 1 1 0.010013296152176266 1 1 1 0.01238716478108207 1 1 1 0.0098715800571517447 1 1 1 1 1 0.01005245260555435 1 1 0.01501391156584138 1 0.012417958480080076 1 0.01157374890743388 1 0.0074954028760193803 0.0078780134471984481 1 1 1 1 1 1 1 1 1 1 0.00994413840171866 1 1 1 1 0.009787812728367852 1 1 1 1 1 1 1 1 1 1 1 1 1 0.013355003936642788 1 1 1 1 0.010050236043444122 1 1 1 1 1 1 1 1 1 1 0.007984337992665692 1 1 1 0.0083652300180350851 1 1 0.014204678249750587 1 0.010004692940697045 1 1 1 1 0.0084810597954349202 1 1 1 1 1 1 1 1 1 1 1 1 1 1 1 1 1 0.011683991608162804 1 1 1 0.012379542320486416 1 0.010711295453520821 1 1 0.010175160355624791 1 1 1 1 1 0.010269972453128667 1 1 1 1 1 1 1 1 1 1 1 1 1 1 1 0.010584992972953755 1 1 1 0.0103445774424742 1 1 1 1 1 1 0.0083150624679487837 1 0.010797337345647071 1 1 1 1 1 1 1 1 1 1 1 0.01494425291814337 1 1 1 0.016792098985727928 1 0.0099929503285006507 1 1 1 1 1 0.01640113005445272 1 1 0.0080977044267946958 1 1 1 0.010080382946365318 1 1 1 1 1 1 1 0.010218486778657294 1 1 1 1 1 1 1 1 1 1 1 1 0.0080175424807992172 0.015753910434316436 1 1 1 1 0.006521026390193415 1 1 0.0096334010634156891 1 0.013570234173456729 1 1 1 1 1 1 1 1 1 0.014162571910466258 1 1 1 1 1 0.014428780356617463 1 1 1 1 1 1 1 1 1 1 1 1 0.010584679653971552 1 1 1 1 1 1 1 1 1 1 1 0.010838196180412343 1 0.012105403455085378 1 0.011189832596311389 1 0.015231255301431133 1 1 1 0.0098852212010295589 1 1 1 1 1 1 0.01122988293265449 0.0099831900415701981 0.012696129189819157 1 1 1 1 1 1 1 1 0.010331795151085985 1 1 1 1 1 1 1 1 1 1 1 1 1 1 1 0.010050932168662187 1 1 1 0.01005061302883745 1 1 1 1 1 0.0097879332769011257 1 1 1 0.010085296231868154 1 0.010379770875756731 0.0097940481043037528 0.0091446828531274432 1 1 0.010053529427661051 1 0.0090348717084260798 1 1 0.010387784891852599 1 1 0.010485756143031745 1 1 1 1 1 0.01019771103056847 1 1 1 1 1 1 1 1 1 1 1 1 1 1 1 0.011067068314654194 1 1 1 1 0.011700553479184939 1 1 0.01232405046045283 1 1 1 1 1 1 1 1 1 1 1 1 1 1 1 1 1 1 1 0.010043110041362555 1 1 1 1 1 1 1 1 1 0.0097582874969410083 1 1 1 1 1 1 1 0.0099238391040560557 1 0.010295319421573794 0.010182025374228673 1 1 1 1 1 1 1 1 1 1 1 1 1 1 1 1 0.011507183257536455 0.010563445291394778 1 0.011575397556398005 1 0.0078444886023191253 1 1 0.010431534128584267 1 0.0092959058208713398 1 1 1 0.013678881298354545 1 0.011177992671726825 0.010107126813465697 1 1 1 1 1 0.0099854988815973912 1 1 0.0099566933268617156 1 1 1 1 1 1 1 1 1 1 1 1 1 0.015905233183416433 1 1 0.014804740395114171 1 1 1 1 1 1 1 1 1 0.012766606486451152 1 1 1 1 1 0.010414372432007126 1 1 0.010541576505977694 1 1 1 1 1 1 0.010768556601548185 1 1 0.012362920801788305 1 0.016910494515209804 1 1 1 1 1 1 1 1 1 0.018327852405695899 1 1 1 1 1 1 1 1 1 0.010101620079967427 0.010582228854057685 1 1 1 1 0.010914253520825284 1 1 1 1 0.016253589201330187 1 1 0.013416921824841679 0.013587631100731756 1 0.010636926814126951 0.01072264021130187 1 0.010312622738552069 1 0.011493285361878217 1 1 1 1 1 1 0.010428902365953729 1 1 1 1 1 0.010240540390108062 1 1 1 1 1 1 1 1 1 1 1 1 1 0.0091323011845749723 0.010527023812450121 1 1 0.019901876461013733 1 0.01050129043421239 0.010256825529359975 1 1 1 1 1 1 1 0.010000751050081446 1 0.015665353892355953 0.015659012251780208 1 1 1 1 1 1 1 1 1 1 1 1 1 1 1 1 0.022871179754704943 1 1 1 0.010979313889189393 1 1 1 1 1 1 1 0.019601069996561721 1 1 0.013045206301908084 1 1 0.017022120690860724 1 1 1 1 1 1 1 1 0.0084492516465570298 1 1 1 0.010190666449723051 1 1 1 0.018389049315857768 1 1 0.016754128811645543 0.0075311724007986192 1 0.010007944194613917 1 1 1 1 1 1 1 1 1 1 1 1 1 1 1 1 1 1 1 1 1 1 1 0.010004512993525401 1 0.018331163715521889 0.019681696701116726 1 1 1 1 1 1 1 1 1 0.015412902258233659 1 1 1 1 1 1 0.014054489007425661 1 0.015871565845247716 1 0.012281437078175901 1 0.016518429192187028 0.011926666302839553 1 1 1 1 1 0.015563288143613812 0.0089554218130595276 0.013850555474100692 1 1 1 0.013782112450958466 0.010002416859110096 1 1 0.014843827185576846 1 1 1 1 1 1 1 1 1 1 1 0.010203525825300399 1 1 1 0.014118233334756779 1 1 1 0.0088372873310659586 0.0099977719966557951 1 1 1 1 0.012533847539664474 1 0.010038258320677248 1 1 1 1 1 1 1 1 1 1 1 1 1 1 1 1 1 0.01060003842553906 1 1 1 1 1 1 1 1 1 0.010396200503703285 1 1 1 1 1 0.011876629378478682 1 1 1 1 1 1 1 1 1 1 1 1 1 1 1 1 1 1 1 1 1 1 1 1 1 1 1 1 1 1 1 1 1 1 1 1 1 1 1 1 1 1 1 1 1 1 1 1 1 1 1 1 1 1 1 1 1 1 1 1 0.010162539910622631 1 1 0.010439913023395288 1 1 1 1 1 1 1 1 1 1 1 0.0093904035823616852 1 1 0.010944226863824803 1 0.0099434645472748114 1 1 1 1 1 1 1 1 0.011013373214320082 1 1 0.011868577604033946 1 1 1 0.0093174706792996716 1 1 1 1 0.015706546113089748 1 0.0098297300828925349 1 0.0098841788324997414 0.011471307064825846 0.0098754994263255749 1 1 0.01095491967726734 0.011716316831894811 1 1 1 1 0.010178938954279281 1 0.009955361142418323 1 1 1 1 0.010078385583217383 1 1 1 1 1 1 1 1 1 1 1 1 1 1 1 1 1 1 1 1 1 1 1 1 1 1 1 1 1 1 1 1 1 1 1 1 1 0.012779445712964717 1 0.011362876793739034 1 1 1 1 1 1 1 0.0099507776956855309 1 0.010152837920025852 1 1 0.012576938818507693 1 1 1 1 1 0.0098692499546599102 1 1 1 1 1 1 1 1 1 1 1 1 1 1 0.010310725599983354 1 0.010933782141758684 1 1 1 1 1 0.010390351541139618 1 1 1 1 1 1 1 1 1 1 1 1 1 1 1 1 1 1 1 1 0.010311582285405407 0.010582207691647284 1 1 1 0.010633873331812434 1 1 1 1 1 1 1 1 1 1 0.010076320974992906 1 1 1 1 1 1 1 1 1 1 1 1 1 1 0.010226090751850221 1 1 0.0099807114806906398 1 1 1 1 1 1 1 1 1 1 0.0095891189182097589 1 1 1 1 1 1 1 1 1 1 1 1 1 1 1 0.010072341404184676 1 0.010072722065891901 1 1 1 1 0.010406106229405493 1 1 1 1 1 1 0.01107324947292302 1 1 1 1 1 1 1 1 0.011249863122821932 1 1 0.010661921655026477 1 1 1 1 1 1 1 1 1 1 1 1 1 1 1 1 1 1 1 1 1 1 0.010348968456830324 1 1 1 1 1 1 1 1 1 1 1 1 1 1 1 1 1 1 1 1 1 1 1 1 1 1 1 1 1 1 1 1 1 1 1 1 1 1 0.012871695915913034 1 1 1 1 1 0.0098930586231909742 1 1 1 1 1 1 1 1 1 1 1 1 1 1 1 1 1 1 1 1 1 1 1 1 1 1 1 1 1 1 1 1 1 1 1 1 1 1 1 1 0.0094851191156197778 1 0.013363640973813137 1 1 1 1 1 0.014831054580433059 1 1 1 0.0091770989294841614 1 1 1 0.009870119257453798 1 1 0.0095764297770473596 1 0.0097677567914815286 1 1 1 1 1 1 1 1 1 1 1 1 1 1 1 1 1 1 1 1 0.0094973424191256081 1 1 1 1 1 1 1 1 1 1 1 1 1 1 1 1 1 1 1 1 1 1 1 1 1 1 1 1 1 1 1 1 1 1 1 1 1 1 1 1 1 1 1 1 1 1 1 1 1 1 1 1 1 1 1 1 1 1 1 1 1 1 1 1 1 1 1 1 1 1 1 1 1 1 1 1 1 1 1 1 1 1 1 1 1 0.012974695448797617 0.012260234701708523 1 0.011433468154890103 0.010759018088110016 1 1 1 1 1 1 1 1 1 0.017266594941264882 0.010950875210496792 0.017975310905831501 1 1 1 0.0099272349485940766 1 1 1 1 1 1 1 1 1 0.011601683042751592 1 1 1 1 1 1 1 1 1 1 1 1 1 1 1 1 1 1 1 1 1 1 1 1 1 1 1 1 1 1 1 1 1 1 1 0.0098680163934804499 1 0.0097846269773367994 1 1 1 1 1 1 1 1 1 1 1 1 1 1 1 1 1 1 1 1 1 1 1 1 1 1 1 1 1 1 1 1 1 1 1 1 1 1 1 1 1 1 1 1 1 1 1 1 1 1 1 1 1 1 1 1 1 1 1 1 1 1 1 1 1 1 1 1 1 0.014184328143115056 1 1 1 1 1 0.012721360992169506 1 1 1 1 1 1 1 1 1 0.010927276531357173 1 1 0.011928283531511451 1 0.015781336484239149 1 1 1 0.011208860726675327 1 1 1 1 1 0.018354108255362114 1 1 1 1 1 1 1 1 1 1 1 1 0.012537751437087311 1 1 1 0.011328890710411972 1 1 1 1 1 1 1 1 1 1 1 1 1 1 1 1 1 1 1 1 1 1 1 1 1 1 1 1 0.015805091480262747 1 1 0.016070503419466635 1 1 1 0.015413065778872036 1 1 1 1 1 1 1 1 0.0099009500283854315 1 1 1 1 1 1 1 1 1 1 1 1 1 1 0.011225500838615683 1 1 0.013325036927539585 1 1 0.0095790937911512403 1 1 1 1 1 1 1 1 1 1 1 1 1 1 1 1 1 1 0.0099881401922093764 1 1 1 1 1 0.0099446889349226845 1 0.0098309033064413465 1 1 1 1 1 0.0098891823579569105 1 1 1 1 1 1 1 1 1 1 1 1 1 1 0.0098716543485818705 1 1 1 1 1 1 0.0096556628673864567 1 1 0.0096899920152073264 1 1 1 1 1 1 1 1 1 1 1 1 1 1 1 1 1 1 1 1 0.0095841043135384326 1 1 1 1 1 0.01144025719341912 1 0.011307877395626133 1 1 0.012872659478165458 1 0.0087261439778783031 0.011442965491861856 1 1 1 1 0.01095046032229172 1 1 1 0.0096776311752864164 1 1 0.012692965705897584 1 1 1 1 1 1 0.013925972286386283 1 0.010107081942250698 1 1 0.013143928305790743 1 1 1 1 0.013392584363299671 1 1 0.009931353657872382 0.013169073267346319 1 1 1 1 1 1 1 1 1 0.014879170371943811 1 0.010158947698582435 1 0.015647361384480404 0.010513824310764353 1 1 1 1 1 1 1 0.010980483657760349 0.012260261418062589 1 1 0.011562858124279207 1 1 1 0.010029506211919351 1 1 1 0.010031446592973657 1 1 1 1 1 1 1 1 1 1 1 1 1 1 1 1 1 1 1 1 1 1 1 1 1 1 1 1 0.010328392199054256 1 1 1 1 1 1 1 1 1 0.010087831711419235 0.010418052290330392 1 1 1 0.0088780011830119476 1 1 1 0.012179139589710846 1 1 1 1 1 1 1 0.010020621851211829 1 1 0.012078697751131788 1 1 0.011908219311729551 0.013097333209002689 1 1 0.012375120715669692 1 1 1 0.007456051279246069 0.014265624576249337 0.0079875948929746116 1 1 0.0087217519775929543 1 1 1 1 1 1 1 1 1 1 1 0.015082436679660126 1 1 0.0099734912961275402 1 1 1 0.013242307169631668 1 1 0.01037455748165529 1 0.014877939364400305 1 1 1 1 0.0099770252499741773 1 1 1 1 1 1 1 1 1 1 0.013173059494637014 1 1 0.0094619138634058995 0.01242997184634366 1 0.0097125762696849399 1 1 1 1 1 1 1 1 0.0099236623565623072 0.013520285123016739 1 0.010549587534825539 1 1 1 1 1 0.010023062000998792 0.010555482096324672 1 1 1 1 1 1 0.014266984787504758 1 1 1 0.014738081211120335 1 1 1 1 1 1 0.0089040450575546409 1 0.015050150837135484 0.0095451216419596488 1 1 1 0.009315053055518446 1 1 1 1 1 1 0.0097397991191431697 1 1 1 1 0.0099679715950863647 1 0.010863458914938891 0.010184998573739171 1 1 1 1 1 0.011888708383516033 1 0.012876477734504344 1 1 0.014091170279581171 1 0.01252880372790513 1 1 1 1 1 1 1 1 1 0.01078736733110847 1 0.008611621486443205 1 0.011731681673440304 0.010393363355451529 0.0092075678383886569 1 1 1 1 1 0.0099442414338845146 1 1 0.014895327572955773 0.015656858625964901 1 1 0.010650231902626468 1 1 1 1 1 1 1 1 1 1 1 1 1 1 1 1 1 1 1 1 1 1 1 1 1 1 0.014510914169914223 1 1 1 1 0.015459989860252436 1 1 1 1 1 1 0.01295456109494569 1 1 1 1 1 0.010042843158339984 0.0096494489454245734 1 1 0.0095391647698208938 1 1 1 0.014366535184768109 1 1 0.0099863640943812955 0.0088811435157855334 1 0.012299882588373473 1 1 1 1 1 1 1 0.012445589799303242 0.0098186913109296319 1 0.012734730573991842 1 1 1 1 1 0.010831495154969754 1 1 1 1 1 1 1 1 1 1 1 1 1 1 1 1 1 1 1 1 1 0.009918768223618063 1 1 1 1 1 1 1 1 1 1 1 0.010377389221699935 1 1 1 0.012236060939556967 1 1 0.0095715298659355096 1 0.010093413083278716 1 1 1 1 0.010171184730447173 0.0090223223577180576 1 1 1 1 1 0.010000136873624055 0.010197739849615649 1 1 1 1 0.011929939436742913 1 1 1 1 1 1 1 1 1 1 1 1 1 1 1 1 1 1 1 1 1 1 1 1 1 1 1 1 1 1 1 1 0.01265711322785985 1 1 1 0.0099459054057651503 1 1 0.0096447917081366082 1 1 0.009860123052275219 1 1 1 1 0.010800412010796857 1 1 1 1 1 1 1 1 0.0098802478552397436 0.010728089702353689 1 1 1 1 1 1 0.010346637092649547 1 1 0.010802114568356096 1 1 1 1 0.010353984764312641 1 1 1 0.0096896528553933759 1 1 1 1 1 1 1 1 1 1 1 1 1 1 1 1 1 1 0.01062324257480779 1 1 0.0083467554044315585 1 1 1 1 1 1 1 1 1 1 1 1 1 0.010177817716701364 0.010859819642159098 1 0.009451520386273277 1 1 1 1 1 1 0.010006522333161091 1 0.010286704646514374 1 1 1 1 0.010108365100120822 1 1 1 1 1 1 1 1 1 1 1 0.0096940655320268687 1 1 1 1 1 1 1 1 0.0093837183874202531 1 1 1 1 1 1 1 1 1 1 0.010627529623804725 1 1 1 0.011416681856133122 0.011510598747141731 1 1 1 1 1 1 1 1 1 1 1 1 1 1 1 1 1 1 1 1 1 1 1 1 1 1 1 1 1 1 1 1 1 1 1 1 1 1 1 1 1 0.010037156914649025 1 1 1 1 0.010475940832876897 0.011548264210814804 1 0.011001968822474222 1 0.010168720502203559 1 1 1 1 1 1 1 1 1 0.010518347408612643 1 1 0.010050833238964964 1 1 1 1 1 1 1 1 1 1 1 1 1 1 1 1 1 1 1 1 1 1 1 0.010494855193175438 1 1 1 1 1 1 0.011216301707988782 1 1 1 1 1 1 1 1 1 1 1 0.01207442345977779 1 1 0.013891561965845785 1 1 0.011594306890853018 0.0099819728661087789 1 1 1 0.012302819864304534 1 0.017288147082766967 1 1 0.010961339101667406 0.013085913022354852 1 1 1 1 1 1 0.0099769524673912324 1 1 0.013005472367980917 0.01047347832146331 1 0.012309856653627176 1 1 1 1 1 1 1 1 1 1 1 1 1 0.010603391529463532 1 1 1 1 1 1 1 1 1 1 1 1 1 1 1 1 1 1 1 1 1 1 1 1 1 1 1 1 1 1 1 1 1 1 1 1 1 1 1 1 1 1 1 1 1 1 1 1 1 1 1 1 1 1 1 0.011095585166250603 1 1 1 1 1 1 1 1 1 1 1 1 1 1 1 1 1 1 1 1 1 1 1 1 1 1 1 1 1 1 1 1 1 1 1 1 1 1 1 1 1 1 1 1 1 1 1 1 1 1 1 0.011166147040109072 0.013167368019278144 1 1 1 1 1 1 1 1 1 1 1 1 1 1 0.012883547747896148 1 1 1 1 1 1 1 1 0.01265716163021381 1 1 1 1 1 1 1 0.010374578842382947 1 1 1 1 0.012868559337752624 1 1 0.012699265738516175 1 0.0093460222906797726 1 1 0.010148085529896466 1 1 0.010320240962684631 1 1 1 1 1 1 1 1 1 1 0.01343926723572241 1 1 0.012917612826672522 1 1 1 1 1 0.011625933230200267 1 1 1 1 1 1 1 1 0.012920574370469149 1 0.010029164529485268 1 1 1 0.010019260270516823 1 1 1 1 1 1 1 0.01041848138513931 1 1 1 0.010131268856436929 1 1 1 1 1 1 1 0.012126000651797699 1 1 0.01135877742822798 1 1 1 1 0.010011487449338668 1 1 1 1 0.010402205047988024 1 1 1 1 0.009822495238234143 1 1 1 0.0095051611803972872 1 1 0.01705129786225491 1 1 1 1 1 0.015342469121860771 1 1 1 1 0.014217085794056382 1 1 0.013678195408405024 1 1 0.011750882466603227 1 0.013920787376685137 0.014311359285468192 1 1 1 1 1 0.014067929750288576 1 1 1 1 1 1 0.01124151516283272 1 1 1 0.0099820174144957877 0.011277711699786787 1 1 0.011112870017885686 1 1 0.013359436534824807 1 1 1 1 0.010405824943813421 0.010667729387641477 1 1 0.01027346004743428 1 1 1 1 1 1 1 1 1 1 1 1 1 1 1 1 1 1 1 1 1 1 1 1 1 1 1 1 1 1 1 1 0.013044851469509653 1 0.012283530741740784 1 1 1 0.010820132869345292 1 1 1 1 1 1 1 1 1 1 1 1 1 1 1 1 1 1 1 1 1 1 1 1 0.010197238650354511 1 1 1 1 1 1 1 1 1 1 1 1 1 1 1 0.010131105169401258 1 1 0.009961905758619112 1 0.0099334318131696405 1 0.010300966173249661 1 1 0.010020051557453426 1 1 1 0.0096143380030888174 1 1 0.010022894304579867 1 1 0.010047673591108319 1 1 1 1 1 0.010205409992311135 1 1 1 1 1 1 1 1 1 1 0.010451074559353709 0.011305031729801076 1 1 1 1 1 1 1 1 1 0.010291469973640763 1 1 1 1 1 1 1 1 1 1 1 1 1 1 1 1 1 1 1 1 1 1 1 1 1 1 1 1 1 1 1 1 1 1 1 1 1 1 1 0.010297046479172791 1 1 1 0.013926177856829421 1 1 1 0.010761424776490605 1 0.012997412570262183 1 0.015241316952322042 1 1 1 0.010172929555105587 1 0.010745617603367166 1 1 1 1 1 1 0.01544110293768557 1 1 0.016110074405255397 0.014741819068063471 0.010245432178503735 1 1 0.015071404449007491 1 1 1 1 1 1 1 1 1 1 1 1 1 1 1 1 0.010293339207221973 1 1 1 0.01005812694120967 1 1 0.015847373762178485 0.010203765730138283 1 1 0.017582371898506016 0.0099328956031893966 1 1 1 1 1 0.017200158025101157 1 1 1 1 1 1 0.0099702331074838016 1 1 1 1 1 1 1 1 1 1 1 1 1 1 1 1 1 1 1 1 1 1 1 0.010129634018351217 1 1 1 1 1 1 1 1 0.010309107222165334 1 1 1 1 0.010452726616220345 1 1 1 1 1 1 1 1 1 0.010667522752613429 1 1 1 1 1 1 1 1 1 1 1 1 1 1 1 1 1 1 1 1 1 0.01000924540827006 1 1 0.009832156581380036 1 1 0.010366686633251103 0.01057833932402992 1 1 1 1 0.0098749580963297182 1 1 1 1 1 0.0099015208516179329 1 0.009952765841813753 1 1 1 1 1 1 1 1 1 1 1 1 1 1 1 1 1 0.010257472985662694 1 1 1 1 1 1 1 1 1 1 1 1 1 1 0.01053332244033383 1 1 1 1 1 1 1 1 1 1 1 1 1 0.010275849454671115 1 1 1 1 1 1 0.014266063285387022 1 1 1 1 0.0099691400733968802 1 1 1 1 1 1 1 1 1 1 1 1 0.010987441034503196 1 1 0.0096760286100904536 1 0.01087000367401803 1 0.01127422831242493 1 1 0.012025587730091249 1 1 0.01000045481382987 1 1 0.012040727879037864 1 0.010305991228108465 1 1 1 1 1 1 0.015754403964225686 1 1 0.011216439025368813 0.012223981647387999 1 1 1 0.011010606323616036 0.0094756376739512579 0.013705644617353727 1 1 0.018014088211109929 1 1 1 1 1 1 1 1 0.014123990833079001 1 1 0.012696153864723858 1 1 1 1 1 0.0083543065543970549 1 1 0.011540179486030687 1 0.013136681742273497 1 1 1 1 1 1 1 1 0.010014458913080455 1 1 1 1 0.012049168599184971 0.010761353413592696 1 1 1 1 1 1 1 1 0.019222397954502951 1 1 1 1 1 1 1 0.019596044952294799 1 1 1 1 0.015164178373692107 1 1 1 1 1 1 1 1 1 0.015861511160496923 1 0.010351671521988076 1 1 0.010652322006038049 1 1 0.011154965149504131 1 1 1 1 1 1 0.010811599537503644 1 1 0.010513133207695459 1 1 1 0.010195545482531524 1 1 1 1 1 1 1 1 1 1 1 1 1 1 1 1 0.010936520719939058 1 1 1 1 1 1 1 1 1 1 1 1 1 1 1 1 0.012605579670103286 1 0.013088347015220532 1 1 1 1 1 1 1 1 1 1 1 1 1 1 1 1 1 1 1 1 1 1 1 1 1 1 1 1 0.01098063052727824 1 1 1 1 0.014635565748862257 1 0.015191045918609284 1 0.015322259139037496 1 1 0.015873287175767224 1 1 1 1 0.016489229477710164 0.012619545753149334 0.0098924002778825269 0.009996715989580171 1 1 1 1 1 0.010175048701708364 1 0.024008342179321407 0.01028292994735247 0.010373340011344205 1 1 1 1 1 1 1 1 1 1 1 1 1 1 0.011399772854133149 1 1 1 1 1 1 1 0.021549828369879787 1 1 1 1 1 0.010013667877709706 1 1 0.018441339172156936 0.011180504396356244 1 1 1 1 1 1 1 1 0.0099988928067334497 1 1 1 1 1 0.019640526596099009 1 1 1 1 1 1 1 1 0.0099426552693373371 1 0.0097368066085600884 1 1 0.0099505392205450523 0.0088556482962369506 1 1 1 1 0.015861925792853379 1 1 1 1 1 1 1 0.015155709451599872 1 1 1 1 1 1 0.0099904686341640379 1 1 1 1 1 1 0.009617375368125845 1 0.015046588773795035 1 0.0091960247254719938 0.015549325854056016 1 1 0.0099296719097002936 0.0099760276845887296 1 1 1 1 1 1 1 1 1 1 0.015974755511902493 1 1 0.017697999755345223 1 1 1 0.013375480937834298 1 1 1 1 0.023091191510622354 0.0099117308469404107 1 0.011125837397546377 1 1 1 1 1 1 1 1 1 1 1 1 1 1 1 1 1 1 1 1 1 1 1 1 1 1 1 1 1 1 1 1 1 1 1 1 1 1 1 1 1 1 1 1 1 1 1 1 1 1 1 1 1 1 1 1 1 1 1 1 1 1 1 1 1 1 1 1 1 1 1 1 1 1 1 1 1 0.009941745302927971 1 1 1 1 1 1 1 1 1 0.01023966234836219 1 1 1 0.010013696710405183 1 1 0.010002524251995453 0.010009846787257963 1 1 1 0.0099882520709266703 1 1 0.013504061958039056 0.0099680505020072387 1 1 1 1 1 1 0.015645083991477876 1 1 0.010401869649870547 1 0.01012968528919818 1 1 1 0.010014531824044329 1 1 1 1 1 1 1 1 1 1 1 1 1 0.0099931814204988721 1 0.010208425707581459 1 1 0.012624085056099549 1 0.010028282901984851 1 1 1 1 1 1 1 1 0.010071618121216035 1 1 1 1 1 1 1 1 1 1 1 1 0.0099973157162773895 1 0.0099210107071929614 1 1 1 1 1 1 1 1 0.010190406043818094 1 1 1 0.010150044648954963 1 0.012747185161427026 1 0.013162454720326691 1 1 1 1 1 1 1 0.0092427855446449419 0.0097127691341493145 1 1 1 1 1 1 1 1 1 1 1 1 1 1 1 1 1 1 1 1 1 1 1 1 1 1 1 1 1 1 1 0.017911146062674681 1 1 1 1 1 0.0067680396713723258 1 0.010021679434471235 1 0.010759861834370374 1 1 0.016514956155564781 1 0.0099443571301693519 1 1 1 1 1 1 1 1 1 1 1 1 0.010186879883366079 1 1 1 1 1 1 1 1 1 1 1 1 1 1 0.010240209184284262 1 1 1 1 1 1 1 1 1 0.01763685619994898 1 1 1 1 0.0099145384204035771 0.010694248919411977 1 1 0.016086580230398453 1 1 1 1 1 1 0.016348199399514374 1 1 1 1 1 1 1 1 1 1 1 1 1 1 1 1 1 1 1 1 1 1 1 1 1 0.010013015938144867 1 0.013673123681972042 1 0.010008306832326537 1 1 0.010636632869174795 1 1 1 1 1 1 1 1 1 1 1 1 1 1 1 1 0.011709151736179774 1 1 1 1 0.011484018830806585 1 1 1 0.013267890615465766 1 1 0.010254343324613713 1 1 1 1 1 0.013894844853040191 1 1 0.011596683936329477 1 1 1 0.012045543336828628 0.0097522438683368077 1 1 1 1 0.011854281981040771 0.0094658442421139636 1 1 1 0.01069807380141469 1 1 1 0.013075075236407748 1 1 1 0.013251124428061999 1 0.0099993169611033994 1 0.0097163116843718283 1 1 1 1 1 1 0.012691487157935277 1 1 0.011679642165403077 0.010070389419614568 1 0.010311164872894867 1 1 1 1 1 0.015361198186581109 1 1 1 1 1 1 0.015898618521026177 0.016862519062594991 1 1 1 1 0.010684504884239075 1 1 1 1 1 1 1 1 1 1 1 1 1 1 1 1 1 0.01322424113324072 1 1 1 1 0.014597973350919363 1 1 1 0.015633466363290077 0.016027235351440815 1 1 1 1 0.012471027390355679 1 0.0085960287649736507 1 1 1 0.010047082944455389 1 0.013538409968110746 1 1 0.011149805091503056 1 1 1 1 1 1 0.014275274123029194 1 0.014520623747041952 1 1 1 0.011628459871720325 1 1 1 1 1 0.013072395697315411 1 1 1 1 1 1 1 0.0099984300956616964 1 1 1 1 0.010070176619192696 1 1 1 0.010207918548593362 1 1 1 1 1 1 1 1 0.013012412929558121 1 1 1 0.012899439329824729 1 1 1 1 1 0.017121845386299572 1 1 1 1 1 1 1 1 1 1 0.015854472610755885 1 1 1 0.018131359477855505 1 1 1 1 1 1 0.010642092920259217 1 1 0.01650882486045057 1 1 0.019117115877696416 1 0.0099991771865404356 0.010784378385316876 1 1 0.012365721062734087 0.0086556909615308365 1 0.011973490533704587 1 1 0.010064035723014633 1 1 0.013962323035929147 1 0.010297448117574678 1 0.010000421349652745 1 0.0092242280452050195 1 0.011740112863409433 1 0.014693466620421862 1 1 0.0099956383291819745 1 0.01047082413940219 1 1 1 1 0.010662732178920196 1 1 1 1 1 1 1 1 1 0.011183923348743421 1 1 1 1 1 1 1 1 1 1 1 1 1 1 1 1 1 1 1 1 1 1 1 1 1 1 1 1 0.010122812402227907 0.010917354118897892 1 1 1 1 1 1 1 1 1 1 1 0.010967611658905238 1 1 0.011882768151854061 1 1 1 0.011315727882561601 1 1 1 1 1 1 1 1 1 1 1 1 1 1 1 1 1 1 1 0.012701877326614841 1 1 1 1 1 1 1 1 1 0.010708234059562952 1 1 1 0.012213832266610991 1 0.010827682822557739 1 1 1 1 1 1 1 1 0.010294830827108394 0.01008002727787123 1 1 1 1 1 0.010371230258133564 1 1 1 1 1 1 1 1 0.010990055810963101 1 1 1 1 0.010639113974865151 1 1 0.010000227667913562 0.011188691851892698 1 0.010149983301888167 1 1 1 1 1 1 1 0.012668000301899966 1 1 0.012242980034558894 1 1 0.014605998354072483 0.010894544113182147 1 1 1 1 1 1 1 1 1 1 1 1 1 1 1 1 1 1 1 1 1 1 1 1 1 1 1 1 1 1 1 1 1 0.0094904106646653864 1 1 1 1 1 1 1 1 1 1 1 1 1 0.01674453300926948 0.010019511512071304 1 1 1 1 1 1 0.010266370847788059 1 1 1 1 1 0.008368400703347198 1 1 1 0.017314361018850012 1 1 0.014867704040770636 1 0.0098724326298293679 0.0092287837476916577 1 1 1 1 0.0099395542551660322 1 1 1 1 1 1 1 1 1 1 1 1 1 1 1 1 1 1 1 1 1 1 1 1 1 1 1 0.012042565192216805 1 1 1 1 0.01216246750415468 1 0.012561821131045489 1 1 0.011019610487144503 1 1 1 1 0.019884940893008893 1 0.010021382670095481 1 1 1 1 1 1 1 1 0.015609434767770075 0.015844787217889386 1 1 1 0.0098884200212688827 1 1 1 1 1 1 1 1 1 1 1 1 1 1 1 1 0.010451109335642087 1 1 1 1 1 1 1 1 1 0.010002233429761625 1 1 1 1 1 1 1 1 1 1 1 1 1 1 1 1 1 1 1 0.010013957789262357 0.0097475536141715148 1 1 1 0.014917806583239933 0.011411811537693795 0.00948847774132895 1 1 1 0.015988946404574621 1 1 1 1 0.015869838102796234 1 1 1 1 1 1 1 1 0.012127987804541907 1 1 1 1 1 0.01173849554077923 1 1 1 1 1 1 1 1 1 1 1 1 1 1 1 1 1 1 1 1 0.010213930784949594 1 1 1 0.013189272238414701 0.0099532289919824386 1 1 1 1 1 1 1 1 1 1 1 1 1 1 1 1 1 1 1 1 1 1 0.0099597549720051495 1 1 1 1 1 1 1 1 0.012140224166820838 0.010810805709692881 1 1 1 1 1 1 1 1 1 1 1 1 1 1 1 1 1 1 1 1 1 1 1 1 1 1 1 1 1 1 1 1 1 1 1 1 1 1 1 0.012813869200885404 1 1 1 1 0.01104379322130211 1 1 1 1 1 1 1 1 1 1 1 1 1 1 1 1 1 1 1 0.010720447305096224 1 1 1 1 0.0097035760929462152 1 1 1 1 0.010577973585429647 1 1 1 1 1 1 1 1 1 0.011401503158177249 1 1 0.0089287728719033566 1 1 1 1 0.0078175297804884587 1 1 1 0.010210314546529851 1 1 1 1 1 1 1 1 1 1 1 1 1 0.010072780290949386 1 1 1 0.011569147176114769 1 1 1 1 1 1 1 1 1 1 0.010654115774911451 1 1 1 1 1 1 1 1 1 1 1 1 1 1 1 1 1 1 1 1 1 1 1 1 1 0.010436166384076989 1 1 1 1 1 1 0.0099414573490054746 1 1 0.014975441307705912 1 1 1 1 0.011369556010094095 1 1 1 1 1 1 1 1 1 1 0.012289945038237344 1 0.0093312834406941523 0.012919952061281957 0.017063844734803685 1 1 1 1 0.018850605445997606 1 1 1 1 1 1 1 1 1 1 1 1 1 0.010191350666323876 1 0.011507087991464849 1 0.010933509730585593 1 1 1 1 0.0097421922602482502 1 0.011153240211350442 0.009995630370360227 1 1 1 1 1 1 1 0.0088891319136997615 1 1 0.0094991975774542659 1 0.011484811623625383 1 1 0.0099864341039362335 1 1 0.0099993042360833062 1 1 0.010792700865185946 1 0.010377875892731614 1 1 0.0093185143260231459 1 0.01280602249057991 0.010219418924505081 1 1 0.011827724170215591 1 0.010284726519497831 1 1 0.010967471026959514 1 1 1 1 1 1 1 1 1 0.010422133061050267 1 1 1 0.010004251365156284 1 1 1 1 1 1 1 1 1 1 1 0.0099880389097285194 1 1 1 1 1 1 0.0098784653705980465 1 0.010143460251664271 1 1 1 0.012099634205387561 1 1 0.012339766227557634 0.010253924447943 1 0.010173948845156874 1 1 1 1 0.010137599351016021 1 1 0.0094716983804936754 1 1 0.010267899573542322 1 0.0094873634211777771 1 1 0.010111520855484897 1 1 0.012500253166467828 0.0096177181056480189 1 1 1 1 0.012497233091560849 1 1 0.0098773021500852248 1 1 1 1 1 0.0099163527101184326 0.010115065224413283 0.0073354090017415299 1 0.010508033193391327 1 1 0.010213002136598325 1 1 1 1 1 1 1 1 0.0097935454638733224 1 1 1 1 1 1 1 0.0099971095233434733 1 1 0.0094475336396621507 1 1 1 0.012327442576798065 1 1 1 1 0.010891166658341125 1 1 0.0099181150897821521 1 0.012111242663530589 1 1 1 1 1 1 1 1 1 1 1 0.0097123964772702874 1 1 1 1 1 1 1 1 1 1 0.01073857584806776 1 1 1 0.011793796754641572 1 1 1 1 1 1 1 1 1 1 1 0.010342652974495313 1 1 0.010086006085065798 1 1 1 0.0098598637060456455 1 1 0.011378801893524271 1 1 1 0.010498791060489265 1 1 1 1 1 1 1 1 1 1 1 1 1 1 1 1 1 1 1 1 1 1 1 1 1 1 1 1 1 1 1 1 1 0.010435239060912795 1 1 1 1 1 1 1 1 1 1 1 1 1 1 1 1 1 1 0.010195305850857468 1 1 1 1 1 0.010902630096300445 1 1 1 1 1 1 1 1 1 1 1 1 1 1 1 1 1 1 1 1 1 1 1 1 1 0.019342601293805731 1 0.0098837997886685475 1 0.021682246103964919 1 1 0.0085653259969658488 1 1 1 1 1 1 0.021377288996405674 1 1 1 1 1 0.020129836315920441 1 1 1 1 0.0097344086906255671 1 1 1 1 1 1 1 1 1 1 1 1 1 1 1 1 1 1 1 1 1 1 1 1 0.011196256480728998 1 1 1 1 1 1 1 1 1 1 1 1 1 1 1 1 1 1 1 1 1 1 1 1 1 0.01447230833716261 1 1 0.015321433270010561 1 1 1 1 1 1 1 1 0.013492200806614814 1 1 0.019956494391140542 1 1 1 1 1 0.016632030891174363 1 1 1 1 1 1 1 1 1 1 1 0.013164435420139328 1 1 1 1 1 1 0.010164317900375867 1 1 1 1 1 0.0099894039617412049 1 0.010780543623862051 1 1 1 1 1 1 1 1 1 1 1 1 1 1 1 0.013009515927508406 1 0.011056307297344619 1 1 0.012960110847223096 1 1 0.0098196351605266165 0.011096767745067074 1 1 1 1 1 1 0.010516025059813557 1 1 1 0.010517410820480386 1 1 1 0.010772960012438038 0.0099835347960630441 1 1 1 0.011974943565752469 1 0.010730724987999707 1 0.010668004511009755 1 1 1 0.01008023667403664 1 1 1 1 1 1 1 1 1 1 1 1 1 1 1 1 1 1 1 1 0.0098650460834302199 1 1 1 1 0.0099798191837814909 1 1 1 1 1 1 1 1 1 1 1 1 1 1 1 1 1 1 1 1 1 1 1 1 1 1 1 1 0.01395517403449743 1 1 1 1 1 1 0.014628867701436267 1 1 1 1 1 1 0.0099801519089457343 1 1 0.012742256492069949 1 0.012173726101720054 1 1 1 1 0.010153060219952817 1 1 1 1 1 1 1 1 1 1 1 1 1 1 1 1 1 0.0082933999088262243 1 1 1 0.013012186979628785 1 1 0.011818175658331707 1 0.0099966191338372781 0.010425308699395511 1 1 1 1 0.01130251811879484 1 0.010430465148331602 1 1 0.01246970121105276 1 1 1 1 1 0.010408057516257696 1 1 1 0.012192367321364859 1 0.010092936702075785 1 0.011739888721929775 0.0096709634202190951 1 1 1 1 1 1 0.011430785587745041 0.010081355085295552 1 1 1 0.010007010743024125 1 1 1 1 0.010163357460470885 1 1 1 1 1 1 0.010911921135703573 1 1 1 1 1 1 1 1 1 1 1 1 0.0098380287832383409 1 1 1 1 1 1 1 1 1 1 1 1 1 1 1 1 1 1 1 1 1 0.010037286746001038 0.0092629164893151088 1 1 1 1 0.0095685109686788859 1 1 0.008164897595886067 1 0.0099974942895495831 1 1 1 1 1 1 1 1 0.0069908357381900073 1 1 1 1 1 1 1 1 1 0.010668424045243607 1 1 1 1 1 0.011090723014365023 1 1 1 1 1 1 1 1 1 1 1 1 0.010423393186355937 1 1 1 1 1 1 1 1 0.0098385035823220345 1 1 1 1 1 1 1 1 1 1 1 1 1 1 1 1 1 1 1 1 1 1 1 1 1 1 1 1 1 1 1 1 1 1 1 1 0.0093848220267689578 1 1 1 0.0098743532559807581 1 0.0099720256138308566 1 1 0.010018924113300173 1 0.015220286243771764 1 1 0.0099293608270387447 1 1 0.011913358377652165 1 1 0.01056138592825887 1 0.012753996298764388 1 1 1 0.01196369563633742 1 0.010055760468672393 1 1 1 1 1 1 1 1 1 0.012966193573630446 1 1 1 0.010393210668937537 1 1 1 1 1 1 1 1 1 1 1 1 1 0.010571476541544573 0.0092974070017277522 0.01789062720016181 1 0.01736163101370293 1 1 1 1 1 1 1 1 1 1 1 1 1 0.010005520705723574 0.0099270829383094894 1 1 0.0078235221383707136 1 1 1 1 1 1 1 1 1 1 1 1 1 0.010164098515219506 1 1 1 1 1 1 1 1 1 1 1 0.0097351456798972086 1 1 1 1 1 1 1 1 1 1 0.010343270542171478 1 1 1 1 1 1 1 0.010299866759642909 1 1 1 0.010120694732690939 1 1 1 1 0.0099991465956906622 1 1 1 1 1 1 1 1 1 1 1 1 1 1 1 1 0.015764881728857889 1 1 1 0.015806673619488537 1 1 0.017296978863377794 1 0.013002987509937969 1 1 1 1 1 1 1 1 1 1 1 1 1 1 1 1 1 1 1 1 1 1 1 0.013412144361309834 0.0099990240773623479 1 0.014095976054793341 1 0.0083361056936203347 1 1 1 1 0.01138930484024289 1 1 1 1 1 1 1 1 1 1 1 0.024429722178807831 1 0.0099549812379973596 1 1 0.0096051115617683605 1 0.010045911430317031 1 1 1 1 1 1 1 0.016686099147363381 1 1 1 1 1 1 0.01720745962571562 1 1 1 1 1 0.017370424479115923 1 1 1 1 1 1 1 1 1 1 1 1 1 0.015630085751013968 1 1 1 0.0084815440889105653 1 1 1 1 0.0088789125644326977 1 1 1 1 1 1 1 1 1 1 1 1 1 1 1 1 1 0.019004846188946573 0.017436840489303058 1 1 1 1 1 1 1 1 1 1 1 1 1 1 1 1 1 1 1 1 1 1 1 1 1 1 0.010090640664136665 1 0.01290047016622632 0.010248558605522986 1 1 1 1 1 0.011180998107138393 0.0099986241127780397 1 1 0.0099990994403140084 1 1 1 1 1 1 1 1 1 1 0.0085811740313306017 0.017624998586406277 1 1 1 1 1 1 1 0.014650437655056848 1 1 1 1 1 0.015549384849404648 1 1 1 1 1 0.011583351394958511 1 1 1 1 1 1 1 1 0.010335673940764536 1 1 1 1 1 1 1 1 1 1 1 1 1 1 1 1 1 1 0.010911060938316971 1 1 1 1 1 1 1 0.0079386027789070147 1 1 1 1 0.0086029576650690984 1 1 1 1 1 1 1 1 1 1 1 1 1 1 0.0091474283778938299 1 1 1 1 1 1 1 1 1 0.0099930325688340916 1 0.010325739068426263 1 1 1 1 1 1 1 1 1 1 0.0076425909345000931 1 1 1 1 1 1 1 1 1 1 1 0.010293561942494103 1 1 1 1 1 0.010370404833271826 1 0.0096625260086230375 1 0.0083680183434299907 1 1 0.013978361435439957 0.0097266892369305361 1 0.0098218922487136179 1 0.013427418877185755 1 0.0060898030624542123 1 1 1 1 1 1 1 1 1 1 0.01234507837031986 1 1 1 1 1 0.0095466553484853962 1 1 1 1 1 0.010447197358587958 1 1 1 1 1 1 1 1 0.012881056533193085 1 1 1 1 1 0.012579303431194462 1 1 1 1 1 1 1 1 1 1 1 1 1 1 1 1 1 0.0082727142175424446 0.0098350130254080126 1 1 1 1 1 0.0083970941317410321 1 1 1 1 1 1 1 1 0.008782044980566223 1 1 1 1 1 1 1 1 1 1 1 1 1 0.010389091242466016 0.0095855062816837706 1 1 1 1 1 1 1 1 1 1 1 1 0.011029400558981285 1 1 1 1 1 1 1 1 1 1 1 1 0.012127053872560203 1 1 1 0.011097653313578915 1 1 1 0.01638377187701915 0.011261422693055398 1 1 1 1 1 1 0.011913772524331068 1 1 1 1 1 1 0.015868623383856275 1 1 1 1 1 1 1 1 1 1 1 1 1 0.0099016205740093868 0.010299134235183619 1 0.012084402580836677 1 0.015275499689987667 1 1 1 1 1 1 1 1 1 1 1 1 1 1 1 1 1 1 1 1 1 1 0.010244037661227001 1 1 1 1 1 1 1 1 1 1 1 1 1 1 0.010798722993419741 0.013613942205608799 1 1 1 1 1 1 1 1 1 1 1 1 1 1 1 1 1 0.011021444607098575 1 1 0.010412774864795582 1 1 1 1 0.010916941555644549 1 1 1 0.010358847328668097 1 1 1 1 1 1 1 1 1 1 1 1 1 0.010936357257413492 1 1 1 1 1 1 1 1 1 0.010471626186103171 1 1 1 0.0093146770843587842 1 1 1 1 0.010010813761349203 0.013546102443417536 1 1 1 0.01086821573531466 1 1 1 1 1 1 1 1 1 0.012335923598235182 1 1 1 0.01496055332159547 1 0.0095060851877525644 1 1 1 1 1 1 1 1 1 1 1 1 1 1 1 1 0.010793191205812597 1 1 1 1 1 0.010378263030437051 1 1 1 1 1 1 1 1 1 1 0.0078860267331468774 1 1 0.0099838713428318585 1 1 0.017057605223995194 1 1 1 1 1 1 1 1 1 1 0.011887703352784816 1 1 1 0.010647532363975375 1 0.010538374870038877 1 1 1 0.0079750898789683836 1 0.0099942274840129838 1 0.015668440222505603 1 1 1 1 1 0.0085554145900293161 0.0091923664474318333 1 1 1 1 1 1 1 1 1 1 1 1 0.010028513059018519 1 1 1 1 1 1 0.012752615723721173 1 1 1 1 1 1 1 1 1 1 1 1 1 1 0.011196461480436973 1 1 0.0099949829431758268 1 1 1 1 1 1 1 1 1 1 1 1 1 1 1 1 1 1 1 1 1 1 1 1 1 0.0093742651200506809 1 1 1 1 0.015032228350511892 1 1 1 0.014219604412159595 0.01183077581580648 1 1 1 1 1 1 1 1 1 1 1 1 1 1 1 1 1 1 1 1 1 1 1 1 1 1 1 1 1 1 1 1 1 0.014014691745148557 1 1 1 0.011681257293773005 1 1 0.010023457281261649 1 1 1 1 1 0.010139691050237792 1 1 1 1 1 0.010160983727413218 1 1 1 1 1 1 1 0.011513228345862938 1 1 1 1 1 1 1 0.01015922633200385 1 1 0.0099324221340895934 1 1 1 0.016469157871890357 1 0.0090458509328429984 1 1 1 1 1 1 1 1 0.013019478578572484 1 1 0.012814374571818716 1 1 1 1 1 0.01219930171110449 1 1 1 1 1 1 1 1 1 1 1 1 0.013097779796111849 1 0.0097179798782492215 1 1 1 1 1 1 0.010386264965986287 1 1 1 1 1 1 1 1 0.010790612637606077 1 1 0.01078937797455155 1 1 1 1 0.010060657777624299 1 1 1 1 1 1 1 1 1 1 0.011234704219773718 1 0.010776515203944514 1 1 1 1 1 1 1 1 1 0.0093391107864552823 1 1 1 1 0.010059181063934971 1 1 1 1 1 1 1 1 1 1 1 1 1 1 1 1 1 0.010934040114435741 1 1 1 1 1 1 1 1 1 1 1 1 0.0096509882440878273 1 1 1 1 1 1 1 1 1 1 1 1 1 1 1 0.010310397025282293 1 1 1 1 1 1 1 1 1 1 1 1 1 1 1 1 1 1 1 1 1 1 1 1 0.010489711527563037 1 1 1 1 1 1 1 1 1 1 1 1 1 0.0087906335514555799 1 1 1 1 1 1 0.011451091569280937 1 1 1 1 1 1 1 1 0.010547630704557828 1 1 0.010796685852201627 1 1 1 1 1 1 0.010249055147643805 1 1 1 1 1 1 1 1 1 1 1 1 0.010442993747466715 1 1 1 1 1 0.010270171411988518 1 1 1 1 1 1 0.010893814501141963 1 1 1 1 0.010906424259383886 1 1 1 1 1 1 1 1 0.011975707810857758 1 1 1 0.010259047325955804 0.0089146457913897824 1 1 1 1 1 1 1 1 1 1 1 1 1 1 1 1 1 1 1 1 1 1 1 1 1 1 1 1 1 1 1 1 1 1 1 1 1 1 1 1 1 1 1 1 0.0116652103703664 1 1 1 1 0.010203101916413189 1 1 1 1 1 1 0.014068601267122432 1 1 1 1 1 1 1 1 1 1 1 1 0.011997100543625239 1 1 1 0.015359807377126618 1 1 0.016254968024558863 0.010065683348158621 1 1 1 1 1 1 1 1 1 0.0095445441688177673 1 1 0.012739983666717927 0.0099777242658330503 1 1 0.01510932312827401 1 0.0095771802747330048 1 0.016403869566138027 1 1 1 1 0.01015833500372609 1 0.0084113858570013019 1 1 1 1 1 1 1 1 1 1 1 1 1 1 1 1 1 1 1 1 1 1 1 1 1 1 1 1 0.010165788181011218 1 1 1 1 0.010004570765969797 1 1 1 1 1 1 0.0089428529888378062 0.011938580226822489 1 1 1 1 1 1 1 1 1 1 1 1 1 1 1 1 1 1 1 1 1 1 1 1 1 1 1 1 1 1 0.0089957268257664889 1 1 0.01124789281743032 1 1 1 0.0099798758983366282 0.011301227057617925 1 1 1 1 0.0087080983411307079 1 1 1 0.011327502144035047 1 1 1 1 0.010350396248727804 1 0.0088921247718289215 0.0096824610010419077 0.012245525794579229 0.011144489564140303 1 1 1 1 1 1 1 1 0.014540609577444146 1 1 0.012160842848524773 1 1 1 0.0092104826821373768 0.016589869687020947 1 1 1 1 1 0.010444405402076485 0.010000256503377779 0.011428940414550197 1 1 1 1 0.0079033354615502625 1 0.0077083950283722193 1 1 1 1 1 1 1 1 1 1 1 1 0.013074257017966332 1 1 1 1 1 1 1 0.01519855094414703 1 1 1 1 1 1 1 1 1 1 1 1 1 1 1 0.016875849277209795 1 1 1 1 1 1 1 1 1 1 1 1 1 1 0.013160046451353121 1 1 1 0.013514202097057107 1 1 1 1 0.013877292120647353 1 1 1 0.01240844361910784 1 1 1 0.010384259515124492 1 1 1 1 1 0.011636775918895746 0.013183810322720204 1 0.010000238892170563 1 0.01016714386593133 1 1 1 1 1 1 1 1 1 1 1 1 1 0.012424214052292149 0.0099729736370168173 1 1 1 1 1 1 1 1 0.010490803050429265 1 1 1 1 1 1 0.010906611123853154 0.010614438856968639 0.0099343793033396313 1 1 0.011725678164157503 1 1 1 1 0.01147813046061396 1 1 1 0.0087028748764670909 1 0.0097416632086818333 1 1 1 1 1 1 1 1 1 1 1 1 1 1 1 1 1 1 1 1 1 1 1 1 1 1 1 0.0095849402017489614 1 1 1 1 1 1 1 0.0080731509617883133 1 1 1 1 1 1 1 1 0.010116796506345097 1 0.010326343158188181 0.0094163354343386029 1 1 1 1 0.011332083228810078 1 1 0.0096399726411380716 1 1 1 1 1 1 1 1 1 1 0.0098758843986566178 1 1 1 1 1 1 1 1 1 1 0.010962492584994318 1 1 1 0.010324362363167826 1 1 1 1 1 1 1 0.013277566015673384 0.012350238759786261 1 1 1 0.010023989943654008 1 1 0.013679023724111752 0.013278433481872277 1 0.0085406912584738166 1 1 1 1 1 0.012938511856432685 1 1 0.011280038611311376 1 1 1 1 1 1 0.016858434173991167 0.016476892802401603 1 1 1 1 1 1 1 0.016076478315513225 1 1 1 0.01035418353606104 1 1 1 1 1 1 1 1 1 1 1 1 1 1 1 1 1 1 1 1 1 1 1 0.011904418212564291 1 1 1 0.011351913220679861 1 1 1 1 1 1 1 0.010485859252167308 1 1 1 1 1 1 1 0.010107701480799512 1 1 1 1 1 1 1 1 0.011901596515151679 1 1 1 1 1 0.01406857840965527 1 1 1 0.010355082726330601 1 1 1 1 1 0.01016824002299568 1 1 1 1 1 1 1 1 1 1 1 1 1 1 1 1 1 1 1 1 1 1 1 1 1 1 1 1 1 1 1 1 1 1 1 1 1 1 1 1 1 1 0.010856592594652083 1 0.016723485442650877 1 1 1 1 1 0.01699649762008644 1 1 1 0.010284468826474116 1 1 1 1 1 1 0.017247693212046812 1 1 1 1 1 1 1 1 0.017310641563714674 1 1 1 0.017181268027190135 1 1 1 1 1 1 1 1 1 1 1 1 1 0.01074993829804888 1 0.011147231308946862 1 1 1 1 1 1 1 1 1 1 1 1 1 0.012243591756961117 1 1 1 1 1 1 1 1 1 1 1 1 1 1 1 0.012061136824229646 1 1 1 1 1 0.010340928227972683 1 1 1 1 1 0.0082412397983687193 1 1 0.013425026458904879 1 1 1 1 1 1 1 1 1 1 1 1 0.013177479156683743 1 1 1 0.0099930114325229476 1 1 0.010784693733975337 1 1 1 1 1 1 0.0084656492622029091 1 1 1 1 1 0.015050242190093158 1 0.014015242211484841 1 1 1 0.010877292134123454 1 1 0.010969824221454531 1 1 1 1 1 1 0.010303947839889378 1 1 0.016670474161864478 1 1 1 1 1 1 0.012488788706056315 1 0.015680741300031338 1 1 1 0.01182441388154223 1 1 0.011130229329207948 1 1 1 1 1 1 1 1 1 1 1 1 1 1 0.010055095386130058 1 1 1 1 1 1 1 1 0.010063891476468146 1 1 1 1 1 0.012073086010149042 0.010253163084785754 1 1 1 1 1 1 0.010129329536005349 1 1 1 1 1 1 1 1 1 1 1 1 1 0.010040197613000039 1 1 1 1 1 1 1 0.012474319929150008 0.0096530652896094603 1 1 0.0099936412793759071 1 1 1 1 1 1 1 1 1 1 1 0.0099184492339866228 1 1 0.012276683266155204 1 1 1 0.0099743264764250144 1 0.010387266517952911 1 1 1 1 1 1 1 1 1 1 1 1 1 1 1 1 0.01166345985756401 1 1 1 1 1 1 1 0.01098749680085967 1 1 0.011301401405311997 1 1 1 0.012403012282467167 1 1 1 1 1 1 1 1 1 1 0.010812513929846702 1 1 1 1 1 0.010270213467499926 1 1 0.015499149833296384 1 1 1 1 1 1 1 1 1 1 1 1 0.013900229380215443 1 1 0.013012303330880616 1 1 1 1 1 0.020522956952122785 1 1 1 1 1 1 1 0.01117918128634454 1 1 1 0.0097627957620118541 0.0196196079478183 1 1 1 1 1 1 0.0090090024712482491 1 1 1 1 1 1 1 1 1 1 0.010726083316541877 1 1 1 0.0128430458283391 0.013359325300189295 1 1 1 1 1 1 1 1 1 1 1 1 1 1 0.0099892254910460415 0.014249905057541486 1 1 1 1 0.013863697678296559 1 1 1 1 1 1 0.013614982284758395 0.018130191042577432 1 0.017142658666681864 1 1 1 0.017525167070455233 1 1 1 1 1 0.0093419673719801755 1 0.01993546209767429 1 1 1 1 1 1 0.0098012709060052456 1 1 1 1 0.0095067220341214127 1 1 1 0.0098401567169970824 1 1 1 1 1 1 1 1 1 1 1 1 1 1 1 1 0.011348346352450038 1 1 0.011896181550010402 1 1 1 1 1 1 1 1 1 1 1 1 1 0.010525198439006154 1 1 1 1 0.010410764569244189 1 1 1 1 0.0099352217097168835 1 1 1 1 1 1 1 0.010119820908347271 1 1 0.010172807084453082 1 1 1 1 1 1 1 1 1 1 1 0.010294615337552571 1 1 1 0.010064145668797141 1 1 1 1 1 0.009675051734559157 1 1 0.011017446980716586 0.020050479296332257 1 1 0.021880183744549642 1 1 1 1 1 0.011039061922768689 1 1 1 0.019163453224088745 0.0084570019872452478 1 1 0.014155972262065643 1 0.015158267430988413 1 1 0.0099739174204424089 1 1 0.019633483355239564 1 1 1 1 0.010151224354293354 1 1 1 0.020161021316445298 1 0.010401493832332916 1 1 1 1 1 1 1 1 1 1 0.020976636727704202 1 1 0.0099974838138520393 1 1 0.0095309264199881505 1 1 1 1 0.017675653233634805 1 1 0.017930985946949633 1 1 0.0099976531363371729 1 1 1 0.017334490561679843 1 1 1 1 0.009887791917142303 1 1 1 1 1 1 1 0.0099673689956932387 1 1 1 1 1 1 1 1 0.012179447441890879 1 1 1 1 1 1 1 0.010666963152987702 1 1 1 1 1 1 1 1 1 1 1 1 1 1 1 1 1 1 1 1 1 1 0.010729883481872697 1 1 1 1 1 1 1 1 1 1 1 1 0.0119039627309197 1 1 1 1 1 1 0.0096548531774700713 1 1 0.010482056260307288 1 0.0096778332686184854 1 1 1 1 1 1 1 1 1 1 1 1 1 1 0.0090238346274315109 1 1 1 1 0.0082268845364915459 1 1 1 0.01260533938584096 1 1 1 1 1 0.0072630394382109231 1 1 1 1 0.0095473345523320336 1 1 1 0.011059587528512788 1 1 1 1 1 1 1 1 1 1 1 1 1 1 1 1 1 1 0.015225715176828891 1 1 0.016508010846898423 1 1 1 1 1 1 1 1 1 1 1 1 1 0.012103830706658268 1 1 0.0095983671571227419 1 1 1 1 1 1 1 1 1 1 0.0086513127906070256 1 1 0.0073680815631450309 1 1 0.0072918517881780092 1 1 1 1 1 1 1 1 1 1 1 1 1 1 1 1 1 1 1 1 1 0.010090380079314634 1 1 1 1 1 1 1 1 1 1 1 1 1 1 1 1 1 1 1 1 1 1 1 1 1 1 1 1 1 1 1 1 1 1 1 1 1 1 1 1 1 1 1 1 0.010089808460013425 1 1 0.010164568962382818 1 1 1 1 1 1 1 1 1 1 1 1 1 1 1 1 1 1 
</DataArray>
</CellData>
</Piece>
</UnstructuredGrid>
</VTKFile>
